<?xml version="1.0"?>
<VTKFile type="UnstructuredGrid" version="0.1" byte_order="LittleEndian">
  <UnstructuredGrid>
    <Piece NumberOfPoints="3549" NumberOfCells="7431">
      <PointData>
        <DataArray type="Float64" Name="temperature" NumberOfComponents="1" format="ascii">
  5.0829322E+002  5.0824821E+002  5.0814482E+002  5.0841456E+002  4.4750553E+002  4.4746763E+002  4.4978647E+002  5.0500000E+002  5.0877168E+002  5.0679522E+002  5.0680316E+002  2.9315000E+002  2.9315000E+002  2.9315000E+002  2.9315000E+002  5.0840128E+002  5.0845844E+002  5.0413884E+002  5.0869470E+002  5.0816351E+002  5.0817965E+002  5.0819459E+002  5.0820847E+002  5.0822126E+002  5.0823301E+002  5.0824340E+002  5.0825253E+002  5.0825995E+002  5.0826541E+002  5.0826856E+002  5.0826896E+002  5.0826730E+002  5.0826422E+002  5.0826005E+002  5.0825483E+002  5.0840327E+002  5.0838016E+002  5.0835463E+002  5.0832844E+002  5.0830247E+002  5.0827711E+002  5.0825261E+002  5.0822913E+002  5.0820675E+002  5.0818554E+002  5.0816532E+002  4.4755813E+002  4.4767494E+002  4.4780801E+002  4.4794724E+002  4.4809044E+002  4.4823526E+002  4.4838176E+002  4.4852686E+002  4.4867181E+002  4.4881595E+002  4.4895942E+002  4.4910216E+002  4.4924366E+002  4.4938426E+002  4.4952345E+002  4.4965946E+002  5.0418809E+002  5.0355874E+002  5.0294531E+002  5.0229875E+002  5.0159059E+002  5.0078997E+002  4.9985952E+002  4.9875561E+002  4.9759962E+002  4.9645945E+002  4.9533381E+002  4.9422305E+002  4.9312680E+002  4.9204471E+002  4.9097698E+002  4.8992351E+002  4.8888392E+002  4.8785869E+002  4.8684760E+002  4.8585036E+002  4.8486709E+002  4.8389769E+002  4.8294223E+002  4.8200055E+002  4.8107284E+002  4.8015870E+002  4.7925833E+002  4.7837157E+002  4.7749851E+002  4.7663907E+002  4.7579333E+002  4.7496097E+002  4.7414216E+002  4.7333671E+002  4.7254477E+002  4.7176622E+002  4.7100122E+002  4.7024938E+002  4.6951092E+002  4.6878568E+002  4.6807380E+002  4.6737507E+002  4.6668972E+002  4.6601741E+002  4.6535833E+002  4.6471228E+002  4.6407941E+002  4.6345964E+002  4.6285314E+002  4.6225946E+002  4.6167895E+002  4.6111141E+002  4.6055704E+002  4.6001543E+002  4.5948685E+002  4.5897114E+002  4.5846842E+002  4.5797866E+002  4.5750172E+002  4.5703775E+002  4.5658680E+002  4.5614871E+002  4.5572342E+002  4.5531105E+002  4.5491154E+002  4.5452490E+002  4.5415114E+002  4.5379012E+002  4.5344208E+002  4.5310693E+002  4.5278478E+002  4.5247529E+002  4.5217856E+002  4.5189481E+002  4.5162388E+002  4.5136604E+002  4.5112122E+002  4.5088949E+002  4.5067087E+002  4.5046518E+002  4.5027278E+002  4.5009391E+002  4.4992998E+002  5.0877064E+002  5.0877168E+002  5.0877058E+002  5.0876907E+002  5.0876613E+002  5.0876231E+002  5.0875548E+002  5.0874984E+002  5.0874222E+002  5.0873278E+002  5.0872396E+002  5.0871304E+002  5.0870005E+002  5.0868490E+002  5.0866935E+002  5.0865120E+002  5.0863138E+002  5.0860722E+002  5.0857889E+002  5.0854876E+002  5.0851044E+002  5.0846297E+002  5.0840574E+002  5.0833764E+002  5.0825582E+002  5.0816247E+002  5.0806155E+002  5.0795072E+002  5.0783103E+002  5.0770498E+002  5.0757010E+002  5.0743024E+002  5.0728329E+002  5.0712886E+002  5.0696747E+002  5.0692882E+002  5.0697283E+002  5.0693282E+002  5.0828816E+002  5.0828307E+002  5.0827789E+002  5.0827256E+002  5.0826701E+002  5.0826118E+002  5.0825494E+002  5.0826812E+002  5.0824971E+002  5.0823366E+002  5.0821898E+002  5.0820515E+002  5.0819183E+002  5.0817879E+002  5.0816580E+002  5.0815272E+002  5.0813938E+002  5.0812566E+002  5.0811138E+002  5.0809641E+002  5.0808061E+002  5.0806382E+002  5.0804587E+002  5.0802659E+002  5.0800575E+002  5.0798318E+002  5.0795861E+002  5.0793175E+002  5.0790230E+002  5.0786989E+002  5.0783420E+002  5.0779452E+002  5.0775045E+002  5.0770133E+002  5.0764638E+002  5.0758432E+002  5.0751405E+002  5.0743398E+002  5.0734213E+002  5.0723534E+002  5.0711037E+002  5.0696164E+002  5.0677997E+002  5.0655515E+002  5.0625606E+002  5.0581714E+002  2.9607743E+002  2.9909496E+002  3.0229319E+002  3.0576139E+002  3.0964325E+002  3.1407692E+002  3.1924731E+002  3.2555877E+002  3.3334537E+002  3.4301891E+002  3.5271076E+002  3.6202393E+002  3.7112304E+002  3.8016561E+002  3.9025973E+002  4.0287163E+002  4.2123760E+002  2.9315000E+002  2.9315000E+002  2.9315000E+002  2.9315000E+002  2.9315000E+002  2.9315000E+002  2.9315000E+002  2.9315000E+002  2.9315000E+002  2.9315000E+002  2.9315000E+002  2.9315000E+002  2.9315000E+002  2.9315000E+002  2.9315000E+002  2.9315000E+002  2.9315000E+002  2.9315000E+002  2.9315000E+002  2.9315000E+002  2.9315000E+002  2.9315000E+002  2.9315000E+002  2.9315000E+002  2.9315000E+002  2.9315000E+002  2.9315000E+002  2.9315000E+002  2.9315000E+002  2.9315000E+002  2.9315000E+002  2.9315000E+002  2.9315000E+002  2.9315000E+002  2.9315000E+002  2.9315000E+002  2.9315000E+002  2.9315000E+002  2.9315000E+002  2.9315000E+002  2.9315000E+002  2.9315000E+002  2.9315000E+002  2.9315000E+002  2.9315000E+002  2.9315000E+002  2.9315000E+002  2.9315000E+002  2.9315000E+002  2.9315000E+002  2.9315000E+002  2.9315000E+002  5.0266476E+002  4.9436702E+002  4.8314447E+002  4.6798645E+002  4.4778776E+002  4.2134143E+002  3.8792969E+002  3.5446285E+002  3.2320191E+002  5.0697300E+002  5.0713444E+002  5.0728786E+002  5.0743501E+002  5.0757554E+002  5.0771041E+002  5.0783718E+002  5.0795752E+002  5.0807286E+002  5.0818128E+002  5.0828827E+002  5.0840160E+002  5.0840240E+002  5.0840365E+002  5.0840535E+002  5.0840745E+002  5.0840999E+002  5.0841290E+002  5.0841613E+002  5.0841968E+002  5.0842350E+002  5.0842748E+002  5.0843162E+002  5.0843590E+002  5.0844021E+002  5.0844458E+002  5.0844895E+002  5.0845321E+002  5.0845744E+002  5.0846151E+002  5.0846548E+002  5.0846926E+002  5.0847287E+002  5.0847629E+002  5.0847949E+002  5.0848248E+002  5.0848522E+002  5.0848776E+002  5.0849003E+002  5.0849207E+002  5.0849387E+002  5.0849541E+002  5.0849670E+002  5.0849773E+002  5.0849849E+002  5.0849901E+002  5.0849925E+002  5.0849924E+002  5.0849893E+002  5.0849834E+002  5.0849744E+002  5.0849622E+002  5.0849467E+002  5.0849274E+002  5.0849041E+002  5.0848762E+002  5.0848427E+002  5.0848024E+002  5.0847526E+002  5.0846867E+002  5.0844497E+002  5.0843414E+002  5.0842432E+002  5.0841505E+002  5.0840619E+002  5.0839757E+002  5.0838920E+002  5.0838104E+002  5.0837306E+002  5.0836525E+002  5.0835757E+002  5.0835004E+002  5.0834263E+002  5.0833533E+002  5.0832814E+002  5.0832103E+002  5.0831398E+002  5.0830699E+002  5.0830005E+002  5.0469150E+002  5.0453212E+002  5.0442105E+002  5.0433807E+002  5.0427370E+002  5.0422362E+002  5.0418706E+002  5.0416136E+002  5.0414498E+002  5.0452444E+002  5.0490480E+002  5.0528570E+002  5.0566798E+002  5.0605079E+002  5.0643680E+002  5.0682644E+002  5.0720371E+002  5.0749193E+002  5.0771335E+002  5.0789103E+002  5.0804058E+002  5.0817143E+002  5.0829005E+002  5.0841558E+002  5.0842966E+002  5.0844394E+002  5.0845869E+002  5.0847426E+002  5.0849104E+002  5.0850944E+002  5.0853013E+002  5.0855395E+002  5.0858217E+002  5.0861705E+002  5.0865613E+002  5.0869465E+002  5.0869493E+002  5.0869494E+002  5.0869396E+002  5.0869240E+002  5.0868990E+002  5.0868557E+002  5.0867986E+002  5.0867269E+002  5.0866416E+002  5.0865442E+002  5.0864380E+002  5.0863233E+002  5.0861957E+002  5.0860605E+002  5.0859177E+002  5.0857607E+002  5.0855909E+002  5.0854067E+002  5.0852073E+002  5.0849868E+002  5.0847502E+002  5.0844847E+002  4.4757570E+002  4.4769595E+002  4.4783433E+002  4.4798074E+002  4.4813113E+002  4.4828338E+002  4.4843618E+002  4.4858875E+002  4.4874074E+002  4.4889202E+002  4.4904252E+002  4.4919229E+002  4.4934154E+002  4.4949086E+002  4.4964147E+002  4.4979542E+002  4.4995543E+002  4.5012437E+002  4.5030421E+002  4.5049617E+002  4.5070089E+002  4.5091850E+002  4.5114898E+002  4.5139257E+002  4.5164921E+002  4.5191884E+002  4.5220147E+002  4.5249705E+002  4.5280564E+002  4.5312709E+002  4.5346134E+002  4.5380855E+002  4.5416871E+002  4.5454175E+002  4.5492771E+002  4.5532659E+002  4.5573838E+002  4.5616305E+002  4.5660069E+002  4.5705135E+002  4.5751482E+002  4.5799124E+002  4.5848070E+002  4.5898315E+002  4.5949855E+002  4.6002691E+002  4.6056829E+002  4.6112279E+002  4.6169018E+002  4.6227059E+002  4.6286420E+002  4.6347101E+002  4.6409077E+002  4.6472367E+002  4.6536983E+002  4.6602914E+002  4.6670167E+002  4.6738751E+002  4.6808646E+002  4.6879869E+002  4.6952430E+002  4.7026323E+002  4.7101553E+002  4.7178130E+002  4.7256034E+002  4.7335283E+002  4.7415889E+002  4.7497843E+002  4.7581152E+002  4.7665831E+002  4.7751851E+002  4.7839236E+002  4.7928002E+002  4.8018136E+002  4.8109646E+002  4.8202549E+002  4.8296814E+002  4.8392467E+002  4.8489525E+002  4.8587973E+002  4.8687823E+002  4.8789093E+002  4.8891751E+002  4.8995827E+002  4.9101333E+002  4.9208257E+002  4.9316613E+002  4.9426416E+002  4.9537626E+002  4.9650246E+002  4.9764245E+002  4.9879452E+002  4.9988944E+002  5.0080045E+002  5.0156665E+002  5.0222120E+002  5.0278845E+002  5.0328683E+002  5.0373251E+002  5.0884088E+002  5.0890223E+002  5.0887882E+002  5.0847088E+002  5.0840625E+002  5.0844324E+002  5.0810247E+002  5.0838187E+002  5.0847846E+002  5.0575437E+002  5.0793202E+002  5.0762546E+002  5.0707174E+002  5.0835614E+002  5.0803000E+002  5.0847497E+002  5.0815974E+002  5.0833741E+002  5.0847571E+002  5.0705170E+002  5.0839267E+002  5.0832329E+002  5.0782766E+002  5.0833036E+002  5.0820004E+002  5.0740055E+002  5.0845781E+002  5.0492593E+002  5.0842174E+002  5.0464158E+002  5.0781173E+002  5.0842257E+002  5.0587269E+002  5.0823881E+002  5.0846764E+002  5.0831147E+002  5.0798605E+002  5.0773769E+002  5.0837465E+002  5.0806895E+002  5.0830534E+002  5.0834005E+002  5.0813130E+002  5.0847843E+002  5.0835383E+002  5.0837660E+002  5.0667982E+002  5.0848047E+002  5.0847457E+002  5.0845256E+002  5.0452363E+002  5.0811060E+002  5.0511178E+002  5.0845849E+002  5.0827038E+002  5.0831521E+002  5.0667867E+002  5.0688208E+002  5.0731353E+002  5.0719712E+002  5.0682430E+002  5.0708112E+002  5.0743984E+002  5.0738307E+002  5.0710764E+002  5.0738261E+002  5.0714241E+002  5.0741872E+002  5.0761178E+002  5.0764041E+002  5.0746043E+002  5.0765219E+002  5.0783411E+002  5.0785175E+002  5.0773059E+002  5.0788785E+002  5.0779087E+002  5.0792496E+002  5.0801568E+002  5.0803366E+002  5.0796370E+002  5.0805745E+002  5.0799826E+002  5.0808277E+002  5.0813527E+002  5.0816411E+002  5.0810523E+002  5.0817188E+002  5.0822698E+002  5.0822886E+002  5.0818284E+002  5.0823484E+002  5.0819534E+002  5.0824258E+002  5.0828346E+002  5.0828661E+002  5.0825063E+002  5.0828873E+002  5.0832472E+002  5.0832277E+002  5.0829282E+002  5.0812701E+002  5.0811122E+002  5.0828096E+002  5.0835857E+002  5.0835236E+002  5.0764758E+002  5.0828111E+002  5.0835673E+002  5.0768912E+002  5.0764309E+002  5.0682711E+002  5.0688959E+002  5.0837968E+002  5.0814646E+002  5.0816056E+002  5.0769709E+002  5.0837402E+002  5.0835156E+002  5.0819340E+002  5.0819397E+002  5.0839805E+002  5.0832539E+002  5.0783856E+002  5.0649895E+002  5.0833682E+002  5.0757184E+002  5.0790759E+002  5.0663100E+002  5.0839123E+002  5.0841193E+002  5.0840702E+002  5.0811776E+002  5.0763223E+002  5.0776941E+002  5.0794469E+002  5.0813117E+002  5.0825932E+002  5.0825826E+002  5.0790880E+002  5.0794836E+002  5.0787224E+002  5.0790914E+002  5.0809945E+002  5.0840516E+002  5.0826625E+002  5.0820430E+002  5.0749116E+002  5.0743226E+002  5.0733392E+002  5.0692315E+002  5.0800112E+002  5.0796493E+002  5.0649260E+002  5.0828899E+002  5.0833834E+002  5.0838802E+002  5.0829736E+002  5.0807647E+002  5.0805729E+002  5.0796906E+002  5.0793633E+002  5.0836843E+002  5.0836233E+002  5.0615316E+002  5.0613977E+002  5.0673412E+002  5.0816501E+002  5.0842313E+002  5.0814111E+002  5.0817120E+002  5.0834770E+002  5.0831465E+002  5.0843253E+002  5.0839795E+002  5.0839848E+002  5.0836010E+002  5.0838975E+002  5.0784387E+002  5.0779979E+002  5.0814967E+002  5.0817728E+002  5.0784555E+002  5.0800445E+002  5.0827835E+002  5.0821963E+002  5.0813724E+002  5.0815436E+002  5.0823850E+002  5.0817586E+002  5.0830676E+002  5.0579173E+002  5.0579414E+002  5.0578965E+002  5.0542271E+002  5.0545504E+002  5.0582088E+002  5.0550426E+002  5.0728246E+002  5.0716712E+002  5.0826244E+002  5.0719626E+002  5.0587606E+002  5.0835698E+002  5.0838523E+002  5.0841489E+002  5.0841038E+002  5.0809632E+002  5.0806997E+002  5.0794530E+002  5.0805163E+002  5.0813331E+002  5.0792852E+002  5.0803528E+002  5.0814589E+002  5.0642918E+002  5.0791733E+002  5.0803674E+002  5.0801604E+002  5.0802937E+002  5.0809084E+002  5.0840582E+002  5.0738704E+002  5.0838131E+002  5.0808179E+002  5.0810969E+002  5.0656623E+002  5.0841522E+002  5.0843144E+002  5.0812589E+002  5.0774697E+002  5.0819897E+002  5.0820362E+002  5.0818308E+002  5.0820770E+002  5.0823412E+002  5.0823161E+002  5.0821138E+002  5.0823429E+002  5.0825395E+002  5.0825669E+002  5.0827632E+002  5.0828109E+002  5.0829843E+002  5.0826024E+002  5.0827987E+002  5.0826286E+002  5.0824191E+002  5.0821412E+002  5.0829661E+002  5.0831557E+002  5.0831686E+002  5.0833152E+002  5.0835714E+002  5.0826332E+002  5.0805379E+002  5.0817984E+002  5.0828315E+002  5.0829661E+002  5.0617055E+002  5.0645521E+002  5.0839262E+002  5.0791911E+002  5.0773980E+002  5.0807197E+002  5.0836331E+002  5.0778037E+002  5.0772994E+002  5.0832918E+002  5.0843703E+002  5.0843176E+002  5.0840707E+002  5.0842763E+002  5.0840523E+002  5.0842506E+002  5.0831686E+002  5.0826794E+002  5.0836222E+002  5.0836847E+002  5.0822211E+002  5.0832987E+002  5.0782385E+002  5.0684509E+002  5.0842735E+002  5.0824886E+002  5.0558645E+002  5.0516961E+002  5.0799958E+002  5.0797499E+002  5.0782888E+002  5.0844543E+002  5.0844362E+002  5.0622223E+002  5.0833182E+002  5.0831804E+002  5.0834419E+002  5.0834580E+002  5.0835708E+002  5.0836017E+002  5.0725789E+002  5.0834394E+002  5.0831521E+002  5.0819223E+002  5.0824526E+002  5.0796859E+002  5.0801051E+002  5.0771219E+002  5.0766424E+002  5.0838725E+002  5.0836726E+002  5.0820972E+002  5.0817959E+002  5.0785704E+002  5.0844420E+002  5.0842185E+002  5.0845055E+002  5.0829671E+002  5.0823443E+002  5.0751256E+002  5.0747104E+002  5.0757410E+002  5.0753522E+002  5.0829847E+002  5.0812279E+002  5.0822923E+002  5.0824533E+002  5.0815303E+002  5.0767096E+002  5.0812217E+002  5.0812953E+002  5.0813902E+002  5.0822053E+002  5.0539397E+002  5.0539831E+002  5.0588004E+002  5.0629213E+002  5.0800526E+002  5.0842907E+002  5.0502588E+002  5.0801504E+002  5.0818838E+002  5.0816568E+002  5.0815720E+002  5.0837798E+002  5.0841245E+002  5.0619344E+002  5.0646281E+002  5.0840025E+002  5.0840802E+002  5.0838679E+002  5.0819577E+002  5.0788319E+002  5.0791068E+002  5.0715057E+002  5.0718944E+002  5.0809003E+002  5.0808038E+002  5.0756518E+002  5.0836997E+002  5.0832716E+002  5.0842110E+002  5.0844229E+002  5.0845117E+002  5.0843177E+002  5.0845506E+002  5.0830282E+002  5.0820618E+002  5.0505817E+002  5.0510318E+002  5.0736440E+002  5.0832603E+002  5.0835148E+002  5.0844102E+002  5.0822088E+002  5.0822577E+002  5.0824565E+002  5.0846276E+002  5.0802546E+002  5.0845467E+002  5.0844948E+002  5.0843877E+002  5.0476034E+002  5.0805543E+002  5.0828742E+002  5.0752664E+002  5.0830892E+002  5.0782439E+002  5.0700233E+002  5.0674536E+002  5.0687228E+002  5.0834501E+002  5.0837394E+002  5.0811787E+002  5.0800154E+002  5.0539399E+002  5.0832898E+002  5.0839100E+002  5.0842091E+002  5.0834022E+002  5.0812595E+002  5.0809417E+002  5.0798485E+002  5.0722734E+002  5.0827432E+002  5.0829668E+002  5.0838918E+002  5.0829976E+002  5.0840903E+002  5.0738325E+002  5.0764385E+002  5.0625874E+002  5.0473630E+002  5.0491531E+002  5.0825507E+002  5.0826626E+002  5.0827138E+002  5.0825186E+002  5.0819507E+002  5.0549190E+002  5.0786216E+002  5.0789397E+002  5.0793317E+002  5.0845878E+002  5.0847043E+002  5.0842242E+002  5.0846327E+002  5.0806080E+002  5.0841935E+002  5.0843290E+002  5.0842482E+002  5.0838394E+002  5.0838529E+002  5.0828776E+002  5.0840224E+002  5.0800882E+002  5.0795952E+002  5.0805013E+002  5.0831147E+002  5.0831767E+002  5.0843475E+002  5.0768174E+002  5.0811814E+002  5.0778464E+002  5.0808633E+002  5.0831480E+002  5.0833165E+002  5.0832013E+002  5.0836511E+002  5.0756045E+002  5.0814874E+002  5.0847651E+002  5.0838373E+002  5.0817518E+002  5.0847932E+002  5.0834715E+002  5.0847771E+002  5.0834915E+002  5.0837677E+002  5.0825392E+002  5.0847376E+002  5.0841014E+002  5.0846752E+002  5.0844060E+002  5.0846479E+002  5.0796513E+002  5.0775521E+002  5.0780264E+002  5.0822680E+002  5.0820394E+002  5.0845743E+002  5.0698280E+002  5.0730402E+002  5.0681474E+002  5.0796437E+002  5.0764499E+002  5.0838383E+002  5.0467039E+002  5.0812471E+002  5.0841210E+002  5.0807431E+002  5.0739830E+002  5.0847523E+002  5.0846194E+002  5.0842161E+002  5.0833310E+002  5.0823114E+002  5.0819229E+002  5.0753743E+002  5.0812136E+002  5.0748515E+002  5.0819389E+002  5.0839616E+002  5.0844521E+002  5.0823581E+002  5.0613739E+002  5.0651476E+002  5.0833281E+002  5.0833339E+002  5.0845207E+002  5.0592597E+002  5.0795396E+002  5.0803637E+002  5.0822435E+002  5.0832419E+002  5.0614316E+002  5.0500005E+002  5.0838359E+002  5.0587207E+002  5.0840812E+002  5.0448807E+002  5.0783029E+002  5.0813830E+002  5.0832855E+002  5.0690130E+002  5.0828637E+002  5.0532334E+002  5.0827348E+002  5.0832435E+002  5.0778996E+002  5.0831041E+002  5.0801895E+002  5.0790008E+002  5.0822232E+002  5.0827189E+002  5.0833599E+002  5.0817088E+002  5.0810707E+002  5.0845902E+002  5.0806877E+002  5.0829602E+002  5.0832923E+002  5.0777199E+002  5.0840448E+002  5.0760793E+002  5.0731832E+002  5.0835452E+002  5.0805531E+002  5.0651729E+002  5.0840176E+002  5.0818324E+002  5.0843979E+002  5.0828853E+002  5.0817448E+002  5.0782469E+002  5.0797718E+002  5.0829961E+002  5.0834114E+002  5.0847375E+002  5.0485750E+002  5.0820798E+002  5.0805321E+002  5.0703187E+002  5.0835917E+002  5.0712362E+002  5.0703108E+002  5.0838745E+002  5.0806993E+002  5.0786235E+002  5.0644281E+002  5.0825611E+002  5.0846313E+002  5.0836658E+002  5.0835525E+002  5.0820902E+002  5.0830692E+002  5.0834860E+002  5.0613250E+002  5.0828579E+002  5.0799208E+002  5.0844870E+002  5.0846401E+002  5.0837799E+002  5.0798513E+002  5.0782246E+002  5.0747859E+002  5.0843213E+002  5.0466971E+002  5.0838238E+002  5.0844551E+002  5.0768592E+002  5.0758239E+002  5.0843700E+002  5.0819364E+002  5.0714873E+002  5.0845360E+002  5.0843697E+002  5.0846531E+002  5.0835956E+002  5.0823650E+002  5.0646705E+002  5.0670768E+002  5.0840636E+002  5.0821737E+002  5.0761121E+002  5.0801362E+002  5.0828323E+002  5.0845504E+002  5.0848408E+002  5.0841172E+002  5.0443417E+002  5.0445081E+002  5.0845875E+002  5.0817567E+002  5.0745670E+002  5.0825024E+002  5.0831984E+002  5.0567252E+002  5.0777324E+002  5.0820843E+002  5.0842990E+002  5.0837091E+002  5.0829351E+002  5.0790325E+002  5.0825096E+002  5.0836391E+002  5.0833792E+002  5.0821214E+002  5.0814802E+002  5.0766038E+002  5.0806330E+002  5.0612268E+002  5.0838074E+002  5.0821331E+002  5.0845367E+002  5.0805295E+002  5.0826250E+002  5.0792963E+002  5.0830488E+002  5.0843043E+002  5.0843725E+002  5.0838508E+002  5.0834794E+002  5.0845060E+002  5.0847007E+002  5.0848617E+002  5.0849673E+002  5.0850203E+002  5.0850059E+002  5.0849126E+002  5.0831905E+002  5.0829291E+002  5.0847537E+002  5.0843595E+002  5.0827250E+002  5.0856908E+002  5.0856857E+002  5.0842261E+002  5.0827783E+002  5.0830410E+002  5.0841187E+002  5.0828085E+002  5.0850066E+002  5.0824224E+002  5.0860447E+002  5.0852052E+002  5.0864408E+002  5.0866206E+002  5.0841678E+002  5.0827361E+002  5.0823150E+002  5.0826810E+002  5.0846513E+002  5.0835362E+002  5.0866396E+002  5.0862751E+002  5.0848033E+002  5.0830534E+002  5.0849647E+002  5.0848465E+002  5.0833335E+002  5.0836905E+002  5.0842851E+002  5.0850187E+002  5.0844342E+002  5.0845868E+002  5.0850061E+002  5.0847809E+002  5.0849300E+002  5.0821440E+002  5.0843591E+002  5.0865964E+002  5.0819008E+002  5.0843766E+002  5.0826412E+002  5.0841387E+002  5.0827033E+002  5.0828026E+002  5.0828283E+002  5.0828936E+002  5.0828690E+002  5.0829561E+002  5.0829836E+002  5.0830519E+002  5.0830737E+002  5.0831602E+002  5.0831718E+002  5.0832621E+002  5.0832752E+002  5.0833957E+002  5.0833913E+002  5.0835175E+002  5.0835138E+002  5.0836582E+002  5.0836472E+002  5.0838253E+002  5.0837942E+002  5.0839939E+002  5.0839374E+002  5.0841739E+002  5.0841297E+002  5.0838594E+002  5.0840550E+002  5.0837769E+002  5.0839628E+002  5.0836814E+002  5.0838659E+002  5.0835709E+002  5.0837510E+002  5.0841921E+002  5.0843834E+002  5.0844335E+002  5.0845829E+002  5.0846373E+002  5.0847652E+002  5.0848087E+002  5.0847221E+002  5.0849457E+002  5.0849687E+002  5.0832662E+002  5.0834544E+002  5.0842658E+002  5.0848347E+002  5.0849763E+002  5.0836617E+002  5.0851206E+002  5.0851361E+002  5.0850235E+002  5.0851544E+002  5.0850449E+002  5.0851522E+002  5.0852821E+002  5.0852897E+002  5.0851830E+002  5.0852954E+002  5.0851943E+002  5.0852800E+002  5.0854031E+002  5.0853956E+002  5.0854277E+002  5.0852883E+002  5.0853785E+002  5.0855036E+002  5.0854572E+002  5.0856121E+002  5.0855639E+002  5.0854350E+002  5.0855096E+002  5.0853901E+002  5.0854514E+002  5.0836266E+002  5.0849345E+002  5.0852753E+002  5.0833484E+002  5.0855961E+002  5.0855161E+002  5.0857483E+002  5.0853691E+002  5.0854295E+002  5.0855806E+002  5.0854793E+002  5.0856491E+002  5.0855319E+002  5.0853830E+002  5.0854133E+002  5.0855777E+002  5.0854429E+002  5.0852841E+002  5.0853056E+002  5.0854728E+002  5.0853090E+002  5.0855056E+002  5.0853359E+002  5.0853054E+002  5.0851579E+002  5.0851735E+002  5.0841552E+002  5.0833955E+002  5.0833297E+002  5.0852600E+002  5.0851481E+002  5.0851455E+002  5.0855295E+002  5.0831149E+002  5.0839372E+002  5.0856318E+002  5.0831708E+002  5.0838042E+002  5.0852771E+002  5.0849533E+002  5.0849943E+002  5.0850209E+002  5.0857622E+002  5.0858549E+002  5.0851756E+002  5.0850228E+002  5.0856565E+002  5.0852043E+002  5.0835969E+002  5.0851931E+002  5.0848588E+002  5.0852695E+002  5.0850328E+002  5.0852032E+002  5.0848752E+002  5.0848452E+002  5.0850172E+002  5.0829277E+002  5.0850228E+002  5.0848600E+002  5.0851347E+002  5.0851626E+002  5.0830448E+002  5.0834553E+002  5.0828992E+002  5.0830817E+002  5.0841282E+002  5.0839857E+002  5.0849963E+002  5.0848692E+002  5.0848719E+002  5.0848844E+002  5.0847105E+002  5.0847115E+002  5.0851209E+002  5.0851750E+002  5.0843643E+002  5.0851356E+002  5.0847912E+002  5.0847629E+002  5.0854643E+002  5.0854457E+002  5.0852169E+002  5.0851434E+002  5.0851853E+002  5.0836643E+002  5.0849188E+002  5.0851186E+002  5.0851417E+002  5.0851153E+002  5.0850160E+002  5.0850968E+002  5.0850086E+002  5.0850937E+002  5.0828475E+002  5.0828995E+002  5.0827706E+002  5.0829124E+002  5.0846987E+002  5.0846693E+002  5.0846032E+002  5.0845777E+002  5.0845033E+002  5.0844861E+002  5.0844088E+002  5.0845667E+002  5.0843943E+002  5.0843069E+002  5.0842985E+002  5.0842109E+002  5.0843882E+002  5.0842153E+002  5.0841275E+002  5.0841165E+002  5.0840278E+002  5.0840203E+002  5.0839254E+002  5.0839241E+002  5.0838333E+002  5.0838310E+002  5.0837456E+002  5.0839130E+002  5.0839170E+002  5.0829762E+002  5.0847300E+002  5.0850801E+002  5.0850732E+002  5.0847558E+002  5.0847430E+002  5.0845716E+002  5.0845664E+002  5.0845767E+002  5.0837401E+002  5.0836582E+002  5.0836649E+002  5.0835810E+002  5.0835727E+002  5.0834989E+002  5.0847573E+002  5.0843229E+002  5.0844498E+002  5.0841696E+002  5.0849261E+002  5.0850647E+002  5.0850771E+002  5.0851528E+002  5.0850176E+002  5.0851841E+002  5.0851177E+002  5.0851578E+002  5.0852204E+002  5.0851947E+002  5.0851307E+002  5.0835852E+002  5.0840210E+002  5.0851202E+002  5.0848293E+002  5.0826383E+002  5.0827620E+002  5.0841383E+002  5.0844347E+002  5.0851923E+002  5.0847039E+002  5.0825058E+002  5.0851543E+002  5.0845536E+002  5.0853609E+002  5.0850062E+002  5.0834914E+002  5.0834205E+002  5.0835647E+002  5.0834278E+002  5.0833506E+002  5.0833411E+002  5.0832736E+002  5.0832819E+002  5.0832080E+002  5.0850805E+002  5.0850522E+002  5.0848250E+002  5.0849092E+002  5.0848598E+002  5.0849295E+002  5.0831973E+002  5.0831358E+002  5.0829473E+002  5.0859889E+002  5.0861384E+002  5.0842179E+002  5.0849286E+002  5.0849327E+002  5.0852200E+002  5.0850096E+002  5.0849805E+002  5.0850298E+002  5.0850164E+002  5.0850364E+002  5.0850968E+002  5.0850625E+002  5.0846515E+002  5.0850833E+002  5.0848238E+002  5.0847285E+002  5.0844403E+002  5.0845891E+002  5.0842909E+002  5.0841225E+002  5.0856853E+002  5.0856677E+002  5.0852714E+002  5.0848397E+002  5.0853447E+002  5.0828260E+002  5.0827715E+002  5.0859277E+002  5.0839079E+002  5.0825158E+002  5.0830210E+002  5.0829946E+002  5.0852928E+002  5.0845366E+002  5.0856639E+002  5.0853420E+002  5.0850850E+002  5.0851710E+002  5.0853553E+002  5.0855552E+002  5.0858182E+002  5.0861248E+002  5.0831204E+002  5.0849996E+002  5.0849579E+002  5.0848857E+002  5.0845243E+002  5.0844267E+002  5.0840097E+002  5.0850735E+002  5.0835198E+002  5.0853985E+002  5.0849008E+002  5.0847551E+002  5.0851256E+002  5.0836696E+002  5.0850775E+002  5.0849325E+002  5.0848602E+002  5.0851878E+002  5.0830439E+002  5.0831579E+002  5.0846624E+002  5.0842121E+002  5.0850661E+002  5.0832492E+002  5.0848662E+002  5.0847334E+002  5.0847197E+002  5.0845990E+002  5.0846081E+002  5.0844871E+002  5.0844828E+002  5.0849981E+002  5.0826193E+002  5.0828730E+002  5.0827421E+002  5.0829730E+002  5.0828474E+002  5.0830805E+002  5.0838230E+002  5.0837311E+002  5.0839011E+002  5.0839860E+002  5.0839984E+002  5.0839675E+002  5.0836499E+002  5.0843199E+002  5.0836494E+002  5.0853349E+002  5.0828749E+002  5.0850673E+002  5.0850273E+002  5.0850433E+002  5.0850954E+002  5.0844556E+002  5.0853406E+002  5.0850013E+002  5.0849486E+002  5.0844365E+002  5.0841350E+002  5.0842092E+002  5.0849351E+002  5.0851020E+002  5.0850808E+002  5.0846373E+002  5.0847351E+002  5.0829199E+002  5.0847443E+002  5.0828394E+002  5.0850789E+002  5.0850341E+002  5.0850000E+002  5.0852659E+002  5.0835580E+002  5.0846387E+002  5.0850271E+002  5.0855593E+002  5.0858141E+002  5.0855974E+002  5.0858674E+002  5.0848258E+002  5.0843107E+002  5.0842983E+002  5.0844252E+002  5.0844111E+002  5.0852013E+002  5.0849382E+002  5.0862702E+002  5.0860273E+002  5.0826178E+002  5.0856703E+002  5.0852834E+002  5.0855549E+002  5.0851920E+002  5.0849149E+002  5.0848447E+002  5.0850893E+002  5.0847552E+002  5.0849852E+002  5.0846687E+002  5.0848742E+002  5.0851994E+002  5.0845268E+002  5.0850623E+002  5.0827952E+002  5.0829520E+002  5.0829297E+002  5.0831041E+002  5.0830676E+002  5.0829268E+002  5.0832780E+002  5.0831961E+002  5.0845267E+002  5.0844951E+002  5.0850533E+002  5.0850369E+002  5.0846759E+002  5.0860006E+002  5.0829269E+002  5.0833380E+002  5.0849865E+002  5.0842974E+002  5.0832589E+002  5.0829153E+002  5.0834130E+002  5.0833260E+002  5.0843733E+002  5.0837986E+002  5.0863630E+002  5.0861203E+002  5.0863477E+002  5.0859674E+002  5.0851997E+002  5.0848567E+002  5.0847187E+002  5.0848372E+002  5.0834906E+002  5.0855126E+002  5.0857792E+002  5.0827849E+002  5.0848255E+002  5.0831752E+002  5.0847737E+002  5.0854419E+002  5.0850479E+002  5.0827634E+002  5.0840514E+002  5.0831229E+002  5.0842481E+002  5.0834946E+002  5.0833574E+002  5.0835196E+002  5.0832095E+002  5.0833731E+002  5.0828947E+002  5.0831989E+002  5.0832872E+002  5.0838369E+002  5.0826408E+002  5.0846498E+002  5.0823867E+002  5.0822681E+002  5.0830179E+002  5.0853839E+002  5.0864924E+002  5.0845929E+002  5.0840398E+002  5.0861659E+002  5.0865372E+002  5.0864901E+002  5.0861391E+002  5.0863669E+002  5.0821007E+002  5.0825805E+002  5.0850010E+002  5.0836866E+002  5.0823512E+002  5.0827541E+002  5.0826997E+002  5.0848585E+002  5.0848612E+002  5.0830664E+002  5.0830434E+002  5.0844747E+002  5.0841575E+002  5.0842811E+002  5.0848820E+002  5.0831219E+002  5.0849377E+002  5.0832630E+002  5.0834021E+002  5.0837720E+002  5.0838150E+002  5.0842553E+002  5.0843163E+002  5.0849946E+002  5.0843994E+002  5.0845209E+002  5.0850131E+002  5.0844703E+002  5.0846261E+002  5.0845458E+002  5.0846502E+002  5.0849943E+002  5.0850173E+002  5.0846663E+002  5.0847355E+002  5.0849519E+002  5.0861984E+002  5.0826258E+002  5.0832257E+002  5.0819971E+002  5.0822761E+002  5.0851167E+002  5.0838246E+002  5.0830063E+002  5.0833571E+002  5.0834322E+002  5.0859331E+002  5.0838744E+002  5.0830557E+002  5.0829890E+002  5.0846051E+002  5.0827676E+002  5.0859268E+002  5.0836115E+002  5.0837061E+002  5.0849830E+002  5.0851831E+002  5.0850536E+002  5.0850443E+002  5.0852475E+002  5.0849911E+002  5.0842911E+002  5.0845484E+002  5.0853420E+002  5.0850472E+002  5.0837913E+002  5.0843615E+002  5.0852312E+002  5.0848270E+002  5.0848318E+002  5.0859862E+002  5.0841444E+002  5.0835059E+002  5.0852564E+002  5.0818498E+002  5.0849976E+002  5.0846212E+002  5.0857748E+002  5.0850098E+002  5.0827633E+002  5.0850027E+002  5.0851300E+002  5.0861229E+002  5.0837472E+002  5.0858106E+002  5.0840500E+002  5.0842259E+002  5.0831178E+002  5.0851869E+002  5.0848872E+002  5.0852500E+002  5.0849858E+002  5.0847522E+002  5.0847510E+002  5.0843783E+002  5.0844940E+002  5.0846320E+002  5.0827319E+002  5.0846454E+002  5.0858560E+002  5.0848998E+002  5.0856923E+002  5.0847195E+002  5.0842759E+002  5.0849815E+002  5.0848452E+002  5.0851283E+002  5.0851801E+002  5.0842035E+002  5.0857045E+002  5.0827161E+002  5.0853343E+002  5.0854078E+002  5.0851000E+002  5.0844799E+002  5.0853290E+002  5.0853424E+002  5.0835251E+002  5.0852785E+002  5.0857448E+002  5.0845000E+002  5.0857095E+002  5.0850018E+002  5.0832371E+002  5.0849443E+002  5.0828792E+002  5.0852982E+002  5.0843618E+002  5.0841836E+002  5.0845718E+002  5.0849056E+002  5.0852183E+002  5.0856178E+002  5.0857972E+002  5.0855251E+002  5.0839340E+002  5.0841113E+002  5.0856545E+002  5.0851072E+002  5.0852672E+002  5.0850187E+002  5.0841797E+002  5.0845783E+002  5.0832347E+002  5.0828492E+002  5.0856688E+002  5.0842434E+002  5.0849046E+002  5.0840179E+002  5.0855552E+002  5.0834560E+002  5.0837628E+002  5.0850809E+002  5.0830008E+002  5.0830888E+002  5.0848013E+002  5.0855256E+002  5.0831827E+002  5.0849204E+002  5.0847862E+002  5.0833826E+002  5.0840634E+002  5.0829756E+002  5.0846498E+002  5.0832836E+002  5.0842058E+002  5.0857262E+002  5.0832878E+002  5.0859660E+002  5.0832529E+002  5.0863199E+002  5.0840144E+002  5.0839033E+002  5.0857645E+002  5.0849853E+002  5.0845905E+002  5.0844730E+002  5.0828092E+002  5.0847371E+002  5.0850465E+002  5.0866684E+002  5.0863188E+002  5.0826171E+002  5.0848049E+002  5.0847918E+002  5.0854352E+002  5.0843733E+002  5.0836112E+002  5.0827610E+002  5.0842792E+002  5.0825299E+002  5.0848851E+002  5.0820528E+002  5.0845536E+002  5.0825704E+002  5.0846718E+002  5.0845775E+002  5.0843956E+002  5.0828861E+002  5.0835901E+002  5.0835107E+002  5.0841926E+002  5.0831028E+002  5.0849294E+002  5.0837360E+002  5.0850916E+002  5.0844502E+002  5.0821962E+002  5.0842323E+002  5.0844192E+002  5.0847901E+002  5.0834348E+002  5.0849727E+002  5.0844027E+002  5.0825740E+002  5.0823326E+002  5.0853600E+002  5.0850177E+002  5.0851418E+002  5.0850398E+002  5.0817057E+002  5.0835427E+002  5.0850941E+002  5.0866830E+002  5.0833832E+002  5.0850286E+002  5.0824546E+002  5.0847061E+002  5.0841201E+002  5.0849556E+002  5.0846675E+002  5.0859441E+002  5.0843779E+002  5.0847997E+002  5.0821335E+002  5.0850053E+002  5.0830186E+002  5.0831107E+002  5.0851477E+002  5.0848759E+002  5.0850660E+002  5.0848540E+002  5.0845577E+002  5.0852513E+002  5.0849694E+002  5.0850286E+002  5.0845891E+002  5.0847010E+002  5.0849455E+002  5.0840726E+002  5.0848994E+002  5.0859001E+002  5.0853143E+002  5.0855199E+002  5.0824754E+002  5.0851869E+002  5.0848574E+002  5.0850372E+002  5.0845506E+002  5.0837446E+002  5.0839984E+002  5.0850388E+002  5.0846862E+002  5.0827543E+002  5.0847282E+002  5.0851827E+002  5.0848513E+002  5.0834436E+002  5.0850815E+002  5.0852870E+002  5.0831802E+002  5.0854401E+002  5.0848444E+002  5.0838935E+002  5.0830656E+002  5.0395253E+002  5.0196847E+002  5.0193765E+002  5.0037271E+002  5.0385665E+002  5.0407287E+002  5.0033844E+002  4.9817083E+002  4.4988979E+002  4.9578918E+002  4.9377607E+002  4.9153058E+002  4.8930328E+002  4.8744627E+002  4.8537807E+002  4.8347169E+002  4.8162223E+002  4.7972753E+002  4.7798258E+002  4.7629453E+002  4.7457028E+002  4.7298436E+002  4.7145520E+002  4.6989862E+002  4.6846970E+002  4.6709735E+002  4.6570612E+002  4.6443243E+002  5.0307075E+002  4.6321513E+002  4.6200366E+002  4.6088894E+002  4.5976912E+002  4.5873774E+002  4.5777072E+002  4.5685946E+002  4.5595394E+002  4.5512915E+002  4.5435586E+002  4.5364236E+002  4.5298349E+002  4.5234476E+002  4.5177733E+002  4.5126704E+002  4.5080752E+002  4.5038706E+002  4.4961280E+002  4.5020970E+002  4.4941618E+002  5.0327084E+002  4.9707395E+002  4.9481296E+002  4.9261832E+002  4.9048019E+002  4.8839712E+002  4.8637307E+002  4.8440446E+002  4.8248994E+002  4.8063310E+002  4.7883078E+002  4.7708173E+002  4.7538927E+002  4.7375053E+002  4.7216431E+002  4.7063377E+002  4.6915623E+002  4.6773065E+002  4.6635987E+002  4.6504154E+002  4.6377471E+002  4.6256188E+002  4.6140040E+002  4.6029214E+002  4.5923575E+002  4.5823084E+002  4.5727717E+002  4.5637644E+002  4.5552741E+002  4.5472965E+002  4.5398358E+002  4.5328843E+002  4.5264592E+002  4.5205505E+002  4.5151580E+002  4.5102800E+002  4.5059314E+002  4.4987246E+002  4.4918654E+002  4.4897052E+002  4.4875023E+002  5.0380600E+002  4.4849688E+002  4.4835592E+002  4.9941173E+002  4.9995355E+002  4.9891799E+002  5.0097655E+002  5.0053034E+002  5.0137391E+002  5.0107524E+002  5.0184695E+002  5.0211029E+002  5.0253197E+002  5.0276059E+002  5.0242051E+002  5.0297918E+002  5.0310692E+002  5.0292372E+002  5.0269478E+002  5.0321229E+002  5.0353466E+002  5.0331886E+002  5.0333910E+002  5.0276208E+002  5.0381201E+002  5.0178005E+002  4.9958840E+002  4.9936478E+002  5.0122466E+002  5.0118951E+002  5.0256972E+002  4.4866914E+002  4.8943203E+002  4.8901503E+002  4.8778890E+002  4.8838098E+002  4.4926708E+002  4.4934166E+002  4.4949105E+002  4.4971667E+002  4.4979026E+002  4.4994455E+002  4.8344067E+002  4.8305843E+002  4.8193311E+002  4.8241981E+002  4.6197505E+002  4.6174468E+002  4.6107967E+002  4.6136243E+002  4.7295107E+002  4.7263574E+002  4.7172284E+002  4.7210705E+002  4.4911817E+002  4.4906299E+002  4.5362974E+002  4.5343596E+002  4.5309255E+002  4.5322703E+002  4.5435018E+002  4.5417347E+002  4.5774779E+002  4.5755834E+002  4.5701503E+002  4.5724346E+002  4.5512212E+002  4.5493317E+002  4.7794981E+002  4.7760140E+002  4.7657504E+002  4.7701771E+002  4.6843715E+002  4.6815416E+002  4.6733508E+002  4.6768671E+002  4.5681682E+002  4.5872689E+002  4.5848795E+002  4.6440188E+002  4.6415060E+002  4.6342427E+002  4.6373442E+002  4.6569434E+002  4.6537763E+002  4.6703260E+002  4.5126555E+002  4.5112805E+002  4.5089580E+002  4.5098781E+002  4.5177895E+002  4.5165077E+002  4.6315661E+002  4.6988856E+002  4.6953146E+002  4.7456340E+002  4.7415333E+002  4.5003540E+002  4.5234417E+002  4.5220405E+002  4.5594566E+002  4.5574438E+002  4.5975764E+002  4.5950602E+002  4.7138536E+002  4.7621773E+002  4.9154240E+002  4.9100054E+002  4.5039525E+002  4.5030338E+002  4.5296107E+002  4.6083517E+002  4.4956562E+002  4.8154220E+002  4.8736412E+002  4.5080321E+002  4.8538205E+002  4.8488272E+002  4.9593470E+002  4.9548134E+002  4.9415202E+002  4.9478546E+002  4.9369293E+002  4.7972535E+002  4.7926770E+002  4.5003246E+002  4.5638637E+002  4.5618444E+002  4.5058815E+002  4.5049692E+002  4.8063562E+002  4.8019678E+002  4.5553484E+002  4.5533411E+002  4.6030496E+002  4.6005140E+002  4.5824340E+002  4.5801461E+002  4.8440692E+002  4.8393638E+002  4.5924669E+002  4.5899325E+002  4.5265156E+002  4.5250664E+002  4.9705021E+002  4.9742617E+002  4.9643011E+002  4.6917016E+002  4.6882267E+002  4.6505642E+002  4.6474885E+002  4.6637260E+002  4.6605398E+002  4.9260641E+002  4.9208433E+002  4.5398964E+002  4.5388450E+002  4.7539668E+002  4.7499844E+002  4.7064456E+002  4.7028638E+002  4.5205433E+002  4.5192056E+002  4.6257520E+002  4.6229583E+002  4.7376209E+002  4.7337417E+002  4.7883851E+002  4.7840962E+002  4.8636918E+002  4.8588910E+002  4.5020161E+002  4.5014984E+002  4.5473581E+002  4.5454839E+002  4.5151365E+002  4.5144185E+002  4.9044923E+002  4.8996724E+002  5.0371626E+002  5.0398431E+002  5.0389883E+002  4.8116089E+002  4.5663282E+002  4.7587481E+002  4.6061154E+002  4.6675081E+002  4.5287369E+002  4.6291023E+002  4.7106663E+002  4.5074181E+002  4.8694268E+002  4.9322948E+002  4.4963935E+002  4.4821413E+002  4.4946489E+002  4.4882227E+002  4.4804357E+002  5.0026551E+002  5.0233056E+002  5.0164342E+002  4.4891045E+002  5.0351549E+002  5.0260788E+002  4.9825691E+002  4.4932739E+002  5.0213783E+002  4.4789660E+002  4.4859802E+002  4.4975280E+002  5.0343035E+002  4.9852861E+002  5.0357903E+002  5.0420985E+002  5.0338056E+002  4.4775510E+002  4.9771354E+002  4.4919538E+002  4.4847193E+002  4.4985462E+002  4.5066763E+002  4.5275932E+002  4.4970431E+002  4.5102734E+002  4.5654605E+002  4.6050203E+002  4.5330425E+002  4.6279162E+002  4.6661917E+002  4.7092267E+002  4.5730244E+002  4.5011353E+002  4.7566851E+002  4.5048962E+002  4.8093739E+002  4.5030619E+002  4.8670233E+002  4.9297259E+002  4.6143277E+002  4.5136889E+002  4.5191986E+002  4.6380974E+002  4.5165942E+002  4.5249037E+002  4.5220402E+002  4.6776873E+002  4.5377872E+002  4.5454497E+002  4.7220357E+002  4.5533023E+002  4.5418898E+002  4.7712130E+002  4.5615773E+002  4.5493414E+002  4.5574826E+002  4.8252866E+002  4.5800602E+002  4.8838624E+002  4.5898795E+002  4.9479370E+002  4.6002016E+002  4.5849347E+002  4.5951122E+002  4.6227230E+002  4.6474219E+002  4.6601927E+002  4.6539098E+002  4.6881842E+002  4.7025082E+002  4.7337106E+002  4.6954395E+002  4.7495288E+002  4.7840994E+002  4.8015030E+002  4.7416951E+002  4.8394257E+002  4.8584407E+002  4.7928581E+002  4.8997704E+002  4.9204181E+002  4.9658550E+002  4.8489638E+002  4.9100407E+002  5.0292787E+002  5.0162876E+002  4.4999742E+002  4.5118941E+002  5.0384760E+002  5.0432555E+002  4.5353217E+002  5.0382644E+002  4.5759480E+002  4.6178970E+002  4.6419971E+002  4.6821799E+002  4.7269527E+002  4.7767803E+002  4.8314157E+002  4.8915462E+002  4.9562075E+002  4.9397645E+002  5.0366647E+002  4.4763317E+002  4.8762656E+002  5.0085435E+002  5.0227000E+002  5.0373520E+002  4.8178354E+002  4.4752244E+002  4.4904604E+002  4.7644007E+002  4.4956938E+002  5.0363540E+002  4.7158747E+002  4.6721701E+002  4.6332056E+002  4.6098520E+002  4.4835801E+002  5.0241957E+002  4.5693724E+002  5.0731638E+002  5.0855740E+002  5.0812501E+002  5.0872182E+002  5.0883230E+002  5.0881262E+002  5.0863767E+002  5.0833207E+002  5.0872716E+002  5.0881350E+002  5.0787741E+002  5.0760873E+002  5.0886797E+002  5.0882585E+002  5.0884800E+002  5.0840493E+002  5.0867213E+002  5.0877820E+002  5.0746382E+002  5.0875687E+002  5.0877430E+002  5.0882938E+002  5.0879939E+002  5.0886821E+002  5.0773129E+002  5.0885782E+002  5.0854069E+002  5.0862295E+002  5.0810971E+002  5.0717133E+002  5.0888891E+002  5.0711813E+002  5.0746533E+002  5.0743600E+002  5.0728576E+002  5.0735816E+002  5.0758222E+002  5.0771998E+002  5.0764352E+002  5.0843102E+002  5.0841765E+002  5.0832182E+002  5.0849407E+002  5.0835554E+002  5.0825055E+002  5.0869261E+002  5.0874147E+002  5.0871919E+002  5.0876601E+002  5.0873011E+002  5.0870117E+002  5.0880705E+002  5.0887561E+002  5.0888173E+002  5.0888545E+002  5.0885996E+002  5.0890239E+002  5.0890563E+002  5.0887717E+002  5.0886784E+002  5.0886162E+002  5.0887044E+002  5.0799795E+002  5.0809975E+002  5.0798180E+002  5.0803564E+002  5.0876188E+002  5.0880836E+002  5.0882335E+002  5.0879166E+002  5.0879166E+002  5.0876819E+002  5.0884155E+002  5.0882432E+002  5.0847921E+002  5.0856389E+002  5.0861534E+002  5.0870502E+002  5.0879090E+002  5.0787254E+002  5.0786179E+002  5.0869065E+002  5.0887051E+002  5.0890888E+002  5.0881808E+002  5.0886257E+002  5.0859143E+002  5.0865682E+002  5.0862983E+002  5.0773649E+002  5.0850168E+002  5.0886608E+002  5.0874137E+002  5.0822601E+002  5.0864817E+002  5.0881898E+002  5.0888935E+002  5.0878384E+002  5.0821956E+002  5.0882293E+002  5.0889758E+002  5.0716085E+002  5.0890247E+002  5.0881562E+002  5.0709110E+002  5.0890110E+002  5.0822289E+002  5.0728635E+002  5.0844944E+002  5.0859460E+002  5.0883691E+002  5.0856695E+002  5.0879221E+002  5.0875851E+002  5.0866737E+002  5.0884276E+002  5.0876866E+002  5.0888105E+002  5.0829144E+002  5.0881417E+002  5.0750821E+002  5.0757976E+002  5.0870959E+002  5.0865949E+002  5.0797470E+002  5.0882926E+002  5.0889253E+002  5.0792414E+002  5.0887883E+002  5.0885790E+002  5.0880383E+002  5.0702336E+002  5.0701886E+002  5.0721745E+002  5.0855328E+002  5.0888428E+002  5.0886366E+002  5.0866242E+002  5.0876796E+002  5.0881089E+002  5.0850818E+002  5.0888084E+002  5.0775846E+002  5.0868125E+002  5.0883304E+002  5.0884688E+002  5.0817765E+002  5.0812967E+002  5.0878941E+002  5.0889326E+002  5.0782333E+002  4.3961720E+002  4.3112130E+002  4.4602646E+002  4.5104054E+002  4.5631518E+002  4.6188251E+002  4.6832461E+002  4.9984053E+002  4.7533766E+002  3.6653628E+002  5.0625113E+002  4.4140870E+002  5.0752421E+002  5.0282808E+002  4.8176990E+002  5.0737207E+002  4.8826964E+002  4.2720805E+002  4.4155746E+002  4.4847090E+002  4.9627424E+002  4.8685706E+002  5.0513318E+002  5.0360189E+002  4.8729587E+002  4.9500515E+002  5.0723454E+002  5.0765076E+002  2.9629275E+002  5.0502900E+002  5.0133469E+002  5.0015757E+002  4.9800374E+002  4.9565516E+002  3.2791690E+002  2.9734480E+002  5.0181985E+002  4.9489764E+002  5.0309195E+002  4.5268660E+002  4.7184772E+002  4.6493868E+002  4.5888155E+002  5.0695600E+002  2.9466377E+002  2.9707013E+002  2.9491460E+002  5.0365247E+002  5.0789595E+002  4.9861743E+002  5.0250738E+002  5.0046680E+002  3.0133873E+002  4.8104841E+002  4.6913571E+002  5.0660504E+002  5.0781174E+002  3.1157657E+002  4.9968286E+002  4.9697904E+002  5.0755916E+002  5.0265266E+002  2.9401708E+002  4.9914398E+002  5.0261657E+002  5.0103401E+002  5.0222437E+002  4.9165004E+002  4.4461744E+002  4.7807851E+002  4.3690785E+002  4.4269124E+002  5.0158296E+002  4.9660335E+002  4.9347753E+002  4.0367333E+002  4.6529737E+002  4.4718034E+002  2.9539023E+002  3.0948326E+002  2.9411939E+002  4.3400344E+002  4.1236239E+002  4.0244616E+002  3.8614794E+002  3.7585955E+002  3.6527047E+002  3.7200132E+002  3.5574186E+002  3.4968662E+002  3.4278626E+002  3.4716012E+002  3.3635430E+002  3.3952406E+002  3.3045220E+002  3.3275376E+002  3.2514000E+002  3.4177793E+002  3.2677430E+002  3.2042646E+002  3.2151094E+002  3.1616515E+002  3.1687837E+002  3.1240684E+002  3.1281095E+002  3.0909244E+002  3.3747443E+002  3.1493662E+002  4.2196829E+002  4.9932964E+002  4.9634970E+002  4.9903122E+002  5.0530073E+002  5.0799984E+002  3.0923349E+002  5.0223099E+002  2.9658300E+002  5.0600585E+002  3.0612827E+002  3.0586010E+002  4.9624969E+002  4.9867729E+002  3.9342355E+002  3.8771504E+002  4.5757268E+002  3.1276133E+002  3.0899794E+002  3.0341701E+002  3.0305983E+002  4.9420418E+002  4.8867227E+002  4.8896672E+002  4.8281351E+002  4.8243663E+002  4.7320406E+002  5.0810367E+002  5.0054999E+002  5.0061395E+002  4.9874796E+002  5.0054434E+002  5.0198485E+002  5.0217909E+002  5.0073885E+002  5.0209075E+002  3.4717834E+002  3.5459581E+002  3.0107163E+002  3.6387037E+002  3.6972443E+002  3.5117301E+002  3.5270854E+002  3.3916337E+002  3.3852469E+002  3.5106574E+002  3.2859986E+002  3.2864701E+002  3.2688785E+002  3.2746275E+002  3.2770318E+002  3.0347221E+002  2.9565106E+002  3.1864225E+002  2.9690814E+002  2.9556183E+002  5.0311164E+002  4.8355935E+002  5.0319765E+002  5.0322345E+002  3.0065772E+002  3.0240347E+002  5.0746077E+002  5.0731893E+002  5.0760867E+002  5.0708104E+002  3.0415186E+002  5.0094290E+002  5.0221832E+002  3.1228847E+002  3.0840845E+002  2.9364750E+002  5.0573552E+002  5.0321819E+002  5.0347567E+002  5.0242372E+002  5.0345788E+002  5.0257595E+002  5.0153625E+002  3.2045949E+002  3.2021791E+002  4.9955726E+002  5.0355414E+002  2.9906709E+002  5.0415472E+002  5.0421803E+002  5.0411687E+002  2.9997154E+002  3.0144960E+002  5.0165611E+002  4.3028621E+002  4.0983318E+002  2.9926028E+002  5.0512484E+002  5.0422354E+002  5.0497996E+002  5.0516458E+002  5.0436139E+002  5.0516294E+002  5.0447942E+002  5.0538874E+002  5.0464350E+002  5.0543159E+002  5.0480708E+002  5.0569717E+002  5.0503649E+002  5.0581085E+002  5.0496944E+002  5.0398569E+002  5.0420077E+002  5.0248488E+002  4.8844392E+002  4.6640226E+002  4.7900783E+002  4.5880590E+002  4.4047308E+002  4.9954029E+002  4.8941028E+002  5.0246468E+002  4.9451418E+002  4.9585729E+002  4.7985308E+002  4.6915569E+002  4.5891096E+002  4.3390634E+002  4.2513429E+002  3.9650882E+002  5.0293607E+002  4.9537190E+002  5.0262057E+002  4.4242835E+002  4.3306919E+002  2.9566542E+002  4.4892350E+002  4.4460224E+002  4.5111735E+002  4.4730996E+002  4.4658154E+002  4.4170073E+002  4.7301701E+002  4.6975197E+002  4.6574030E+002  4.6419307E+002  4.6924543E+002  4.5942695E+002  4.5662700E+002  4.6262051E+002  4.6140679E+002  4.8448555E+002  4.8528010E+002  4.8898883E+002  4.9041736E+002  4.5683508E+002  4.5283482E+002  4.5531246E+002  3.1674519E+002  3.1594593E+002  3.2122188E+002  5.0529704E+002  5.0605160E+002  3.1361958E+002  3.1322082E+002  3.1330623E+002  3.1912254E+002  3.1227411E+002  3.1745108E+002  3.1095075E+002  3.1542085E+002  3.0940068E+002  3.1321930E+002  3.0774466E+002  3.1098346E+002  5.0433786E+002  5.0443658E+002  5.0369008E+002  3.0607253E+002  3.0879633E+002  3.0452239E+002  3.0673931E+002  3.0299324E+002  4.9538151E+002  4.7447691E+002  4.6278828E+002  5.0052968E+002  5.0410449E+002  5.0496929E+002  5.0502625E+002  5.0811203E+002  5.0614350E+002  5.0645834E+002  5.0667485E+002  5.0636534E+002  5.0695105E+002  5.0060996E+002  5.0583546E+002  5.0452860E+002  5.0381221E+002  5.0459905E+002  5.0384638E+002  5.0311968E+002  2.9760840E+002  2.9738081E+002  2.9759409E+002  3.8330593E+002  4.0409747E+002  3.6215245E+002  5.0568124E+002  5.0569125E+002  4.9560760E+002  2.9362528E+002  3.0430041E+002  2.9902125E+002  2.9623837E+002  3.0774219E+002  2.9602729E+002  5.0673308E+002  5.0724695E+002  5.0608513E+002  3.0719471E+002  3.1997621E+002  3.2624097E+002  3.1471208E+002  5.0523856E+002  5.0491207E+002  4.1467917E+002  5.0563162E+002  5.0723783E+002  3.1916158E+002  3.6841903E+002  3.4517009E+002  2.9429988E+002  5.0719595E+002  4.5766154E+002  5.0519465E+002  3.1824229E+002  4.9698923E+002  5.0463023E+002  4.3080905E+002  3.1121860E+002  5.0377866E+002  3.0022404E+002  4.6541693E+002  4.4683539E+002  3.2530649E+002  4.0411851E+002  3.0869672E+002  3.1977975E+002  3.4739169E+002  3.1216024E+002  3.0605511E+002  3.1014332E+002  3.0430428E+002  3.0728500E+002  3.0199500E+002  3.1430780E+002  3.0996929E+002  3.1797102E+002  3.2743677E+002  3.3365676E+002  3.3476709E+002  2.9696712E+002  3.0567571E+002  3.0498704E+002  3.0270657E+002  3.0192040E+002  3.0402835E+002  3.0000898E+002  3.0089904E+002  3.0283948E+002  3.0066922E+002  3.0631215E+002  5.0127472E+002  3.0649729E+002  3.4264336E+002  3.4342128E+002  3.5379442E+002  3.5363522E+002  3.6714628E+002  3.6557406E+002  3.8118858E+002  3.8575588E+002  3.9867372E+002  3.8032115E+002  4.5415269E+002  4.2477932E+002  3.0436221E+002  4.9308424E+002  4.9338173E+002  5.0387290E+002  3.0196389E+002  2.9515194E+002  5.0820906E+002  2.9753176E+002  5.0561119E+002  4.9423151E+002  5.0460868E+002  3.4806137E+002  3.3173493E+002  3.2629688E+002  3.1222840E+002  3.6735732E+002  3.8437682E+002  4.1994556E+002  4.9318881E+002  5.0623045E+002  5.0632395E+002  5.0631614E+002  5.0627507E+002  4.2718503E+002  4.1905872E+002  4.1223731E+002  5.0713520E+002  5.0628721E+002  2.9838011E+002  5.0411553E+002  5.0532233E+002  3.6383605E+002  2.9888700E+002  5.0065957E+002  4.9942226E+002  4.9923947E+002  4.9779966E+002  4.9744721E+002  2.9728003E+002  4.7301254E+002  4.8672649E+002  4.5734435E+002  3.0467166E+002  4.4261204E+002  4.9591950E+002  2.9787290E+002  2.9698754E+002  2.9895771E+002  5.0198205E+002  4.8949496E+002  5.0755766E+002  5.0762720E+002  3.1308686E+002  2.9503682E+002  2.9980716E+002  3.0109915E+002  3.4014063E+002  5.0008946E+002  4.8461484E+002  4.9602180E+002  4.8946668E+002  4.7680499E+002  4.7257796E+002  3.0113703E+002  5.0509046E+002  3.7157962E+002  3.0276639E+002  3.0251700E+002  3.1861482E+002  5.0697510E+002  5.0432127E+002  5.0508254E+002  3.3496591E+002  4.9046098E+002  4.8500012E+002  4.9414368E+002  5.0691097E+002  5.0636830E+002  4.1315743E+002  4.1814935E+002  4.2200049E+002  4.0424992E+002  3.9129311E+002  3.8886217E+002  3.9929037E+002  3.6379269E+002  5.0182636E+002  5.0077640E+002  2.9440638E+002  5.0634933E+002  5.0687414E+002  5.0673869E+002  5.0724152E+002  4.3247169E+002  4.2030485E+002  4.3488832E+002  4.3201531E+002  4.1747027E+002  4.0340412E+002  5.0226375E+002  4.9308262E+002  4.4180504E+002  4.3415485E+002  4.3863899E+002  4.8230574E+002  4.7938135E+002  4.7488515E+002  4.4631086E+002  4.3764285E+002  4.2620735E+002  4.3086885E+002  5.0407659E+002  4.9956094E+002  2.9501595E+002  4.3006955E+002  3.6584709E+002  5.0760797E+002  3.9623231E+002  3.8090786E+002  5.0700552E+002  5.0733921E+002  5.0740274E+002  5.0758554E+002  5.0740192E+002  5.0758766E+002  5.0526305E+002  5.0582095E+002  5.0572407E+002  5.0578991E+002  5.0601238E+002  5.0690968E+002  5.0545449E+002  5.0606706E+002  3.5211920E+002  4.8004301E+002  4.7130043E+002  4.6086486E+002  5.0539551E+002  5.0776118E+002  5.0790347E+002  5.0604645E+002  5.0662651E+002  5.0659367E+002  5.0592709E+002  5.0645669E+002  5.0710110E+002  5.0714973E+002  5.0717546E+002  5.0567679E+002  5.0634823E+002  3.1146087E+002  4.8736475E+002  4.9552858E+002  5.0177818E+002  4.4041030E+002  4.2988210E+002  4.7763149E+002  3.9037589E+002  4.9994136E+002  3.3698747E+002  5.0785101E+002  5.0805832E+002  3.1615133E+002  2.9774917E+002  4.8960203E+002  5.0271083E+002  4.5172903E+002  5.0224078E+002  3.6916017E+002  3.9430523E+002  4.0272947E+002  2.9593846E+002  2.9536182E+002  4.7891173E+002  4.4347743E+002  5.0374645E+002  2.9690683E+002  5.0399120E+002  5.0486649E+002  5.0329908E+002  5.0307862E+002  5.0745895E+002  5.0094784E+002  3.3783781E+002  5.0728720E+002  5.0701464E+002  3.3257672E+002  5.0428026E+002  5.0640624E+002  5.0626779E+002  3.1328709E+002  3.1652974E+002  3.1029604E+002  3.1155035E+002  3.0163435E+002  5.0647127E+002  5.0599406E+002  5.0525704E+002  3.0481198E+002  3.0639548E+002  5.0651255E+002  3.1871869E+002  2.9787520E+002  5.0624776E+002  5.0678385E+002  5.0750662E+002  3.2160160E+002  3.4261074E+002  3.3152815E+002  3.4960109E+002  3.2808244E+002  3.2772866E+002  3.7792627E+002  5.0261311E+002  5.0379379E+002  3.5689944E+002  3.3503050E+002  3.3777400E+002  3.7055826E+002  3.3235858E+002  3.2383949E+002  3.1682235E+002  3.6061231E+002  3.3509027E+002  3.2279894E+002  3.5048952E+002  3.4308216E+002  3.1962313E+002  3.0769209E+002  3.0246296E+002  3.0725758E+002  3.0200401E+002  2.9721873E+002  3.2200902E+002  3.3425097E+002  3.0181062E+002  3.0548605E+002  3.0077819E+002  3.2792307E+002  3.1706322E+002  2.9979267E+002  2.9835405E+002  2.9884137E+002  2.9913361E+002  2.9734765E+002  2.9565467E+002  2.9919868E+002  2.9625595E+002  3.0316958E+002  2.9923200E+002  2.9527773E+002  2.9546409E+002  2.9347734E+002  3.1142492E+002  3.2190953E+002  2.9381592E+002  2.9465084E+002  2.9862967E+002  3.0372885E+002  2.9541784E+002  2.9806909E+002  2.9735452E+002  2.9609181E+002  2.9450682E+002  2.9521595E+002  2.9501120E+002  2.9844869E+002  3.5261043E+002  2.9388972E+002  3.2536328E+002  3.0738369E+002  2.9606692E+002  3.0323105E+002  2.9488881E+002  2.9501849E+002  3.0606341E+002  3.1021319E+002  3.0870600E+002  3.0525024E+002  3.0749728E+002  3.0107505E+002  3.0121016E+002  3.0460867E+002  3.0702501E+002  2.9793539E+002  2.9634578E+002  3.3492475E+002  3.1747146E+002  3.2266841E+002  3.1393657E+002  3.0857902E+002  3.2741725E+002  3.2284085E+002  5.0803252E+002  3.9849116E+002  3.2007403E+002  5.0311860E+002  5.0740450E+002  5.0733493E+002  5.0715369E+002  5.0730785E+002  5.0764521E+002  5.0770995E+002  5.0681663E+002  5.0669504E+002  5.0798428E+002  5.0792357E+002  5.0569185E+002  3.0152310E+002  5.0569955E+002  5.0682447E+002  3.0484842E+002  4.9978126E+002  4.9013025E+002  4.9238646E+002  4.7842304E+002  4.7899708E+002  3.0308080E+002  5.0801055E+002  3.0063905E+002  2.9865073E+002  4.9647351E+002  4.9678927E+002  5.0248153E+002  5.0339355E+002  3.0765721E+002  5.0191544E+002  5.0579189E+002  5.0259007E+002  5.0319418E+002  5.0029734E+002  5.0815913E+002  5.0728897E+002  5.0340762E+002  5.0287306E+002  2.9656888E+002  3.2342593E+002  5.0374678E+002  4.3895746E+002  3.8308683E+002  5.0686920E+002  5.0756755E+002  3.0001112E+002  2.9341483E+002  2.9445831E+002  3.3797316E+002  5.0607311E+002  4.9753887E+002  3.5302453E+002  2.9555713E+002  4.9398000E+002  5.0601798E+002  5.0681957E+002  3.3713510E+002  5.0435818E+002  4.9064957E+002  2.9594331E+002  3.1327463E+002  5.0125857E+002  5.0291878E+002  4.3479258E+002  5.0562566E+002  4.5862066E+002  2.9430445E+002  5.0819310E+002  5.0784655E+002  4.9900923E+002  5.0657197E+002  5.0700190E+002  4.5438537E+002  4.5137131E+002  4.4029983E+002  4.2011639E+002  4.5477394E+002  4.5783267E+002  4.6503094E+002  4.6811985E+002  4.6524018E+002  4.5817969E+002  4.4346409E+002  4.8755689E+002  4.4976556E+002  4.5243017E+002  4.7204796E+002  4.6168316E+002  5.0002327E+002  3.0114632E+002  4.9012813E+002  4.7969332E+002  5.0569453E+002  4.9550012E+002  4.0479849E+002  5.0399277E+002  5.0445134E+002  5.0488642E+002  2.9999743E+002  5.0506056E+002  5.0338043E+002  2.9739179E+002  5.0777799E+002  5.0378161E+002  4.9935841E+002  4.9962366E+002  3.4615176E+002  2.9660800E+002  5.0638844E+002  2.9519876E+002  4.9179629E+002  5.0625723E+002  4.4282163E+002  4.7325889E+002  5.0526152E+002  4.5738917E+002  4.8841016E+002  2.9834864E+002  3.9827893E+002  5.0665014E+002  5.0305504E+002  5.0791787E+002  2.9437628E+002  5.0717133E+002  3.0039468E+002  2.9850137E+002  4.9855459E+002  2.9412478E+002  5.0565123E+002  3.2851323E+002  3.0261531E+002  4.7843312E+002  5.0497299E+002  5.0676779E+002  3.4104707E+002  5.0506893E+002  5.0786274E+002  5.0684057E+002  2.9816589E+002  3.8327956E+002  4.9800476E+002  4.9728436E+002  4.9367955E+002  2.9614082E+002  2.9695535E+002  4.4847335E+002  5.0759623E+002  4.6802362E+002  2.9424292E+002  3.7035349E+002  5.0006596E+002  4.9378504E+002  5.0448210E+002  4.8790009E+002  4.7689953E+002  4.6505773E+002  5.0383019E+002  5.0484579E+002  5.0664665E+002  5.0181538E+002  5.0068389E+002  5.0310745E+002  5.0039294E+002  4.9019556E+002  4.8961079E+002  5.0340728E+002  5.0663012E+002  5.0365963E+002  5.0179140E+002  5.0078028E+002  4.8864622E+002  5.0043143E+002  4.8858672E+002  5.0082876E+002  5.0388622E+002  5.0539476E+002  5.0029329E+002  4.9129999E+002  5.0374334E+002  4.9880147E+002  5.0144039E+002  3.4939546E+002  3.0755813E+002  2.9568041E+002  5.0610006E+002  4.9015759E+002  2.9649288E+002  5.0035561E+002  5.0113138E+002  5.0367733E+002  2.9505986E+002  4.9351643E+002  4.8552698E+002  3.2100767E+002  5.0727640E+002  5.0637170E+002  5.0615311E+002  2.9421428E+002  3.1119578E+002  4.5091569E+002  4.4294899E+002  4.4422022E+002  4.4265049E+002  4.9630577E+002  4.4850367E+002  4.4311866E+002  4.4202362E+002  4.5845376E+002  4.7571611E+002  4.7444018E+002  4.9038135E+002  4.4934847E+002  4.6439728E+002  4.6741707E+002  4.4559379E+002  4.7087709E+002  4.6111295E+002  4.8591640E+002  4.5588989E+002  4.7710273E+002  4.7887440E+002  4.4697037E+002  4.8052658E+002  4.8340609E+002  4.5284915E+002  4.3403740E+002  5.0671085E+002  3.7523823E+002  4.0804769E+002  4.2942126E+002  4.3953285E+002  4.2898000E+002  4.3675434E+002  4.3731413E+002  4.3179222E+002  4.3360937E+002  2.9387121E+002  5.0213797E+002  3.1645357E+002  2.9327095E+002  2.9365004E+002  3.3237732E+002  4.9425308E+002  5.0655186E+002  5.0493910E+002  4.8740132E+002  5.0763640E+002  3.0940829E+002  5.0157001E+002  4.9327692E+002  3.0079285E+002  3.2123164E+002  2.9719165E+002  4.9861348E+002  2.9524729E+002  5.0052182E+002  4.7679898E+002  5.0728587E+002  5.0801795E+002  4.2657698E+002  4.5825432E+002  4.1700556E+002  4.4178478E+002  5.0590100E+002  4.3073385E+002  4.9329273E+002  5.0442384E+002  4.3788914E+002  2.9617842E+002  4.9350949E+002  4.1888257E+002  4.1121952E+002  4.6955196E+002  2.9822113E+002  5.0249387E+002  5.0243126E+002  3.5646456E+002  3.8299619E+002  5.0443373E+002  3.1328594E+002  5.0677137E+002  2.9382571E+002  5.0681143E+002  5.0589482E+002  5.0825205E+002  4.1550782E+002  5.0771743E+002  3.2642360E+002  4.5260171E+002  5.0611497E+002  4.8350177E+002  4.9969684E+002  2.9913687E+002  2.9857823E+002  4.1550123E+002  4.9265414E+002  2.9753041E+002  5.0789021E+002  3.2120036E+002  5.0771550E+002  5.0232822E+002  4.8938567E+002  5.0100186E+002  4.9784543E+002  5.0755815E+002  5.0331803E+002  5.0321607E+002  5.0349336E+002  4.2848374E+002  5.0755351E+002  5.0503686E+002  5.0069313E+002  4.8534896E+002  5.0596577E+002  5.0690051E+002  5.0784697E+002  5.0636697E+002  4.6270859E+002  4.9871962E+002  5.0689374E+002  5.0802843E+002
        </DataArray>
        <DataArray type="Float64" Name="temperature loads" NumberOfComponents="1" format="ascii">
 -2.2604758E-003 -8.1208318E-003 -4.6700964E-002 -8.4922919E-003  3.3991194E-006 -1.6918395E-004 -1.6601594E-003  2.5232085E-002  2.1903057E-004  3.9220846E-002  3.9231681E-002 -9.1979617E-005 -1.1595065E-004 -4.7480689E-004 -9.7134560E-004  1.0729195E-012 -1.6598278E-011  8.8704179E-004 -8.5467633E-011 -4.4266372E-002 -4.2417094E-002 -4.0567504E-002 -3.8717694E-002 -3.6867729E-002 -3.5017671E-002 -3.3167575E-002 -3.1317482E-002 -2.9467434E-002 -2.7536571E-002 -2.3754093E-002 -1.8574650E-002 -1.4577912E-002 -1.2003255E-002 -1.0335024E-002 -9.2878579E-003 -4.7959803E-002 -4.7941876E-002 -4.7931682E-002 -4.7924645E-002 -4.7919391E-002 -4.7915309E-002 -4.7912042E-002 -4.7909393E-002 -4.7907204E-002 -4.7905402E-002 -4.7903874E-002 -4.0327502E-004 -4.8032591E-004 -5.5748526E-004 -6.3474266E-004 -7.1209486E-004 -7.8953748E-004 -8.6706845E-004 -9.4468151E-004 -1.0223766E-003 -1.1001513E-003 -1.1780044E-003 -1.2559344E-003 -1.3339383E-003 -1.4120145E-003 -1.4901602E-003 -1.5683584E-003 -7.8983277E-004 -8.4208692E-004 -9.2033413E-004 -1.0287566E-003 -1.1755417E-003 -1.3738708E-003 -1.6391872E-003 -1.8447331E-003 -1.8978973E-003 -1.8955494E-003 -1.8931011E-003 -1.8905629E-003 -1.8879413E-003 -1.8852416E-003 -1.8824696E-003 -1.8796307E-003 -1.8767282E-003 -1.8737680E-003 -1.8707537E-003 -1.8676902E-003 -1.8645809E-003 -1.8614303E-003 -1.8582422E-003 -1.8550210E-003 -1.8517699E-003 -1.8484918E-003 -1.8451919E-003 -1.8418731E-003 -1.8385396E-003 -1.8351930E-003 -1.8318369E-003 -1.8284749E-003 -1.8251089E-003 -1.8217436E-003 -1.8183816E-003 -1.8150242E-003 -1.8116749E-003 -1.8083369E-003 -1.8050130E-003 -1.8017033E-003 -1.7984117E-003 -1.7951421E-003 -1.7918949E-003 -1.7886741E-003 -1.7854781E-003 -1.7823120E-003 -1.7791787E-003 -1.7760779E-003 -1.7730122E-003 -1.7699843E-003 -1.7669959E-003 -1.7640455E-003 -1.7611419E-003 -1.7582790E-003 -1.7554629E-003 -1.7526925E-003 -1.7499724E-003 -1.7473016E-003 -1.7446826E-003 -1.7421171E-003 -1.7396059E-003 -1.7371497E-003 -1.7347505E-003 -1.7324112E-003 -1.7301280E-003 -1.7279093E-003 -1.7257502E-003 -1.7236522E-003 -1.7216205E-003 -1.7196522E-003 -1.7177523E-003 -1.7159145E-003 -1.7141463E-003 -1.7124466E-003 -1.7108166E-003 -1.7092575E-003 -1.7077706E-003 -1.7063575E-003 -1.7050152E-003 -1.7037493E-003 -1.7025592E-003 -1.7014480E-003 -1.7004326E-003  1.3141885E-003  2.6285239E-003  3.9427716E-003  5.2568145E-003  6.5703281E-003  7.8829234E-003  9.1938752E-003  1.0503890E-002  1.1811753E-002  1.3116951E-002  1.4419961E-002  1.5719005E-002  1.7012815E-002  1.8300655E-002  1.9582361E-002  2.0855414E-002  2.2117747E-002  2.3364811E-002  2.4593457E-002  2.5799954E-002  2.6972693E-002  2.8101796E-002  2.9178627E-002  3.0195767E-002  3.1150119E-002  3.2049804E-002  3.2907550E-002  3.3727626E-002  3.4514930E-002  3.5274420E-002  3.6004779E-002  3.6710790E-002  3.7389331E-002  3.8038820E-002  3.8659676E-002  3.9600065E-002  3.9730959E-002  3.9606293E-002 -3.7016936E-003 -3.9060755E-003 -4.2118716E-003 -4.6290669E-003 -5.1815063E-003 -5.9073452E-003 -6.8644046E-003 -8.8497294E-004 -8.6767278E-004 -8.5024092E-004 -8.3273680E-004 -8.1518253E-004 -7.9759185E-004 -7.7997382E-004 -7.6233498E-004 -7.4468092E-004 -7.2701562E-004 -7.0934315E-004 -6.9166640E-004 -6.7398844E-004 -6.5631161E-004 -6.3863812E-004 -6.2097017E-004 -6.0330985E-004 -5.8565904E-004 -5.6801913E-004 -5.5039214E-004 -5.3278008E-004 -5.1518441E-004 -4.9760669E-004 -4.8004757E-004 -4.6251178E-004 -4.4499924E-004 -4.2751093E-004 -4.1004994E-004 -3.9262228E-004 -3.7523048E-004 -3.5787877E-004 -3.4057466E-004 -3.2333119E-004 -3.0615951E-004 -2.8908696E-004 -2.7215713E-004 -2.5543616E-004 -2.3915251E-004 -2.2394380E-004 -3.4694470E-018  1.0200174E-015  1.4016566E-015  2.1163626E-015  1.2836954E-015  7.4037998E-015  1.1032841E-015  6.1339822E-015  1.7950919E-014  1.0592915E-013 -1.0408341E-017  2.6266142E-013  4.9829932E-014  4.6095072E-014 -8.6736174E-018  5.6891124E-014  7.0227678E-014 -5.8611154E-004 -1.0836314E-003 -1.5314442E-003 -1.9367534E-003 -2.2167808E-003 -2.4689905E-003 -2.5218458E-003 -2.5533639E-003 -2.4423285E-003 -2.2345933E-003 -1.9279024E-003 -1.5305836E-003 -1.0640437E-003 -5.4644274E-004 -2.3347372E-003 -4.8310353E-003 -6.8450489E-003 -8.7054274E-003 -1.0114754E-002 -1.1142024E-002 -1.1887965E-002 -1.2086376E-002 -1.1968930E-002 -1.1542772E-002 -1.0890688E-002 -1.0096665E-002 -9.2061508E-003 -8.2771269E-003 -7.3430203E-003 -6.4071513E-003 -5.5304242E-003 -4.7003121E-003 -3.9112862E-003 -3.1864035E-003 -2.4774804E-003 -1.8284136E-003 -1.2170195E-003 -5.7039791E-004 -5.7500580E-003 -1.1102188E-002 -1.5320179E-002 -1.8370075E-002 -1.9779619E-002 -1.9798698E-002 -1.8280218E-002 -1.6563128E-002 -1.3932802E-002 -1.1846200E-002 -9.1594492E-003 -6.9128388E-003 -4.6216855E-003 -2.3977089E-003  5.2041704E-018 -5.9638058E-014 -7.5087506E-014 -1.1224233E-012 -4.2823384E-014 -4.3000326E-014 -1.2698176E-014  1.3877788E-017 -4.3236248E-014  3.8668718E-002  3.8047546E-002  3.7396838E-002  3.6718568E-002  3.6014252E-002  3.5285862E-002  3.4531542E-002  3.3755788E-002  3.2965406E-002  3.2169818E-002  3.1421093E-002  5.5067062E-014  9.6012087E-012  3.4763303E-012  7.5850437E-012  2.4034108E-011  2.2321700E-011  2.0701663E-011  1.7049473E-011  1.7596591E-011  2.3000268E-011  2.0563107E-011  2.2822633E-011  2.1863400E-011  1.9795721E-011  2.4712676E-011  2.4158453E-011  3.1349146E-011  1.8715696E-011  2.1991298E-011  1.9397817E-011  2.4208191E-011  3.1484149E-011  1.7934099E-011  2.1707081E-011  2.0222046E-011  1.5830892E-011  1.8417268E-011  1.3315571E-011  1.3756107E-011  1.1411316E-011  9.4928509E-012  1.0231815E-011  7.7307050E-012  1.4054535E-011  5.9259264E-012  5.4569682E-012  5.6274985E-012 -9.5212727E-013 -5.2580162E-013 -1.6484591E-012 -5.4285465E-012 -3.2969183E-012 -4.8885340E-012 -1.2008172E-011 -8.9386276E-012 -1.2462920E-011 -1.0686563E-011 -7.9580786E-013 -3.6095571E-012 -1.3770318E-011 -5.3432814E-012  1.1937118E-012  1.9042545E-012  5.4569682E-012  1.3642421E-012  3.0127012E-012  4.5474735E-012  7.5317530E-012  6.6506800E-012  6.2243544E-012  1.0174972E-011  1.3926638E-012 -9.7486463E-012 -2.4272140E-011 -2.8364866E-011 -9.2825303E-011 -1.7109869E-010 -2.5261215E-010  4.7900250E-002  4.2577997E-002  3.7255750E-002  3.1933501E-002  2.6611251E-002  2.1289001E-002  1.5966749E-002  1.0644499E-002  5.3222501E-003  6.8567374E-013  9.2015284E-013  7.6366691E-013  4.9107385E-012 -2.2204460E-016  1.7723600E-012  8.6108898E-013  7.1542772E-013  6.5147887E-013  6.5503158E-014  1.0946799E-013  2.0161650E-013 -1.1102230E-015  2.7522429E-013  3.2551739E-013  3.9790393E-013 -1.7763568E-015  3.1619152E-013  3.5171865E-013  2.8954616E-013  3.1619152E-013  3.1619152E-013 -1.4210855E-013 -1.0196288E-012 -3.7211123E-011 -1.7461588E-011 -3.8571102E-010 -3.4850700E-010 -8.4241947E-010 -1.7369644E-009 -1.6477770E-009 -1.4275656E-009 -2.4704150E-009 -1.8119408E-009 -1.1245902E-009 -2.6118414E-009 -2.7923761E-009 -2.9351668E-009 -3.3903689E-009 -3.7264272E-009 -4.6459263E-009 -3.6682195E-009 -4.2518877E-009 -4.5588422E-009 -5.9976628E-009 -6.6729626E-009 -6.8112058E-009 -1.4970738E-008 -8.0970040E-009  1.8198443E-011 -8.8817842E-016  5.4719784E-011  8.2253315E-011  1.0472956E-010  6.6517458E-010  9.6778863E-011  7.7433171E-011  1.0689760E-010  1.7763568E-015  4.5762683E-010  7.3578255E-011 -3.5527137E-015  1.5045831E-010  6.1981531E-011  7.4701134E-011 -7.9936058E-015  5.5660365E-011  1.1516832E-010 -1.7763568E-015  7.0751405E-011  5.1513460E-011  1.1567369E-010  5.4289906E-011  4.9885429E-011  5.1458393E-011  4.7255533E-011  6.7821304E-011  1.7763568E-015  6.6515682E-011  5.8473226E-011  4.8955506E-011  5.2541971E-011  4.7467807E-011  5.0584426E-011  4.6423310E-011  4.9797499E-011  1.0486101E-010  4.7411852E-011  5.8584249E-011  4.7499782E-011  4.9667825E-011  4.5231374E-011  4.7300830E-011  4.2176040E-011  5.9434235E-011  1.7763568E-015  5.1620042E-011  5.1866955E-011  4.2089887E-011  5.2884808E-011  4.2502002E-011  9.1899821E-011  4.1837644E-011  3.7869263E-011  4.7098325E-011  3.7642778E-011  4.4092729E-011  3.5646153E-011  4.1950443E-011  4.4408921E-015  4.0741632E-011  4.3383075E-011  3.4950709E-011  4.0959236E-011  3.1777248E-011  3.3494985E-011  3.0611069E-011  3.7213788E-011  3.0087044E-011  6.2074790E-011  2.5930369E-011  2.2474467E-011  2.7373659E-011  2.2201796E-011  2.6319391E-011  2.0042634E-011  1.9015012E-011  1.6386004E-011  1.9745094E-011  1.5610624E-011  1.8025581E-011  1.6077806E-011  8.8817842E-016  1.7362112E-011  1.4055423E-011  2.9167779E-011  1.3379520E-011  9.6171959E-012  8.4368068E-012  4.7846171E-012  3.7783110E-012  4.4186876E-012  3.0837555E-012  1.3322676E-015  4.4444448E-012  1.7958968E-012  1.4916957E-012  1.1451950E-012 -1.3875567E-010  3.5527137E-015 -3.3001335E-010  4.9169557E-012  5.8690830E-012  6.3451466E-012 -6.2172489E-011  1.1219470E-011 -3.9790393E-013  8.5520924E-011  1.9042545E-012 -1.5816681E-011 -1.4068746E-012  8.5265128E-014 -7.7378104E-011  3.1405989E-012 -2.0776270E-011  2.7213787E-012 -1.6342483E-013  7.1285200E-012  4.2632564E-013 -1.4665602E-011 -3.6834535E-011  3.4638958E-012 -4.7317883E-010  1.3081092E-011  5.9969807E-012  5.2100546E-011  1.4054535E-011  3.1322500E-011  1.7585933E-012  4.8316906E-013  1.0094148E-011 -2.8731506E-010 -1.5063506E-012  6.4837025E-013 -1.5315038E-010 -1.1436896E-010  1.0800250E-012 -8.9954710E-011 -4.0614623E-011  9.3791641E-013 -6.6407324E-011  8.2422957E-013  7.5317530E-012  6.9135808E-012  1.2693846E-011  3.1405989E-012  2.4016344E-012  8.2494012E-012  2.8228531E-011  6.3460348E-013  6.0129679E-013  2.8421709E-014 -1.4381385E-010  2.2826185E-013  3.6388670E-012  1.1560530E-011  6.0396133E-012  1.9472424E-011  1.6125767E-011  1.7529089E-011  7.4891204E-012  2.2382096E-011  2.3611335E-011  2.5814018E-011  2.7455371E-011  3.1143088E-011  1.6790125E-011  1.3351098E-011  2.0968116E-011  7.1267436E-012  1.6655122E-011  9.6065378E-012  1.4381385E-011  8.0433438E-012  8.4057206E-012  1.7820412E-011  8.6544105E-012  1.1652901E-011  9.4644292E-012  9.6065378E-012  9.5781161E-012  7.1906925E-012  1.5219825E-011  5.6701310E-012 -1.8530955E-011 -2.1600499E-012  5.5706550E-012  5.2580162E-013 -1.2747137E-011 -5.4143356E-012  3.4248160E-012 -1.0345502E-011 -7.2191142E-012 -1.0857093E-011 -3.3750780E-011 -1.3116619E-011 -8.1001872E-012 -1.3613999E-011  4.6895821E-013  2.0875746E-011  3.4773961E-011 0.0 -1.4210855E-014 -6.8212103E-013  9.0523145E-012  3.1690206E-012  6.7217343E-012  7.0770056E-012 -4.5261572E-012  3.3573144E-011  5.2516214E-011  1.6200374E-012 -3.5484504E-011 -3.6948222E-011  1.2526868E-011  1.3358203E-012  1.6484591E-012  4.9737992E-014  1.6413537E-011  1.1368684E-013  4.5758952E-012  1.6854074E-011  4.8373749E-011  4.9453774E-012  9.8765440E-012  1.0665246E-011  1.1745271E-011  1.1368684E-013  1.3642421E-012  1.6058266E-012 -4.9723781E-011  2.0001778E-011  8.5833562E-012  5.6878946E-012 -5.1045390E-011  2.7299052E-011  3.6258996E-011  8.3844043E-012 -1.2803980E-011 -6.3380412E-012 -1.5589308E-011 -4.4821036E-011  6.8212103E-013  9.2654773E-012  1.8488322E-011  1.1930013E-011  1.3002932E-011  9.8481223E-012  2.7142733E-011  1.3589130E-011  1.2384760E-011  2.8958169E-011  5.9401373E-012 -7.1054274E-014  1.1368684E-013  7.8301809E-012 -1.5376145E-011 -6.3280936E-011 -1.9667823E-011 -1.1088730E-010  1.6086688E-011  1.1652901E-011  5.2079230E-011  2.8983038E-011  3.6862957E-011 -5.9444005E-011  2.0747848E-012 -8.5066176E-011 -7.8756557E-011  6.6648909E-012 0.0  2.3590019E-012  1.2107648E-011  7.4749096E-012  1.4509283E-011  6.4943606E-012 -2.6602720E-011 -3.1675995E-011 -4.9823257E-011 -1.4011903E-010  9.1873176E-012  3.3555381E-012  1.0011547E-011  1.6100898E-011  2.7100100E-011  1.6981971E-011  1.0246026E-011  1.3081092E-011  1.1986856E-011  1.3809398E-011  3.0318859E-011  2.3606006E-011  3.5395686E-011  2.6389557E-011  3.3153924E-011  2.9771741E-011  1.4928503E-011  2.9963587E-011  2.9398706E-011  1.7486457E-011  1.2491341E-011  1.4225066E-011  7.2901685E-012  9.8623332E-012  9.3791641E-012  1.1254997E-011  1.0707879E-011  1.4679813E-011  1.4161117E-011  9.6278541E-012  1.7863044E-011  2.1707081E-011  1.5923263E-011  2.3703706E-011  5.5216276E-011 -1.3358203E-011 -7.8188123E-011 -4.1978865E-011  4.7730708E-012  1.3649526E-011  1.4516388E-011  5.6843419E-014  1.9888091E-011 -7.3839601E-011  1.7806201E-011  1.6484591E-012  1.2789769E-012  1.0963674E-011 -1.9994673E-011 -8.7254648E-011 -8.4867224E-011 -2.6460611E-011 -1.1732482E-010 -3.4958703E-011 -8.9741548E-011 -6.9960038E-011 -1.3321255E-010 -7.4493300E-011 -7.9438678E-011 -4.3741011E-011 -5.9117156E-011 -2.8563818E-011 -7.4550144E-011 -7.5232265E-011 -1.0618351E-010 -1.7593038E-010 -5.1187499E-011 -2.5920599E-011 -1.3670842E-011 -1.6427748E-011 -6.3096195E-012  1.4054535E-011  1.8644641E-011 -1.7703883E-010  9.0381036E-012 -6.9178441E-011 -2.9814373E-011  1.8729907E-011  2.8631320E-011  1.1098678E-011  4.6469495E-012  2.4504843E-012  1.8562929E-012  2.1429969E-011 -1.1780799E-011 -2.6886937E-011  2.1387336E-011  5.5422333E-012  5.2864380E-012  7.8586027E-012  3.9790393E-012  7.1196382E-012  3.1263880E-012 -2.9274361E-012 -8.8590468E-011  2.0790480E-011  1.4694024E-011  7.4393824E-012  4.5758952E-012  1.0821566E-011  1.9056756E-011  7.8443918E-012  7.9580786E-012  1.2377654E-011  3.6589398E-011 -1.0544454E-010 -9.8140163E-011 -7.7719164E-011  4.9311666E-012  3.4532377E-012  1.7937651E-011 -6.6791017E-012 -1.9468871E-011 -2.8990144E-012 -3.6664005E-012  4.8316906E-013  8.2422957E-013  9.2086339E-012  1.8111734E-011  1.9490187E-011 -2.0590107E-010  2.0378366E-011  3.0290437E-011  3.6735059E-012 -9.1802121E-012 -4.0614623E-011  7.6454398E-012  2.8421709E-013  3.4564351E-011  1.0373924E-011  2.2595259E-012  5.2011728E-012  7.7022833E-012  6.2243544E-012  1.6903812E-011 -1.1195311E-010  1.7983837E-011 -3.2301273E-011 -4.8117954E-011 -2.6759039E-011  1.3258727E-011 -1.6086688E-011  9.7379882E-012  4.8636650E-012  4.9631410E-012 -1.2150281E-011 -1.0177814E-010 -2.3986502E-010  5.5440097E-012  1.7532642E-012  1.6679991E-011  3.4347636E-011  5.7692517E-011  6.5966788E-011  1.7607249E-011  6.0822458E-012 -1.7763568E-014 -2.0996538E-010 -1.6942181E-010 -1.0710721E-010 -1.8519586E-010  2.2978952E-011  1.6910917E-011  5.0121685E-011  2.0428104E-011  2.5579538E-012  1.7905677E-012  1.1368684E-013 -6.5398353E-011 -1.0464873E-010 -6.4758865E-011  1.8381741E-011  2.5131897E-011 -1.9625190E-011 -1.3960744E-010  1.2477130E-011  9.2370556E-014  9.8623332E-012  2.2168933E-012  1.9895197E-012  1.2221335E-012  1.0231815E-012  5.6843419E-013 -2.5693225E-011 -3.6450842E-011  3.7680081E-011  1.0967227E-011 -4.0344617E-011 -9.8054898E-013  2.8421709E-013  9.3791641E-013 -1.1760903E-010 -3.1238301E-010 -1.4301804E-010  4.1211479E-012 -1.5148771E-011  4.3485215E-012  3.6948222E-013  5.5422333E-013  3.9095838E-011  1.1688428E-011 -7.3299589E-011  3.5527137E-012  1.3656631E-011 -1.8374635E-011  3.0929925E-011  2.4755309E-011  5.7276850E-011 -2.9700686E-012 -1.4210855E-013  3.0780711E-011  4.2284398E-011  3.3637093E-011 -4.4053650E-012  1.8118840E-011  9.1020524E-012  1.5461410E-011  1.2594370E-012 -1.4297541E-010 -8.5904617E-011 -4.0941472E-011 -1.2127543E-010 -3.6635583E-011  7.8870244E-012 -3.9477754E-011  9.2512664E-012  4.7313264E-012  7.1054274E-015  6.5227823E-012  1.1366907E-011  1.2256862E-011 -9.6633812E-013 -1.7507773E-011  7.4429352E-012  2.1913138E-011  7.6596507E-012  5.5417892E-012 -2.4485303E-011 -4.1794124E-011 -8.2948759E-011 -5.6843419E-014 -6.1106675E-013  1.5063506E-012  1.1368684E-013 -8.2494012E-012 -4.2632564E-014  8.6259888E-012  9.7344355E-012  9.2370556E-012  7.1054274E-014 -2.8563818E-012  1.1652901E-012 -6.3664629E-012 -6.0964567E-011 -9.6548547E-011  3.2684966E-012  3.7108094E-012 -5.5422333E-013 -4.9794835E-011 -1.9713298E-010  3.6237680E-012 -1.6312640E-010 -2.5124791E-011 -6.5085715E-012 -1.5830892E-011  1.6768809E-012 -3.0624392E-011 -3.7476866E-010  4.2632564E-013  1.4495072E-012 -4.7965187E-010  1.1084467E-012  7.2262196E-012  5.5706550E-012  4.7322146E-012  9.5923269E-012 -6.6364692E-012  2.6716407E-012  1.3990586E-011  5.8548721E-012  9.8054898E-012  1.6768809E-012  1.0640377E-012 -2.2694735E-011  3.9459991E-011 -6.1561423E-011  5.2429172E-012  3.7942982E-012  1.9916513E-011  4.3272053E-012  2.3526070E-011 -7.3924866E-011  1.1926460E-011  6.7075234E-012  2.3145930E-011  2.0975222E-011  8.8107299E-013 -3.5527137E-011  1.4267698E-011  7.9438678E-012  2.2168933E-012  4.7748472E-012  1.0551560E-011  1.0061285E-011  1.5873525E-011  8.1854523E-012  2.6332714E-011 -2.8919089E-012 -6.6791017E-011  6.5369932E-013 -1.7621460E-012  6.8833828E-013  7.2404305E-012  1.6289192E-011 -3.8653525E-012  5.2331472E-012  5.6985527E-012  1.2400747E-011 -6.8197892E-011 -8.3431928E-011 -2.4169822E-010  4.8387960E-012  3.6305181E-011  6.4716232E-011  6.4801498E-012  2.4485303E-011  8.9102059E-012  1.1256773E-011  2.0788704E-011 -7.9069196E-011  4.1069370E-012  1.4708235E-011  2.7213787E-012  7.4287243E-012 -4.5787374E-011  5.4001248E-012  1.2384760E-011 -3.0013325E-011  1.6008528E-011 -9.4942720E-011 -4.1410431E-011  5.8051342E-012 -1.6484591E-012 -2.5440272E-010 -1.2141754E-010  1.4210855E-013  8.4625640E-012 -1.0032863E-011 -1.0103918E-011 -7.6596507E-011  1.0601298E-011 -3.0546232E-011  2.5266900E-011  1.2121859E-011 -1.6615331E-010  1.5969448E-011  4.3343107E-012 -4.6952664E-011  3.3253400E-012 -2.8421709E-014  1.1613821E-011  2.7879921E-012  4.4025228E-011  3.4603431E-012  1.7035262E-011 -2.4726887E-012 0.0  1.3415047E-011  1.8545165E-011  3.6948222E-013  1.3642421E-011  2.3177904E-011  2.9217517E-011  1.1937118E-012 -2.3314328E-010 -1.1181811E-010  4.2476245E-011 -7.0599526E-011  2.7853275E-012  1.0089707E-012 -9.5212727E-013 -5.2210680E-011 -3.9904080E-011 -4.8032689E-012  7.2979844E-011  1.4122037E-011 -8.1470830E-011 -1.1368684E-013  1.6768809E-012 -2.5579538E-013 -5.8832939E-011 -8.3758778E-011  8.7112539E-012  8.7823082E-012  2.0662583E-011  6.5512040E-012  5.1585403E-012  8.5869090E-012  8.6721741E-012  1.1766588E-011  1.6655122E-011  5.7553962E-012  4.6327386E-012  3.5811354E-012  3.2684966E-012  3.5029757E-012  9.9831254E-013  1.6399326E-011  2.3860025E-011  4.1069370E-012 -7.1054274E-015 -3.3779202E-011 -6.1675109E-012  2.9530156E-011 -4.8316906E-013  2.2879476E-012  6.4375172E-012  8.4288132E-013 -1.2434498E-014  1.0217605E-011 -9.8225428E-011 -2.3533175E-011  2.5899283E-012  5.6532556E-013  1.2871482E-011  1.2050805E-011  3.5100811E-012  1.7053026E-013  6.4659389E-012 -1.7678303E-011  2.4670044E-011 -8.1655571E-011  1.4779289E-012 -1.1368684E-013 -2.6449243E-010 -1.5322144E-010 -3.0624392E-011 -1.7095658E-010  1.5166535E-011  9.0381036E-012 -1.0635404E-010  1.4210855E-012  9.1979757E-012  8.4412477E-012  5.7980287E-012  2.5892177E-011  8.5549345E-012 -1.0004442E-011  1.0913936E-011  1.3642421E-012  5.2466476E-011  3.9960923E-011  2.9558578E-011  2.3305802E-011  1.5006663E-011 -2.7284841E-012 -1.7280399E-011 -7.2986950E-011 -7.3441697E-011 -1.7280399E-011  2.8421709E-011 -1.7365664E-009 -5.5119926E-009 -1.2136070E-011  3.8625103E-011 -1.9440449E-010 -5.2232281E-009  3.9790393E-012 -1.1229986E-009 -7.9580786E-013 -4.6838977E-011 -4.1793555E-009 -6.0558705E-009 -2.7973783E-009 -1.4803163E-009  2.0264679E-011 -8.2536644E-011 -6.9348971E-010 -4.9044502E-010  3.7232439E-012 -9.0540198E-009 -2.4672318E-009 -1.9283561E-009 -4.0965915E-009 -7.1395334E-011 -1.0800250E-011 -2.8876457E-011 -1.2278178E-011  1.7962520E-011  2.6147973E-011  3.0695446E-012  5.5763394E-011  5.2693849E-011  1.2960300E-011  3.0581759E-011  2.2851054E-011 -1.4388206E-009  5.4356519E-013 -3.5242920E-010 -1.3037607E-009 -9.2172741E-009 -2.6011548E-010  1.1780799E-011 -7.9899110E-010 -5.1500137E-010 -6.5483619E-010 -1.8803803E-010 -4.0608938E-010 -3.0354386E-010 -3.1036507E-010 -1.6757440E-010 -2.7216629E-010 -1.5029400E-010 -2.2168933E-010 -1.4460966E-010 -4.5019988E-011  9.0949470E-013 -1.1846168E-010 -6.7075234E-011 -2.1032065E-010 -1.2789769E-010 -1.6711965E-010 -1.1061729E-010 -2.7785063E-010 -2.0281732E-010 -3.6766323E-010 -7.3669071E-011 -1.5074875E-010 -4.5633897E-010 -2.0827429E-010 -6.8553163E-010 -9.3723429E-010 -8.4742169E-010 -1.0120402E-009 -9.4269126E-010 -1.2337296E-009 -2.5920599E-011 -1.6825652E-010 -1.3005774E-010 -2.5329427E-010 -1.4972557E-010 -4.4860826E-010 -1.7712409E-010 -4.1745807E-010 -5.3910298E-010 -2.7989699E-010 -3.7198333E-010 -1.1264092E-009 -8.6629370E-011 -2.5397640E-010 -1.8940227E-010 -2.0577318E-011 -4.1904968E-010 -3.2173375E-010 -1.6359536E-010 -2.5033842E-010 -1.3608314E-010 -1.6143531E-010 -3.2309799E-010 -1.3847057E-010 -1.0197709E-010 -1.1550583E-010 -6.4119376E-011 -1.6007107E-010 -4.7225512E-010 -2.6784619E-010 -4.7214144E-010 -1.3801582E-010 -1.8371793E-010 -3.6823167E-010 -2.3567281E-010 -6.1299943E-010 -3.3639935E-010 -1.8508217E-010 -2.1998403E-010 -1.0061285E-010 -1.7496404E-010 -1.4683792E-009 -1.0015810E-010 -8.1399776E-011 -5.2978066E-011 -2.7125679E-010 -3.5652192E-010 -1.3594672E-009 -6.2698291E-011 -2.0054358E-010 -1.4460966E-010 -2.3396751E-010 -6.4801498E-012 -1.8508217E-010 -9.0665253E-011 -7.0201622E-011 -3.1775471E-010 -1.9809931E-010 -1.7394086E-011 -9.6349595E-011 -4.5929482E-011 -1.4040324E-011  8.8107299E-012  1.1965540E-011 -4.4792614E-011  1.2391865E-011  8.8675733E-012 -2.8330760E-010 -7.9467100E-010 -1.4092620E-009  1.1368684E-013  7.5601747E-012  7.0201622E-011 -2.8421709E-010 -8.0490281E-011 -1.6175363E-009 -2.2282620E-011 -1.2396413E-009 -2.0568223E-009 -5.8878413E-010 -1.1732482E-010  3.3423930E-011  7.3896445E-013 -6.8621375E-010 -7.2827788E-010 -1.3386625E-011  4.4053650E-012 -6.5517725E-010 -7.1167960E-011 -7.0804163E-010 -3.5242920E-011 -5.1613824E-011 -9.0540198E-010  2.3135271E-011  2.0463631E-012  2.5551117E-011  1.8303581E-011  6.3948846E-012 -1.2414603E-010 -3.4106051E-013  6.1390892E-012 -2.2737368E-012  2.5011104E-012 -1.5425030E-009 -2.7921487E-010 -1.4219950E-009 -2.4760993E-010 -5.3023541E-010 -6.9621819E-010  1.5063506E-011  3.1263880E-011  3.5868197E-011 -3.8198777E-011  5.2011728E-011  1.0174972E-011 -1.6939339E-011 -2.3078428E-011 -3.0968295E-010 -1.9781510E-011 -3.6379788E-011 -5.9344529E-011 -9.7418251E-010 -1.2929604E-009 -1.3642421E-011  8.0717655E-012 -1.4779289E-012 -2.6807356E-009  5.8435035E-011  3.2855496E-011  3.8312464E-011  2.3021585E-011  7.1395334E-011  2.3987923E-011  4.7634785E-011 -8.7482022E-011 -3.8471626E-010 -4.2177817E-010 -1.7130333E-009 -1.9522304E-009 -2.9558578E-011 -5.3432814E-011 -2.6375346E-011 -1.2050805E-011 -1.1596057E-011 -2.1373125E-011 -1.3642421E-011 -3.2741809E-011 -2.4556357E-011 -1.5234036E-011 -2.2737368E-011 -1.3187673E-011 -3.2969183E-011 -1.2505552E-011 -3.9790393E-012 -1.4779289E-011 -5.7980287E-012 -1.7166712E-011 -1.0459189E-011 -2.9558578E-012 -2.2737368E-012  2.2737368E-012  1.3642421E-012  6.1390892E-012 -2.2737368E-011 -3.2332537E-010 -7.0713213E-011 -1.0231815E-012 -2.3192115E-011  3.2230218E-011  7.0144779E-011  4.6242121E-011  1.2775558E-011 0.0 0.0  8.4128260E-012 -2.5011104E-012  7.2759576E-012  9.5496944E-012 -6.8212103E-013  5.4910743E-011 -5.4424163E-009 -4.0236046E-009 -7.6570359E-009  4.6384230E-011  3.7289283E-011  1.0345502E-011  4.3314685E-011  1.0174972E-011  5.5990768E-012 -1.3415047E-011 -1.5234036E-011 -2.9103830E-011 -1.3301360E-011 -1.0686563E-011 -2.2737368E-012 -2.9331204E-011  6.5938366E-012  2.5863756E-011 -1.8321771E-009 -1.8071660E-009 -6.0254024E-012  1.6001422E-011  8.3844043E-013  1.3130830E-011 -2.1923370E-009  3.6379788E-012  2.3305802E-011  1.7621460E-012  2.6034286E-011  7.0485839E-012 -7.2759576E-012  8.4128260E-012 -1.3642421E-011 -2.4101610E-011 -2.7739588E-011 -4.2291504E-011 -4.8657967E-011 -8.2309271E-011  2.5238478E-011  6.7075234E-012 -2.9331204E-011 -3.5470293E-011 -4.2405190E-011 -3.5470293E-011 -9.0949470E-012 -1.6143531E-011 -1.2846613E-010 -8.8607521E-010 -1.0860504E-009  9.0949470E-013  6.4630967E-011  2.9217517E-011 -1.0572876E-011  3.8767212E-011  2.5110580E-011 -4.5474735E-012 -2.1827873E-011 -2.2282620E-011  9.2086339E-012 -6.9576345E-011  4.6497917E-011 -1.3869794E-011  3.4901859E-011  5.2921223E-011 -3.3196557E-011 -1.3574208E-010 -5.2750693E-011 -8.1854523E-011 -1.1391421E-009 -8.9676178E-010 -4.3655746E-011  2.4897417E-011 -1.6044055E-011 -4.7987214E-010 -3.9767656E-010 -7.0622264E-010 -3.4333425E-011 -1.2510100E-009 -1.5006663E-010 -2.1464075E-010 -7.0031092E-011 -8.8675733E-012 -1.6887043E-009 -1.2416876E-009  9.2086339E-012  4.0131454E-011 -1.0345502E-011 -2.8990144E-012 -5.9117156E-010 -1.2602186E-009 -1.6598278E-010 -4.7634785E-011 -2.1145752E-011 -1.0118129E-011 -8.3850864E-009 -4.3464752E-009 -7.8784979E-009 -2.3874236E-012 -2.0463631E-011 -5.7002580E-010 -2.4681412E-010 -1.5916157E-010  5.9117156E-012 -1.1368684E-011 -9.1404218E-011  3.0354386E-011  2.3646862E-011 -1.0800250E-011 -2.3396751E-010 -8.5947249E-011  3.3850256E-011 -2.4215296E-009  8.7538865E-012 -1.9781510E-011  8.1143980E-011  2.8364866E-011  3.1349146E-011  2.9672265E-011  8.5520924E-011  1.9454660E-011  4.6384230E-011 -3.2741809E-011 -7.4442141E-010 -9.7816155E-010 -9.6724762E-010 -2.9967850E-010 -1.1916654E-009 -2.2441782E-010  6.5938366E-012  3.5242920E-012  7.9580786E-012  4.5474735E-012 -2.3874236E-012  1.0686563E-011  1.5461410E-011 -8.7538865E-012  9.5496944E-012 -5.7752914E-011 -1.9463187E-010  1.3073986E-011  2.2282620E-011  1.2164492E-011  1.8530955E-011  3.1946001E-011 -5.4114935E-011  4.1836756E-011  2.8990144E-011 -1.7053026E-011 -1.1368684E-012 -3.4106051E-013  3.5242920E-011 -7.6170181E-012  8.2991392E-012  5.3375970E-011 -2.3874236E-011 -7.9353413E-011  7.0997430E-011 -1.0561507E-010 -3.8539838E-011 -9.7770680E-012 -9.3223207E-012 -8.7254648E-012  1.1596057E-011 -3.1263880E-011  3.5072389E-011 -4.5724846E-010 -5.2500582E-010 -1.2403234E-009 -1.5043042E-009 -2.0122570E-011  2.3504754E-011  2.0307311E-011  5.7127636E-012  2.1032065E-012 -1.8928858E-010  3.7005066E-011  7.9580786E-013 -9.3086783E-010 -5.9867489E-010 -3.7194923E-009 -1.6816557E-009 -4.4854005E-009 -2.0404514E-009 -1.5882051E-009 -9.0608410E-010 -2.3480879E-009 -2.5602276E-009 -2.6623184E-009 -1.1420980E-009 -3.9844963E-009 -4.4244644E-009 -6.2846084E-010 -6.3459993E-010 -5.5524652E-010 -5.1045390E-010 -8.1445251E-010 -5.4251359E-010 -1.8098945E-010 -3.9131010E-010 -1.3915269E-010 -5.8366822E-010  1.2576606E-011  5.5763394E-011 -2.1600499E-012  1.5148771E-011 -4.6611603E-012 -8.0859763E-012 -9.7020347E-010 -6.6404482E-010 -3.1832315E-012 -6.1390892E-012 -1.8872015E-011 -5.7616489E-010 -6.0254024E-012 -2.7284841E-011 -2.3896973E-010 -2.4215296E-011 -3.8511416E-010  2.2737368E-013 -4.8260063E-011 -6.7700512E-010  7.1054274E-014  1.1993961E-011  3.3537617E-012  7.5601747E-012  7.2759576E-012 -4.0017767E-011 -4.1023895E-010 -2.9740477E-010  3.9914738E-012 -9.8907549E-011 -2.0236257E-011 -4.7684807E-009 -1.7621460E-011 -3.8517101E-010 -1.3119461E-009 -9.6952135E-010 -4.3337423E-010 -1.8790161E-009 -2.4547262E-009 -3.7039172E-009 -3.5965968E-009 -4.4960871E-009 -2.9758667E-009 -1.7948878E-009 -9.8589226E-010 -3.7703103E-009 -1.8790161E-009 -6.9571797E-009 -1.5872956E-009 -1.7853381E-009 -1.0036274E-009 -2.8394425E-009 -1.4624675E-009 -7.7836830E-009 -5.1736606E-009 -2.5954705E-009 -7.5175421E-010 -2.0201014E-009 -1.7696493E-009 -2.7794158E-009 -4.7000412E-009 -3.7707650E-009 -1.0486929E-008 -6.0827006E-009 -3.6607162E-009 -5.9549166E-010 -3.0604497E-010  5.2750693E-011  1.3642421E-011 -1.6029844E-010 -6.7529982E-011 -1.5461410E-011 -6.3948846E-014  1.4203749E-011 -1.3187673E-011 -1.4574653E-010 -1.0459189E-011 -3.2059688E-011  2.2737368E-012  1.3415047E-011  1.8644641E-011  2.4812152E-011  3.6180836E-011 -9.0949470E-013  5.0619064E-011  2.3931079E-011  4.5474735E-013  6.0936145E-011  3.6664005E-011  4.5190518E-011  2.3817393E-011  2.1145752E-011  1.3983481E-011  4.1495696E-011  4.5019988E-011  2.5238478E-011 -2.2953373E-009 -2.5693225E-010 -7.2986950E-011 -1.7757884E-009 -1.1732482E-009 -1.0288659E-010 -1.8644641E-011 -9.3450581E-011 -2.7284841E-011 -3.0013325E-011 -4.7369895E-009 -8.5087777E-009 -2.3273969E-009 -1.8690116E-010 -7.6215656E-010 -2.5879672E-009 -6.1618266E-011  1.6598278E-011 -2.4760993E-010 -4.9908522E-009 -7.7307050E-012  4.6611603E-012 -3.1832315E-012 -2.0918378E-011  4.3655746E-011  3.1860736E-011  2.9217517E-011 -5.4399152E-011  1.4665602E-011 -1.0481926E-010  2.3533175E-011 -5.5706550E-012  4.5929482E-011 -9.6861186E-011 -1.3137651E-009 -4.2859938E-011 -1.1141310E-011 -1.6029844E-011 -2.7780516E-009 -2.0804691E-011  1.0800250E-011 -1.3082513E-010  2.5011104E-011 -3.2650860E-010  3.1121772E-012 -1.4788384E-009 -4.7612048E-010 -7.9580786E-012 -4.9471964E-009  4.5474735E-013  4.6789239E-012 -3.4833647E-010  4.9681148E-011  3.4333425E-011 -4.3655746E-011 -1.1118573E-010  7.0258466E-011  3.2173375E-011 -6.7075234E-011 -5.4569682E-011 -3.7744030E-011 -1.7485036E-010 -1.7507773E-011 -1.3467343E-009 -2.7625902E-011 -9.1006314E-010 -4.9340088E-011 -3.4106051E-012  2.1486812E-011  1.7195134E-011 -1.1789325E-010 -3.7516656E-012 -2.0691004E-011 -1.9895197E-012 -3.6015990E-010 -4.5247361E-011 -2.1850610E-010  3.8653525E-012 -3.0468073E-011 -5.0117706E-009 -1.0550139E-010 -6.8689587E-010 -5.2864380E-010 -3.1110403E-010  7.0521367E-012 -3.0036063E-010  2.6261660E-011 -8.1763574E-010 -2.4328983E-011  2.2737368E-012 -3.2287062E-011 -1.3646968E-009  3.7161385E-011  2.9444891E-011  2.9558578E-011  2.3987923E-011 -9.8395958E-011 -2.3590019E-011 -8.0501650E-010  7.9580786E-012 -2.8421709E-011 -1.4324542E-011 -5.0931703E-010 -1.9383606E-011  4.5474735E-013  5.9969807E-012 -3.9085535E-010 -9.8907549E-011 -4.5474735E-013 -1.2482815E-010 -2.3396751E-010 -4.4713033E-010 0.0 -5.6841145E-009 -3.5981884E-010 -2.1582309E-009  2.1600499E-011 -4.6907189E-010 -1.4733814E-010 -1.8189894E-011 -4.4522608E-011 -2.0554580E-010 -7.5033313E-012  4.7180038E-011 -2.7284841E-012 -6.8212103E-013  3.6379788E-012 -9.7679731E-010 -3.4947334E-010 -3.4788172E-011 -3.2775915E-010 -7.2304829E-011 -3.8246526E-009 -6.3664629E-010 -1.7882940E-010 -9.3905328E-011 -8.7311491E-011 -7.7466211E-010 -3.1604941E-011  1.5887736E-011  4.8714810E-011 -1.8189894E-010  8.0717655E-012  2.1259439E-011 -8.4003204E-010 -5.1159077E-011 -1.2050805E-010  3.6266101E-011  4.1950443E-011 -4.4195758E-012  2.4840574E-011 -1.5552359E-010 -5.6297722E-010 -5.9117156E-012 -3.1573109E-009  1.4210855E-011 -3.4165168E-009 -1.6759714E-009 -1.9213076E-010 -6.0936145E-011 -9.0949470E-012  3.5271341E-011 -2.6284397E-010 -2.2509994E-011 -1.3415047E-011 -1.1368684E-012 -2.5056579E-010  5.0249582E-011  1.0004442E-011  1.2562396E-011 -3.1025138E-010 -1.5309070E-009 -1.7255843E-008  2.8080649E-011 -8.6629370E-011 -9.0949470E-013 -9.0949470E-013  3.6877168E-012 -7.1713657E-010 -1.1987140E-009 -5.0022209E-012  9.3223207E-012  2.7171154E-011  9.0949470E-013 -1.2942110E-009  1.0231815E-011  2.2509994E-011 -1.3557155E-011 -6.6165740E-011 -5.3432814E-012 -1.1782504E-009 -3.8198777E-011  1.8864910E-012  1.7962520E-011  1.4551915E-011 -1.3210411E-010 -1.1368684E-011 -8.8925844E-010 -1.0668373E-009  2.0691004E-011 -4.2200554E-010 -1.3187673E-010  3.8653525E-012 -2.2457698E-009 -3.4106051E-012  5.0874860E-011 -1.5006663E-011 -9.1426955E-010 -1.3869794E-011  1.3869794E-011  4.0131454E-011 -2.7189344E-009 -8.6401997E-012 -5.4569682E-012  6.3238303E-012 -2.6002454E-009 -2.5124791E-011 -6.8234840E-010 -6.6393113E-010  2.2282620E-011 -2.6034286E-011 -1.0209078E-010 -7.9580786E-011 -2.2737368E-011 -8.7538865E-011  2.7284841E-012  5.1187499E-011 -6.4164851E-010 -1.9147137E-009 -6.7302608E-011 -6.3209882E-011 -4.4792614E-011  3.9790393E-011 -2.3419489E-011 -7.3214323E-011 -7.8637186E-010  1.6655122E-011  5.2295945E-012 -1.1846168E-010  7.5189632E-011  2.1746160E-011  2.5158897E-010  3.8475889E-011  8.8860475E-011  1.3158541E-010  1.9494450E-010  2.3907631E-010  1.9794513E-009  2.0697399E-010  4.4806114E-010  4.3271342E-010  6.0209260E-010  3.5144154E-010  6.0538241E-010  1.1247607E-009  6.7292660E-010  4.6467363E-010  4.2321346E-010  8.8131458E-010  1.2611920E-009  1.0957493E-009  1.5415722E-009  2.0228939E-009  2.3039988E-009  1.5376571E-009  2.3477753E-009  1.1591226E-009  1.5738522E-011  2.1020981E-009  3.4187124E-009  2.4237536E-009  1.4278356E-009  1.5510864E-009  2.3791458E-009  1.5070682E-009  1.4844517E-009  7.3091400E-010  2.2512623E-009  3.1134206E-009  3.2446223E-009  1.2178205E-009  1.9547102E-009  2.2883455E-009  8.9917052E-010  2.7751099E-009  1.7588704E-009  6.7486283E-010  7.2234485E-010  1.8766855E-010  4.4863668E-011  9.1400665E-011  1.3190515E-010  1.1941026E-010  1.6127544E-010  1.2088108E-010  1.8271606E-010  2.0574475E-010  1.7002932E-010  2.4786928E-010  4.6085091E-010  1.3247359E-010  2.3976199E-010  6.0692784E-010  1.5944224E-010  6.7590378E-011  3.4138736E-010  2.5467983E-010  3.6951775E-010  6.9442763E-010  2.1168489E-010  4.5924864E-010  4.0366288E-010  4.1030290E-010  4.2479442E-010  4.6027182E-010  4.5077186E-010  2.4195401E-010  3.3842795E-010  7.6659035E-010  3.2208547E-010  9.9142028E-011  4.3586112E-010  4.6047788E-010  7.2533979E-010  9.4296126E-011  1.0554757E-010  2.0245778E-009  1.6727775E-009  1.0760388E-009  2.1524116E-011  3.7225245E-010  1.6899158E-009  3.2844838E-011  9.2303054E-011  1.0340528E-010  6.7622352E-011  1.8585666E-010  7.2475359E-011  1.3142909E-010  2.5958968E-010  1.4884449E-010  1.1169732E-010  9.9479536E-011  6.7906569E-011  5.9600325E-011  1.2061108E-010  2.2562574E-010  5.0146554E-011  4.1337600E-011  1.0608403E-010  1.3800339E-010  1.6393997E-010  2.5771385E-010  1.8794921E-010  9.1620933E-011  3.3519498E-010  3.4589220E-010  8.2867047E-012  2.5967495E-010  1.5615953E-011  4.8237325E-010  3.1942449E-011  2.7830982E-010  3.6488323E-010  9.5640118E-010  1.4470913E-010  8.5828944E-010  1.2806254E-009  6.0508754E-010  6.1226757E-010  1.3210482E-009  9.5610631E-011  3.8768988E-010  4.3507775E-010  1.4968258E-009  3.6867576E-010  9.4014219E-010  5.0583360E-010  1.8614195E-009  3.1555203E-011  9.6721919E-010  2.3414160E-010  1.3657342E-009  3.5892533E-010  8.1301010E-010  3.7157122E-010  8.7143093E-010  7.3606543E-010  1.1250734E-009  4.9471538E-011  1.0144738E-009  2.3541702E-010  3.0798120E-010  1.0952839E-009  3.5032279E-009  4.6047788E-010  1.0781314E-009  9.4008357E-011  5.0980731E-010  2.1119462E-010  1.2131096E-009  2.4380853E-010  5.7152860E-010  8.2946450E-010  3.2462442E-009  3.7483261E-010  2.2177105E-010  1.7587709E-010  1.5140955E-010  7.5912965E-010  2.9082869E-010  1.6840005E-009  2.2746960E-010  5.8108185E-010  2.8948577E-010  2.9574032E-010  8.1661256E-010  1.3249206E-009  2.0969111E-009  2.3601032E-010  2.9863401E-010  3.3064396E-010  4.2228265E-010  5.4678928E-010  3.1182879E-010  4.0058978E-010  5.2549254E-010  3.4241054E-010  6.9456441E-010  4.1714898E-010  1.1870327E-009  2.4715519E-010  1.7472424E-010  2.6996005E-010  2.3872460E-010  1.4479085E-010  1.8007107E-010  3.5380054E-010  5.3703531E-010  4.7673154E-010  9.9593223E-011  1.3872388E-009  1.8412294E-010  1.2567725E-010  4.6513193E-010  1.0543744E-010  2.5458391E-010  6.3369754E-011  1.4803092E-010  2.7810643E-010  7.7218942E-010  7.9001694E-011  1.4382096E-010  3.4661518E-010  1.2954473E-009  1.5186004E-009  1.5618866E-009  1.5800694E-009  2.2046649E-009  1.1632437E-009  5.3152149E-010  3.2544634E-009  2.9255887E-009  1.3013661E-009  8.8490282E-010  1.6354775E-009  1.3983055E-009  7.4257400E-010  3.2669334E-010  1.4605703E-009  1.2907861E-009  2.6697933E-009  8.5390184E-010 -1.4210855E-014  1.6029134E-010  5.0198068E-010  1.1642882E-009  1.6677006E-009  1.3845352E-009  1.3200854E-009  5.4200910E-010  1.8283259E-009  2.4234481E-010  2.5391245E-010  1.6703083E-009  2.9453417E-010  5.4154725E-010  7.1652551E-010 -4.2632564E-014  8.2942364E-010  2.1497470E-009  1.3388330E-009  4.2632564E-014  8.6738794E-010  8.9542596E-010  4.7102588E-010  1.1832313E-009  5.8878769E-010  6.9331207E-010  3.8930636E-010  1.8332500E-009  1.6667592E-009  2.1486173E-009  2.6002382E-009  1.6961437E-009  2.1434197E-009  4.8702020E-010  6.2086514E-010  6.1977090E-011  2.0382629E-010  1.1225509E-010  7.3138295E-010  2.2209647E-009  1.5639934E-009  2.1461446E-009  1.1749108E-009  1.4600943E-009  2.3486351E-009  1.8647270E-009  5.5037219E-010  4.6513549E-010  5.2724047E-010  8.0524032E-010  1.2040076E-009  1.2854642E-009  8.6714635E-011  7.5188566E-010  9.4217967E-011  5.9998229E-011  2.8052227E-010  1.4742199E-009  1.0914825E-011  1.9474555E-010  3.9992898E-011  7.5830542E-010  5.3336890E-011  6.3941741E-010  1.2024515E-009  2.7789184E-009  4.3392845E-011  8.3190344E-011  1.2813217E-010  2.0726532E-010  3.0128788E-011  4.3697668E-010  1.2173018E-010  1.2193837E-009  1.3970549E-009  1.9938540E-009  1.0281198E-009  9.8027897E-010  1.3546497E-009  1.6819683E-009  1.3929835E-009  1.2757528E-009 -1.4210855E-014  3.0837555E-010  1.2813715E-009  2.4439117E-010  6.8932593E-010  1.4559998E-009  1.9520741E-010  7.2021322E-010  7.6477846E-010  6.8757799E-010  5.5018212E-010  2.0511237E-010  5.8467720E-010  1.2767423E-009  1.4126016E-009  1.2317969E-009  1.3477788E-009  6.7716854E-010  1.8803732E-009  2.1172752E-010  4.7789328E-010  7.2115824E-010  9.6581232E-010  3.9840131E-010  1.3989023E-009  8.6818375E-010 -2.8421709E-014  9.9475983E-014  2.1316282E-014  2.5034552E-010  1.4048567E-009  4.1984549E-010  1.3740262E-009  1.3842794E-010  1.1095480E-009  1.3900205E-009  1.4027748E-009  1.2413537E-009  1.2096351E-009  3.3384850E-010  6.3410255E-010  5.6996186E-010  1.0388561E-009  5.0475535E-010  1.0602008E-009  9.0417984E-010  7.8667028E-010  2.4606805E-010  1.3203731E-009  5.8135541E-010  1.8220447E-010  7.9233331E-010  2.3266011E-010  3.2265035E-010  1.5313617E-010  5.8711436E-010  4.4764192E-010  2.7094771E-011  6.1650240E-011  1.6853470E-009  1.6932304E-009  1.0483170E-011  1.6201085E-010  2.6608831E-009  1.6466117E-010  1.3619470E-009  1.2726957E-009  1.2870736E-009  4.5706372E-010  1.3505641E-009  9.0507868E-010  5.6502714E-010  2.0241941E-010  1.6419222E-010  1.6453328E-010  7.9225515E-011  6.3203132E-010  2.0115465E-010  2.8953195E-010  1.8012969E-010  1.4858870E-010  2.5737279E-010  6.1257666E-010  1.6923991E-009  3.6916958E-010  1.7079529E-009  2.3305802E-011  4.3000625E-010  4.7039350E-010  5.7298166E-010  9.6878239E-010  8.4729557E-010  3.7168491E-011  5.5248961E-010 -1.8889068E-008 -1.3828867E-009 -1.9407480E-009 -5.2853011E-010 -8.0528082E-009 -3.3974743E-009 -1.4648379E-008 -6.9690032E-009 -1.4350121E-009 -1.8911237E-009 -1.7584398E-008 -1.1950078E-008 -9.9292663E-010 -1.4432544E-009 -2.7078357E-009 -1.2350085E-008 -4.4474859E-009 -5.2210680E-009 -7.2809598E-009 -3.1307650E-009 -3.1005243E-009 -2.7541347E-009 -1.0978738E-009 -2.1239543E-009 -1.1261363E-008 -1.3227179E-009 -1.0346525E-008 -5.4257612E-009 -5.2071982E-009 -1.8262710E-008 -2.9913849E-012 -5.9100103E-009 -5.6843419E-013 -6.8212103E-013 -4.2816851E-008 -3.2413936E-008 -1.6419335E-008 -1.7030061E-008 -1.7794719E-008 -1.3230874E-008 -3.7539849E-008 -1.2356054E-008 -9.4280495E-009 -6.0537104E-009 -4.1038561E-008 -4.2305714E-009 -2.5904683E-009 -7.4538775E-009 -5.3416329E-009 -9.6192707E-009 -1.3598765E-008 -2.1798598E-009 -3.9416648E-009 -2.4158737E-009 -3.8741632E-009 -1.9362290E-009 -4.1033701E-009 -3.3569023E-009 -3.1838141E-009 -1.2522037E-009 -4.1294470E-009 -1.0137654E-008 -2.9841999E-008 -4.0963300E-008 -2.1198161E-008 -2.9767762E-008 -9.1610559E-009 -1.7257946E-008 -2.4664075E-009 -1.0876448E-008 -1.0564122E-008 -2.5552822E-009 -2.0131665E-009 -9.3897938E-009 -1.2869691E-008 -1.3779754E-008 -2.1639096E-008 -8.1729468E-010 -6.0401248E-009 -1.4457100E-008 -1.5218575E-008 -1.0359031E-008 -5.9793592E-010 -8.8025942E-010 -4.7588173E-009 -6.2558385E-009 -9.0147978E-009  9.0864205E-010 -1.2451693E-008 -1.2939836E-008 -9.8852979E-009 -9.2204289E-010 -7.3554247E-009 -2.1023538E-008 -4.8173092E-009 -1.9420270E-009 -3.9145505E-009 -5.6934368E-010 -4.3016200E-008 -1.3791777E-009 -3.1857894E-010 -4.8222546E-009 -7.0442141E-010 -7.7964302E-010 -3.5213361E-008 -2.5482194E-009 -2.3265272E-008  4.5474735E-013 -1.5939463E-008 -6.4858341E-009 -1.5601813E-009 -1.0772965E-009 -1.2596502E-010 -1.5056571E-008 -1.3618319E-008 -4.7978119E-009 -9.9192903E-009 -1.8961828E-009 -2.2615495E-008 -5.7042371E-010 -2.2867198E-008 -3.1810487E-008 -6.5597305E-010 -7.1826207E-009 -4.2903139E-009 -6.3681682E-009 -2.6110456E-009 -1.3487579E-008 -1.3849473E-009 -6.5153216E-011 -4.7671733E-010 -3.5308744E-008 -1.5006663E-011 -2.2737368E-013 -1.4881778E-008 -5.8130922E-010 -1.1368684E-013 -1.6771992E-008 -9.9624913E-009 -8.7592298E-009 -2.4134408E-008 -5.6843419E-014 -2.5744157E-008 -1.4633315E-008 -1.0054009E-008 -1.0770691E-008 -2.0189532E-008 -1.9097115E-008 -1.4492230E-009 -4.8740390E-009 -1.8693299E-008  7.1628120E-013  3.4694470E-017  1.7500272E-012  6.4730860E-013  1.5500969E-012  8.5725871E-013  8.1411961E-013 -8.9225849E-013  9.2128735E-013  3.6194658E-013 -9.7144515E-015  1.3965357E-012 -7.4315554E-014 -7.1886941E-015  4.1810305E-013 -2.6506575E-014 -1.0179080E-011  1.9115126E-012  1.3145596E-012  7.0916190E-013 -8.8351548E-013 -2.0329849E-012  3.4527936E-014  7.1720407E-014  4.4862725E-013  2.7802066E-013 -3.9232506E-014 -5.6260552E-014  3.6193271E-014 -9.2703623E-015 -5.4704019E-012 -1.2628898E-011 -4.6805615E-011 -1.2580825E-011  2.2232216E-014  2.9531932E-014 -6.0032118E-012 -3.1119829E-011 -2.0006219E-013  1.1609949E-012  9.2213043E-013  1.2148962E-012  8.6176552E-013  1.0408341E-015  1.3544721E-014  6.2172489E-015  9.5479180E-015 -4.5117798E-012 -1.0541568E-013  2.0788926E-013  7.4953932E-014  2.3907265E-013 -3.4583447E-014 -4.3187676E-014 -1.2352341E-012  8.9199481E-015 -1.9345636E-013  1.6072560E-013  2.6323388E-013  3.3617553E-013 -1.1454726E-013 -4.8426818E-012  1.0214052E-014 -2.6576574E-011 -8.3467677E-012 -4.3000326E-012 -1.7708057E-013  4.1978226E-013  9.8810370E-013  1.5790633E-012  2.7878325E-012  1.5914076E-012  1.9893809E-013  1.7642832E-013  4.4478310E-013 -8.5637053E-013 -8.8179464E-013  5.0187632E-013  5.3401727E-014 -8.8429264E-014  3.3306691E-016 -2.7645664E-012  5.9935390E-013 -1.0501600E-012 -4.6129767E-013 -7.2331030E-013 -7.9825035E-014 -3.9318548E-013 -1.5187851E-013  1.4854784E-013 -1.1990409E-014  6.3227201E-013  5.7875926E-013  6.0518257E-013  6.4737105E-013  7.7893247E-013  4.2621462E-013  1.0095258E-012  6.8234307E-013  5.6610272E-013  5.8175686E-013  4.9038551E-013  4.8216986E-013  4.1777692E-013  4.0301096E-013  3.4938719E-013  2.3370195E-013  2.9998226E-013 -5.0104365E-013  2.7863128E-013  6.4515060E-013  4.9224513E-014 -4.4981241E-012 -1.4641066E-013  3.2740477E-013 -3.4186820E-012  2.2204460E-016  2.8990699E-014  2.8110847E-013  1.8363089E-013  4.1383563E-013  1.7602586E-013  1.2218308E-012 -2.1438407E-013  1.3877788E-017  3.7159165E-013  2.9420910E-013  2.3669955E-013  2.9010128E-013  5.4820037E-013  5.1587901E-013  2.9326541E-013  5.0381921E-013  8.0271900E-013  4.4086956E-013 -3.7053693E-014  1.2539969E-013  8.5736973E-014  1.7459645E-013  1.4689638E-013  1.3970769E-013  7.7285400E-014  1.3945789E-013  1.0194623E-013  1.0254159E-012  7.7265971E-013  1.9539925E-013 -4.8072657E-014 -5.2868820E-013 -1.3670176E-012  5.5511151E-016 -7.4928952E-013 -5.1936233E-013 -1.9595436E-013 -2.3325786E-013 -3.5071945E-013 -2.4313884E-013  1.2900792E-013  7.2541972E-013  2.2315483E-013  3.7747583E-014 -1.3078427E-013  2.7977620E-014  1.7763568E-015  1.1228518E-013  4.3803849E-013  1.1617096E-013  1.0587364E-013  2.3747670E-013  1.1257661E-013 -2.6048608E-014 -2.7228220E-014 -1.2186085E-013 -7.0915496E-015  1.1532442E-014  1.4263590E-013  1.0581813E-013  3.2207570E-013  2.5029978E-013  2.2204460E-015 -4.2826853E-014  6.1298189E-014  5.6357696E-014  9.7283293E-014  1.2695400E-013  9.8719644E-014  1.8766932E-013 -1.7141844E-013  4.2188475E-014  1.6511792E-013  7.5661699E-014  1.5853985E-013  5.4789506E-014  6.9680373E-014  1.1629586E-014  9.1260333E-014  2.0183855E-013  2.4990426E-013  2.0521033E-012  7.6688308E-013  1.5165647E-013 -6.4980243E-012  5.8897331E-014  2.3189783E-014  1.2267964E-014  7.6216811E-014  1.4196977E-014  3.4292014E-014 -1.9498292E-014  3.8663517E-014  2.1510571E-015  2.6562086E-014 -5.2041704E-015  2.2370994E-014 -2.6686986E-014  2.7422509E-014 -1.3164470E-012  4.4103610E-014 -3.9699355E-012 -5.2711724E-012 -8.3425489E-012 -4.9932281E-012 -5.3647087E-012 -5.2183813E-012 -2.5231484E-012 -7.2704065E-012 -5.9235811E-012 -6.0022542E-012 -2.7808644E-011 -1.1773027E-011 -3.7949366E-012 -2.0762059E-011 -3.6148862E-012 -7.6118001E-012 -5.5621063E-012 -1.3124224E-012 -3.2722575E-012 -1.6070478E-014  1.6328744E-012  1.6167831E-012  4.8572257E-017  1.5504403E-012  1.6767143E-012  1.0253118E-012  7.4545231E-013  1.6570287E-012  1.6521992E-012  1.3064619E-012 -5.5511151E-017  1.2178522E-012  1.5001195E-012  7.7690632E-013  6.4338118E-013 -4.1633363E-017  2.1295604E-012  1.0158402E-012  4.4996298E-013  5.6921134E-013  3.8729436E-013  1.9359514E-013  1.4631907E-012  7.9465601E-013  2.6289942E-012  4.1744386E-013  3.4156011E-013  3.8724579E-013 -1.6903146E-014 -5.4123372E-014  3.8857806E-014  9.7477582E-014 -6.1950445E-014  1.1435297E-013  1.3788970E-013  1.7719159E-013  1.7497115E-013  2.2226665E-013  2.0139446E-013  2.5335289E-013  2.1715962E-013  2.7178260E-013  2.7755576E-017  1.1841916E-013  7.7257645E-014  2.2337687E-013  2.7422509E-013  2.0716762E-013  2.6423308E-013  2.0783375E-013 -9.0588648E-013  1.2689849E-013  8.8906660E-013  2.0532881E-013  5.2444160E-014  2.0428104E-014  3.0628278E-014  3.9079850E-014 -4.8225313E-014 -2.4813485E-014 -9.6589403E-014 -2.9615199E-014 -5.6538108E-014  1.6284196E-013 -3.1891156E-014  5.9369176E-014  7.7791940E-014  7.4044937E-014  8.9990515E-014  1.7916918E-013  1.1923795E-013  1.1524115E-013  1.0969003E-013 -1.0248469E-012 -2.9937164E-012 -7.5622841E-012 -1.8179902E-014 -1.1088352E-014 -1.0786927E-012  2.4424907E-015  2.5557334E-013  1.4455104E-013  9.2148511E-014  1.9539925E-014  9.1704422E-014 -3.4555692E-014 -6.2838623E-014 -1.5043522E-014 0.0  4.1239234E-013  5.1225690E-013  2.4330538E-013  6.1825545E-015  1.5709656E-014  5.6039895E-013 -1.0907941E-014 -2.1277424E-013 -4.8683280E-014 -7.3259177E-012 -2.1205260E-013 -2.8865799E-015 -6.3412608E-012 -7.4090734E-012  9.5770614E-014  2.1094237E-013  1.7696955E-013  3.2085445E-014 -6.3171690E-013  3.2340797E-013  8.8207219E-014  1.6853186E-013  8.2919782E-013  4.9527049E-013  1.3911094E-013 -3.9376280E-012  2.9887204E-013  2.7911007E-013 -1.6153745E-013 -4.0634163E-014 -1.0214052E-014 -4.1078252E-014 -1.3322676E-014 -3.3528735E-014 -8.8817842E-015 -7.2386541E-014 -7.3940853E-014 -1.5520918E-013  6.1434191E-013  7.2930550E-013  8.7818641E-013  1.4210855E-013  2.2892799E-013  1.8818280E-013  1.7252866E-013  1.3633539E-013  1.5187851E-013  1.2578827E-013  1.1024515E-013  1.0713652E-013  1.4865886E-013  1.4610535E-013  1.0648427E-013  1.3078427E-013  3.3895109E-013  1.2356782E-012  3.7486680E-013  1.5683566E-012  3.9479531E-013  1.7675306E-012  4.2765791E-013  1.6106838E-012  2.0363711E-012  1.9351742E-012  4.7184479E-016  7.3807627E-013  1.6253665E-013  4.4381165E-013  3.8574699E-013  4.7614690E-014  1.6475710E-013  5.2846616E-014 -1.4571677E-014  3.1363800E-015 -8.3960616E-015  2.5954239E-013  1.0027049E-013 -1.6586732E-013 -3.7547743E-013 -4.1944226E-013 -1.1368684E-013 -1.0665357E-012 -1.7947310E-012 -3.3478775E-012  2.0722313E-013 -4.3048898E-014 -3.8427594E-014 -4.7697957E-014 -4.2535420E-014  1.1445705E-012  1.8612611E-012  1.4276358E-012 -3.7719827E-014 -3.1488701E-014  8.5376151E-014  7.2969408E-014  5.5754013E-014  1.4829804E-012  1.2345680E-013  1.6575630E-013  2.8953229E-013  1.7550544E-013  9.0094598E-014  1.8787749E-013  8.9150909E-014 -1.6002755E-012 -3.3545389E-013  1.2552737E-012 -2.1205260E-014 -8.0696561E-012 -3.7886361E-014  1.0369483E-013  9.4591002E-014  1.1746160E-013  4.7489790E-014  7.7803042E-013 -5.6454841E-014 -2.2928881E-013  2.2803981E-013  4.7739590E-014  6.2672090E-014  4.8711035E-014  2.6456615E-013 -6.2105043E-012 -4.4080017E-012 -1.1309981E-012 -1.4180046E-011 -2.3390595E-012 -6.3042349E-012  3.7747583E-015  2.0497493E-014  2.1628810E-012 -1.1102230E-015  5.6843419E-014 -1.7741364E-013 -5.4241334E-014  3.1440128E-014  1.0240420E-013 -3.7747583E-013  1.3418433E-013  2.4034941E-013  4.7894327E-013 -6.8355044E-014 -1.2455315E-013  1.9048929E-012  7.2243600E-013  2.7755576E-017  1.6249502E-012  1.2024548E-012  1.2957690E-012 -2.0724533E-012 -1.1502743E-012  2.8078928E-013  1.6598528E-013  2.3980817E-014 -1.2004286E-013 -1.2140289E-013 -2.8575753E-013 -3.6026737E-014  2.1768282E-012  1.5187851E-012  1.3754761E-012  4.1293132E-012  8.7455043E-013  2.0935198E-012  6.0312866E-014  2.1092156E-013  2.1742746E-012  7.3874240E-013  3.0758590E-012  5.4667382E-013  4.1452952E-013  1.3109930E-012  5.8986149E-013  2.4481112E-012  1.0359769E-012  1.7110063E-012 -5.1097737E-012 -9.7244990E-012  6.8611783E-014  2.2427615E-012 -5.2358395E-012 -2.6506575E-014  1.7470886E-012  2.5709296E-013 -4.4741988E-014 -2.0408675E-013  2.2204460E-016 -2.5147939E-013 -3.5069170E-014 -3.2501779E-013  5.2104154E-014 -4.3159920E-015  2.0913826E-014 -4.1633363E-017  2.6353919E-014 -2.2425117E-013  4.8842874E-014  1.6832022E-014 -8.5229601E-012 -7.0865536E-012 -3.3299474E-012 -5.3252402E-012  3.5825509E-014 -1.5361323E-013 -1.4330204E-013 -4.0106807E-014 -8.4439400E-014 -1.0222378E-013 -2.5861258E-014 -1.7441604E-013 -1.2653767E-013 -1.6846247E-013 -1.1438073E-013  1.5897006E-014 -3.7744113E-014 -1.4466206E-013 -3.0669911E-014  5.9369176E-014  1.7032209E-013 -6.6707612E-012 -3.2537861E-012 -4.3021142E-014 -6.3112848E-012 -6.1835953E-013 -1.4510615E-013 -8.0629947E-014 -4.7656323E-014  8.9678265E-014  3.5083048E-014  6.1015082E-013  1.0438872E-013  5.9226235E-013  8.8311303E-014  4.2504888E-013 -7.3790973E-013 -3.6298742E-013  4.6629367E-014  5.0182081E-014  8.4160456E-013  1.1275980E-012  9.6703895E-014  9.3036689E-014  7.5710271E-014  1.6438240E-014  5.8154870E-014  2.3211294E-013 -8.1545881E-014  1.7533891E-013 -2.9554137E-013 -2.3814284E-014 -2.4234781E-013  2.3686608E-013  4.3451354E-014 -2.4563684E-014  2.1510571E-015  4.6074256E-013  1.5598633E-013  4.3010040E-013  2.5823788E-013  1.8651747E-013 -5.0792703E-015 -1.9206858E-014  2.2898350E-014 -7.6161299E-014  2.7489122E-013  8.5764729E-015  5.3967941E-013  7.4273920E-014 -3.9385162E-014 -5.4151128E-014 -1.1313173E-013  1.9365065E-013  6.3171690E-014  1.7819080E-013 -7.0460304E-013 -3.9690473E-013  2.7511327E-013  1.1797785E-012  1.4194201E-013  2.5091040E-014 -1.4088730E-013  5.0293103E-014 -1.4765966E-014 -2.6438851E-012  3.7192471E-013  3.4250380E-013  3.1463721E-013  7.5583984E-013 -4.3876014E-013 -1.7019719E-013  1.0825785E-012  1.1605716E-012 -1.2656542E-013  5.9729999E-014  7.0388140E-014  1.0746959E-013  8.1046281E-014  2.5091040E-014  5.8408833E-013  8.7096996E-013  1.3322676E-014  1.4921397E-013  9.9475983E-014  7.1159745E-013  4.6651571E-013 -4.4408921E-016  4.4408921E-016 -6.7723605E-015  7.2497564E-014  9.1038288E-014  4.7961635E-014  1.4055423E-013  7.3052675E-014  1.6631141E-013  7.5495166E-014 -1.2212453E-015  2.1732616E-014  2.6645353E-015  2.5901503E-013  5.4928284E-013  8.4376950E-015  5.8619776E-014  1.8629542E-013 -2.2870594E-014  2.7977620E-014  8.1490370E-014  7.4384943E-014  7.1165296E-014  2.2426505E-014  1.1102230E-016  6.6502359E-014 -4.4353410E-014  1.3482548E-012  4.5963233E-014  2.2803981E-013 -1.0103030E-014  4.4408921E-016  2.0317081E-013 0.0  2.2648550E-014  2.5868196E-013  2.2809532E-013  1.2526091E-013  3.3750780E-013  2.0589086E-013  1.7019719E-013  1.8607338E-013  6.6863182E-014  5.8425487E-014  5.7287508E-014  2.3092639E-014  9.3247632E-013 -9.9253938E-014  2.1915803E-013  3.2274183E-013  2.2681856E-013  4.2299497E-014  5.5522253E-013 -1.3825052E-013  9.4785291E-013  3.9035442E-013  8.2683860E-014 -2.0525248E-014 -3.0309089E-014 -2.5784930E-014 -2.0691782E-014 -8.8207219E-014 -1.1228518E-013  4.6421200E-015  2.7339242E-015 -2.9476421E-014 -1.6960044E-013  5.0466575E-014  9.1260333E-014 -5.6094018E-014 -5.5497273E-014  2.3692159E-013  3.5363379E-013 -3.7670977E-012 -1.2850387E-011 -1.7050431E-011 -3.5426662E-012  2.2182256E-013 -5.7981397E-014  9.6311847E-015  6.5211725E-014  3.2417125E-013  2.7250424E-013  4.3732379E-014 -1.2545520E-014  3.8491432E-013  3.7150838E-014  6.2450045E-015  3.3029135E-014  2.1316282E-014 -3.4666714E-014 -1.4020729E-013 -2.5295044E-013  1.0652590E-013  7.8229090E-014  2.9976022E-014 -2.5812685E-013 -3.0156433E-014  1.4534068E-012 -8.0110918E-013 -6.1978200E-014 -4.1355808E-014  9.2370556E-014  1.3322676E-015 -1.9984014E-015 -1.3000712E-013 -7.0499162E-015  3.7740297E-013  1.2126411E-012  1.8929303E-014  5.0515148E-014  2.8803349E-014 -4.5408122E-014  4.9765747E-014  2.3096108E-014 -2.6391667E-012  3.4638958E-014 -1.1068924E-013  1.2283230E-013  9.5784491E-014 -5.1170179E-013 -2.3953062E-014 -5.6080696E-012  1.4654944E-014 -5.6871174E-014 -7.9644624E-014  1.9129143E-013 -1.4710455E-014 -8.0629947E-015  1.5541526E-012  1.0377393E-012  3.2512881E-013  2.2204460E-016 -5.5511151E-017  1.7713053E-012 -3.4694470E-017  2.0815849E-012  1.3421486E-012  1.0725448E-012  9.8507313E-013  5.1866844E-013  9.9818764E-013  8.7727048E-013  1.0614893E-012  7.1146561E-013  2.6652291E-013  1.4344081E-013 -5.3657079E-013 -1.4552387E-012 -3.2425451E-014  4.1157355E-013  2.6213476E-012  5.5525029E-014  2.4882874E-014  1.1490808E-014  1.3722357E-013 -1.1962653E-014  6.9597106E-014  2.5757174E-014 -2.2357116E-013  6.2921890E-014  7.4662498E-015  1.8420682E-013 -2.5712765E-013  5.9952043E-014 -1.3863910E-014  3.3972825E-014 -6.3402061E-013  3.3265057E-014 -1.2175289E-011 -1.0613510E-011  2.2370994E-014 -7.9757173E-012 -9.5896624E-012  4.3687276E-014 -3.8054004E-012 -1.2947976E-014  2.2148949E-014 -9.9670272E-014  1.2212453E-014 -1.5154544E-014 -6.4392935E-015  9.1704422E-014  9.2981178E-014  1.2878587E-014 -3.8302694E-015 -2.1526392E-012  9.1593400E-014  9.0236152E-013  1.6583956E-014 -2.2204460E-014  1.1184387E-012  6.7570949E-014 -3.6970427E-014 -5.1000870E-014 -4.4408921E-016  7.2355316E-014  5.6787908E-014  2.4782260E-013  1.0838552E-013  1.3322676E-015  1.5210055E-014  1.5394769E-012 -2.6850744E-013  3.1347147E-013 -1.5543122E-015 -4.4526882E-013 -1.2054135E-011 -2.8684832E-012 -1.8667345E-011 -1.4162338E-011 -8.3225649E-012 -4.0384918E-012 -6.3181682E-012 -1.9570456E-012 -5.0924820E-012 -4.4408921E-016 -7.3890893E-013 -5.1197935E-012 -1.0704465E-011 -1.2071566E-011 -3.6585179E-012 -4.8303028E-012 -8.2923668E-012 -2.0520530E-012 -1.1434853E-011 -4.4254989E-011 -4.7059023E-012 -3.0535463E-011 -2.0443133E-011 -4.7506721E-012 -2.0051738E-012 -2.3556712E-012 -4.9752702E-012 -1.4622081E-011 -1.1690510E-012 -1.3990586E-011 -4.3706497E-012 -2.8640978E-013  3.8274939E-014  9.0594199E-014 -1.5543122E-015  1.6304319E-013  1.4543922E-014 -4.1971981E-013  2.9254377E-014  6.9388939E-015  6.8833828E-015  4.0407261E-013  4.4422799E-013 -1.2856383E-013 -1.6051049E-013  1.5543122E-014  1.0533241E-014  3.7303494E-014  1.0630385E-013  6.3962030E-013  1.8727173E-012  9.1969141E-013  1.0886569E-012  2.9899694E-013  5.3008986E-013  2.6377928E-012  1.1326669E-012  2.6677827E-012  1.2300161E-012  4.1135845E-013  4.9774768E-013  1.8160889E-012  5.6050997E-013  4.8572257E-017  7.7146622E-013  4.5725229E-013  1.4305293E-012  3.3591879E-013  4.8714505E-013  5.1536553E-013  3.4149072E-013  1.8866367E-012  8.6480823E-013  7.8002188E-013  1.7856341E-012 -1.5197565E-012 -2.3106517E-014  6.3107852E-013  5.2394070E-013  1.6219005E-012  1.5304494E-012  2.7755576E-017  2.7339866E-012  8.3837451E-013  1.9070578E-012  4.4010715E-013  2.9753977E-014  1.2919527E-013  1.0949575E-014  4.4408921E-016  2.2204460E-015  4.7589710E-013  4.0041581E-013  3.9704351E-014  3.0329905E-014  9.6672670E-014 -2.9577452E-012 -1.9984014E-015  2.2090663E-013 -1.5140916E-011 -1.1102230E-015  9.2217900E-014  1.3322676E-015  1.7701118E-013  2.8588243E-015  2.6853519E-013  7.1392892E-013 -1.5432100E-014 -3.7608805E-014  1.6978779E-013  2.0457247E-012 -1.9057256E-012  1.9029223E-012  6.6058270E-015  1.8112317E-012  1.5876189E-014  5.5469518E-014  1.0806772E-012  3.1086245E-015 -3.8191672E-012  1.4947765E-012 -1.4575008E-012 0.0  3.5527137E-015  2.7755576E-017  1.7637281E-013  4.4249326E-014 -3.2069902E-012  1.0367401E-013  2.7755576E-017 -1.1002310E-013  1.3100632E-014 -2.9171110E-014 -1.8873791E-015 -5.8897331E-014 -6.8993700E-012 -1.0230705E-013 -4.6274096E-013 -1.0480068E-011 -3.8219428E-014 -2.2664093E-012 -4.1977533E-013 -8.8817842E-016 -8.8817842E-016  2.7989278E-012 -9.4655395E-012  2.1815882E-014 -7.6244566E-014 -5.2202687E-013 -7.5106588E-014  1.7055801E-013  3.4625081E-013 -1.3072710E-011 -2.7129132E-012 -8.6874952E-014  1.3516965E-013  8.1296081E-014  8.7541085E-014  5.5477845E-013 -1.2766177E-013 -1.1632362E-013  1.6001089E-013  6.0285110E-013  4.1217030E-015 -3.4527936E-014 -5.6621374E-015 -5.1125770E-014  5.5511151E-017  3.3172076E-013 -1.5820678E-014 -1.4885204E-011
        </DataArray>
        <DataArray type="Float64" Name="stress_xx" NumberOfComponents="1" format="ascii">
 0.0 0.0 0.0 0.0  4.0058173E+003  3.3191335E+003  6.8529245E+002  1.9024688E+004 0.0 0.0 0.0 0.0 0.0 0.0 0.0 0.0 0.0  1.5898028E+005 0.0 0.0 0.0 0.0 0.0 0.0 0.0 0.0 0.0 0.0 0.0 0.0 0.0 0.0 0.0 0.0 0.0 0.0 0.0 0.0 0.0 0.0 0.0 0.0 0.0 0.0 0.0 0.0  2.5543260E+002  3.1104657E+002  1.8418710E+002  1.1284924E+002  5.7885364E+001 -1.1358201E+001 -3.3990135E+001 -5.1077996E+000 -1.1717077E+001 -1.2282623E+001 -6.9776129E+000 -2.5686965E+000 -1.9441626E+001 -6.4351934E+001 -1.2879285E+002  1.2143228E+002  4.3092919E+003  1.5239431E+003  1.4296680E+003  7.6518949E+002  6.6610087E+002  5.9300773E+002  7.2929187E+002  7.6094254E+002  6.9991705E+002  7.2354307E+002  6.1043343E+002  5.9379361E+002  6.8402952E+002  6.4483297E+002  6.2092708E+002  6.6635639E+002  5.8643953E+002  5.7769207E+002  6.6726859E+002  6.2903354E+002  5.8999532E+002  5.9317565E+002  5.4611557E+002  5.9879984E+002  6.5904588E+002  6.1834728E+002  5.8009742E+002  5.8342414E+002  5.3666125E+002  5.8872253E+002  6.4846495E+002  6.0858070E+002  5.7098860E+002  5.7440725E+002  5.2740105E+002  5.7982672E+002  6.3824394E+002  6.0068092E+002  5.6387785E+002  5.6665681E+002  5.2148273E+002  5.7260813E+002  6.3068199E+002  5.9360569E+002  5.5748122E+002  5.6067436E+002  5.1484587E+002  5.6702583E+002  6.2285545E+002  5.7787998E+002  5.1046766E+002  5.6341440E+002  6.2043187E+002  5.8400863E+002  5.5289788E+002  5.6238399E+002  5.4915364E+002  5.5137372E+002  5.0580107E+002  5.5824640E+002  6.1663606E+002  5.8112320E+002  5.4986007E+002  5.5947621E+002  5.5015242E+002  5.6015599E+002  5.5238741E+002  5.5052288E+002  5.1164448E+002  5.0843291E+002  5.6247077E+002  5.7178433E+002  5.4978478E+002  5.6478676E+002  5.5664216E+002  5.5756802E+002  5.1239000E+002  5.2018212E+002  5.8301009E+002  5.9146455E+002  5.8902201E+002  6.1607556E+002  6.3696715E+002 0.0 0.0 0.0 0.0 0.0 0.0 0.0 0.0 0.0 0.0 0.0 0.0 0.0 0.0 0.0 0.0 0.0 0.0 0.0 0.0 0.0 0.0 0.0 0.0 0.0 0.0 0.0 0.0 0.0 0.0 0.0 0.0 0.0 0.0 0.0 0.0 0.0 0.0 0.0 0.0 0.0 0.0 0.0 0.0 0.0 0.0 0.0 0.0 0.0 0.0 0.0 0.0 0.0 0.0 0.0 0.0 0.0 0.0 0.0 0.0 0.0 0.0 0.0 0.0 0.0 0.0 0.0 0.0 0.0 0.0 0.0 0.0 0.0 0.0 0.0 0.0 0.0 0.0 0.0 0.0 0.0 0.0 0.0 0.0 0.0 0.0 0.0 0.0 0.0 0.0 0.0 0.0 0.0 0.0 0.0 0.0 0.0 0.0 0.0 0.0 0.0 0.0 0.0 0.0 0.0 0.0 0.0 0.0 0.0 0.0 0.0 0.0 0.0 0.0 0.0 0.0 0.0 0.0 0.0 0.0 0.0 0.0 0.0 0.0 0.0 0.0 0.0 0.0 0.0 0.0 0.0 0.0 0.0 0.0 0.0 0.0 0.0 0.0 0.0 0.0 0.0 0.0 0.0 0.0 0.0 0.0 0.0 0.0 0.0 0.0 0.0 0.0 0.0 0.0 0.0 0.0 0.0 0.0 0.0 0.0 0.0 0.0 0.0 0.0 0.0 0.0 0.0 0.0 0.0 0.0 0.0 0.0 0.0 0.0 0.0 0.0 0.0 0.0 0.0 0.0 0.0 0.0 0.0 0.0 0.0 0.0 0.0 0.0 0.0 0.0 0.0 0.0 0.0 0.0 0.0 0.0 0.0 0.0 0.0 0.0 0.0 0.0 0.0 0.0 0.0 0.0 0.0 0.0 0.0 0.0 0.0 0.0 0.0 0.0 0.0 0.0 0.0 0.0 0.0 0.0 0.0 0.0 0.0 0.0 0.0 0.0 0.0 0.0 0.0 0.0 0.0 0.0 0.0 0.0 0.0 0.0 0.0 0.0 0.0 0.0 0.0  2.3161006E+004  7.1995190E+004  9.8194507E+004  1.1751313E+005  1.3246991E+005  1.4268868E+005  1.5033845E+005  1.5509144E+005  1.5846201E+005 0.0 0.0 0.0 0.0 0.0 0.0 0.0 0.0 0.0 0.0 0.0 0.0 0.0 0.0 0.0 0.0 0.0 0.0 0.0 0.0 0.0 0.0 0.0 0.0 0.0 0.0 0.0 0.0 0.0 0.0 0.0 0.0 0.0 0.0 0.0 0.0 0.0 0.0 0.0 0.0 0.0 0.0 0.0 0.0 0.0 0.0 0.0 0.0 0.0 -2.6692028E+003 -2.5484303E+002 -3.6796925E+002 -3.1505743E+002 -2.0545661E+002 -7.7496582E+001  9.0496937E+001  2.5522648E+002  3.1038249E+002  2.5777137E+002  1.0054075E+002 -3.3650320E+002 -1.1217264E+003 -2.2376751E+003 -3.6883757E+003 -5.2626214E+003 -6.9726995E+003 -8.5410612E+003 -9.5721986E+003 -1.0576213E+004 -1.0977600E+004 -1.1079304E+004 -1.1108731E+004 -1.1147693E+004 -1.1185903E+004 -1.1414881E+004 -1.1125998E+004 -1.1365076E+004 -1.1270433E+004 -1.1169348E+004 -1.1093338E+004 -1.1066662E+004 -1.1105483E+004 -1.1357545E+004 -1.1097665E+004 -1.1374572E+004 -1.1141133E+004 -1.1348538E+004 -1.1162914E+004 -1.0925165E+004 -1.1047614E+004 -1.1292158E+004 -1.1124137E+004 -1.1458468E+004 -1.1215487E+004 -1.1422762E+004 -1.1244323E+004 -1.1025598E+004 -1.1184249E+004 -1.1391070E+004 -1.1316436E+004 -1.1108138E+004 -1.1224000E+004 -1.1490389E+004 -1.1361994E+004 -1.1630727E+004 -1.1437916E+004 -1.1192764E+004 -1.1321355E+004 -1.1609590E+004 -1.1492609E+004 -1.1768124E+004 -1.1576836E+004 -1.1335919E+004 -1.1463561E+004 -1.1742505E+004 -1.1616380E+004 -1.1896109E+004 -1.1699875E+004 -1.1526310E+004 -1.1644554E+004 -1.1910298E+004 -1.1792260E+004 -1.2087724E+004 -1.1886591E+004 -1.1718138E+004 -1.1840729E+004 -1.2117652E+004 -1.1996288E+004 -1.2289475E+004 -1.2086726E+004 -1.1916541E+004 -1.2068961E+004 -1.2398812E+004 -1.2275780E+004 -1.2539590E+004 -1.2302198E+004 -1.2057524E+004 -1.1994525E+004 -1.1569462E+004 -1.0754703E+004 -8.0526466E+003 -2.4020887E+003  6.1788427E+003  1.9034167E+004  3.6346428E+004  5.8677360E+004  8.7334345E+004  1.2117851E+005 0.0 0.0 0.0 0.0 0.0 0.0 0.0 0.0 0.0 0.0 0.0 0.0 0.0 0.0 0.0 0.0 0.0 0.0 0.0 0.0 0.0 0.0 0.0 0.0 0.0 0.0 0.0 0.0 0.0 0.0 0.0 0.0 0.0 0.0 0.0 0.0 0.0 0.0 0.0 0.0 0.0 0.0 0.0 0.0 0.0 0.0 0.0 0.0 0.0 0.0 0.0 0.0 0.0 0.0 0.0 0.0 0.0 0.0 0.0 0.0 0.0 0.0 0.0 0.0 0.0 0.0 0.0 0.0 0.0 0.0 0.0 0.0 0.0 0.0 0.0 0.0 0.0 0.0 0.0 0.0 0.0 0.0 0.0 0.0 0.0 0.0 0.0 0.0 0.0 0.0 0.0 0.0 0.0 0.0 0.0 0.0 0.0 0.0 0.0 0.0 0.0 0.0 0.0 0.0 0.0 0.0 0.0 0.0 0.0 0.0 0.0 0.0 0.0 0.0 0.0 0.0 0.0 0.0 0.0 0.0 0.0 0.0 0.0 0.0 0.0 0.0 0.0 0.0 0.0 0.0 0.0 0.0 0.0 0.0 0.0 0.0 0.0 0.0 0.0 0.0 0.0 0.0 0.0 0.0 0.0 0.0 0.0 0.0 0.0 0.0 0.0 0.0 0.0 0.0 0.0 0.0 0.0 0.0 0.0 0.0 0.0 0.0 0.0 0.0 0.0 0.0 0.0 0.0 0.0 0.0 0.0 0.0 0.0 0.0 0.0 0.0 0.0 0.0 0.0 0.0 0.0 0.0 0.0 0.0 0.0 0.0 0.0 0.0 0.0 0.0 0.0 0.0 0.0 0.0 0.0 0.0 0.0 0.0 0.0 0.0 0.0 0.0 0.0 0.0 0.0 0.0 0.0 0.0 0.0 0.0 0.0 0.0 0.0 0.0 0.0 0.0 0.0 0.0 0.0 0.0 0.0 0.0 0.0 0.0 0.0 0.0 0.0 0.0 0.0 0.0 0.0 0.0 0.0 0.0 0.0 0.0 0.0 0.0 0.0 0.0 0.0 0.0 0.0 0.0 0.0 0.0 0.0 0.0 0.0 0.0 0.0 0.0 0.0 0.0 0.0 0.0 0.0 0.0 0.0 0.0 0.0 0.0 0.0 0.0 0.0 0.0 0.0 0.0 0.0 0.0 0.0 0.0 0.0 0.0 0.0 0.0 0.0 0.0 0.0 0.0 0.0 0.0 0.0 0.0 0.0 0.0 0.0 0.0 0.0 0.0 0.0 0.0 0.0 0.0 0.0 0.0 0.0 0.0 0.0 0.0 0.0 0.0 0.0 0.0 0.0 0.0 0.0 0.0 0.0 0.0 0.0 0.0 0.0 0.0 0.0 0.0 0.0 0.0 0.0 0.0 0.0 0.0 0.0 0.0 0.0 0.0 0.0 0.0 0.0 0.0 0.0 0.0 0.0 0.0 0.0 0.0 0.0 0.0 0.0 0.0 0.0 0.0 0.0 0.0 0.0 0.0 0.0 0.0 0.0 0.0 0.0 0.0 0.0 0.0 0.0 0.0 0.0 0.0 0.0 0.0 0.0 0.0 0.0 0.0 0.0 0.0 0.0 0.0 0.0 0.0 0.0 0.0 0.0 0.0 0.0 0.0 0.0 0.0 0.0 0.0 0.0 0.0 0.0 0.0 0.0 0.0 0.0 0.0 0.0 0.0 0.0 0.0 0.0 0.0 0.0 0.0 0.0 0.0 0.0 0.0 0.0 0.0 0.0 0.0 0.0 0.0 0.0 0.0 0.0 0.0 0.0 0.0 0.0 0.0 0.0 0.0 0.0 0.0 0.0 0.0 0.0 0.0 0.0 0.0 0.0 0.0 0.0 0.0 0.0 0.0 0.0 0.0 0.0 0.0 0.0 0.0 0.0 0.0 0.0 0.0 0.0 0.0 0.0 0.0 0.0 0.0 0.0 0.0 0.0 0.0 0.0 0.0 0.0 0.0 0.0 0.0 0.0 0.0 0.0 0.0 0.0 0.0 0.0 0.0 0.0 0.0 0.0 0.0 0.0 0.0 0.0 0.0 0.0 0.0 0.0 0.0 0.0 0.0 0.0 0.0 0.0 0.0 0.0 0.0 0.0 0.0 0.0 0.0 0.0 0.0 0.0 0.0 0.0 0.0 0.0 0.0 0.0 0.0 0.0 0.0 0.0 0.0 0.0 0.0 0.0 0.0 0.0 0.0 0.0 0.0 0.0 0.0 0.0 0.0 0.0 0.0 0.0 0.0 0.0 0.0 0.0 0.0 0.0 0.0 0.0 0.0 0.0 0.0 0.0 0.0 0.0 0.0 0.0 0.0 0.0 0.0 0.0 0.0 0.0 0.0 0.0 0.0 0.0 0.0 0.0 0.0 0.0 0.0 0.0 0.0 0.0 0.0 0.0 0.0 0.0 0.0 0.0 0.0 0.0 0.0 0.0 0.0 0.0 0.0 0.0 0.0 0.0 0.0 0.0 0.0 0.0 0.0 0.0 0.0 0.0 0.0 0.0 0.0 0.0 0.0 0.0 0.0 0.0 0.0 0.0 0.0 0.0 0.0 0.0 0.0 0.0 0.0 0.0 0.0 0.0 0.0 0.0 0.0 0.0 0.0 0.0 0.0 0.0 0.0 0.0 0.0 0.0 0.0 0.0 0.0 0.0 0.0 0.0 0.0 0.0 0.0 0.0 0.0 0.0 0.0 0.0 0.0 0.0 0.0 0.0 0.0 0.0 0.0 0.0 0.0 0.0 0.0 0.0 0.0 0.0 0.0 0.0 0.0 0.0 0.0 0.0 0.0 0.0 0.0 0.0 0.0 0.0 0.0 0.0 0.0 0.0 0.0 0.0 0.0 0.0 0.0 0.0 0.0 0.0 0.0 0.0 0.0 0.0 0.0 0.0 0.0 0.0 0.0 0.0 0.0 0.0 0.0 0.0 0.0 0.0 0.0 0.0 0.0 0.0 0.0 0.0 0.0 0.0 0.0 0.0 0.0 0.0 0.0 0.0 0.0 0.0 0.0 0.0 0.0 0.0 0.0 0.0 0.0 0.0 0.0 0.0 0.0 0.0 0.0 0.0 0.0 0.0 0.0 0.0 0.0 0.0 0.0 0.0 0.0 0.0 0.0 0.0 0.0 0.0 0.0 0.0 0.0 0.0 0.0 0.0 0.0 0.0 0.0 0.0 0.0 0.0 0.0 0.0 0.0 0.0 0.0 0.0 0.0 0.0 0.0 0.0 0.0 0.0 0.0 0.0 0.0 0.0 0.0 0.0 0.0 0.0 0.0 0.0 0.0 0.0 0.0 0.0 0.0 0.0 0.0 0.0 0.0 0.0 0.0 0.0 0.0 0.0 0.0 0.0 0.0 0.0 0.0 0.0 0.0 0.0 0.0 0.0 0.0 0.0 0.0 0.0 0.0 0.0 0.0 0.0 0.0 0.0 0.0 0.0 0.0 0.0 0.0 0.0 0.0 0.0 0.0 0.0 0.0 0.0 0.0 0.0 0.0 0.0 0.0 0.0 0.0 0.0 0.0 0.0 0.0 0.0 0.0 0.0 0.0 0.0 0.0 0.0 0.0 0.0 0.0 0.0 0.0 0.0 0.0 0.0 0.0 0.0 0.0 0.0 0.0 0.0 0.0 0.0 0.0 0.0 0.0 0.0 0.0 0.0 0.0 0.0 0.0 0.0 0.0 0.0 0.0 0.0 0.0 0.0 0.0 0.0 0.0 0.0 0.0 0.0 0.0 0.0 0.0 0.0 0.0 0.0 0.0 0.0 0.0 0.0 0.0 0.0 0.0 0.0 0.0 0.0 0.0 0.0 0.0 0.0 0.0 0.0 0.0 0.0 0.0 0.0 0.0 0.0 0.0 0.0 0.0 0.0 0.0 0.0 0.0 0.0 0.0 0.0 0.0 0.0 0.0 0.0 0.0 0.0 0.0 0.0 0.0 0.0 0.0 0.0 0.0 0.0 0.0 0.0 0.0 0.0 0.0 0.0 0.0 0.0 0.0 0.0 0.0 0.0 0.0 0.0 0.0 0.0 0.0 0.0 0.0 0.0 0.0 0.0 0.0 0.0 0.0 0.0 0.0 0.0 0.0 0.0 0.0 0.0 0.0 0.0 0.0 0.0 0.0 0.0 0.0 0.0 0.0 0.0 0.0 0.0 0.0 0.0 0.0 0.0 0.0 0.0 0.0 0.0 0.0 0.0 0.0 0.0 0.0 0.0 0.0 0.0 0.0 0.0 0.0 0.0 0.0 0.0 0.0 0.0 0.0 0.0 0.0 0.0 0.0 0.0 0.0 0.0 0.0 0.0 0.0 0.0 0.0 0.0 0.0 0.0 0.0 0.0 0.0 0.0 0.0 0.0 0.0 0.0 0.0 0.0 0.0 0.0 0.0 0.0 0.0 0.0 0.0 0.0 0.0 0.0 0.0 0.0 0.0 0.0 0.0 0.0 0.0 0.0 0.0 0.0 0.0 0.0 0.0 0.0 0.0 0.0 0.0 0.0 0.0 0.0 0.0 0.0 0.0 0.0 0.0 0.0 0.0 0.0 0.0 0.0 0.0 0.0 0.0 0.0 0.0 0.0 0.0 0.0 0.0 0.0 0.0 0.0 0.0 0.0 0.0 0.0 0.0 0.0 0.0 0.0 0.0 0.0 0.0 0.0 0.0 0.0 0.0 0.0 0.0 0.0 0.0 0.0 0.0 0.0 0.0 0.0 0.0 0.0 0.0 0.0 0.0 0.0 0.0 0.0 0.0 0.0 0.0 0.0 0.0 0.0 0.0 0.0 0.0 0.0 0.0 0.0 0.0 0.0 0.0 0.0 0.0 0.0 0.0 0.0 0.0 0.0 0.0 0.0 0.0 0.0 0.0 0.0 0.0 0.0 0.0 0.0 0.0 0.0 0.0 0.0 0.0 0.0 0.0 0.0 0.0 0.0 0.0 0.0 0.0 0.0 0.0 0.0 0.0 0.0 0.0 0.0 0.0 0.0 0.0 0.0 0.0 0.0 0.0 0.0 0.0 0.0 0.0 0.0 0.0 0.0 0.0 0.0 0.0 0.0 0.0 0.0 0.0 0.0 0.0 0.0 0.0 0.0 0.0 0.0 0.0 0.0 0.0 0.0 0.0 0.0 0.0 0.0 0.0 0.0 0.0 0.0 0.0 0.0 0.0 0.0 0.0 0.0 0.0 0.0 0.0 0.0 0.0 0.0 0.0 0.0 0.0 0.0 0.0 0.0 0.0 0.0 0.0 0.0 0.0 0.0 0.0 0.0 0.0 0.0 0.0 0.0 0.0 0.0 0.0 0.0 0.0 0.0 0.0 0.0 0.0 0.0 0.0 0.0 0.0 0.0 0.0 0.0 0.0 0.0 0.0 0.0 0.0 0.0 0.0 0.0 0.0 0.0 0.0 0.0 0.0 0.0 0.0 0.0 0.0 0.0 0.0 0.0 0.0 0.0 0.0 0.0 0.0 0.0 0.0 0.0 0.0 0.0 0.0 0.0 0.0 0.0 0.0 0.0 0.0 0.0 0.0 0.0 0.0 0.0 0.0 0.0 0.0 0.0 0.0 0.0 0.0 0.0 0.0 0.0 0.0 0.0 0.0 0.0 0.0 0.0 0.0 0.0 0.0 0.0 0.0 0.0 0.0 0.0 0.0 0.0 0.0 0.0 0.0 0.0 0.0 0.0 0.0 0.0 0.0 0.0 0.0 0.0 0.0 0.0 0.0 0.0 0.0 0.0 0.0 0.0 0.0 0.0 0.0 0.0 0.0 0.0 0.0 0.0 0.0 0.0 0.0 0.0 0.0 0.0 0.0 0.0 0.0 0.0 0.0 0.0 0.0 0.0 0.0 0.0 0.0 0.0 0.0 0.0 0.0 0.0 0.0 0.0 0.0 0.0 0.0 0.0 0.0 0.0 0.0 0.0 0.0 0.0 0.0 0.0 0.0 0.0 0.0 0.0 0.0 0.0 0.0 0.0 0.0 0.0 0.0 0.0 0.0 0.0 0.0 0.0 0.0 0.0 0.0 0.0 0.0 0.0 0.0 0.0 0.0 0.0 0.0 0.0 0.0 0.0 0.0 0.0 0.0 0.0 0.0 0.0 0.0 0.0 0.0 0.0 0.0 0.0 0.0 0.0 0.0 0.0 0.0 0.0 0.0 0.0 0.0 0.0 0.0 0.0 0.0 0.0 0.0 0.0 0.0 0.0 0.0 0.0 0.0 0.0 0.0 0.0 0.0 0.0 0.0 0.0 0.0 0.0 0.0 0.0 0.0 0.0 0.0 0.0 0.0  9.3512648E+004  2.6384425E+004  3.5886496E+003  1.1940190E+003  1.1182299E+005  6.2111216E+004 -1.7638248E+002 -2.2014469E+003 -1.3368703E+003 -2.6849946E+003 -2.7102615E+003 -2.8524877E+003 -2.7282599E+003 -2.6656141E+003 -2.8247738E+003 -2.5318247E+003 -2.6527249E+003 -2.7808849E+003 -2.4940934E+003 -2.6160727E+003 -2.7357918E+003 -2.4860897E+003 -2.5923816E+003 -2.6980848E+003 -2.4348574E+003 -2.5599356E+003 -2.6672025E+003 -2.4351885E+003  7.1696989E+004 -2.5439365E+003 -2.4662376E+003 -2.5267606E+003 -2.6282148E+003 -2.5898419E+003 -2.4089246E+003 -2.5162290E+003 -2.6200715E+003 -2.5660342E+003 -2.5876539E+003 -2.5350716E+003 -2.3173972E+003 -2.5049288E+003 -2.6046692E+003 -2.5701814E+003 -2.5071036E+003 -2.4148322E+003 -1.3201445E+003 -7.7761492E+003 -1.4633216E+003  1.3604019E+004 -9.5386293E+003 -1.0570207E+004 -1.0266226E+004 -1.0507173E+004 -1.0507321E+004 -1.0076282E+004 -1.0243165E+004 -1.0335957E+004 -9.9136454E+003 -1.0060785E+004 -1.0164222E+004 -9.7613365E+003 -9.9073025E+003 -9.9578078E+003 -9.6959792E+003 -9.8003079E+003 -9.8259819E+003 -9.5821839E+003 -9.6913454E+003 -9.7471048E+003 -9.4489215E+003 -9.6911842E+003 -9.4130695E+003 -9.6187654E+003 -9.5110416E+003 -9.5906519E+003 -9.3459223E+003 -9.5519216E+003 -9.5451103E+003 -9.6441817E+003 -9.4572188E+003 -9.3627902E+003 -9.5838574E+003 -9.7274960E+003 -9.3994641E+003 -8.9465736E+003 -5.1653568E+003 -1.1566129E+002  1.4548588E+002  8.9433085E+001  1.2324970E+005  7.5981983E+001 -3.5832695E+001 -4.9019956E+003 -2.2157682E+003 -5.9121997E+003  6.0925776E+003  6.8457474E+002  8.2854330E+003  3.0146560E+003  1.0945212E+004  2.0222711E+004  2.3756943E+004  3.8071523E+004  3.3346675E+004  5.4907676E+004  4.2233280E+004  2.6122712E+004  4.7958644E+004  7.2501304E+004  4.5254164E+004  6.3048044E+004  2.7275225E+004  1.4641582E+004  2.7742581E+004  1.7702034E+004 -3.4616407E+003 -1.6611745E+003  1.1132250E+004  1.2371947E+003  4.7122717E+004  1.8655808E+002 -1.0226358E+004 -7.2664275E+003 -7.1597167E+003 -5.6334071E+003 -6.5408461E+002 -7.7098238E+002 -1.5034585E+003 -3.8958270E+003 -3.6490005E+003 -4.7125849E+003 -1.0006787E+004 -7.1410165E+003 -7.0324189E+003 -6.0138466E+003 -9.4512712E+003 -6.7645665E+003 -6.7133422E+003 -5.6232361E+003 -9.7088495E+003 -6.9454195E+003 -6.8941649E+003 -5.8116172E+003 -1.2780836E+002  3.1337795E+000 -9.4032105E+003 -7.3894321E+003 -7.8037712E+003 -4.9666918E+003 -9.4975163E+003 -6.9892331E+003 -9.3531607E+003 -6.6619018E+003 -6.6572248E+003 -5.5834003E+003 -9.4979446E+003 -7.0353461E+003 -9.8393127E+003 -7.0199701E+003 -6.9203476E+003 -5.9255103E+003 -9.5929866E+003 -6.8430529E+003 -6.8172527E+003 -5.6818799E+003 -9.5493127E+003 -9.5810510E+003 -7.1234389E+003 -9.5031586E+003 -6.7729602E+003 -6.7652646E+003 -5.6447672E+003 -9.7783469E+003 -7.2677965E+003 -9.7802994E+003 -9.4615056E+003 -7.3728971E+003 -7.7409455E+003 -4.8701685E+003 -9.5483078E+003 -7.0282892E+003 -9.7169524E+003 -9.8937112E+003 -7.3539889E+003 -1.0043960E+004 -7.3257888E+003 -6.5534947E+003 -9.4698019E+003 -7.0489250E+003 -9.5291838E+003 -7.0405867E+003 -9.5908478E+003 -7.0899263E+003 -9.8992117E+003 -1.0080628E+004 -1.0603763E+004 -7.6680194E+003 -8.4770428E+003 -6.1238286E+003 -9.6642102E+003 -9.6230353E+003 -2.5778114E+003 -1.0245278E+004 -1.0417881E+004 -9.6535704E+003 -1.0387473E+004 -7.5005161E+003 -1.0000436E+004 -7.2496406E+003 -7.2365133E+003 -5.6258374E+003 -1.0578376E+004 -1.0220761E+004 -7.3701084E+003 -2.0990970E+003 -2.6274356E+003 -5.5103153E+003 -2.6773152E+003 -5.0522176E+003 -2.8445717E+003 -5.8268281E+003 -2.5330924E+003 -5.3674104E+003 -2.6594888E+003 -5.5309656E+003 -2.5531299E+003 -5.7151327E+003 -2.7786090E+003 -6.1800142E+003 -2.5505399E+003 -5.4225571E+003 -2.6353414E+003 -5.2773055E+003 -2.5343441E+003 -5.7240919E+003 -6.7827139E+003 -2.6527601E+003 -5.8910391E+003 -2.6141669E+003 -5.8041845E+003 -2.7075966E+003 -5.6558021E+003 -2.9449519E+003 -6.0312778E+003 -2.4779970E+003 -5.5607099E+003 -2.7995101E+003 -5.7379718E+003 -2.7404676E+003 -5.7223904E+003 -2.5491483E+003 -5.4662513E+003 -2.7714947E+003 -5.7493064E+003 -2.6735459E+003 -5.9609082E+003 -2.7261920E+003 -6.0728085E+003 -2.8850973E+003 -5.9302327E+003 -2.2748138E+003 -4.8204639E+003 -2.5414892E+003 -5.4343367E+003 -2.4960315E+003 -5.5908171E+003 -2.6632258E+003 -6.5247898E+003  1.0764024E+005  7.7083566E+004  1.0467576E+005 -6.6212906E+003 -6.2583515E+003 -6.5274638E+003 -6.2578945E+003 -6.3473699E+003 -5.2752523E+003 -6.3169908E+003 -6.4168326E+003 -5.1599189E+003 -6.7143508E+003 -6.8309059E+003 -2.5316960E+003 -1.3647325E+001 -8.3594848E+002  2.1487451E+002 -7.4428801E+001 -1.3743603E+003  1.3527945E+004  4.9042659E+003  5.2254581E+001  1.0184295E+005  7.0658661E+003 -8.4251692E+003 -2.7353401E+002  2.8723312E+004 -1.1315147E+002  9.0176310E+001 -1.2935010E+003  8.0461512E+004 -5.0929054E+003  6.3758596E+004  4.5153853E+004  8.8375040E+004 -1.0877750E+002 -7.6801226E+003 -2.5783887E+002  5.1227499E+001 -3.0047155E+003 -7.9698280E+003 -8.2236755E+003 -2.3160712E+003 -1.7831862E+003 -8.0088855E+003 -8.0650490E+003 -1.9287321E+003 -8.1810690E+003 -8.1917106E+003 -8.2826048E+003 -2.0177005E+003 -5.8933118E+003 -8.3424608E+003 -7.9336673E+003 -8.4677601E+003 -4.9771614E+003 -8.5952423E+003 -8.7463979E+003 -2.0348773E+003 -7.7538379E+003 -8.3090692E+003 -2.0439186E+003 -5.3860142E+003 -8.4531981E+003 -5.2451565E+003 -2.0659321E+003 -7.6770607E+003 -8.2679581E+003 -2.0901564E+003 -8.2291448E+003 -5.3420263E+003 -2.1302024E+003 -8.5512034E+003 -5.1996931E+003 -5.2353033E+003 -2.1652031E+003 -8.3478783E+003 -2.3913929E+003 -8.2904953E+003 -2.4366470E+003 -8.5892786E+003 -5.3078419E+003 -5.2685569E+003 -8.6866572E+003 -8.4893759E+003 -8.7345585E+003 -5.4359323E+003 -8.5860002E+003 -8.8299287E+003 -8.6829663E+003 -5.4985414E+003 -8.9239454E+003 -8.8095539E+003 -9.0427736E+003 -5.5536919E+003 -8.9616888E+003 -9.1921753E+003 -5.6389748E+003 -9.2205452E+003 -9.3691605E+003 -8.3192373E+003 -5.7343431E+003 -5.8586951E+003  6.1227426E+004  1.7321519E+004 -3.8019236E+003 -5.3368469E+003  1.3039028E+005  3.2824339E+004 -5.2717364E+003  1.5591825E+004 -5.4860728E+003 -5.5627407E+003 -5.5748899E+003 -5.7121266E+003 -5.7036094E+003 -5.8575850E+003 -5.9580557E+003 -6.3537620E+003 -6.3934811E+003 -6.5486337E+003  8.2118417E+004 -9.3261038E+002 -6.4581297E+003  1.9539883E+002  7.8870345E+003  3.8609071E+004 -6.3709589E+003 -5.3903276E+003  3.5711716E+001 -6.2636750E+003 -1.5811364E+003  8.7756726E+004 -6.2329070E+003 -6.1328180E+003 -6.0791168E+003 -6.0277499E+003 -1.3221199E+001  4.0288817E+004 -5.9811585E+003 0.0 0.0 0.0 0.0 0.0 0.0 0.0 0.0 0.0 0.0 0.0 0.0 0.0 0.0 0.0 0.0 0.0 0.0 0.0 0.0 0.0 0.0 0.0 0.0 0.0 0.0 0.0 0.0 0.0 0.0 0.0 0.0 0.0 0.0 0.0 0.0 0.0 0.0 0.0 0.0 0.0 0.0 0.0 0.0 0.0 0.0 0.0 0.0 0.0 0.0 0.0 0.0 0.0 0.0 0.0 0.0 0.0 0.0 0.0 0.0 0.0 0.0 0.0 0.0 0.0 0.0 0.0 0.0 0.0 0.0 0.0 0.0 0.0 0.0 0.0 0.0 0.0 0.0 0.0 0.0 0.0 0.0 0.0 0.0 0.0 0.0 0.0 0.0 0.0 0.0 0.0 0.0 0.0 0.0 0.0 0.0 0.0 0.0 0.0 0.0 0.0 0.0 0.0 0.0 0.0 0.0 0.0 0.0 0.0 0.0 0.0 0.0 0.0 0.0 0.0 0.0 0.0 0.0 0.0 0.0 0.0 0.0 0.0 0.0 0.0 0.0 0.0 0.0 0.0 0.0 0.0 0.0 0.0 0.0 0.0 0.0 0.0 0.0 0.0 0.0 0.0 0.0 0.0 0.0 0.0 0.0 0.0 0.0 0.0 0.0 0.0 0.0 0.0 0.0 0.0 0.0 0.0 0.0 0.0 0.0 0.0 0.0 0.0 0.0 0.0 0.0 0.0 0.0 0.0 0.0 0.0 0.0 0.0 0.0 0.0 0.0 0.0 0.0 0.0 0.0 0.0 0.0 0.0 0.0 0.0 0.0 0.0 0.0 0.0 0.0 0.0 0.0 0.0 0.0 0.0 0.0 0.0 0.0 0.0 0.0 0.0 0.0 0.0 0.0 0.0 0.0 0.0 0.0 0.0 0.0 0.0 0.0 0.0 0.0 0.0 0.0 0.0 0.0 0.0 0.0 0.0 0.0 0.0 0.0 0.0 0.0 0.0 0.0 0.0 0.0 0.0 0.0 0.0 0.0 0.0 0.0 0.0 0.0 0.0 0.0 0.0 0.0 0.0 0.0 0.0 0.0 0.0 0.0 0.0 0.0 0.0 0.0 0.0 0.0 0.0 0.0 0.0 0.0 0.0 0.0 0.0 0.0 0.0 0.0 0.0 0.0 0.0 0.0 0.0 0.0 0.0 0.0 0.0 0.0 0.0 0.0 0.0 0.0 0.0 0.0 0.0 0.0 0.0 0.0 0.0 0.0 0.0 0.0 0.0 0.0 0.0 0.0 0.0 0.0 0.0 0.0 0.0 0.0 0.0 0.0 0.0 0.0 0.0 0.0 0.0 0.0 0.0 0.0 0.0 0.0 0.0 0.0 0.0 0.0 0.0 0.0 0.0 0.0 0.0 0.0 0.0 0.0 0.0 0.0 0.0 0.0 0.0 0.0 0.0 0.0 0.0 0.0 0.0 0.0 0.0 0.0 0.0 0.0 0.0 0.0 0.0 0.0 0.0 0.0 0.0 0.0 0.0 0.0 0.0 0.0 0.0 0.0 0.0 0.0 0.0 0.0 0.0 0.0 0.0 0.0 0.0 0.0 0.0 0.0 0.0 0.0 0.0 0.0 0.0 0.0 0.0 0.0 0.0 0.0 0.0 0.0 0.0 0.0 0.0 0.0 0.0 0.0 0.0 0.0 0.0 0.0 0.0 0.0 0.0 0.0 0.0 0.0 0.0 0.0 0.0 0.0 0.0 0.0 0.0 0.0 0.0 0.0 0.0 0.0 0.0 0.0 0.0 0.0 0.0 0.0 0.0 0.0 0.0 0.0 0.0 0.0 0.0 0.0 0.0 0.0 0.0 0.0 0.0 0.0 0.0 0.0 0.0 0.0 0.0 0.0 0.0 0.0 0.0 0.0 0.0 0.0 0.0 0.0 0.0 0.0 0.0 0.0 0.0 0.0 0.0 0.0 0.0 0.0 0.0 0.0 0.0 0.0 0.0 0.0 0.0 0.0 0.0 0.0 0.0 0.0 0.0 0.0 0.0 0.0 0.0 0.0 0.0 0.0 0.0 0.0 0.0 0.0 0.0 0.0 0.0 0.0 0.0 0.0 0.0 0.0 0.0 0.0 0.0 0.0 0.0 0.0 0.0 0.0 0.0 0.0 0.0 0.0 0.0 0.0 0.0 0.0 0.0 0.0 0.0 0.0 0.0 0.0 0.0 0.0 0.0 0.0 0.0 0.0 0.0 0.0 0.0 0.0 0.0 0.0 0.0 0.0 0.0 0.0 0.0 0.0 0.0 0.0 0.0 0.0 0.0 0.0 0.0 0.0 0.0 0.0 0.0 0.0 0.0 0.0 0.0 0.0 0.0 0.0 0.0 0.0 0.0 0.0 0.0 0.0 0.0 0.0 0.0 0.0 0.0 0.0 0.0 0.0 0.0 0.0 0.0 0.0 0.0 0.0 0.0 0.0 0.0 0.0 0.0 0.0 0.0 0.0 0.0 0.0 0.0 0.0 0.0 0.0 0.0 0.0 0.0 0.0 0.0 0.0 0.0 0.0 0.0 0.0 0.0 0.0 0.0 0.0 0.0 0.0 0.0 0.0 0.0 0.0 0.0 0.0 0.0 0.0 0.0 0.0 0.0 0.0 0.0 0.0 0.0 0.0 0.0 0.0 0.0 0.0 0.0 0.0 0.0 0.0 0.0 0.0 0.0 0.0 0.0 0.0 0.0 0.0 0.0 0.0 0.0 0.0 0.0 0.0 0.0 0.0 0.0 0.0 0.0 0.0 0.0 0.0 0.0 0.0 0.0 0.0 0.0 0.0 0.0 0.0 0.0 0.0 0.0 0.0 0.0 0.0 0.0 0.0 0.0 0.0 0.0 0.0 0.0 0.0 0.0 0.0 0.0 0.0 0.0 0.0 0.0 0.0 0.0 0.0 0.0 0.0 0.0 0.0 0.0 0.0 0.0 0.0 0.0 0.0 0.0 0.0 0.0 0.0 0.0 0.0 0.0 0.0 0.0 0.0 0.0 0.0 0.0 0.0 0.0 0.0 0.0 0.0 0.0 0.0 0.0 0.0 0.0 0.0 0.0 0.0 0.0 0.0 0.0 0.0 0.0 0.0 0.0 0.0 0.0 0.0 0.0 0.0 0.0 0.0 0.0 0.0 0.0 0.0 0.0 0.0 0.0 0.0 0.0 0.0 0.0 0.0 0.0 0.0 0.0 0.0 0.0 0.0 0.0 0.0 0.0 0.0 0.0 0.0 0.0 0.0 0.0 0.0 0.0 0.0 0.0 0.0 0.0 0.0 0.0 0.0 0.0 0.0 0.0 0.0 0.0 0.0 0.0 0.0 0.0 0.0 0.0 0.0 0.0 0.0 0.0 0.0 0.0 0.0 0.0 0.0 0.0 0.0 0.0 0.0 0.0 0.0 0.0 0.0 0.0 0.0 0.0 0.0 0.0 0.0 0.0 0.0 0.0 0.0 0.0 0.0 0.0 0.0 0.0 0.0 0.0 0.0 0.0 0.0 0.0 0.0 0.0 0.0 0.0 0.0 0.0 0.0 0.0 0.0 0.0 0.0 0.0 0.0 0.0 0.0 0.0 0.0 0.0 0.0 0.0 0.0 0.0 0.0 0.0 0.0 0.0 0.0 0.0 0.0 0.0 0.0 0.0 0.0 0.0 0.0 0.0 0.0 0.0 0.0 0.0 0.0 0.0 0.0 0.0 0.0 0.0 0.0 0.0 0.0 0.0 0.0 0.0 0.0 0.0 0.0 0.0 0.0 0.0 0.0 0.0 0.0 0.0 0.0 0.0 0.0 0.0 0.0 0.0 0.0 0.0 0.0 0.0 0.0 0.0 0.0 0.0 0.0 0.0 0.0 0.0 0.0 0.0 0.0 0.0 0.0 0.0 0.0 0.0 0.0 0.0 0.0 0.0 0.0 0.0 0.0 0.0 0.0 0.0 0.0 0.0 0.0 0.0 0.0 0.0 0.0 0.0 0.0 0.0 0.0 0.0 0.0 0.0 0.0 0.0 0.0 0.0 0.0 0.0 0.0 0.0 0.0 0.0 0.0 0.0 0.0 0.0 0.0 0.0 0.0 0.0 0.0 0.0 0.0 0.0 0.0 0.0 0.0 0.0 0.0 0.0 0.0 0.0 0.0 0.0 0.0 0.0 0.0 0.0 0.0 0.0 0.0 0.0 0.0 0.0 0.0 0.0 0.0 0.0 0.0 0.0 0.0 0.0 0.0 0.0 0.0 0.0 0.0 0.0 0.0 0.0 0.0 0.0 0.0 0.0 0.0 0.0 0.0 0.0 0.0 0.0 0.0 0.0 0.0 0.0 0.0 0.0 0.0 0.0 0.0 0.0 0.0 0.0 0.0 0.0 0.0 0.0 0.0 0.0 0.0 0.0 0.0 0.0 0.0 0.0 0.0 0.0 0.0 0.0 0.0 0.0 0.0 0.0 0.0 0.0 0.0 0.0 0.0 0.0 0.0 0.0 0.0 0.0 0.0 0.0 0.0 0.0 0.0 0.0 0.0 0.0 0.0 0.0 0.0 0.0 0.0 0.0 0.0 0.0 0.0 0.0 0.0 0.0 0.0 0.0 0.0 0.0 0.0 0.0 0.0 0.0 0.0 0.0 0.0 0.0 0.0 0.0 0.0 0.0 0.0 0.0 0.0 0.0 0.0 0.0 0.0 0.0 0.0 0.0 0.0 0.0 0.0 0.0 0.0 0.0 0.0 0.0 0.0 0.0 0.0 0.0 0.0 0.0 0.0 0.0 0.0 0.0 0.0 0.0 0.0 0.0 0.0 0.0 0.0 0.0 0.0 0.0 0.0 0.0 0.0 0.0 0.0 0.0 0.0 0.0 0.0 0.0 0.0 0.0 0.0 0.0 0.0 0.0 0.0 0.0 0.0 0.0 0.0 0.0 0.0 0.0 0.0 0.0 0.0 0.0 0.0 0.0 0.0 0.0 0.0 0.0 0.0 0.0 0.0 0.0 0.0 0.0 0.0 0.0 0.0 0.0 0.0 0.0 0.0 0.0 0.0 0.0 0.0 0.0 0.0 0.0 0.0 0.0 0.0 0.0 0.0 0.0 0.0 0.0 0.0 0.0 0.0
        </DataArray>
        <DataArray type="Float64" Name="stress_yy" NumberOfComponents="1" format="ascii">
 0.0 0.0 0.0 0.0 -2.4337555E+003 -2.9959465E+004 -9.1973479E+003  1.7598438E+004 0.0 0.0 0.0 0.0 0.0 0.0 0.0 0.0 0.0  9.0994108E+002 0.0 0.0 0.0 0.0 0.0 0.0 0.0 0.0 0.0 0.0 0.0 0.0 0.0 0.0 0.0 0.0 0.0 0.0 0.0 0.0 0.0 0.0 0.0 0.0 0.0 0.0 0.0 0.0 -5.8840696E+003 -2.3367779E+003 -1.4081634E+003 -1.1057371E+003 -5.8846706E+002 -3.3249293E+002  3.8218331E+002  3.0953194E+002  5.5378995E+002  6.9164693E+002  8.3940506E+002  8.5339493E+002  4.2407416E+002 -4.7077075E+002 -2.3074016E+003 -4.7954121E+003 -3.7419074E+004 -1.2646554E+004 -1.1928655E+004 -1.4540491E+004 -1.7394838E+004 -2.0012496E+004 -2.2358410E+004 -2.3150690E+004 -2.4018171E+004 -2.3688908E+004 -2.4085888E+004 -2.3798591E+004 -2.3540146E+004 -2.3575743E+004 -2.3317213E+004 -2.3108398E+004 -2.3494260E+004 -2.3215819E+004 -2.2995049E+004 -2.3012744E+004 -2.2817016E+004 -2.2962230E+004 -2.2663269E+004 -2.2834250E+004 -2.2557011E+004 -2.2588854E+004 -2.2412958E+004 -2.2573040E+004 -2.2301128E+004 -2.2464843E+004 -2.2208935E+004 -2.2237811E+004 -2.2060441E+004 -2.2212747E+004 -2.1965556E+004 -2.2160360E+004 -2.1916031E+004 -2.1948598E+004 -2.1761910E+004 -2.1921203E+004 -2.1685126E+004 -2.1871483E+004 -2.1664419E+004 -2.1697539E+004 -2.1514367E+004 -2.1666057E+004 -2.1460889E+004 -2.1653100E+004 -2.1422981E+004 -2.1619344E+004 -2.1289187E+004 -2.1508872E+004 -2.1320520E+004 -2.1370498E+004 -2.1192592E+004 -2.1254975E+004 -2.1236005E+004 -2.1333608E+004 -2.1177613E+004 -2.1385954E+004 -2.1256726E+004 -2.1247517E+004 -2.1108289E+004 -2.1150885E+004 -2.1117165E+004 -2.1155406E+004 -2.1170311E+004 -2.1279214E+004 -2.1238638E+004 -2.1177609E+004 -2.0913329E+004 -2.1215053E+004 -2.1271599E+004 -2.1298028E+004 -2.1412158E+004 -2.1512363E+004 -2.1513049E+004 -2.1433540E+004 -2.1231360E+004 -2.1309341E+004 -2.0785183E+004 -1.9678084E+004 -1.7667959E+004 0.0 0.0 0.0 0.0 0.0 0.0 0.0 0.0 0.0 0.0 0.0 0.0 0.0 0.0 0.0 0.0 0.0 0.0 0.0 0.0 0.0 0.0 0.0 0.0 0.0 0.0 0.0 0.0 0.0 0.0 0.0 0.0 0.0 0.0 0.0 0.0 0.0 0.0 0.0 0.0 0.0 0.0 0.0 0.0 0.0 0.0 0.0 0.0 0.0 0.0 0.0 0.0 0.0 0.0 0.0 0.0 0.0 0.0 0.0 0.0 0.0 0.0 0.0 0.0 0.0 0.0 0.0 0.0 0.0 0.0 0.0 0.0 0.0 0.0 0.0 0.0 0.0 0.0 0.0 0.0 0.0 0.0 0.0 0.0 0.0 0.0 0.0 0.0 0.0 0.0 0.0 0.0 0.0 0.0 0.0 0.0 0.0 0.0 0.0 0.0 0.0 0.0 0.0 0.0 0.0 0.0 0.0 0.0 0.0 0.0 0.0 0.0 0.0 0.0 0.0 0.0 0.0 0.0 0.0 0.0 0.0 0.0 0.0 0.0 0.0 0.0 0.0 0.0 0.0 0.0 0.0 0.0 0.0 0.0 0.0 0.0 0.0 0.0 0.0 0.0 0.0 0.0 0.0 0.0 0.0 0.0 0.0 0.0 0.0 0.0 0.0 0.0 0.0 0.0 0.0 0.0 0.0 0.0 0.0 0.0 0.0 0.0 0.0 0.0 0.0 0.0 0.0 0.0 0.0 0.0 0.0 0.0 0.0 0.0 0.0 0.0 0.0 0.0 0.0 0.0 0.0 0.0 0.0 0.0 0.0 0.0 0.0 0.0 0.0 0.0 0.0 0.0 0.0 0.0 0.0 0.0 0.0 0.0 0.0 0.0 0.0 0.0 0.0 0.0 0.0 0.0 0.0 0.0 0.0 0.0 0.0 0.0 0.0 0.0 0.0 0.0 0.0 0.0 0.0 0.0 0.0 0.0 0.0 0.0 0.0 0.0 0.0 0.0 0.0 0.0 0.0 0.0 0.0 0.0 0.0 0.0 0.0 0.0 0.0 0.0 0.0  2.8236203E+003  6.9954471E+002  9.0982902E+002  6.1825847E+002  4.9581379E+002  3.9227457E+002  4.0808035E+002  4.0676515E+002  3.7448779E+002 0.0 0.0 0.0 0.0 0.0 0.0 0.0 0.0 0.0 0.0 0.0 0.0 0.0 0.0 0.0 0.0 0.0 0.0 0.0 0.0 0.0 0.0 0.0 0.0 0.0 0.0 0.0 0.0 0.0 0.0 0.0 0.0 0.0 0.0 0.0 0.0 0.0 0.0 0.0 0.0 0.0 0.0 0.0 0.0 0.0 0.0 0.0 0.0 0.0  7.0639831E+002  3.8570844E+002  5.1243316E+002  2.0971959E+002  1.9887823E+002 -5.3234100E+001 -1.2888076E+002 -2.6373775E+002 -3.5920631E+002 -4.6240299E+002 -4.1139775E+002 -5.0301096E+001  8.7540445E+002  2.5581645E+003  5.0527745E+003  8.0775793E+003  1.1121908E+004  1.3634386E+004  1.5490126E+004  1.6380739E+004  1.7045862E+004  1.7198468E+004  1.7148150E+004  1.7239613E+004  1.7316979E+004  1.7144633E+004  1.7244214E+004  1.7009169E+004  1.7123356E+004  1.6989251E+004  1.6972361E+004  1.7039451E+004  1.7156106E+004  1.7026050E+004  1.7187937E+004  1.7036058E+004  1.7216893E+004  1.7113723E+004  1.7143065E+004  1.7168711E+004  1.7141718E+004  1.7098845E+004  1.7323782E+004  1.7159335E+004  1.7309075E+004  1.7197001E+004  1.7232527E+004  1.7281924E+004  1.7277064E+004  1.7302712E+004  1.7420834E+004  1.7433012E+004  1.7382717E+004  1.7362011E+004  1.7628997E+004  1.7515493E+004  1.7529556E+004  1.7566460E+004  1.7550744E+004  1.7551432E+004  1.7830830E+004  1.7722530E+004  1.7744883E+004  1.7796338E+004  1.7789345E+004  1.7782646E+004  1.8076099E+004  1.7962035E+004  1.7990912E+004  1.8066402E+004  1.8037265E+004  1.8035839E+004  1.8352645E+004  1.8240773E+004  1.8279596E+004  1.8366249E+004  1.8339269E+004  1.8351372E+004  1.8685707E+004  1.8580973E+004  1.8631400E+004  1.8733375E+004  1.8713808E+004  1.8765442E+004  1.9104511E+004  1.9004854E+004  1.9084052E+004  1.9215689E+004  1.9171017E+004  1.9180278E+004  1.9270578E+004  1.8952550E+004  1.7715901E+004  1.5989364E+004  1.3945243E+004  1.1411303E+004  8.3969071E+003  5.7709945E+003  3.5576153E+003 0.0 0.0 0.0 0.0 0.0 0.0 0.0 0.0 0.0 0.0 0.0 0.0 0.0 0.0 0.0 0.0 0.0 0.0 0.0 0.0 0.0 0.0 0.0 0.0 0.0 0.0 0.0 0.0 0.0 0.0 0.0 0.0 0.0 0.0 0.0 0.0 0.0 0.0 0.0 0.0 0.0 0.0 0.0 0.0 0.0 0.0 0.0 0.0 0.0 0.0 0.0 0.0 0.0 0.0 0.0 0.0 0.0 0.0 0.0 0.0 0.0 0.0 0.0 0.0 0.0 0.0 0.0 0.0 0.0 0.0 0.0 0.0 0.0 0.0 0.0 0.0 0.0 0.0 0.0 0.0 0.0 0.0 0.0 0.0 0.0 0.0 0.0 0.0 0.0 0.0 0.0 0.0 0.0 0.0 0.0 0.0 0.0 0.0 0.0 0.0 0.0 0.0 0.0 0.0 0.0 0.0 0.0 0.0 0.0 0.0 0.0 0.0 0.0 0.0 0.0 0.0 0.0 0.0 0.0 0.0 0.0 0.0 0.0 0.0 0.0 0.0 0.0 0.0 0.0 0.0 0.0 0.0 0.0 0.0 0.0 0.0 0.0 0.0 0.0 0.0 0.0 0.0 0.0 0.0 0.0 0.0 0.0 0.0 0.0 0.0 0.0 0.0 0.0 0.0 0.0 0.0 0.0 0.0 0.0 0.0 0.0 0.0 0.0 0.0 0.0 0.0 0.0 0.0 0.0 0.0 0.0 0.0 0.0 0.0 0.0 0.0 0.0 0.0 0.0 0.0 0.0 0.0 0.0 0.0 0.0 0.0 0.0 0.0 0.0 0.0 0.0 0.0 0.0 0.0 0.0 0.0 0.0 0.0 0.0 0.0 0.0 0.0 0.0 0.0 0.0 0.0 0.0 0.0 0.0 0.0 0.0 0.0 0.0 0.0 0.0 0.0 0.0 0.0 0.0 0.0 0.0 0.0 0.0 0.0 0.0 0.0 0.0 0.0 0.0 0.0 0.0 0.0 0.0 0.0 0.0 0.0 0.0 0.0 0.0 0.0 0.0 0.0 0.0 0.0 0.0 0.0 0.0 0.0 0.0 0.0 0.0 0.0 0.0 0.0 0.0 0.0 0.0 0.0 0.0 0.0 0.0 0.0 0.0 0.0 0.0 0.0 0.0 0.0 0.0 0.0 0.0 0.0 0.0 0.0 0.0 0.0 0.0 0.0 0.0 0.0 0.0 0.0 0.0 0.0 0.0 0.0 0.0 0.0 0.0 0.0 0.0 0.0 0.0 0.0 0.0 0.0 0.0 0.0 0.0 0.0 0.0 0.0 0.0 0.0 0.0 0.0 0.0 0.0 0.0 0.0 0.0 0.0 0.0 0.0 0.0 0.0 0.0 0.0 0.0 0.0 0.0 0.0 0.0 0.0 0.0 0.0 0.0 0.0 0.0 0.0 0.0 0.0 0.0 0.0 0.0 0.0 0.0 0.0 0.0 0.0 0.0 0.0 0.0 0.0 0.0 0.0 0.0 0.0 0.0 0.0 0.0 0.0 0.0 0.0 0.0 0.0 0.0 0.0 0.0 0.0 0.0 0.0 0.0 0.0 0.0 0.0 0.0 0.0 0.0 0.0 0.0 0.0 0.0 0.0 0.0 0.0 0.0 0.0 0.0 0.0 0.0 0.0 0.0 0.0 0.0 0.0 0.0 0.0 0.0 0.0 0.0 0.0 0.0 0.0 0.0 0.0 0.0 0.0 0.0 0.0 0.0 0.0 0.0 0.0 0.0 0.0 0.0 0.0 0.0 0.0 0.0 0.0 0.0 0.0 0.0 0.0 0.0 0.0 0.0 0.0 0.0 0.0 0.0 0.0 0.0 0.0 0.0 0.0 0.0 0.0 0.0 0.0 0.0 0.0 0.0 0.0 0.0 0.0 0.0 0.0 0.0 0.0 0.0 0.0 0.0 0.0 0.0 0.0 0.0 0.0 0.0 0.0 0.0 0.0 0.0 0.0 0.0 0.0 0.0 0.0 0.0 0.0 0.0 0.0 0.0 0.0 0.0 0.0 0.0 0.0 0.0 0.0 0.0 0.0 0.0 0.0 0.0 0.0 0.0 0.0 0.0 0.0 0.0 0.0 0.0 0.0 0.0 0.0 0.0 0.0 0.0 0.0 0.0 0.0 0.0 0.0 0.0 0.0 0.0 0.0 0.0 0.0 0.0 0.0 0.0 0.0 0.0 0.0 0.0 0.0 0.0 0.0 0.0 0.0 0.0 0.0 0.0 0.0 0.0 0.0 0.0 0.0 0.0 0.0 0.0 0.0 0.0 0.0 0.0 0.0 0.0 0.0 0.0 0.0 0.0 0.0 0.0 0.0 0.0 0.0 0.0 0.0 0.0 0.0 0.0 0.0 0.0 0.0 0.0 0.0 0.0 0.0 0.0 0.0 0.0 0.0 0.0 0.0 0.0 0.0 0.0 0.0 0.0 0.0 0.0 0.0 0.0 0.0 0.0 0.0 0.0 0.0 0.0 0.0 0.0 0.0 0.0 0.0 0.0 0.0 0.0 0.0 0.0 0.0 0.0 0.0 0.0 0.0 0.0 0.0 0.0 0.0 0.0 0.0 0.0 0.0 0.0 0.0 0.0 0.0 0.0 0.0 0.0 0.0 0.0 0.0 0.0 0.0 0.0 0.0 0.0 0.0 0.0 0.0 0.0 0.0 0.0 0.0 0.0 0.0 0.0 0.0 0.0 0.0 0.0 0.0 0.0 0.0 0.0 0.0 0.0 0.0 0.0 0.0 0.0 0.0 0.0 0.0 0.0 0.0 0.0 0.0 0.0 0.0 0.0 0.0 0.0 0.0 0.0 0.0 0.0 0.0 0.0 0.0 0.0 0.0 0.0 0.0 0.0 0.0 0.0 0.0 0.0 0.0 0.0 0.0 0.0 0.0 0.0 0.0 0.0 0.0 0.0 0.0 0.0 0.0 0.0 0.0 0.0 0.0 0.0 0.0 0.0 0.0 0.0 0.0 0.0 0.0 0.0 0.0 0.0 0.0 0.0 0.0 0.0 0.0 0.0 0.0 0.0 0.0 0.0 0.0 0.0 0.0 0.0 0.0 0.0 0.0 0.0 0.0 0.0 0.0 0.0 0.0 0.0 0.0 0.0 0.0 0.0 0.0 0.0 0.0 0.0 0.0 0.0 0.0 0.0 0.0 0.0 0.0 0.0 0.0 0.0 0.0 0.0 0.0 0.0 0.0 0.0 0.0 0.0 0.0 0.0 0.0 0.0 0.0 0.0 0.0 0.0 0.0 0.0 0.0 0.0 0.0 0.0 0.0 0.0 0.0 0.0 0.0 0.0 0.0 0.0 0.0 0.0 0.0 0.0 0.0 0.0 0.0 0.0 0.0 0.0 0.0 0.0 0.0 0.0 0.0 0.0 0.0 0.0 0.0 0.0 0.0 0.0 0.0 0.0 0.0 0.0 0.0 0.0 0.0 0.0 0.0 0.0 0.0 0.0 0.0 0.0 0.0 0.0 0.0 0.0 0.0 0.0 0.0 0.0 0.0 0.0 0.0 0.0 0.0 0.0 0.0 0.0 0.0 0.0 0.0 0.0 0.0 0.0 0.0 0.0 0.0 0.0 0.0 0.0 0.0 0.0 0.0 0.0 0.0 0.0 0.0 0.0 0.0 0.0 0.0 0.0 0.0 0.0 0.0 0.0 0.0 0.0 0.0 0.0 0.0 0.0 0.0 0.0 0.0 0.0 0.0 0.0 0.0 0.0 0.0 0.0 0.0 0.0 0.0 0.0 0.0 0.0 0.0 0.0 0.0 0.0 0.0 0.0 0.0 0.0 0.0 0.0 0.0 0.0 0.0 0.0 0.0 0.0 0.0 0.0 0.0 0.0 0.0 0.0 0.0 0.0 0.0 0.0 0.0 0.0 0.0 0.0 0.0 0.0 0.0 0.0 0.0 0.0 0.0 0.0 0.0 0.0 0.0 0.0 0.0 0.0 0.0 0.0 0.0 0.0 0.0 0.0 0.0 0.0 0.0 0.0 0.0 0.0 0.0 0.0 0.0 0.0 0.0 0.0 0.0 0.0 0.0 0.0 0.0 0.0 0.0 0.0 0.0 0.0 0.0 0.0 0.0 0.0 0.0 0.0 0.0 0.0 0.0 0.0 0.0 0.0 0.0 0.0 0.0 0.0 0.0 0.0 0.0 0.0 0.0 0.0 0.0 0.0 0.0 0.0 0.0 0.0 0.0 0.0 0.0 0.0 0.0 0.0 0.0 0.0 0.0 0.0 0.0 0.0 0.0 0.0 0.0 0.0 0.0 0.0 0.0 0.0 0.0 0.0 0.0 0.0 0.0 0.0 0.0 0.0 0.0 0.0 0.0 0.0 0.0 0.0 0.0 0.0 0.0 0.0 0.0 0.0 0.0 0.0 0.0 0.0 0.0 0.0 0.0 0.0 0.0 0.0 0.0 0.0 0.0 0.0 0.0 0.0 0.0 0.0 0.0 0.0 0.0 0.0 0.0 0.0 0.0 0.0 0.0 0.0 0.0 0.0 0.0 0.0 0.0 0.0 0.0 0.0 0.0 0.0 0.0 0.0 0.0 0.0 0.0 0.0 0.0 0.0 0.0 0.0 0.0 0.0 0.0 0.0 0.0 0.0 0.0 0.0 0.0 0.0 0.0 0.0 0.0 0.0 0.0 0.0 0.0 0.0 0.0 0.0 0.0 0.0 0.0 0.0 0.0 0.0 0.0 0.0 0.0 0.0 0.0 0.0 0.0 0.0 0.0 0.0 0.0 0.0 0.0 0.0 0.0 0.0 0.0 0.0 0.0 0.0 0.0 0.0 0.0 0.0 0.0 0.0 0.0 0.0 0.0 0.0 0.0 0.0 0.0 0.0 0.0 0.0 0.0 0.0 0.0 0.0 0.0 0.0 0.0 0.0 0.0 0.0 0.0 0.0 0.0 0.0 0.0 0.0 0.0 0.0 0.0 0.0 0.0 0.0 0.0 0.0 0.0 0.0 0.0 0.0 0.0 0.0 0.0 0.0 0.0 0.0 0.0 0.0 0.0 0.0 0.0 0.0 0.0 0.0 0.0 0.0 0.0 0.0 0.0 0.0 0.0 0.0 0.0 0.0 0.0 0.0 0.0 0.0 0.0 0.0 0.0 0.0 0.0 0.0 0.0 0.0 0.0 0.0 0.0 0.0 0.0 0.0 0.0 0.0 0.0 0.0 0.0 0.0 0.0 0.0 0.0 0.0 0.0 0.0 0.0 0.0 0.0 0.0 0.0 0.0 0.0 0.0 0.0 0.0 0.0 0.0 0.0 0.0 0.0 0.0 0.0 0.0 0.0 0.0 0.0 0.0 0.0 0.0 0.0 0.0 0.0 0.0 0.0 0.0 0.0 0.0 0.0 0.0 0.0 0.0 0.0 0.0 0.0 0.0 0.0 0.0 0.0 0.0 0.0 0.0 0.0 0.0 0.0 0.0 0.0 0.0 0.0 0.0 0.0 0.0 0.0 0.0 0.0 0.0 0.0 0.0 0.0 0.0 0.0 0.0 0.0 0.0 0.0 0.0 0.0 0.0 0.0 0.0 0.0 0.0 0.0 0.0 0.0 0.0 0.0 0.0 0.0 0.0 0.0 0.0 0.0 0.0 0.0 0.0 0.0 0.0 0.0 0.0 0.0 0.0 0.0 0.0 0.0 0.0 0.0 0.0 0.0 0.0 0.0 0.0 0.0 0.0 0.0 0.0 0.0 0.0 0.0 0.0 0.0 0.0 0.0 0.0 0.0 0.0 0.0 0.0 0.0 0.0 0.0 0.0 0.0 0.0 0.0 0.0 0.0 0.0 0.0 0.0 0.0 0.0 0.0 0.0 0.0 0.0 0.0 0.0 0.0 0.0 0.0 0.0 0.0 0.0 0.0 0.0 0.0 0.0 0.0 0.0 0.0 0.0 0.0 0.0 0.0 0.0 0.0 0.0 0.0 0.0 0.0 0.0 0.0 0.0 0.0 0.0 0.0 0.0 0.0 0.0 0.0 0.0 0.0 0.0 0.0 0.0 0.0 0.0 0.0 0.0 0.0 0.0 0.0 0.0 0.0 0.0 0.0 0.0 0.0 0.0 0.0 0.0 0.0 0.0 0.0 0.0 0.0 0.0 0.0 0.0 0.0 0.0 0.0 0.0 0.0 0.0 0.0 0.0 0.0 0.0 0.0 0.0 0.0 0.0 0.0 0.0 0.0 0.0 0.0 0.0 0.0 0.0 0.0 0.0 0.0 0.0 0.0 0.0 0.0 0.0 0.0 0.0 0.0  1.7864965E+003  1.0612601E+004 -8.1060368E+003  1.5997264E+004  1.6310501E+003  2.7399781E+003 -8.2900157E+003 -6.4574180E+003 -3.5367670E+003 -5.4579420E+003 -5.5663245E+003 -6.2867133E+003 -5.3251404E+003 -5.4277388E+003 -6.1869834E+003 -6.7194397E+003 -5.2920889E+003 -6.0723987E+003 -6.6064907E+003 -5.2026943E+003 -5.9800570E+003 -6.4993820E+003 -5.1239801E+003 -5.8980891E+003 -6.4193533E+003 -5.0640963E+003 -5.8297105E+003 -6.3460406E+003  5.1740456E+003 -5.0237085E+003 -6.2947316E+003 -4.9712034E+003 -5.7212064E+003 -5.7234271E+003 -6.2545727E+003 -4.9401481E+003 -5.6887781E+003 -5.6817169E+003 -5.7054975E+003 -6.1513448E+003 -6.5338670E+003 -5.7458086E+003 -5.7496115E+003 -6.2025795E+003 -6.1454160E+003 -5.4630180E+003 -1.3975718E+003  1.5040571E+004  1.4294533E+003 -6.2719464E+003  1.9428700E+004  1.9218165E+004  1.9294614E+004  1.9203423E+004  1.8772531E+004  1.8856733E+004  1.8783017E+004  1.8411230E+004  1.8503454E+004  1.8453369E+004  1.8111051E+004  1.8211556E+004  1.8206243E+004  1.7855432E+004  1.8026754E+004  1.8018539E+004  1.7622103E+004  1.7810528E+004  1.7819682E+004  1.7457696E+004  1.7704573E+004  1.7330612E+004  1.7508829E+004  1.7509042E+004  1.7540138E+004  1.7218120E+004  1.7417567E+004  1.7413687E+004  1.7416549E+004  1.7328565E+004  1.7101940E+004  1.7303931E+004  1.7512698E+004  1.7512314E+004  1.7250887E+004  1.7051786E+004  9.7309675E+003 -1.0937167E+001 -4.6026153E+002 -2.4312202E+001  1.5390561E+003 -1.7133588E+002 -1.9085718E+001  1.7913479E+004  1.4132725E+004  1.4861155E+004  1.2365887E+004  8.7467182E+003  8.2121274E+003  3.8706492E+003  3.6156877E+003  6.4113080E+003  3.3941744E+003  4.6344514E+003  6.4977316E+003  4.3000982E+003  2.9778840E+003  8.0361857E+002  5.7353109E+003  3.3934927E+003  1.4843890E+003  3.4188567E+003 -1.5271905E+003 -2.2453034E+003  4.1844593E+002  9.0446677E+003  7.8831833E+003 -5.1443617E+003  1.3515205E+004 -8.7981781E+003  7.4341437E+003 -3.0306994E+002  1.8871511E+004  1.3259563E+004  1.3086453E+004  3.2957563E+003  1.8298548E+002  2.9301547E+002  1.4186250E+003  6.4407548E+003  5.7537624E+003  8.5881526E+003  1.8481254E+004  1.2922133E+004  1.2811269E+004  3.6631437E+003  1.7423572E+004  1.2087988E+004  1.2131225E+004  3.2985089E+003  1.7924215E+004  1.2489821E+004  1.2499508E+004  3.5527463E+003 -3.5683884E+002 -2.6925005E+002  1.7206975E+004  1.2652678E+004  1.2893676E+004  3.9150342E+003  1.7352839E+004  1.2536505E+004  1.7259742E+004  1.2023429E+004  1.2072016E+004  3.2911887E+003  1.7373690E+004  1.2498080E+004  1.8173734E+004  1.2707835E+004  1.2607349E+004  3.6076612E+003  1.7682580E+004  1.2340921E+004  1.2344453E+004  3.3508463E+003  1.7258991E+004  1.7507147E+004  1.2557888E+004  1.7502366E+004  1.2187600E+004  1.2222759E+004  3.3182693E+003  1.7861207E+004  1.2718362E+004  1.7645917E+004  1.7410419E+004  1.2761059E+004  1.2835844E+004  3.6950450E+003  1.7486825E+004  1.2653645E+004  1.7526175E+004  1.8070603E+004  1.2860206E+004  1.8284645E+004  1.2719229E+004  1.2836240E+004  1.7411078E+004  1.2528094E+004  1.7446711E+004  1.2462186E+004  1.7535445E+004  1.2521024E+004  1.7867418E+004  1.8088743E+004  1.9303339E+004  1.3214974E+004  1.6410452E+004  1.1677184E+004  1.7221702E+004  1.7351024E+004  3.5421235E+003  1.8384246E+004  1.8741658E+004  1.7365283E+004  1.8888076E+004  1.2954656E+004  1.9248274E+004  1.3543781E+004  1.3381952E+004  3.1525307E+003  1.9198061E+004  1.8548554E+004  1.2725094E+004 -4.1057052E+003 -5.1962676E+003  6.4011486E+003 -5.2977308E+003  6.6283758E+003 -5.5147485E+003  6.7585793E+003 -5.8657783E+003  6.0065943E+003 -5.2135854E+003  6.4269715E+003 -6.0137913E+003  6.4086362E+003 -6.4599820E+003  6.8498789E+003 -5.8983711E+003  6.0277012E+003 -5.4317146E+003  6.6093367E+003 -5.8294657E+003  6.5368930E+003  6.9566695E+003 -6.1691058E+003  6.5573333E+003 -6.1038630E+003  6.4896991E+003 -5.2983252E+003  6.5176470E+003 -5.7411129E+003  7.0282383E+003 -5.9959084E+003  4.9887373E+003 -5.4290479E+003  6.6638835E+003 -5.3602543E+003  6.5903068E+003 -5.8972715E+003  6.0782337E+003 -5.2517709E+003  6.4043907E+003 -6.2567846E+003  6.6396834E+003 -6.3487771E+003  6.7323562E+003 -5.6226673E+003  6.8892540E+003 -5.1305924E+003  5.0415456E+003 -5.8712095E+003  6.0198738E+003 -6.0500766E+003  5.0385116E+003 -6.3365728E+003  6.9799662E+003  2.1604772E+003  2.1700504E+003  1.5422451E+003  6.4907278E+003  6.3242477E+003  6.3984700E+003  6.2591613E+003  6.3413548E+003  5.5310080E+003  6.2577497E+003  6.4068938E+003  5.6062767E+003  6.6282558E+003  6.7824540E+003  3.3031747E+003  4.2963489E+001 -3.1660493E+002 -4.0397631E+002  2.2337732E+002  1.9982999E+003  7.6631790E+002 -2.0494023E+003  3.6424407E+001  2.8568506E+003 -7.6566482E+003  1.9155187E+004 -1.9123899E+002  8.7148788E+003  3.5828904E+002 -6.9069427E+000 -2.5158234E+003  2.6482251E+003  7.0855412E+003  2.6476082E+003  3.1502044E+003  2.9922103E+003  6.1535480E+002  1.5405969E+004 -1.7371029E+002  2.3739352E+001  3.0911130E+003  1.3337311E+004  1.3340129E+004  1.6966482E+003 -8.1874404E+003  1.3685798E+004  1.3745868E+004 -7.7544731E+003  1.3887163E+004  1.3969369E+004  1.4138457E+004 -7.9536706E+003  1.1276748E+004  1.4108524E+004  1.3939326E+004  1.4336077E+004  3.7470162E+003  1.4613728E+004  1.4953205E+004 -8.0083741E+003  1.3364924E+004  1.4264206E+004 -8.0729036E+003  3.4172255E+003  1.4263557E+004  3.8421582E+003 -8.1648368E+003  1.3209651E+004  1.4170694E+004 -8.2588694E+003  1.4113513E+004  3.3786978E+003 -8.3846171E+003  1.4337179E+004  3.6245209E+003  3.7421254E+003 -8.5269525E+003  1.4397343E+004 -9.6177377E+003  1.4181331E+004 -9.8317033E+003  1.4402640E+004  3.7485954E+003  3.7584533E+003  1.4610688E+004  1.4596629E+004  1.4628341E+004  3.9203158E+003  1.4755689E+004  1.4798498E+004  1.4943887E+004  3.9567824E+003  1.4977314E+004  1.5171800E+004  1.5206910E+004  3.9502495E+003  1.5432230E+004  1.5495527E+004  3.9738780E+003  1.5753482E+004  1.5837668E+004  1.5483643E+004  4.0443224E+003  4.1075100E+003  4.9997070E+003  1.0807826E+004  3.9743789E+003  4.6613860E+003  1.0704177E+003  6.7723650E+003  4.6089247E+003 -2.8194178E+003  3.5984845E+003  3.6330749E+003  3.6712465E+003  4.0352621E+003  3.7904674E+003  4.1686639E+003  4.2535590E+003  5.2105091E+003  5.2629964E+003  5.3848512E+003  5.2939989E+002  1.4497181E+003  5.3280672E+003 -2.1841211E+003 -2.9863796E+003  1.2141478E+003  5.0748044E+003  7.5119465E+003  2.1997276E+002  4.9979771E+003  8.1225602E+002  1.3609630E+003  5.0048703E+003  4.9211690E+003  4.8600386E+003  4.8438971E+003 -5.5950915E+001  7.0385816E+003  4.8535061E+003 0.0 0.0 0.0 0.0 0.0 0.0 0.0 0.0 0.0 0.0 0.0 0.0 0.0 0.0 0.0 0.0 0.0 0.0 0.0 0.0 0.0 0.0 0.0 0.0 0.0 0.0 0.0 0.0 0.0 0.0 0.0 0.0 0.0 0.0 0.0 0.0 0.0 0.0 0.0 0.0 0.0 0.0 0.0 0.0 0.0 0.0 0.0 0.0 0.0 0.0 0.0 0.0 0.0 0.0 0.0 0.0 0.0 0.0 0.0 0.0 0.0 0.0 0.0 0.0 0.0 0.0 0.0 0.0 0.0 0.0 0.0 0.0 0.0 0.0 0.0 0.0 0.0 0.0 0.0 0.0 0.0 0.0 0.0 0.0 0.0 0.0 0.0 0.0 0.0 0.0 0.0 0.0 0.0 0.0 0.0 0.0 0.0 0.0 0.0 0.0 0.0 0.0 0.0 0.0 0.0 0.0 0.0 0.0 0.0 0.0 0.0 0.0 0.0 0.0 0.0 0.0 0.0 0.0 0.0 0.0 0.0 0.0 0.0 0.0 0.0 0.0 0.0 0.0 0.0 0.0 0.0 0.0 0.0 0.0 0.0 0.0 0.0 0.0 0.0 0.0 0.0 0.0 0.0 0.0 0.0 0.0 0.0 0.0 0.0 0.0 0.0 0.0 0.0 0.0 0.0 0.0 0.0 0.0 0.0 0.0 0.0 0.0 0.0 0.0 0.0 0.0 0.0 0.0 0.0 0.0 0.0 0.0 0.0 0.0 0.0 0.0 0.0 0.0 0.0 0.0 0.0 0.0 0.0 0.0 0.0 0.0 0.0 0.0 0.0 0.0 0.0 0.0 0.0 0.0 0.0 0.0 0.0 0.0 0.0 0.0 0.0 0.0 0.0 0.0 0.0 0.0 0.0 0.0 0.0 0.0 0.0 0.0 0.0 0.0 0.0 0.0 0.0 0.0 0.0 0.0 0.0 0.0 0.0 0.0 0.0 0.0 0.0 0.0 0.0 0.0 0.0 0.0 0.0 0.0 0.0 0.0 0.0 0.0 0.0 0.0 0.0 0.0 0.0 0.0 0.0 0.0 0.0 0.0 0.0 0.0 0.0 0.0 0.0 0.0 0.0 0.0 0.0 0.0 0.0 0.0 0.0 0.0 0.0 0.0 0.0 0.0 0.0 0.0 0.0 0.0 0.0 0.0 0.0 0.0 0.0 0.0 0.0 0.0 0.0 0.0 0.0 0.0 0.0 0.0 0.0 0.0 0.0 0.0 0.0 0.0 0.0 0.0 0.0 0.0 0.0 0.0 0.0 0.0 0.0 0.0 0.0 0.0 0.0 0.0 0.0 0.0 0.0 0.0 0.0 0.0 0.0 0.0 0.0 0.0 0.0 0.0 0.0 0.0 0.0 0.0 0.0 0.0 0.0 0.0 0.0 0.0 0.0 0.0 0.0 0.0 0.0 0.0 0.0 0.0 0.0 0.0 0.0 0.0 0.0 0.0 0.0 0.0 0.0 0.0 0.0 0.0 0.0 0.0 0.0 0.0 0.0 0.0 0.0 0.0 0.0 0.0 0.0 0.0 0.0 0.0 0.0 0.0 0.0 0.0 0.0 0.0 0.0 0.0 0.0 0.0 0.0 0.0 0.0 0.0 0.0 0.0 0.0 0.0 0.0 0.0 0.0 0.0 0.0 0.0 0.0 0.0 0.0 0.0 0.0 0.0 0.0 0.0 0.0 0.0 0.0 0.0 0.0 0.0 0.0 0.0 0.0 0.0 0.0 0.0 0.0 0.0 0.0 0.0 0.0 0.0 0.0 0.0 0.0 0.0 0.0 0.0 0.0 0.0 0.0 0.0 0.0 0.0 0.0 0.0 0.0 0.0 0.0 0.0 0.0 0.0 0.0 0.0 0.0 0.0 0.0 0.0 0.0 0.0 0.0 0.0 0.0 0.0 0.0 0.0 0.0 0.0 0.0 0.0 0.0 0.0 0.0 0.0 0.0 0.0 0.0 0.0 0.0 0.0 0.0 0.0 0.0 0.0 0.0 0.0 0.0 0.0 0.0 0.0 0.0 0.0 0.0 0.0 0.0 0.0 0.0 0.0 0.0 0.0 0.0 0.0 0.0 0.0 0.0 0.0 0.0 0.0 0.0 0.0 0.0 0.0 0.0 0.0 0.0 0.0 0.0 0.0 0.0 0.0 0.0 0.0 0.0 0.0 0.0 0.0 0.0 0.0 0.0 0.0 0.0 0.0 0.0 0.0 0.0 0.0 0.0 0.0 0.0 0.0 0.0 0.0 0.0 0.0 0.0 0.0 0.0 0.0 0.0 0.0 0.0 0.0 0.0 0.0 0.0 0.0 0.0 0.0 0.0 0.0 0.0 0.0 0.0 0.0 0.0 0.0 0.0 0.0 0.0 0.0 0.0 0.0 0.0 0.0 0.0 0.0 0.0 0.0 0.0 0.0 0.0 0.0 0.0 0.0 0.0 0.0 0.0 0.0 0.0 0.0 0.0 0.0 0.0 0.0 0.0 0.0 0.0 0.0 0.0 0.0 0.0 0.0 0.0 0.0 0.0 0.0 0.0 0.0 0.0 0.0 0.0 0.0 0.0 0.0 0.0 0.0 0.0 0.0 0.0 0.0 0.0 0.0 0.0 0.0 0.0 0.0 0.0 0.0 0.0 0.0 0.0 0.0 0.0 0.0 0.0 0.0 0.0 0.0 0.0 0.0 0.0 0.0 0.0 0.0 0.0 0.0 0.0 0.0 0.0 0.0 0.0 0.0 0.0 0.0 0.0 0.0 0.0 0.0 0.0 0.0 0.0 0.0 0.0 0.0 0.0 0.0 0.0 0.0 0.0 0.0 0.0 0.0 0.0 0.0 0.0 0.0 0.0 0.0 0.0 0.0 0.0 0.0 0.0 0.0 0.0 0.0 0.0 0.0 0.0 0.0 0.0 0.0 0.0 0.0 0.0 0.0 0.0 0.0 0.0 0.0 0.0 0.0 0.0 0.0 0.0 0.0 0.0 0.0 0.0 0.0 0.0 0.0 0.0 0.0 0.0 0.0 0.0 0.0 0.0 0.0 0.0 0.0 0.0 0.0 0.0 0.0 0.0 0.0 0.0 0.0 0.0 0.0 0.0 0.0 0.0 0.0 0.0 0.0 0.0 0.0 0.0 0.0 0.0 0.0 0.0 0.0 0.0 0.0 0.0 0.0 0.0 0.0 0.0 0.0 0.0 0.0 0.0 0.0 0.0 0.0 0.0 0.0 0.0 0.0 0.0 0.0 0.0 0.0 0.0 0.0 0.0 0.0 0.0 0.0 0.0 0.0 0.0 0.0 0.0 0.0 0.0 0.0 0.0 0.0 0.0 0.0 0.0 0.0 0.0 0.0 0.0 0.0 0.0 0.0 0.0 0.0 0.0 0.0 0.0 0.0 0.0 0.0 0.0 0.0 0.0 0.0 0.0 0.0 0.0 0.0 0.0 0.0 0.0 0.0 0.0 0.0 0.0 0.0 0.0 0.0 0.0 0.0 0.0 0.0 0.0 0.0 0.0 0.0 0.0 0.0 0.0 0.0 0.0 0.0 0.0 0.0 0.0 0.0 0.0 0.0 0.0 0.0 0.0 0.0 0.0 0.0 0.0 0.0 0.0 0.0 0.0 0.0 0.0 0.0 0.0 0.0 0.0 0.0 0.0 0.0 0.0 0.0 0.0 0.0 0.0 0.0 0.0 0.0 0.0 0.0 0.0 0.0 0.0 0.0 0.0 0.0 0.0 0.0 0.0 0.0 0.0 0.0 0.0 0.0 0.0 0.0 0.0 0.0 0.0 0.0 0.0 0.0 0.0 0.0 0.0 0.0 0.0 0.0 0.0 0.0 0.0 0.0 0.0 0.0 0.0 0.0 0.0 0.0 0.0 0.0 0.0 0.0 0.0 0.0 0.0 0.0 0.0 0.0 0.0 0.0 0.0 0.0 0.0 0.0 0.0 0.0 0.0 0.0 0.0 0.0 0.0 0.0 0.0 0.0 0.0 0.0 0.0 0.0 0.0 0.0 0.0 0.0 0.0 0.0 0.0 0.0 0.0 0.0 0.0 0.0 0.0 0.0 0.0 0.0 0.0 0.0 0.0 0.0 0.0 0.0 0.0 0.0 0.0 0.0 0.0 0.0 0.0 0.0 0.0 0.0 0.0 0.0 0.0 0.0 0.0 0.0 0.0 0.0 0.0 0.0 0.0 0.0 0.0 0.0 0.0 0.0 0.0 0.0 0.0 0.0 0.0 0.0 0.0 0.0 0.0 0.0 0.0 0.0 0.0 0.0 0.0 0.0 0.0 0.0 0.0 0.0 0.0 0.0 0.0 0.0 0.0 0.0 0.0 0.0 0.0 0.0 0.0 0.0 0.0 0.0 0.0 0.0 0.0 0.0 0.0 0.0 0.0 0.0 0.0 0.0 0.0 0.0 0.0 0.0 0.0 0.0 0.0 0.0 0.0 0.0 0.0 0.0 0.0 0.0 0.0 0.0 0.0 0.0 0.0 0.0 0.0 0.0 0.0 0.0 0.0 0.0 0.0 0.0 0.0 0.0 0.0 0.0 0.0 0.0 0.0 0.0 0.0 0.0 0.0 0.0 0.0 0.0 0.0 0.0 0.0 0.0 0.0 0.0 0.0 0.0 0.0 0.0 0.0 0.0 0.0 0.0 0.0 0.0 0.0 0.0 0.0 0.0 0.0 0.0 0.0 0.0 0.0 0.0 0.0 0.0 0.0 0.0 0.0 0.0 0.0 0.0 0.0 0.0 0.0 0.0 0.0 0.0 0.0 0.0 0.0 0.0 0.0 0.0 0.0 0.0 0.0 0.0 0.0 0.0 0.0 0.0 0.0 0.0 0.0 0.0 0.0 0.0 0.0 0.0 0.0 0.0 0.0 0.0 0.0 0.0 0.0 0.0 0.0 0.0 0.0 0.0 0.0 0.0 0.0 0.0 0.0 0.0 0.0 0.0 0.0 0.0 0.0 0.0 0.0 0.0 0.0 0.0 0.0 0.0 0.0 0.0 0.0 0.0 0.0 0.0 0.0 0.0 0.0 0.0 0.0 0.0 0.0 0.0 0.0 0.0 0.0 0.0 0.0 0.0
        </DataArray>
        <DataArray type="Float64" Name="stress_zz" NumberOfComponents="1" format="ascii">
 0.0 0.0 0.0 0.0  5.9440619E+003  1.0225946E+004  1.2908770E+004 -5.7358231E+005 0.0 0.0 0.0 0.0 0.0 0.0 0.0 0.0 0.0  1.5910466E+005 0.0 0.0 0.0 0.0 0.0 0.0 0.0 0.0 0.0 0.0 0.0 0.0 0.0 0.0 0.0 0.0 0.0 0.0 0.0 0.0 0.0 0.0 0.0 0.0 0.0 0.0 0.0 0.0  3.2596051E+003  3.4449991E+003  1.8032307E+003  1.1900747E+003  7.1238390E+002  4.5642886E+002 -2.7586431E+002 -2.5924536E+002 -4.6742079E+002 -5.5891822E+002 -7.2326109E+002 -1.0295427E+003 -1.2140166E+003 -1.5443471E+003 -1.5791351E+003  1.0241044E+003 -2.4997706E+005 -1.1935217E+005 -5.7087483E+004 -2.0860647E+004  4.4669794E+002  1.2684889E+004  1.9173601E+004  2.2487603E+004  2.3672892E+004  2.4100123E+004  2.4148144E+004  2.4133638E+004  2.4039708E+004  2.3950307E+004  2.3915459E+004  2.3818705E+004  2.3681016E+004  2.3627785E+004  2.3526275E+004  2.3431873E+004  2.3403875E+004  2.3275043E+004  2.3287265E+004  2.3168337E+004  2.3105254E+004  2.3040912E+004  2.3011961E+004  2.2901716E+004  2.2927578E+004  2.2790068E+004  2.2735524E+004  2.2675236E+004  2.2641638E+004  2.2556768E+004  2.2582073E+004  2.2470904E+004  2.2408191E+004  2.2375927E+004  2.2369703E+004  2.2278561E+004  2.2274867E+004  2.2191858E+004  2.2142138E+004  2.2112297E+004  2.2104310E+004  2.2047717E+004  2.2084145E+004  2.1991672E+004  2.1923320E+004  2.1872448E+004  2.1934585E+004  2.1834879E+004  2.1758408E+004  2.1761617E+004  2.1792006E+004  2.1787710E+004  2.1758468E+004  2.1654995E+004  2.1747651E+004  2.1663375E+004  2.1646980E+004  2.1598916E+004  2.1685410E+004  2.1652904E+004  2.1658189E+004  2.1626864E+004  2.1581296E+004  2.1611498E+004  2.1609208E+004  2.1641148E+004  2.1655476E+004  2.1549562E+004  2.1649947E+004  2.1692100E+004  2.1794275E+004  2.1807222E+004  2.1864183E+004  2.1940253E+004  2.2041309E+004  2.2106445E+004  2.2267191E+004  2.2264309E+004  2.0660310E+004 0.0 0.0 0.0 0.0 0.0 0.0 0.0 0.0 0.0 0.0 0.0 0.0 0.0 0.0 0.0 0.0 0.0 0.0 0.0 0.0 0.0 0.0 0.0 0.0 0.0 0.0 0.0 0.0 0.0 0.0 0.0 0.0 0.0 0.0 0.0 0.0 0.0 0.0 0.0 0.0 0.0 0.0 0.0 0.0 0.0 0.0 0.0 0.0 0.0 0.0 0.0 0.0 0.0 0.0 0.0 0.0 0.0 0.0 0.0 0.0 0.0 0.0 0.0 0.0 0.0 0.0 0.0 0.0 0.0 0.0 0.0 0.0 0.0 0.0 0.0 0.0 0.0 0.0 0.0 0.0 0.0 0.0 0.0 0.0 0.0 0.0 0.0 0.0 0.0 0.0 0.0 0.0 0.0 0.0 0.0 0.0 0.0 0.0 0.0 0.0 0.0 0.0 0.0 0.0 0.0 0.0 0.0 0.0 0.0 0.0 0.0 0.0 0.0 0.0 0.0 0.0 0.0 0.0 0.0 0.0 0.0 0.0 0.0 0.0 0.0 0.0 0.0 0.0 0.0 0.0 0.0 0.0 0.0 0.0 0.0 0.0 0.0 0.0 0.0 0.0 0.0 0.0 0.0 0.0 0.0 0.0 0.0 0.0 0.0 0.0 0.0 0.0 0.0 0.0 0.0 0.0 0.0 0.0 0.0 0.0 0.0 0.0 0.0 0.0 0.0 0.0 0.0 0.0 0.0 0.0 0.0 0.0 0.0 0.0 0.0 0.0 0.0 0.0 0.0 0.0 0.0 0.0 0.0 0.0 0.0 0.0 0.0 0.0 0.0 0.0 0.0 0.0 0.0 0.0 0.0 0.0 0.0 0.0 0.0 0.0 0.0 0.0 0.0 0.0 0.0 0.0 0.0 0.0 0.0 0.0 0.0 0.0 0.0 0.0 0.0 0.0 0.0 0.0 0.0 0.0 0.0 0.0 0.0 0.0 0.0 0.0 0.0 0.0 0.0 0.0 0.0 0.0 0.0 0.0 0.0 0.0 0.0 0.0 0.0 0.0 0.0 -3.0734533E+005 -1.6066523E+005 -6.5222922E+004  3.5697237E+003  5.5887703E+004  9.5673840E+004  1.2413373E+005  1.4372405E+005  1.5611564E+005 0.0 0.0 0.0 0.0 0.0 0.0 0.0 0.0 0.0 0.0 0.0 0.0 0.0 0.0 0.0 0.0 0.0 0.0 0.0 0.0 0.0 0.0 0.0 0.0 0.0 0.0 0.0 0.0 0.0 0.0 0.0 0.0 0.0 0.0 0.0 0.0 0.0 0.0 0.0 0.0 0.0 0.0 0.0 0.0 0.0 0.0 0.0 0.0 0.0 -8.3533113E+002 -7.3801753E+002 -5.2068610E+002 -4.1840271E+002 -2.5886814E+002 -6.4527256E+001  8.8860710E+001  2.5684691E+002  3.1513016E+002  2.7706696E+002  1.0408181E+002 -3.3637959E+002 -1.1152571E+003 -2.2456174E+003 -3.7282444E+003 -5.3559631E+003 -7.0167816E+003 -8.6264241E+003 -9.6499024E+003 -1.0573097E+004 -1.1002945E+004 -1.1235513E+004 -1.1159920E+004 -1.1282560E+004 -1.1265600E+004 -1.1436212E+004 -1.1198319E+004 -1.1356213E+004 -1.1291879E+004 -1.1299260E+004 -1.1144856E+004 -1.1199956E+004 -1.1184417E+004 -1.1379252E+004 -1.1170440E+004 -1.1395557E+004 -1.1213125E+004 -1.1344191E+004 -1.1178320E+004 -1.1175819E+004 -1.1141411E+004 -1.1314376E+004 -1.1196294E+004 -1.1478667E+004 -1.1287761E+004 -1.1418862E+004 -1.1259685E+004 -1.1277024E+004 -1.1277726E+004 -1.1389154E+004 -1.1330074E+004 -1.1361828E+004 -1.1319612E+004 -1.1511375E+004 -1.1433857E+004 -1.1626050E+004 -1.1453003E+004 -1.1450046E+004 -1.1418156E+004 -1.1630241E+004 -1.1565237E+004 -1.1763519E+004 -1.1591788E+004 -1.1596595E+004 -1.1561113E+004 -1.1765116E+004 -1.1702641E+004 -1.1896810E+004 -1.1724147E+004 -1.1807729E+004 -1.1744820E+004 -1.1934688E+004 -1.1888032E+004 -1.2091406E+004 -1.1910654E+004 -1.2004557E+004 -1.1942862E+004 -1.2142403E+004 -1.2093482E+004 -1.2293323E+004 -1.2111327E+004 -1.2208171E+004 -1.2171746E+004 -1.2424863E+004 -1.2374610E+004 -1.2543506E+004 -1.2327179E+004 -1.2352110E+004 -1.2103814E+004 -1.1662927E+004 -1.0765505E+004 -8.1012913E+003 -2.3878937E+003  6.2388719E+003  1.9073607E+004  3.6395815E+004  5.8789664E+004  8.7416285E+004  1.2123293E+005 0.0 0.0 0.0 0.0 0.0 0.0 0.0 0.0 0.0 0.0 0.0 0.0 0.0 0.0 0.0 0.0 0.0 0.0 0.0 0.0 0.0 0.0 0.0 0.0 0.0 0.0 0.0 0.0 0.0 0.0 0.0 0.0 0.0 0.0 0.0 0.0 0.0 0.0 0.0 0.0 0.0 0.0 0.0 0.0 0.0 0.0 0.0 0.0 0.0 0.0 0.0 0.0 0.0 0.0 0.0 0.0 0.0 0.0 0.0 0.0 0.0 0.0 0.0 0.0 0.0 0.0 0.0 0.0 0.0 0.0 0.0 0.0 0.0 0.0 0.0 0.0 0.0 0.0 0.0 0.0 0.0 0.0 0.0 0.0 0.0 0.0 0.0 0.0 0.0 0.0 0.0 0.0 0.0 0.0 0.0 0.0 0.0 0.0 0.0 0.0 0.0 0.0 0.0 0.0 0.0 0.0 0.0 0.0 0.0 0.0 0.0 0.0 0.0 0.0 0.0 0.0 0.0 0.0 0.0 0.0 0.0 0.0 0.0 0.0 0.0 0.0 0.0 0.0 0.0 0.0 0.0 0.0 0.0 0.0 0.0 0.0 0.0 0.0 0.0 0.0 0.0 0.0 0.0 0.0 0.0 0.0 0.0 0.0 0.0 0.0 0.0 0.0 0.0 0.0 0.0 0.0 0.0 0.0 0.0 0.0 0.0 0.0 0.0 0.0 0.0 0.0 0.0 0.0 0.0 0.0 0.0 0.0 0.0 0.0 0.0 0.0 0.0 0.0 0.0 0.0 0.0 0.0 0.0 0.0 0.0 0.0 0.0 0.0 0.0 0.0 0.0 0.0 0.0 0.0 0.0 0.0 0.0 0.0 0.0 0.0 0.0 0.0 0.0 0.0 0.0 0.0 0.0 0.0 0.0 0.0 0.0 0.0 0.0 0.0 0.0 0.0 0.0 0.0 0.0 0.0 0.0 0.0 0.0 0.0 0.0 0.0 0.0 0.0 0.0 0.0 0.0 0.0 0.0 0.0 0.0 0.0 0.0 0.0 0.0 0.0 0.0 0.0 0.0 0.0 0.0 0.0 0.0 0.0 0.0 0.0 0.0 0.0 0.0 0.0 0.0 0.0 0.0 0.0 0.0 0.0 0.0 0.0 0.0 0.0 0.0 0.0 0.0 0.0 0.0 0.0 0.0 0.0 0.0 0.0 0.0 0.0 0.0 0.0 0.0 0.0 0.0 0.0 0.0 0.0 0.0 0.0 0.0 0.0 0.0 0.0 0.0 0.0 0.0 0.0 0.0 0.0 0.0 0.0 0.0 0.0 0.0 0.0 0.0 0.0 0.0 0.0 0.0 0.0 0.0 0.0 0.0 0.0 0.0 0.0 0.0 0.0 0.0 0.0 0.0 0.0 0.0 0.0 0.0 0.0 0.0 0.0 0.0 0.0 0.0 0.0 0.0 0.0 0.0 0.0 0.0 0.0 0.0 0.0 0.0 0.0 0.0 0.0 0.0 0.0 0.0 0.0 0.0 0.0 0.0 0.0 0.0 0.0 0.0 0.0 0.0 0.0 0.0 0.0 0.0 0.0 0.0 0.0 0.0 0.0 0.0 0.0 0.0 0.0 0.0 0.0 0.0 0.0 0.0 0.0 0.0 0.0 0.0 0.0 0.0 0.0 0.0 0.0 0.0 0.0 0.0 0.0 0.0 0.0 0.0 0.0 0.0 0.0 0.0 0.0 0.0 0.0 0.0 0.0 0.0 0.0 0.0 0.0 0.0 0.0 0.0 0.0 0.0 0.0 0.0 0.0 0.0 0.0 0.0 0.0 0.0 0.0 0.0 0.0 0.0 0.0 0.0 0.0 0.0 0.0 0.0 0.0 0.0 0.0 0.0 0.0 0.0 0.0 0.0 0.0 0.0 0.0 0.0 0.0 0.0 0.0 0.0 0.0 0.0 0.0 0.0 0.0 0.0 0.0 0.0 0.0 0.0 0.0 0.0 0.0 0.0 0.0 0.0 0.0 0.0 0.0 0.0 0.0 0.0 0.0 0.0 0.0 0.0 0.0 0.0 0.0 0.0 0.0 0.0 0.0 0.0 0.0 0.0 0.0 0.0 0.0 0.0 0.0 0.0 0.0 0.0 0.0 0.0 0.0 0.0 0.0 0.0 0.0 0.0 0.0 0.0 0.0 0.0 0.0 0.0 0.0 0.0 0.0 0.0 0.0 0.0 0.0 0.0 0.0 0.0 0.0 0.0 0.0 0.0 0.0 0.0 0.0 0.0 0.0 0.0 0.0 0.0 0.0 0.0 0.0 0.0 0.0 0.0 0.0 0.0 0.0 0.0 0.0 0.0 0.0 0.0 0.0 0.0 0.0 0.0 0.0 0.0 0.0 0.0 0.0 0.0 0.0 0.0 0.0 0.0 0.0 0.0 0.0 0.0 0.0 0.0 0.0 0.0 0.0 0.0 0.0 0.0 0.0 0.0 0.0 0.0 0.0 0.0 0.0 0.0 0.0 0.0 0.0 0.0 0.0 0.0 0.0 0.0 0.0 0.0 0.0 0.0 0.0 0.0 0.0 0.0 0.0 0.0 0.0 0.0 0.0 0.0 0.0 0.0 0.0 0.0 0.0 0.0 0.0 0.0 0.0 0.0 0.0 0.0 0.0 0.0 0.0 0.0 0.0 0.0 0.0 0.0 0.0 0.0 0.0 0.0 0.0 0.0 0.0 0.0 0.0 0.0 0.0 0.0 0.0 0.0 0.0 0.0 0.0 0.0 0.0 0.0 0.0 0.0 0.0 0.0 0.0 0.0 0.0 0.0 0.0 0.0 0.0 0.0 0.0 0.0 0.0 0.0 0.0 0.0 0.0 0.0 0.0 0.0 0.0 0.0 0.0 0.0 0.0 0.0 0.0 0.0 0.0 0.0 0.0 0.0 0.0 0.0 0.0 0.0 0.0 0.0 0.0 0.0 0.0 0.0 0.0 0.0 0.0 0.0 0.0 0.0 0.0 0.0 0.0 0.0 0.0 0.0 0.0 0.0 0.0 0.0 0.0 0.0 0.0 0.0 0.0 0.0 0.0 0.0 0.0 0.0 0.0 0.0 0.0 0.0 0.0 0.0 0.0 0.0 0.0 0.0 0.0 0.0 0.0 0.0 0.0 0.0 0.0 0.0 0.0 0.0 0.0 0.0 0.0 0.0 0.0 0.0 0.0 0.0 0.0 0.0 0.0 0.0 0.0 0.0 0.0 0.0 0.0 0.0 0.0 0.0 0.0 0.0 0.0 0.0 0.0 0.0 0.0 0.0 0.0 0.0 0.0 0.0 0.0 0.0 0.0 0.0 0.0 0.0 0.0 0.0 0.0 0.0 0.0 0.0 0.0 0.0 0.0 0.0 0.0 0.0 0.0 0.0 0.0 0.0 0.0 0.0 0.0 0.0 0.0 0.0 0.0 0.0 0.0 0.0 0.0 0.0 0.0 0.0 0.0 0.0 0.0 0.0 0.0 0.0 0.0 0.0 0.0 0.0 0.0 0.0 0.0 0.0 0.0 0.0 0.0 0.0 0.0 0.0 0.0 0.0 0.0 0.0 0.0 0.0 0.0 0.0 0.0 0.0 0.0 0.0 0.0 0.0 0.0 0.0 0.0 0.0 0.0 0.0 0.0 0.0 0.0 0.0 0.0 0.0 0.0 0.0 0.0 0.0 0.0 0.0 0.0 0.0 0.0 0.0 0.0 0.0 0.0 0.0 0.0 0.0 0.0 0.0 0.0 0.0 0.0 0.0 0.0 0.0 0.0 0.0 0.0 0.0 0.0 0.0 0.0 0.0 0.0 0.0 0.0 0.0 0.0 0.0 0.0 0.0 0.0 0.0 0.0 0.0 0.0 0.0 0.0 0.0 0.0 0.0 0.0 0.0 0.0 0.0 0.0 0.0 0.0 0.0 0.0 0.0 0.0 0.0 0.0 0.0 0.0 0.0 0.0 0.0 0.0 0.0 0.0 0.0 0.0 0.0 0.0 0.0 0.0 0.0 0.0 0.0 0.0 0.0 0.0 0.0 0.0 0.0 0.0 0.0 0.0 0.0 0.0 0.0 0.0 0.0 0.0 0.0 0.0 0.0 0.0 0.0 0.0 0.0 0.0 0.0 0.0 0.0 0.0 0.0 0.0 0.0 0.0 0.0 0.0 0.0 0.0 0.0 0.0 0.0 0.0 0.0 0.0 0.0 0.0 0.0 0.0 0.0 0.0 0.0 0.0 0.0 0.0 0.0 0.0 0.0 0.0 0.0 0.0 0.0 0.0 0.0 0.0 0.0 0.0 0.0 0.0 0.0 0.0 0.0 0.0 0.0 0.0 0.0 0.0 0.0 0.0 0.0 0.0 0.0 0.0 0.0 0.0 0.0 0.0 0.0 0.0 0.0 0.0 0.0 0.0 0.0 0.0 0.0 0.0 0.0 0.0 0.0 0.0 0.0 0.0 0.0 0.0 0.0 0.0 0.0 0.0 0.0 0.0 0.0 0.0 0.0 0.0 0.0 0.0 0.0 0.0 0.0 0.0 0.0 0.0 0.0 0.0 0.0 0.0 0.0 0.0 0.0 0.0 0.0 0.0 0.0 0.0 0.0 0.0 0.0 0.0 0.0 0.0 0.0 0.0 0.0 0.0 0.0 0.0 0.0 0.0 0.0 0.0 0.0 0.0 0.0 0.0 0.0 0.0 0.0 0.0 0.0 0.0 0.0 0.0 0.0 0.0 0.0 0.0 0.0 0.0 0.0 0.0 0.0 0.0 0.0 0.0 0.0 0.0 0.0 0.0 0.0 0.0 0.0 0.0 0.0 0.0 0.0 0.0 0.0 0.0 0.0 0.0 0.0 0.0 0.0 0.0 0.0 0.0 0.0 0.0 0.0 0.0 0.0 0.0 0.0 0.0 0.0 0.0 0.0 0.0 0.0 0.0 0.0 0.0 0.0 0.0 0.0 0.0 0.0 0.0 0.0 0.0 0.0 0.0 0.0 0.0 0.0 0.0 0.0 0.0 0.0 0.0 0.0 0.0 0.0 0.0 0.0 0.0 0.0 0.0 0.0 0.0 0.0 0.0 0.0 0.0 0.0 0.0 0.0 0.0 0.0 0.0 0.0 0.0 0.0 0.0 0.0 0.0 0.0 0.0 0.0 0.0 0.0 0.0 0.0 0.0 0.0 0.0 0.0 0.0 0.0 0.0 0.0 0.0 0.0 0.0 0.0 0.0 0.0 0.0 0.0 0.0 0.0 0.0 0.0 0.0 0.0 0.0 0.0 0.0 0.0 0.0 0.0 0.0 0.0 0.0 0.0 0.0 0.0 0.0 0.0 0.0 0.0 0.0 0.0 0.0 0.0 0.0 0.0 0.0 0.0 0.0 0.0 0.0 0.0 0.0 0.0 0.0 0.0 0.0 0.0 0.0 0.0 0.0 0.0 0.0 0.0 0.0 0.0 0.0 0.0 0.0 0.0 0.0 0.0 0.0 0.0 0.0 0.0 0.0 0.0 0.0 0.0 0.0 0.0 0.0 0.0 0.0 0.0 0.0 0.0 0.0 0.0 0.0 0.0 0.0 0.0 0.0 0.0 0.0 0.0 0.0 0.0 0.0 0.0 0.0 0.0 0.0 0.0 0.0 0.0 0.0 0.0 0.0 0.0 0.0 0.0 0.0 0.0 0.0 0.0 0.0 0.0 0.0 0.0 0.0 0.0 0.0 0.0 0.0 0.0 0.0 0.0 0.0 0.0 0.0 0.0 0.0 0.0 0.0 0.0 0.0 0.0 0.0 0.0 0.0 0.0 0.0 0.0 0.0 0.0 0.0 0.0 0.0 0.0 0.0 0.0 0.0 0.0 0.0 0.0 0.0 0.0 0.0 0.0 0.0 0.0 0.0 0.0 0.0 0.0 0.0 0.0 0.0 0.0 0.0 0.0 0.0 0.0 0.0 0.0 0.0 0.0 0.0 0.0 0.0 0.0 0.0 0.0 0.0 0.0 0.0 0.0 0.0 0.0 0.0 0.0 0.0 0.0 0.0 0.0 0.0 0.0 0.0 0.0 0.0 0.0 0.0 0.0 0.0 0.0 0.0 0.0 0.0 0.0 0.0 0.0 0.0 0.0 0.0 0.0 0.0 0.0 0.0 0.0 0.0 0.0 0.0 0.0 0.0 0.0 0.0 0.0 0.0 0.0 0.0 0.0 0.0 0.0 0.0 0.0 0.0 0.0 0.0 0.0 0.0 0.0 0.0 0.0 0.0 0.0 0.0 0.0 0.0 0.0 0.0 0.0 0.0 0.0 0.0 0.0 0.0 0.0 0.0  1.2800138E+004  2.5134002E+004 -1.5886354E+004  8.7734259E+002  7.9177596E+004 -9.6045582E+004  7.2019176E+003  1.1080434E+004  8.5887243E+003  1.1265799E+004  1.1336990E+004  1.1780757E+004  1.1096478E+004  1.1102479E+004  1.1448346E+004  1.1758331E+004  1.0892362E+004  1.1256057E+004  1.1574252E+004  1.0708312E+004  1.1074045E+004  1.1382279E+004  1.0539431E+004  1.0938462E+004  1.1252127E+004  1.0400289E+004  1.0809751E+004  1.1127225E+004  7.0226794E+004  1.0271278E+004  1.1034605E+004  1.0216441E+004  1.0664101E+004  1.0670327E+004  1.0941846E+004  1.0132415E+004  1.0594010E+004  1.0634108E+004  1.0574169E+004  1.0883354E+004  1.1293506E+004  1.0621342E+004  1.0640347E+004  1.1015676E+004  1.1154491E+004  1.1145243E+004 -6.8129389E+002 -6.7417870E+003 -1.5022273E+003 -9.0606141E+004 -8.4445225E+003 -9.2836781E+003 -9.0751640E+003 -9.3834313E+003 -9.2298801E+003 -8.9077646E+003 -9.1395055E+003 -9.0814346E+003 -8.7663364E+003 -8.9758264E+003 -8.9300469E+003 -8.6349540E+003 -8.8338380E+003 -8.7518267E+003 -8.5633193E+003 -8.7268473E+003 -8.6350752E+003 -8.4629879E+003 -8.6290991E+003 -8.5729569E+003 -8.3199684E+003 -8.5305247E+003 -8.3070735E+003 -8.5885549E+003 -8.4556097E+003 -8.4298560E+003 -8.2473230E+003 -8.5224082E+003 -8.5027924E+003 -8.5761206E+003 -8.3648116E+003 -8.2974719E+003 -8.5399503E+003 -8.6488944E+003 -8.2829050E+003 -7.8367598E+003 -4.4867865E+003 -7.5141972E+002  6.5562412E+001 -1.3953198E+002  1.1823304E+005  4.3238535E+001 -2.9518193E+001 -4.5961700E+003 -2.0313319E+003 -4.2091266E+003  3.7710865E+003 -1.0760037E+003  5.1555128E+002 -3.0444307E+003 -8.0130907E+003  2.9974791E+003 -1.1884901E+004  8.9392746E+003  1.9415627E+004  3.4775373E+004 -1.1676499E+004 -3.5767277E+004  3.9019778E+004  6.0184158E+004 -5.2502340E+004  2.2702933E+004 -7.6019195E+004 -4.6201941E+004 -1.3926764E+005  1.0133144E+004 -1.0204172E+003  7.8779233E+003  1.0310226E+004 -6.0676346E+002  4.5721580E+004  1.3503184E+002 -9.1731660E+003 -3.0292707E+003 -2.8735756E+003  3.6333966E+003 -7.4199496E+002 -1.0958500E+003 -1.5481845E+003 -3.5495793E+003 -1.9199751E+003 -2.1671237E+003 -8.9736152E+003 -3.0349708E+003 -2.8466267E+003  2.9859847E+003 -8.4952798E+003 -2.9363020E+003 -2.8170601E+003  2.9107874E+003 -8.7110838E+003 -2.9911203E+003 -2.8790376E+003  2.8928307E+003 -2.1176862E+002 -3.1536741E+002 -8.3866300E+003 -3.8185005E+003 -4.3204318E+003  3.2200038E+003 -8.4986791E+003 -3.4855684E+003 -8.3957977E+003 -2.8509205E+003 -2.7868242E+003  2.8873649E+003 -8.5083309E+003 -3.5807630E+003 -8.8225816E+003 -2.9806294E+003 -2.8022885E+003  2.9321264E+003 -8.6126669E+003 -2.9189690E+003 -2.8506051E+003  2.9865804E+003 -8.5496336E+003 -8.5875735E+003 -3.6940311E+003 -8.5335717E+003 -2.9080451E+003 -2.8577505E+003  2.9369874E+003 -8.7692408E+003 -3.8262951E+003 -8.7618564E+003 -8.4301187E+003 -3.7873830E+003 -4.0699217E+003  3.5731432E+003 -8.5443288E+003 -3.4936319E+003 -8.7096998E+003 -8.8724288E+003 -3.8771080E+003 -9.0115723E+003 -3.6763668E+003 -5.7105673E+003 -8.4779448E+003 -3.5894589E+003 -8.5395575E+003 -3.6211878E+003 -8.5953984E+003 -3.6558562E+003 -8.8695030E+003 -9.0411649E+003 -9.5212258E+003 -3.7599573E+003 -7.4526858E+003 -2.5213982E+003 -8.6013863E+003 -8.6200894E+003 -2.4753214E+003 -9.1894746E+003 -9.3419753E+003 -8.6302899E+003 -9.3238914E+003 -3.6538830E+003 -8.9469494E+003 -3.0121668E+003 -2.8934049E+003  3.8607329E+003 -9.4860526E+003 -9.1750419E+003 -3.5866081E+003  1.0311990E+004  1.0191319E+004  1.0262566E+003  1.0611459E+004  1.7364605E+003  1.0843896E+004  1.0694598E+003  1.0792558E+004  1.5045198E+003  1.0250321E+004  1.0408329E+003  1.0801219E+004  8.0718866E+002  1.1597647E+004  7.9782381E+002  1.0849317E+004  1.4778474E+003  1.0346568E+004  1.3263109E+003  1.1289550E+004  1.2904133E+003  6.1660997E+002  1.1089292E+004  8.0329829E+002  1.0968384E+004  8.1805842E+002  1.0414386E+004  1.0059995E+003  1.1295304E+004  1.1255338E+003  1.0828279E+004  2.0037256E+003  1.0670220E+004  1.0590170E+003  1.0539825E+004  1.0147789E+003  1.0789074E+004  1.4313649E+003  1.0221952E+004  7.4678780E+002  1.1234882E+004  8.0380786E+002  1.1413250E+004  7.9023381E+002  1.1038950E+004  1.0859058E+003  1.1370359E+004  2.3608334E+003  1.0764899E+004  1.4136562E+003  1.0936892E+004  2.0496971E+003  1.1908935E+004  7.2288293E+002  9.3014214E+004 -3.6059248E+004  5.1211979E+004  8.9850428E+002  6.4062172E+002  8.7792530E+002  7.3462955E+002  7.4558327E+002  2.2006617E+003  6.5615128E+002  7.5603845E+002  2.5356363E+003  9.5449724E+002  9.9389538E+002 -1.9454488E+003  9.5077477E+001 -1.4573775E+003  1.4327232E+002  1.7880623E+002  9.7831534E+002 -2.2575268E+004 -1.1289526E+004 -2.7375557E+002  1.0037976E+005 -4.2411498E+004 -7.6364369E+003 -1.1587129E+003  2.3116127E+004  3.2449587E+002 -6.6129074E+001  3.4372525E+003  5.6591530E+004  6.7905428E+002 -9.1007934E+003 -1.7501072E+005  8.2579204E+004  7.6742836E+002 -4.9944861E+003 -5.3389239E+002 -9.1092986E+001  1.5283082E+003 -4.5595249E+003 -4.8874664E+003 -4.0636734E+002  1.2754388E+004 -4.7483162E+003 -4.7865283E+003  1.2249626E+004 -4.9105147E+003 -4.8745168E+003 -4.9300722E+003  1.2533102E+004 -2.9929884E+003 -4.8221963E+003 -5.1185780E+003 -4.8950120E+003  3.7916382E+003 -4.9598173E+003 -5.0429105E+003  1.2638347E+004 -4.3555173E+003 -5.5088455E+003  1.2727513E+004  3.1924349E+003 -5.7508232E+003  3.2287474E+003  1.2837777E+004 -4.3203205E+003 -5.4851366E+003  1.3005859E+004 -5.4762244E+003  3.1628484E+003  1.3189062E+004 -5.8688443E+003  3.2390768E+003  3.1976238E+003  1.3400566E+004 -5.3924159E+003  1.4246885E+004 -5.5419221E+003  1.4537931E+004 -5.8931080E+003  3.1333035E+003  3.2109198E+003 -5.7828607E+003 -5.4974001E+003 -6.0197966E+003  3.1119846E+003 -5.5632015E+003 -6.0852544E+003 -5.5689775E+003  3.1486959E+003 -6.0482812E+003 -5.6067534E+003 -6.0881645E+003  3.2958764E+003 -5.7083402E+003 -6.1829277E+003  3.4063423E+003 -5.9067463E+003 -6.3000871E+003 -4.9289685E+003  3.4619168E+003  3.5071573E+003  5.5976405E+004  1.4169997E+004  2.6886965E+003  2.5020332E+003  1.2894878E+005 -2.5374148E+005  2.4443987E+003 -1.6229556E+005  2.8811127E+003  2.8780570E+003  2.9208802E+003  2.6868893E+003  2.9684571E+003  2.7479750E+003  2.7852937E+003  1.9907738E+003  2.0014987E+003  1.9843996E+003  2.4530584E+004  9.3611907E+002  1.8565323E+003 -7.4507710E+002 -2.7161594E+004 -1.0051269E+005  1.8096193E+003  1.0188036E+003 -5.9098229E+002  1.7847777E+003 -1.4083573E+003  4.6462751E+004  1.6822992E+003  1.7090513E+003  1.6626798E+003  1.6865291E+003 -5.2661152E+000  3.5837441E+004  1.6696926E+003 0.0 0.0 0.0 0.0 0.0 0.0 0.0 0.0 0.0 0.0 0.0 0.0 0.0 0.0 0.0 0.0 0.0 0.0 0.0 0.0 0.0 0.0 0.0 0.0 0.0 0.0 0.0 0.0 0.0 0.0 0.0 0.0 0.0 0.0 0.0 0.0 0.0 0.0 0.0 0.0 0.0 0.0 0.0 0.0 0.0 0.0 0.0 0.0 0.0 0.0 0.0 0.0 0.0 0.0 0.0 0.0 0.0 0.0 0.0 0.0 0.0 0.0 0.0 0.0 0.0 0.0 0.0 0.0 0.0 0.0 0.0 0.0 0.0 0.0 0.0 0.0 0.0 0.0 0.0 0.0 0.0 0.0 0.0 0.0 0.0 0.0 0.0 0.0 0.0 0.0 0.0 0.0 0.0 0.0 0.0 0.0 0.0 0.0 0.0 0.0 0.0 0.0 0.0 0.0 0.0 0.0 0.0 0.0 0.0 0.0 0.0 0.0 0.0 0.0 0.0 0.0 0.0 0.0 0.0 0.0 0.0 0.0 0.0 0.0 0.0 0.0 0.0 0.0 0.0 0.0 0.0 0.0 0.0 0.0 0.0 0.0 0.0 0.0 0.0 0.0 0.0 0.0 0.0 0.0 0.0 0.0 0.0 0.0 0.0 0.0 0.0 0.0 0.0 0.0 0.0 0.0 0.0 0.0 0.0 0.0 0.0 0.0 0.0 0.0 0.0 0.0 0.0 0.0 0.0 0.0 0.0 0.0 0.0 0.0 0.0 0.0 0.0 0.0 0.0 0.0 0.0 0.0 0.0 0.0 0.0 0.0 0.0 0.0 0.0 0.0 0.0 0.0 0.0 0.0 0.0 0.0 0.0 0.0 0.0 0.0 0.0 0.0 0.0 0.0 0.0 0.0 0.0 0.0 0.0 0.0 0.0 0.0 0.0 0.0 0.0 0.0 0.0 0.0 0.0 0.0 0.0 0.0 0.0 0.0 0.0 0.0 0.0 0.0 0.0 0.0 0.0 0.0 0.0 0.0 0.0 0.0 0.0 0.0 0.0 0.0 0.0 0.0 0.0 0.0 0.0 0.0 0.0 0.0 0.0 0.0 0.0 0.0 0.0 0.0 0.0 0.0 0.0 0.0 0.0 0.0 0.0 0.0 0.0 0.0 0.0 0.0 0.0 0.0 0.0 0.0 0.0 0.0 0.0 0.0 0.0 0.0 0.0 0.0 0.0 0.0 0.0 0.0 0.0 0.0 0.0 0.0 0.0 0.0 0.0 0.0 0.0 0.0 0.0 0.0 0.0 0.0 0.0 0.0 0.0 0.0 0.0 0.0 0.0 0.0 0.0 0.0 0.0 0.0 0.0 0.0 0.0 0.0 0.0 0.0 0.0 0.0 0.0 0.0 0.0 0.0 0.0 0.0 0.0 0.0 0.0 0.0 0.0 0.0 0.0 0.0 0.0 0.0 0.0 0.0 0.0 0.0 0.0 0.0 0.0 0.0 0.0 0.0 0.0 0.0 0.0 0.0 0.0 0.0 0.0 0.0 0.0 0.0 0.0 0.0 0.0 0.0 0.0 0.0 0.0 0.0 0.0 0.0 0.0 0.0 0.0 0.0 0.0 0.0 0.0 0.0 0.0 0.0 0.0 0.0 0.0 0.0 0.0 0.0 0.0 0.0 0.0 0.0 0.0 0.0 0.0 0.0 0.0 0.0 0.0 0.0 0.0 0.0 0.0 0.0 0.0 0.0 0.0 0.0 0.0 0.0 0.0 0.0 0.0 0.0 0.0 0.0 0.0 0.0 0.0 0.0 0.0 0.0 0.0 0.0 0.0 0.0 0.0 0.0 0.0 0.0 0.0 0.0 0.0 0.0 0.0 0.0 0.0 0.0 0.0 0.0 0.0 0.0 0.0 0.0 0.0 0.0 0.0 0.0 0.0 0.0 0.0 0.0 0.0 0.0 0.0 0.0 0.0 0.0 0.0 0.0 0.0 0.0 0.0 0.0 0.0 0.0 0.0 0.0 0.0 0.0 0.0 0.0 0.0 0.0 0.0 0.0 0.0 0.0 0.0 0.0 0.0 0.0 0.0 0.0 0.0 0.0 0.0 0.0 0.0 0.0 0.0 0.0 0.0 0.0 0.0 0.0 0.0 0.0 0.0 0.0 0.0 0.0 0.0 0.0 0.0 0.0 0.0 0.0 0.0 0.0 0.0 0.0 0.0 0.0 0.0 0.0 0.0 0.0 0.0 0.0 0.0 0.0 0.0 0.0 0.0 0.0 0.0 0.0 0.0 0.0 0.0 0.0 0.0 0.0 0.0 0.0 0.0 0.0 0.0 0.0 0.0 0.0 0.0 0.0 0.0 0.0 0.0 0.0 0.0 0.0 0.0 0.0 0.0 0.0 0.0 0.0 0.0 0.0 0.0 0.0 0.0 0.0 0.0 0.0 0.0 0.0 0.0 0.0 0.0 0.0 0.0 0.0 0.0 0.0 0.0 0.0 0.0 0.0 0.0 0.0 0.0 0.0 0.0 0.0 0.0 0.0 0.0 0.0 0.0 0.0 0.0 0.0 0.0 0.0 0.0 0.0 0.0 0.0 0.0 0.0 0.0 0.0 0.0 0.0 0.0 0.0 0.0 0.0 0.0 0.0 0.0 0.0 0.0 0.0 0.0 0.0 0.0 0.0 0.0 0.0 0.0 0.0 0.0 0.0 0.0 0.0 0.0 0.0 0.0 0.0 0.0 0.0 0.0 0.0 0.0 0.0 0.0 0.0 0.0 0.0 0.0 0.0 0.0 0.0 0.0 0.0 0.0 0.0 0.0 0.0 0.0 0.0 0.0 0.0 0.0 0.0 0.0 0.0 0.0 0.0 0.0 0.0 0.0 0.0 0.0 0.0 0.0 0.0 0.0 0.0 0.0 0.0 0.0 0.0 0.0 0.0 0.0 0.0 0.0 0.0 0.0 0.0 0.0 0.0 0.0 0.0 0.0 0.0 0.0 0.0 0.0 0.0 0.0 0.0 0.0 0.0 0.0 0.0 0.0 0.0 0.0 0.0 0.0 0.0 0.0 0.0 0.0 0.0 0.0 0.0 0.0 0.0 0.0 0.0 0.0 0.0 0.0 0.0 0.0 0.0 0.0 0.0 0.0 0.0 0.0 0.0 0.0 0.0 0.0 0.0 0.0 0.0 0.0 0.0 0.0 0.0 0.0 0.0 0.0 0.0 0.0 0.0 0.0 0.0 0.0 0.0 0.0 0.0 0.0 0.0 0.0 0.0 0.0 0.0 0.0 0.0 0.0 0.0 0.0 0.0 0.0 0.0 0.0 0.0 0.0 0.0 0.0 0.0 0.0 0.0 0.0 0.0 0.0 0.0 0.0 0.0 0.0 0.0 0.0 0.0 0.0 0.0 0.0 0.0 0.0 0.0 0.0 0.0 0.0 0.0 0.0 0.0 0.0 0.0 0.0 0.0 0.0 0.0 0.0 0.0 0.0 0.0 0.0 0.0 0.0 0.0 0.0 0.0 0.0 0.0 0.0 0.0 0.0 0.0 0.0 0.0 0.0 0.0 0.0 0.0 0.0 0.0 0.0 0.0 0.0 0.0 0.0 0.0 0.0 0.0 0.0 0.0 0.0 0.0 0.0 0.0 0.0 0.0 0.0 0.0 0.0 0.0 0.0 0.0 0.0 0.0 0.0 0.0 0.0 0.0 0.0 0.0 0.0 0.0 0.0 0.0 0.0 0.0 0.0 0.0 0.0 0.0 0.0 0.0 0.0 0.0 0.0 0.0 0.0 0.0 0.0 0.0 0.0 0.0 0.0 0.0 0.0 0.0 0.0 0.0 0.0 0.0 0.0 0.0 0.0 0.0 0.0 0.0 0.0 0.0 0.0 0.0 0.0 0.0 0.0 0.0 0.0 0.0 0.0 0.0 0.0 0.0 0.0 0.0 0.0 0.0 0.0 0.0 0.0 0.0 0.0 0.0 0.0 0.0 0.0 0.0 0.0 0.0 0.0 0.0 0.0 0.0 0.0 0.0 0.0 0.0 0.0 0.0 0.0 0.0 0.0 0.0 0.0 0.0 0.0 0.0 0.0 0.0 0.0 0.0 0.0 0.0 0.0 0.0 0.0 0.0 0.0 0.0 0.0 0.0 0.0 0.0 0.0 0.0 0.0 0.0 0.0 0.0 0.0 0.0 0.0 0.0 0.0 0.0 0.0 0.0 0.0 0.0 0.0 0.0 0.0 0.0 0.0 0.0 0.0 0.0 0.0 0.0 0.0 0.0 0.0 0.0 0.0 0.0 0.0 0.0 0.0 0.0 0.0 0.0 0.0 0.0 0.0 0.0 0.0 0.0 0.0 0.0 0.0 0.0 0.0 0.0 0.0 0.0 0.0 0.0 0.0 0.0 0.0 0.0 0.0 0.0 0.0 0.0 0.0 0.0 0.0 0.0 0.0 0.0 0.0 0.0 0.0 0.0 0.0 0.0 0.0 0.0 0.0 0.0 0.0 0.0 0.0 0.0 0.0 0.0 0.0 0.0 0.0 0.0 0.0 0.0 0.0 0.0 0.0 0.0 0.0 0.0 0.0 0.0 0.0 0.0 0.0 0.0 0.0 0.0 0.0 0.0 0.0 0.0 0.0 0.0 0.0 0.0 0.0 0.0 0.0 0.0 0.0 0.0 0.0 0.0 0.0 0.0 0.0 0.0 0.0 0.0 0.0 0.0 0.0 0.0 0.0 0.0 0.0 0.0 0.0 0.0 0.0 0.0 0.0 0.0 0.0 0.0 0.0 0.0 0.0 0.0 0.0 0.0 0.0 0.0 0.0 0.0 0.0 0.0 0.0 0.0 0.0 0.0 0.0 0.0 0.0 0.0 0.0 0.0 0.0 0.0 0.0 0.0 0.0 0.0 0.0 0.0 0.0 0.0 0.0 0.0 0.0 0.0 0.0 0.0 0.0 0.0 0.0 0.0 0.0 0.0 0.0 0.0 0.0 0.0 0.0 0.0 0.0 0.0 0.0 0.0 0.0 0.0 0.0 0.0 0.0 0.0 0.0 0.0 0.0 0.0 0.0 0.0 0.0 0.0 0.0 0.0 0.0 0.0 0.0 0.0 0.0 0.0 0.0 0.0
        </DataArray>
        <DataArray type="Float64" Name="stress_xy" NumberOfComponents="1" format="ascii">
 0.0 0.0 0.0 0.0  1.1770481E+003 -2.1465690E+003 -2.5842619E+002  2.2484735E+004 0.0 0.0 0.0 0.0 0.0 0.0 0.0 0.0 0.0 -1.7469641E+002 0.0 0.0 0.0 0.0 0.0 0.0 0.0 0.0 0.0 0.0 0.0 0.0 0.0 0.0 0.0 0.0 0.0 0.0 0.0 0.0 0.0 0.0 0.0 0.0 0.0 0.0 0.0 0.0  1.8699222E+003  6.5361338E+002  4.4812560E+002  3.0726595E+002  1.7288271E+002  1.3683292E+002 -2.4663314E+001 -5.0319273E+001 -9.1033927E+001 -1.2211928E+002 -1.4663598E+002 -1.7353591E+002 -9.0425489E+001  5.2199725E+001  3.7244261E+002  3.5918950E+002  1.0189428E+004  9.1984017E+002  9.2476894E+002  4.0529383E+002  2.8241133E+002  1.7630445E+002  1.3951164E+002  1.1930441E+002  8.2091408E+000  6.5868590E+001  8.7265293E+001 -8.8470006E+001 -2.9127402E+001 -2.1165877E+000 -1.2973493E+001  6.4148078E+001  8.5380458E+001 -8.5570801E+001 -2.6100946E+001  2.2809635E+000 -3.5021633E+000 -3.2479363E+001 -4.7301973E+001 -8.1545740E+001 -2.4819365E+001  3.9318858E+000 -2.9464511E+000 -2.8843303E+001 -4.5456172E+001 -7.9055273E+001 -2.2612972E+001  3.3452029E+000 -2.4480546E+000 -2.5458497E+001 -4.4246518E+001 -7.4772336E+001 -2.2993018E+001  6.2834392E+000 -5.8883175E-001 -2.7525472E+001 -4.2062681E+001 -7.1093334E+001 -2.0801015E+001  5.5880968E+000  2.6690174E-001 -2.1629806E+001 -3.9966694E+001 -7.0118528E+001 -1.4730517E+001 -9.9656168E+000 -4.2044088E+001 -6.9106530E+001 -1.9109617E+001  8.3074055E+000 -1.0360901E+000 -2.1511669E-001 -4.4654756E-002 -1.9444245E+001 -3.3383880E+001 -6.2283911E+001 -1.8648095E+001  7.7091891E+000  4.5125309E-001 -2.5812580E+000  2.4870963E+000 -3.4129729E+000  4.9929716E-001 -2.2796300E+000 -3.3956854E+001 -4.8363903E+001 -4.0758246E+001  4.6388666E+000  9.3605971E+000  7.7773824E+000  6.7194481E+000 -2.4611560E+000 -2.7659672E+001 -2.2981661E+001 -1.6438820E+001 -2.1917441E-001 -5.7174920E-001 -4.0407784E+001 -4.8872661E+002 0.0 0.0 0.0 0.0 0.0 0.0 0.0 0.0 0.0 0.0 0.0 0.0 0.0 0.0 0.0 0.0 0.0 0.0 0.0 0.0 0.0 0.0 0.0 0.0 0.0 0.0 0.0 0.0 0.0 0.0 0.0 0.0 0.0 0.0 0.0 0.0 0.0 0.0 0.0 0.0 0.0 0.0 0.0 0.0 0.0 0.0 0.0 0.0 0.0 0.0 0.0 0.0 0.0 0.0 0.0 0.0 0.0 0.0 0.0 0.0 0.0 0.0 0.0 0.0 0.0 0.0 0.0 0.0 0.0 0.0 0.0 0.0 0.0 0.0 0.0 0.0 0.0 0.0 0.0 0.0 0.0 0.0 0.0 0.0 0.0 0.0 0.0 0.0 0.0 0.0 0.0 0.0 0.0 0.0 0.0 0.0 0.0 0.0 0.0 0.0 0.0 0.0 0.0 0.0 0.0 0.0 0.0 0.0 0.0 0.0 0.0 0.0 0.0 0.0 0.0 0.0 0.0 0.0 0.0 0.0 0.0 0.0 0.0 0.0 0.0 0.0 0.0 0.0 0.0 0.0 0.0 0.0 0.0 0.0 0.0 0.0 0.0 0.0 0.0 0.0 0.0 0.0 0.0 0.0 0.0 0.0 0.0 0.0 0.0 0.0 0.0 0.0 0.0 0.0 0.0 0.0 0.0 0.0 0.0 0.0 0.0 0.0 0.0 0.0 0.0 0.0 0.0 0.0 0.0 0.0 0.0 0.0 0.0 0.0 0.0 0.0 0.0 0.0 0.0 0.0 0.0 0.0 0.0 0.0 0.0 0.0 0.0 0.0 0.0 0.0 0.0 0.0 0.0 0.0 0.0 0.0 0.0 0.0 0.0 0.0 0.0 0.0 0.0 0.0 0.0 0.0 0.0 0.0 0.0 0.0 0.0 0.0 0.0 0.0 0.0 0.0 0.0 0.0 0.0 0.0 0.0 0.0 0.0 0.0 0.0 0.0 0.0 0.0 0.0 0.0 0.0 0.0 0.0 0.0 0.0 0.0 0.0 0.0 0.0 0.0 0.0  1.1431166E+004  3.6934981E+003  2.2778720E+003  1.2930371E+003  7.9430276E+002  5.5073839E+002  1.4701725E+002  5.4832391E+002  9.0783595E+001 0.0 0.0 0.0 0.0 0.0 0.0 0.0 0.0 0.0 0.0 0.0 0.0 0.0 0.0 0.0 0.0 0.0 0.0 0.0 0.0 0.0 0.0 0.0 0.0 0.0 0.0 0.0 0.0 0.0 0.0 0.0 0.0 0.0 0.0 0.0 0.0 0.0 0.0 0.0 0.0 0.0 0.0 0.0 0.0 0.0 0.0 0.0 0.0 0.0  9.1584259E+002  2.9395254E+002 -3.2262156E+001 -4.2655551E-001 -1.3895301E+001  2.8226250E+001  4.4607728E+000  4.3752483E+000  1.5089444E-001  1.1662203E+000 -1.0339303E+000  2.3902176E-001  8.9956106E+000 -1.8501851E+001  1.5679730E+001  1.0537564E+001 -2.6658499E+001  3.4663774E+000 -2.2978004E+001  8.3936754E+000  3.7869561E+001  5.6590838E+000  1.9567472E+001  1.8743371E+001 -1.1116442E+001  8.3205020E+000 -8.4548461E+000  1.1311023E+001  2.8783921E+001  2.2492173E+001  2.1272417E+001  1.7658728E+001 -1.0270226E+001  8.9330602E+000 -2.5578722E+000  9.5897050E+000 -8.1455859E+000  1.1881893E+001  3.5767831E+001  1.9445113E+001 -1.0686607E+001  4.3004099E+000 -2.0516975E+000  1.0077584E+001 -7.4864212E+000  1.1364740E+001  3.6440165E+001  1.9560746E+001 -1.3677394E+001  1.9716030E+000  3.7378356E+001  1.9630164E+001 -1.0243275E+001  2.9098768E+000 -6.0066837E+000  1.1111866E+001  3.7008389E+001  2.0621717E+001 -1.0255505E+001  2.2416774E+000 -5.2648599E+000  1.1076519E+001  3.7469334E+001  2.1463209E+001 -9.5222129E+000  4.9333645E+000 -5.7568641E+000  1.1489875E+001  4.3046202E+001  2.1047173E+001 -1.0602074E+001  4.8216049E+000 -5.9988905E+000  1.0638026E+001  4.3887753E+001  2.1825726E+001 -1.0429453E+001  4.2690822E+000 -5.3438379E+000  1.0148248E+001  4.4922199E+001  2.4480180E+001 -1.1487026E+001  3.4082222E+000 -4.9184801E+000  1.0050488E+001  4.6643531E+001  2.5435387E+001 -7.4177660E+000  8.3071185E-002  6.8913749E+001 -6.8072599E+000 -5.2836450E+000  6.3563070E+001  6.9665072E+000 -3.3166118E+001 -9.9811345E+000  4.5305152E+001  9.3369378E+001 0.0 0.0 0.0 0.0 0.0 0.0 0.0 0.0 0.0 0.0 0.0 0.0 0.0 0.0 0.0 0.0 0.0 0.0 0.0 0.0 0.0 0.0 0.0 0.0 0.0 0.0 0.0 0.0 0.0 0.0 0.0 0.0 0.0 0.0 0.0 0.0 0.0 0.0 0.0 0.0 0.0 0.0 0.0 0.0 0.0 0.0 0.0 0.0 0.0 0.0 0.0 0.0 0.0 0.0 0.0 0.0 0.0 0.0 0.0 0.0 0.0 0.0 0.0 0.0 0.0 0.0 0.0 0.0 0.0 0.0 0.0 0.0 0.0 0.0 0.0 0.0 0.0 0.0 0.0 0.0 0.0 0.0 0.0 0.0 0.0 0.0 0.0 0.0 0.0 0.0 0.0 0.0 0.0 0.0 0.0 0.0 0.0 0.0 0.0 0.0 0.0 0.0 0.0 0.0 0.0 0.0 0.0 0.0 0.0 0.0 0.0 0.0 0.0 0.0 0.0 0.0 0.0 0.0 0.0 0.0 0.0 0.0 0.0 0.0 0.0 0.0 0.0 0.0 0.0 0.0 0.0 0.0 0.0 0.0 0.0 0.0 0.0 0.0 0.0 0.0 0.0 0.0 0.0 0.0 0.0 0.0 0.0 0.0 0.0 0.0 0.0 0.0 0.0 0.0 0.0 0.0 0.0 0.0 0.0 0.0 0.0 0.0 0.0 0.0 0.0 0.0 0.0 0.0 0.0 0.0 0.0 0.0 0.0 0.0 0.0 0.0 0.0 0.0 0.0 0.0 0.0 0.0 0.0 0.0 0.0 0.0 0.0 0.0 0.0 0.0 0.0 0.0 0.0 0.0 0.0 0.0 0.0 0.0 0.0 0.0 0.0 0.0 0.0 0.0 0.0 0.0 0.0 0.0 0.0 0.0 0.0 0.0 0.0 0.0 0.0 0.0 0.0 0.0 0.0 0.0 0.0 0.0 0.0 0.0 0.0 0.0 0.0 0.0 0.0 0.0 0.0 0.0 0.0 0.0 0.0 0.0 0.0 0.0 0.0 0.0 0.0 0.0 0.0 0.0 0.0 0.0 0.0 0.0 0.0 0.0 0.0 0.0 0.0 0.0 0.0 0.0 0.0 0.0 0.0 0.0 0.0 0.0 0.0 0.0 0.0 0.0 0.0 0.0 0.0 0.0 0.0 0.0 0.0 0.0 0.0 0.0 0.0 0.0 0.0 0.0 0.0 0.0 0.0 0.0 0.0 0.0 0.0 0.0 0.0 0.0 0.0 0.0 0.0 0.0 0.0 0.0 0.0 0.0 0.0 0.0 0.0 0.0 0.0 0.0 0.0 0.0 0.0 0.0 0.0 0.0 0.0 0.0 0.0 0.0 0.0 0.0 0.0 0.0 0.0 0.0 0.0 0.0 0.0 0.0 0.0 0.0 0.0 0.0 0.0 0.0 0.0 0.0 0.0 0.0 0.0 0.0 0.0 0.0 0.0 0.0 0.0 0.0 0.0 0.0 0.0 0.0 0.0 0.0 0.0 0.0 0.0 0.0 0.0 0.0 0.0 0.0 0.0 0.0 0.0 0.0 0.0 0.0 0.0 0.0 0.0 0.0 0.0 0.0 0.0 0.0 0.0 0.0 0.0 0.0 0.0 0.0 0.0 0.0 0.0 0.0 0.0 0.0 0.0 0.0 0.0 0.0 0.0 0.0 0.0 0.0 0.0 0.0 0.0 0.0 0.0 0.0 0.0 0.0 0.0 0.0 0.0 0.0 0.0 0.0 0.0 0.0 0.0 0.0 0.0 0.0 0.0 0.0 0.0 0.0 0.0 0.0 0.0 0.0 0.0 0.0 0.0 0.0 0.0 0.0 0.0 0.0 0.0 0.0 0.0 0.0 0.0 0.0 0.0 0.0 0.0 0.0 0.0 0.0 0.0 0.0 0.0 0.0 0.0 0.0 0.0 0.0 0.0 0.0 0.0 0.0 0.0 0.0 0.0 0.0 0.0 0.0 0.0 0.0 0.0 0.0 0.0 0.0 0.0 0.0 0.0 0.0 0.0 0.0 0.0 0.0 0.0 0.0 0.0 0.0 0.0 0.0 0.0 0.0 0.0 0.0 0.0 0.0 0.0 0.0 0.0 0.0 0.0 0.0 0.0 0.0 0.0 0.0 0.0 0.0 0.0 0.0 0.0 0.0 0.0 0.0 0.0 0.0 0.0 0.0 0.0 0.0 0.0 0.0 0.0 0.0 0.0 0.0 0.0 0.0 0.0 0.0 0.0 0.0 0.0 0.0 0.0 0.0 0.0 0.0 0.0 0.0 0.0 0.0 0.0 0.0 0.0 0.0 0.0 0.0 0.0 0.0 0.0 0.0 0.0 0.0 0.0 0.0 0.0 0.0 0.0 0.0 0.0 0.0 0.0 0.0 0.0 0.0 0.0 0.0 0.0 0.0 0.0 0.0 0.0 0.0 0.0 0.0 0.0 0.0 0.0 0.0 0.0 0.0 0.0 0.0 0.0 0.0 0.0 0.0 0.0 0.0 0.0 0.0 0.0 0.0 0.0 0.0 0.0 0.0 0.0 0.0 0.0 0.0 0.0 0.0 0.0 0.0 0.0 0.0 0.0 0.0 0.0 0.0 0.0 0.0 0.0 0.0 0.0 0.0 0.0 0.0 0.0 0.0 0.0 0.0 0.0 0.0 0.0 0.0 0.0 0.0 0.0 0.0 0.0 0.0 0.0 0.0 0.0 0.0 0.0 0.0 0.0 0.0 0.0 0.0 0.0 0.0 0.0 0.0 0.0 0.0 0.0 0.0 0.0 0.0 0.0 0.0 0.0 0.0 0.0 0.0 0.0 0.0 0.0 0.0 0.0 0.0 0.0 0.0 0.0 0.0 0.0 0.0 0.0 0.0 0.0 0.0 0.0 0.0 0.0 0.0 0.0 0.0 0.0 0.0 0.0 0.0 0.0 0.0 0.0 0.0 0.0 0.0 0.0 0.0 0.0 0.0 0.0 0.0 0.0 0.0 0.0 0.0 0.0 0.0 0.0 0.0 0.0 0.0 0.0 0.0 0.0 0.0 0.0 0.0 0.0 0.0 0.0 0.0 0.0 0.0 0.0 0.0 0.0 0.0 0.0 0.0 0.0 0.0 0.0 0.0 0.0 0.0 0.0 0.0 0.0 0.0 0.0 0.0 0.0 0.0 0.0 0.0 0.0 0.0 0.0 0.0 0.0 0.0 0.0 0.0 0.0 0.0 0.0 0.0 0.0 0.0 0.0 0.0 0.0 0.0 0.0 0.0 0.0 0.0 0.0 0.0 0.0 0.0 0.0 0.0 0.0 0.0 0.0 0.0 0.0 0.0 0.0 0.0 0.0 0.0 0.0 0.0 0.0 0.0 0.0 0.0 0.0 0.0 0.0 0.0 0.0 0.0 0.0 0.0 0.0 0.0 0.0 0.0 0.0 0.0 0.0 0.0 0.0 0.0 0.0 0.0 0.0 0.0 0.0 0.0 0.0 0.0 0.0 0.0 0.0 0.0 0.0 0.0 0.0 0.0 0.0 0.0 0.0 0.0 0.0 0.0 0.0 0.0 0.0 0.0 0.0 0.0 0.0 0.0 0.0 0.0 0.0 0.0 0.0 0.0 0.0 0.0 0.0 0.0 0.0 0.0 0.0 0.0 0.0 0.0 0.0 0.0 0.0 0.0 0.0 0.0 0.0 0.0 0.0 0.0 0.0 0.0 0.0 0.0 0.0 0.0 0.0 0.0 0.0 0.0 0.0 0.0 0.0 0.0 0.0 0.0 0.0 0.0 0.0 0.0 0.0 0.0 0.0 0.0 0.0 0.0 0.0 0.0 0.0 0.0 0.0 0.0 0.0 0.0 0.0 0.0 0.0 0.0 0.0 0.0 0.0 0.0 0.0 0.0 0.0 0.0 0.0 0.0 0.0 0.0 0.0 0.0 0.0 0.0 0.0 0.0 0.0 0.0 0.0 0.0 0.0 0.0 0.0 0.0 0.0 0.0 0.0 0.0 0.0 0.0 0.0 0.0 0.0 0.0 0.0 0.0 0.0 0.0 0.0 0.0 0.0 0.0 0.0 0.0 0.0 0.0 0.0 0.0 0.0 0.0 0.0 0.0 0.0 0.0 0.0 0.0 0.0 0.0 0.0 0.0 0.0 0.0 0.0 0.0 0.0 0.0 0.0 0.0 0.0 0.0 0.0 0.0 0.0 0.0 0.0 0.0 0.0 0.0 0.0 0.0 0.0 0.0 0.0 0.0 0.0 0.0 0.0 0.0 0.0 0.0 0.0 0.0 0.0 0.0 0.0 0.0 0.0 0.0 0.0 0.0 0.0 0.0 0.0 0.0 0.0 0.0 0.0 0.0 0.0 0.0 0.0 0.0 0.0 0.0 0.0 0.0 0.0 0.0 0.0 0.0 0.0 0.0 0.0 0.0 0.0 0.0 0.0 0.0 0.0 0.0 0.0 0.0 0.0 0.0 0.0 0.0 0.0 0.0 0.0 0.0 0.0 0.0 0.0 0.0 0.0 0.0 0.0 0.0 0.0 0.0 0.0 0.0 0.0 0.0 0.0 0.0 0.0 0.0 0.0 0.0 0.0 0.0 0.0 0.0 0.0 0.0 0.0 0.0 0.0 0.0 0.0 0.0 0.0 0.0 0.0 0.0 0.0 0.0 0.0 0.0 0.0 0.0 0.0 0.0 0.0 0.0 0.0 0.0 0.0 0.0 0.0 0.0 0.0 0.0 0.0 0.0 0.0 0.0 0.0 0.0 0.0 0.0 0.0 0.0 0.0 0.0 0.0 0.0 0.0 0.0 0.0 0.0 0.0 0.0 0.0 0.0 0.0 0.0 0.0 0.0 0.0 0.0 0.0 0.0 0.0 0.0 0.0 0.0 0.0 0.0 0.0 0.0 0.0 0.0 0.0 0.0 0.0 0.0 0.0 0.0 0.0 0.0 0.0 0.0 0.0 0.0 0.0 0.0 0.0 0.0 0.0 0.0 0.0 0.0 0.0 0.0 0.0 0.0 0.0 0.0 0.0 0.0 0.0 0.0 0.0 0.0 0.0 0.0 0.0 0.0 0.0 0.0 0.0 0.0 0.0 0.0 0.0 0.0 0.0 0.0 0.0 0.0 0.0 0.0 0.0 0.0 0.0 0.0 0.0 0.0 0.0 0.0 0.0 0.0 0.0 0.0 0.0 0.0 0.0 0.0 0.0 0.0 0.0 0.0 0.0 0.0 0.0 0.0 0.0 0.0 0.0 0.0 0.0 0.0 0.0 0.0 0.0 0.0 0.0 0.0 0.0 0.0 0.0 0.0 0.0 0.0 0.0 0.0 0.0 0.0 0.0 0.0 0.0 0.0 0.0 0.0 0.0 0.0 0.0 0.0 0.0 0.0 0.0 0.0 0.0 0.0 0.0 0.0 0.0 0.0 0.0 0.0 0.0 0.0 0.0 0.0 0.0 0.0 0.0 0.0 0.0 0.0 0.0 0.0 0.0 0.0 0.0 0.0 0.0 0.0 0.0 0.0 0.0 0.0 0.0 0.0 0.0 0.0 0.0 0.0 0.0 0.0 0.0 0.0 0.0 0.0 0.0 0.0 0.0 0.0 0.0 0.0 0.0 0.0 0.0 0.0 0.0 0.0 0.0 0.0 0.0 0.0 0.0 0.0 0.0 0.0 0.0 0.0 0.0 0.0 0.0 0.0 0.0 0.0 0.0 0.0 0.0 0.0 0.0 0.0 0.0 0.0 0.0 0.0 0.0 0.0 0.0 0.0 0.0 0.0 0.0 0.0 0.0 0.0 0.0 0.0 0.0 0.0 0.0 0.0 0.0 0.0 0.0 0.0 0.0 0.0 0.0 0.0 0.0 0.0 0.0 0.0 0.0 0.0 0.0 0.0 0.0 0.0 0.0 0.0 0.0 0.0 0.0 0.0 0.0 0.0 0.0 0.0 0.0 0.0 0.0 0.0 0.0 0.0 0.0 0.0 0.0 0.0 0.0 0.0 0.0 0.0 0.0 0.0 0.0 0.0 0.0 0.0 0.0 0.0 0.0 0.0 0.0 0.0 0.0 0.0 0.0 0.0 0.0 0.0 0.0 0.0 0.0 0.0 0.0 0.0 0.0 0.0 0.0 0.0 0.0 0.0 0.0 0.0 0.0 0.0 0.0 0.0 0.0 0.0 0.0 0.0 0.0 0.0 0.0 0.0 0.0 0.0 0.0 0.0 0.0 0.0 0.0 0.0 0.0 0.0 0.0 0.0 0.0 0.0 0.0 0.0 0.0 0.0 0.0 0.0 0.0 0.0 -1.1631811E+003 -1.0251828E+003 -1.7388106E+003 -6.0447083E+002 -1.5338707E+003  5.9895303E+002 -9.0113669E+002 -3.8001668E+002  1.9381407E+003  7.2039060E+001 -2.2220517E+001  1.4818813E+002  1.4623219E+002 -2.8946359E+001  9.5855357E+001  3.7632348E+001 -1.3654743E+001  8.3582874E+001  3.3100115E+001 -1.3586965E+001  8.1252441E+001  3.2298958E+001 -1.7026690E+001  7.9815128E+001  1.6485027E+001 -2.5358738E+001  7.4578986E+001  2.3708326E+001 -8.6372707E+002 -3.3599404E+001 -3.0432721E+000 -3.7388618E+001  9.2055934E+001  8.3135142E+001  2.5512424E+001 -3.5141017E+001  9.7641613E+001  1.0558559E+002  7.9046731E+001 -1.8537200E+002 -3.1853241E+001  8.9397370E+001  7.0497691E+001 -2.1389141E+002 -1.3561480E+001  5.4648749E+002  2.0698967E+003  6.6486886E+002  6.8290977E+002  5.4957128E+002 -6.5784441E+001  6.7435950E+001 -5.4992550E+001 -8.4240890E+001  6.6715512E+001 -6.6360647E+001 -7.6189146E+001  6.6640789E+001 -6.9527512E+001 -7.9443265E+001  6.5908428E+001 -7.7185007E+001 -7.4472253E+001  6.3907152E+001 -8.6076989E+001 -5.7899027E+001  5.7224878E+001 -8.8625163E+001 -5.8549553E+001  4.4773480E+001 -4.5071260E+001  7.5644935E+001 -8.1063394E+001 -1.0025119E+002 -8.3929419E+001  5.4213752E+001 -8.4145569E+001 -8.6096191E+001 -1.0885220E+002 -6.4416257E+001 -1.0093265E+002 -5.4818359E+001 -1.1778617E+002 -7.8655394E+001 -3.6856571E+001  1.4350686E+002  1.2516290E+003  2.4530062E+002 -1.5406596E+000 -1.0917905E+002 -1.3305526E+003 -3.8156814E+001 -1.5303716E+001 -2.9227399E+002 -1.2146963E+003 -5.1213946E+002 -1.6366336E+003 -1.9776832E+003 -2.7693763E+003 -2.4151241E+003 -3.4126667E+003 -3.4556952E+003 -3.5548352E+003 -3.6360739E+003 -3.1261289E+003 -2.9352593E+003 -2.9792196E+003 -3.0516798E+003 -2.3803794E+003 -2.2683849E+003 -1.1163968E+003 -2.6900953E+003 -1.7268087E+003 -1.8461316E+003  4.6065545E+002 -2.7721023E+003 -1.2257333E+003 -6.3142554E+002 -9.3096264E+002 -1.2700914E+003 -9.6049382E+002 -4.8218708E+001  2.5304953E+002  2.2705539E+002 -1.7986034E+000  2.3967681E+001  3.6179533E+002  8.6869528E+002  1.6081967E+003  1.2517193E+003  2.3914906E+003  2.0675925E+003  2.2230243E+002  1.7022687E+002  9.7021658E+000 -2.8067372E+002  2.6144115E+002  1.7001377E+002 -7.9817810E+000 -2.8113689E+002  2.0574914E+002  1.5879213E+002 -2.7113033E+000 -2.7626665E+002  1.2923053E+002  8.6991839E+001  9.6061262E+000  6.9336754E+001 -4.8083852E+001 -1.3376190E+001  1.7725282E+002  1.2574370E+002  1.9550643E+002  1.4405565E+002 -1.9222963E+001 -2.8748504E+002  1.4988406E+002  1.3749575E+001  2.1446092E+002  1.6602900E+002  9.8153858E+000 -2.8225559E+002  2.1389824E+002  1.4449167E+002 -1.0804617E+001 -2.8949495E+002 -2.2661781E+002  1.3078105E+002 -3.4995921E+001  2.0360952E+002  1.4358113E+002 -3.8174260E+001 -2.8439436E+002  1.9410421E+002 -4.4917361E+000 -2.3434183E+002  1.2186607E+001  8.4071943E+001  4.2124902E+001  1.2928509E+000  1.6509321E+002  1.0472135E+002 -2.5300002E+002  1.9568496E+002 -4.5561043E+000  1.9666482E+002  1.8511180E+000  9.6841996E+002  1.6562224E+002 -2.5669229E+001  2.1596852E+002  7.2945356E+001  2.1044234E+002  6.2601916E+001 -2.3517419E+002 -2.8094872E+002  2.1487367E+002  4.0348323E-001  5.9459228E+002  9.8910661E+002 -1.5215630E+002 -2.2509250E+002  1.0354569E+003 -2.8644274E+002 -2.9333888E+002 -6.5661664E+001  2.0956435E+002  3.6715066E+000  1.7250282E+002  1.7868145E+002 -6.1989235E+000  4.1659264E+000 -2.9332677E+002  2.0339791E+002 -4.1480208E+000  1.7041613E+003 -7.0634885E+001  9.6361326E+001  6.4790553E+001  5.0366953E+002 -8.2511560E+001  1.4226856E+002 -8.4157199E+001  7.6439273E+000 -7.1576042E+001  9.5819670E+001 -1.5199991E+002 -5.7085654E+001 -1.3826733E+002 -4.1799665E+001 -8.2015472E+001  2.1949925E+000 -1.1181967E+002  3.6138290E+001 -6.5354985E+001 -2.2090856E+002 -7.2032021E+001 -1.4703676E+002 -5.0893394E+001 -1.4637220E+002 -6.3047666E+001 -6.8648352E+001  9.6221400E+001 -5.9968920E+001  1.8062288E+002 -1.0677468E+002 -2.0739227E+002 -8.2799711E+001  1.3612980E+002 -6.5532109E+001  9.8393698E+001 -9.0776522E+001 -6.5427566E+001 -1.2610015E+002  4.7156527E+000 -1.4177348E+002 -5.6016805E+001 -1.4325846E+002 -4.3488402E+001 -7.5749765E+001  1.5000173E+002  9.0868612E+002  1.3750548E+003 -8.8834481E+001 -2.7324597E+001 -1.3324045E+002 -2.2574948E+002 -4.0162210E-001 -1.3246733E+002 -1.3905771E+003 -3.6576860E+002 -1.6591821E+003  4.3430780E+000  1.0774294E+001  4.9216347E+000  1.5357142E+001  2.4697064E+001  5.6052716E+001 -1.1687695E+001  2.7853668E+001  2.2067397E+002  8.0122892E+000  2.8911151E+001  2.1913316E+003  1.3232548E-001  1.4169384E+003 -4.3271090E+001  1.7392041E+001 -1.8281374E+003 -3.4032328E+003 -2.3045759E+003 -8.3310574E+001 -1.0848473E+003 -1.8168449E+003 -1.0090715E+002  6.8280415E+002 -2.3210164E+003  8.5053676E+001 -7.2711170E+001  1.9527118E+003 -2.5154692E+003 -4.4600163E+002 -3.3667407E+003  3.8438592E+003 -1.4331423E+003  2.5452252E+002 -2.6866597E+002  3.6877884E+002 -8.9088299E+001  2.7139064E+003 -5.6574411E+001 -3.0549526E+002  2.6549833E+003  5.0073263E+001 -7.5381475E+000 -1.8110477E+001 -1.0426694E+001 -8.4517717E+001 -2.2280791E+001 -1.9254026E+001  8.3094400E+001  1.5566545E+003 -7.6335935E+001  2.2341851E+002 -8.4144051E+001  7.3008746E+002 -8.5699532E+001 -7.4354148E+001  9.2696442E+001 -1.0203070E+002 -8.4881928E+001  1.0455542E+002 -3.1123365E+002 -2.6814048E+002 -8.8622185E+001  1.1568299E+002 -7.1033306E+001 -4.5352188E+001  1.0936713E+002 -4.1928866E+001 -2.7792568E+002  1.2229566E+002 -2.1427607E+002 -3.1432172E+001 -5.9894213E+001  1.3287338E+002 -1.1488108E+001  4.7537534E+001 -5.4446919E+001  3.3258066E+001 -2.0098845E+002 -4.7595241E+001 -5.1408393E+001 -9.5230075E+001  2.8195617E+001 -2.0199672E+002 -6.0637019E+001  4.7809449E+001 -1.8975666E+002  6.4729716E+001 -4.4270997E+001 -2.3082198E+002  9.3026262E+001 -2.3573774E+002 -4.9849551E+001  1.1860464E+002 -2.1825045E+002 -4.5302776E+001  1.2975812E+002 -1.9359343E+002 -2.8001855E+002 -1.5454898E+001  3.3984642E+001 -1.6862100E+003 -1.8855407E+003  2.3104534E+003 -1.6773353E+002 -8.1090183E+002  1.7287482E+004 -1.3189716E+002  1.5820992E+003 -3.8565344E+002 -3.6090618E+002 -3.7862114E+002 -3.9613258E+002 -3.4838975E+002 -3.5843221E+002 -3.5517271E+002 -7.1634570E+002 -7.8498272E+002  8.6261215E+002 -3.3669909E+003 -1.5721589E+002  8.2666604E+002 -2.2173582E+003 -2.8134139E+003 -2.0176026E+003  7.4937478E+002 -2.2663261E+002 -3.0350750E+001  7.2385340E+002  2.2526323E+003 -2.1408762E+003  7.3797278E+002  7.2422800E+002  6.8591383E+002  6.8349762E+002 -5.3392458E+001 -2.0950615E+003  6.6550989E+002 0.0 0.0 0.0 0.0 0.0 0.0 0.0 0.0 0.0 0.0 0.0 0.0 0.0 0.0 0.0 0.0 0.0 0.0 0.0 0.0 0.0 0.0 0.0 0.0 0.0 0.0 0.0 0.0 0.0 0.0 0.0 0.0 0.0 0.0 0.0 0.0 0.0 0.0 0.0 0.0 0.0 0.0 0.0 0.0 0.0 0.0 0.0 0.0 0.0 0.0 0.0 0.0 0.0 0.0 0.0 0.0 0.0 0.0 0.0 0.0 0.0 0.0 0.0 0.0 0.0 0.0 0.0 0.0 0.0 0.0 0.0 0.0 0.0 0.0 0.0 0.0 0.0 0.0 0.0 0.0 0.0 0.0 0.0 0.0 0.0 0.0 0.0 0.0 0.0 0.0 0.0 0.0 0.0 0.0 0.0 0.0 0.0 0.0 0.0 0.0 0.0 0.0 0.0 0.0 0.0 0.0 0.0 0.0 0.0 0.0 0.0 0.0 0.0 0.0 0.0 0.0 0.0 0.0 0.0 0.0 0.0 0.0 0.0 0.0 0.0 0.0 0.0 0.0 0.0 0.0 0.0 0.0 0.0 0.0 0.0 0.0 0.0 0.0 0.0 0.0 0.0 0.0 0.0 0.0 0.0 0.0 0.0 0.0 0.0 0.0 0.0 0.0 0.0 0.0 0.0 0.0 0.0 0.0 0.0 0.0 0.0 0.0 0.0 0.0 0.0 0.0 0.0 0.0 0.0 0.0 0.0 0.0 0.0 0.0 0.0 0.0 0.0 0.0 0.0 0.0 0.0 0.0 0.0 0.0 0.0 0.0 0.0 0.0 0.0 0.0 0.0 0.0 0.0 0.0 0.0 0.0 0.0 0.0 0.0 0.0 0.0 0.0 0.0 0.0 0.0 0.0 0.0 0.0 0.0 0.0 0.0 0.0 0.0 0.0 0.0 0.0 0.0 0.0 0.0 0.0 0.0 0.0 0.0 0.0 0.0 0.0 0.0 0.0 0.0 0.0 0.0 0.0 0.0 0.0 0.0 0.0 0.0 0.0 0.0 0.0 0.0 0.0 0.0 0.0 0.0 0.0 0.0 0.0 0.0 0.0 0.0 0.0 0.0 0.0 0.0 0.0 0.0 0.0 0.0 0.0 0.0 0.0 0.0 0.0 0.0 0.0 0.0 0.0 0.0 0.0 0.0 0.0 0.0 0.0 0.0 0.0 0.0 0.0 0.0 0.0 0.0 0.0 0.0 0.0 0.0 0.0 0.0 0.0 0.0 0.0 0.0 0.0 0.0 0.0 0.0 0.0 0.0 0.0 0.0 0.0 0.0 0.0 0.0 0.0 0.0 0.0 0.0 0.0 0.0 0.0 0.0 0.0 0.0 0.0 0.0 0.0 0.0 0.0 0.0 0.0 0.0 0.0 0.0 0.0 0.0 0.0 0.0 0.0 0.0 0.0 0.0 0.0 0.0 0.0 0.0 0.0 0.0 0.0 0.0 0.0 0.0 0.0 0.0 0.0 0.0 0.0 0.0 0.0 0.0 0.0 0.0 0.0 0.0 0.0 0.0 0.0 0.0 0.0 0.0 0.0 0.0 0.0 0.0 0.0 0.0 0.0 0.0 0.0 0.0 0.0 0.0 0.0 0.0 0.0 0.0 0.0 0.0 0.0 0.0 0.0 0.0 0.0 0.0 0.0 0.0 0.0 0.0 0.0 0.0 0.0 0.0 0.0 0.0 0.0 0.0 0.0 0.0 0.0 0.0 0.0 0.0 0.0 0.0 0.0 0.0 0.0 0.0 0.0 0.0 0.0 0.0 0.0 0.0 0.0 0.0 0.0 0.0 0.0 0.0 0.0 0.0 0.0 0.0 0.0 0.0 0.0 0.0 0.0 0.0 0.0 0.0 0.0 0.0 0.0 0.0 0.0 0.0 0.0 0.0 0.0 0.0 0.0 0.0 0.0 0.0 0.0 0.0 0.0 0.0 0.0 0.0 0.0 0.0 0.0 0.0 0.0 0.0 0.0 0.0 0.0 0.0 0.0 0.0 0.0 0.0 0.0 0.0 0.0 0.0 0.0 0.0 0.0 0.0 0.0 0.0 0.0 0.0 0.0 0.0 0.0 0.0 0.0 0.0 0.0 0.0 0.0 0.0 0.0 0.0 0.0 0.0 0.0 0.0 0.0 0.0 0.0 0.0 0.0 0.0 0.0 0.0 0.0 0.0 0.0 0.0 0.0 0.0 0.0 0.0 0.0 0.0 0.0 0.0 0.0 0.0 0.0 0.0 0.0 0.0 0.0 0.0 0.0 0.0 0.0 0.0 0.0 0.0 0.0 0.0 0.0 0.0 0.0 0.0 0.0 0.0 0.0 0.0 0.0 0.0 0.0 0.0 0.0 0.0 0.0 0.0 0.0 0.0 0.0 0.0 0.0 0.0 0.0 0.0 0.0 0.0 0.0 0.0 0.0 0.0 0.0 0.0 0.0 0.0 0.0 0.0 0.0 0.0 0.0 0.0 0.0 0.0 0.0 0.0 0.0 0.0 0.0 0.0 0.0 0.0 0.0 0.0 0.0 0.0 0.0 0.0 0.0 0.0 0.0 0.0 0.0 0.0 0.0 0.0 0.0 0.0 0.0 0.0 0.0 0.0 0.0 0.0 0.0 0.0 0.0 0.0 0.0 0.0 0.0 0.0 0.0 0.0 0.0 0.0 0.0 0.0 0.0 0.0 0.0 0.0 0.0 0.0 0.0 0.0 0.0 0.0 0.0 0.0 0.0 0.0 0.0 0.0 0.0 0.0 0.0 0.0 0.0 0.0 0.0 0.0 0.0 0.0 0.0 0.0 0.0 0.0 0.0 0.0 0.0 0.0 0.0 0.0 0.0 0.0 0.0 0.0 0.0 0.0 0.0 0.0 0.0 0.0 0.0 0.0 0.0 0.0 0.0 0.0 0.0 0.0 0.0 0.0 0.0 0.0 0.0 0.0 0.0 0.0 0.0 0.0 0.0 0.0 0.0 0.0 0.0 0.0 0.0 0.0 0.0 0.0 0.0 0.0 0.0 0.0 0.0 0.0 0.0 0.0 0.0 0.0 0.0 0.0 0.0 0.0 0.0 0.0 0.0 0.0 0.0 0.0 0.0 0.0 0.0 0.0 0.0 0.0 0.0 0.0 0.0 0.0 0.0 0.0 0.0 0.0 0.0 0.0 0.0 0.0 0.0 0.0 0.0 0.0 0.0 0.0 0.0 0.0 0.0 0.0 0.0 0.0 0.0 0.0 0.0 0.0 0.0 0.0 0.0 0.0 0.0 0.0 0.0 0.0 0.0 0.0 0.0 0.0 0.0 0.0 0.0 0.0 0.0 0.0 0.0 0.0 0.0 0.0 0.0 0.0 0.0 0.0 0.0 0.0 0.0 0.0 0.0 0.0 0.0 0.0 0.0 0.0 0.0 0.0 0.0 0.0 0.0 0.0 0.0 0.0 0.0 0.0 0.0 0.0 0.0 0.0 0.0 0.0 0.0 0.0 0.0 0.0 0.0 0.0 0.0 0.0 0.0 0.0 0.0 0.0 0.0 0.0 0.0 0.0 0.0 0.0 0.0 0.0 0.0 0.0 0.0 0.0 0.0 0.0 0.0 0.0 0.0 0.0 0.0 0.0 0.0 0.0 0.0 0.0 0.0 0.0 0.0 0.0 0.0 0.0 0.0 0.0 0.0 0.0 0.0 0.0 0.0 0.0 0.0 0.0 0.0 0.0 0.0 0.0 0.0 0.0 0.0 0.0 0.0 0.0 0.0 0.0 0.0 0.0 0.0 0.0 0.0 0.0 0.0 0.0 0.0 0.0 0.0 0.0 0.0 0.0 0.0 0.0 0.0 0.0 0.0 0.0 0.0 0.0 0.0 0.0 0.0 0.0 0.0 0.0 0.0 0.0 0.0 0.0 0.0 0.0 0.0 0.0 0.0 0.0 0.0 0.0 0.0 0.0 0.0 0.0 0.0 0.0 0.0 0.0 0.0 0.0 0.0 0.0 0.0 0.0 0.0 0.0 0.0 0.0 0.0 0.0 0.0 0.0 0.0 0.0 0.0 0.0 0.0 0.0 0.0 0.0 0.0 0.0 0.0 0.0 0.0 0.0 0.0 0.0 0.0 0.0 0.0 0.0 0.0 0.0 0.0 0.0 0.0 0.0 0.0 0.0 0.0 0.0 0.0 0.0 0.0 0.0 0.0 0.0 0.0 0.0 0.0 0.0 0.0 0.0 0.0 0.0 0.0 0.0 0.0 0.0 0.0 0.0 0.0 0.0 0.0 0.0 0.0 0.0 0.0 0.0 0.0 0.0 0.0 0.0 0.0 0.0 0.0 0.0 0.0 0.0 0.0 0.0 0.0 0.0 0.0 0.0 0.0 0.0 0.0 0.0 0.0 0.0 0.0 0.0 0.0 0.0 0.0 0.0 0.0 0.0 0.0 0.0 0.0 0.0 0.0 0.0 0.0 0.0 0.0 0.0 0.0 0.0 0.0 0.0 0.0 0.0 0.0 0.0 0.0 0.0 0.0 0.0 0.0 0.0 0.0 0.0 0.0 0.0 0.0 0.0 0.0 0.0 0.0 0.0 0.0 0.0 0.0 0.0 0.0 0.0 0.0 0.0 0.0 0.0 0.0 0.0 0.0 0.0 0.0 0.0 0.0 0.0 0.0 0.0 0.0 0.0 0.0 0.0 0.0 0.0 0.0 0.0 0.0 0.0 0.0 0.0 0.0 0.0 0.0 0.0 0.0 0.0 0.0 0.0 0.0 0.0 0.0 0.0 0.0 0.0 0.0 0.0 0.0 0.0 0.0 0.0 0.0 0.0 0.0 0.0 0.0 0.0 0.0 0.0 0.0 0.0 0.0 0.0 0.0 0.0 0.0 0.0 0.0 0.0 0.0 0.0 0.0 0.0 0.0 0.0 0.0 0.0 0.0 0.0 0.0 0.0 0.0 0.0 0.0 0.0 0.0 0.0 0.0 0.0 0.0 0.0 0.0 0.0 0.0 0.0 0.0 0.0 0.0 0.0 0.0 0.0 0.0 0.0 0.0 0.0 0.0 0.0 0.0 0.0 0.0 0.0 0.0 0.0 0.0 0.0 0.0 0.0 0.0
        </DataArray>
        <DataArray type="Float64" Name="stress_yz" NumberOfComponents="1" format="ascii">
 0.0 0.0 0.0 0.0 0.0 0.0 0.0 0.0 0.0 0.0 0.0 0.0 0.0 0.0 0.0 0.0 0.0 0.0 0.0 0.0 0.0 0.0 0.0 0.0 0.0 0.0 0.0 0.0 0.0 0.0 0.0 0.0 0.0 0.0 0.0 0.0 0.0 0.0 0.0 0.0 0.0 0.0 0.0 0.0 0.0 0.0 0.0 0.0 0.0 0.0 0.0 0.0 0.0 0.0 0.0 0.0 0.0 0.0 0.0 0.0 0.0 0.0 0.0 0.0 0.0 0.0 0.0 0.0 0.0 0.0 0.0 0.0 0.0 0.0 0.0 0.0 0.0 0.0 0.0 0.0 0.0 0.0 0.0 0.0 0.0 0.0 0.0 0.0 0.0 0.0 0.0 0.0 0.0 0.0 0.0 0.0 0.0 0.0 0.0 0.0 0.0 0.0 0.0 0.0 0.0 0.0 0.0 0.0 0.0 0.0 0.0 0.0 0.0 0.0 0.0 0.0 0.0 0.0 0.0 0.0 0.0 0.0 0.0 0.0 0.0 0.0 0.0 0.0 0.0 0.0 0.0 0.0 0.0 0.0 0.0 0.0 0.0 0.0 0.0 0.0 0.0 0.0 0.0 0.0 0.0 0.0 0.0 0.0 0.0 0.0 0.0 0.0 0.0 0.0 0.0 0.0 0.0 0.0 0.0 0.0 0.0 0.0 0.0 0.0 0.0 0.0 0.0 0.0 0.0 0.0 0.0 0.0 0.0 0.0 0.0 0.0 0.0 0.0 0.0 0.0 0.0 0.0 0.0 0.0 0.0 0.0 0.0 0.0 0.0 0.0 0.0 0.0 0.0 0.0 0.0 0.0 0.0 0.0 0.0 0.0 0.0 0.0 0.0 0.0 0.0 0.0 0.0 0.0 0.0 0.0 0.0 0.0 0.0 0.0 0.0 0.0 0.0 0.0 0.0 0.0 0.0 0.0 0.0 0.0 0.0 0.0 0.0 0.0 0.0 0.0 0.0 0.0 0.0 0.0 0.0 0.0 0.0 0.0 0.0 0.0 0.0 0.0 0.0 0.0 0.0 0.0 0.0 0.0 0.0 0.0 0.0 0.0 0.0 0.0 0.0 0.0 0.0 0.0 0.0 0.0 0.0 0.0 0.0 0.0 0.0 0.0 0.0 0.0 0.0 0.0 0.0 0.0 0.0 0.0 0.0 0.0 0.0 0.0 0.0 0.0 0.0 0.0 0.0 0.0 0.0 0.0 0.0 0.0 0.0 0.0 0.0 0.0 0.0 0.0 0.0 0.0 0.0 0.0 0.0 0.0 0.0 0.0 0.0 0.0 0.0 0.0 0.0 0.0 0.0 0.0 0.0 0.0 0.0 0.0 0.0 0.0 0.0 0.0 0.0 0.0 0.0 0.0 0.0 0.0 0.0 0.0 0.0 0.0 0.0 0.0 0.0 0.0 0.0 0.0 0.0 0.0 0.0 0.0 0.0 0.0 0.0 0.0 0.0 0.0 0.0 0.0 0.0 0.0 0.0 0.0 0.0 0.0 0.0 0.0 0.0 0.0 0.0 0.0 0.0 0.0 0.0 0.0 0.0 0.0 0.0 0.0 0.0 0.0 0.0 0.0 0.0 0.0 0.0 0.0 0.0 0.0 0.0 0.0 0.0 0.0 0.0 0.0 0.0 0.0 0.0 0.0 0.0 0.0 0.0 0.0 0.0 0.0 0.0 0.0 0.0 0.0 0.0 0.0 0.0 0.0 0.0 0.0 0.0 0.0 0.0 0.0 0.0 0.0 0.0 0.0 0.0 0.0 0.0 0.0 0.0 0.0 0.0 0.0 0.0 0.0 0.0 0.0 0.0 0.0 0.0 0.0 0.0 0.0 0.0 0.0 0.0 0.0 0.0 0.0 0.0 0.0 0.0 0.0 0.0 0.0 0.0 0.0 0.0 0.0 0.0 0.0 0.0 0.0 0.0 0.0 0.0 0.0 0.0 0.0 0.0 0.0 0.0 0.0 0.0 0.0 0.0 0.0 0.0 0.0 0.0 0.0 0.0 0.0 0.0 0.0 0.0 0.0 0.0 0.0 0.0 0.0 0.0 0.0 0.0 0.0 0.0 0.0 0.0 0.0 0.0 0.0 0.0 0.0 0.0 0.0 0.0 0.0 0.0 0.0 0.0 0.0 0.0 0.0 0.0 0.0 0.0 0.0 0.0 0.0 0.0 0.0 0.0 0.0 0.0 0.0 0.0 0.0 0.0 0.0 0.0 0.0 0.0 0.0 0.0 0.0 0.0 0.0 0.0 0.0 0.0 0.0 0.0 0.0 0.0 0.0 0.0 0.0 0.0 0.0 0.0 0.0 0.0 0.0 0.0 0.0 0.0 0.0 0.0 0.0 0.0 0.0 0.0 0.0 0.0 0.0 0.0 0.0 0.0 0.0 0.0 0.0 0.0 0.0 0.0 0.0 0.0 0.0 0.0 0.0 0.0 0.0 0.0 0.0 0.0 0.0 0.0 0.0 0.0 0.0 0.0 0.0 0.0 0.0 0.0 0.0 0.0 0.0 0.0 0.0 0.0 0.0 0.0 0.0 0.0 0.0 0.0 0.0 0.0 0.0 0.0 0.0 0.0 0.0 0.0 0.0 0.0 0.0 0.0 0.0 0.0 0.0 0.0 0.0 0.0 0.0 0.0 0.0 0.0 0.0 0.0 0.0 0.0 0.0 0.0 0.0 0.0 0.0 0.0 0.0 0.0 0.0 0.0 0.0 0.0 0.0 0.0 0.0 0.0 0.0 0.0 0.0 0.0 0.0 0.0 0.0 0.0 0.0 0.0 0.0 0.0 0.0 0.0 0.0 0.0 0.0 0.0 0.0 0.0 0.0 0.0 0.0 0.0 0.0 0.0 0.0 0.0 0.0 0.0 0.0 0.0 0.0 0.0 0.0 0.0 0.0 0.0 0.0 0.0 0.0 0.0 0.0 0.0 0.0 0.0 0.0 0.0 0.0 0.0 0.0 0.0 0.0 0.0 0.0 0.0 0.0 0.0 0.0 0.0 0.0 0.0 0.0 0.0 0.0 0.0 0.0 0.0 0.0 0.0 0.0 0.0 0.0 0.0 0.0 0.0 0.0 0.0 0.0 0.0 0.0 0.0 0.0 0.0 0.0 0.0 0.0 0.0 0.0 0.0 0.0 0.0 0.0 0.0 0.0 0.0 0.0 0.0 0.0 0.0 0.0 0.0 0.0 0.0 0.0 0.0 0.0 0.0 0.0 0.0 0.0 0.0 0.0 0.0 0.0 0.0 0.0 0.0 0.0 0.0 0.0 0.0 0.0 0.0 0.0 0.0 0.0 0.0 0.0 0.0 0.0 0.0 0.0 0.0 0.0 0.0 0.0 0.0 0.0 0.0 0.0 0.0 0.0 0.0 0.0 0.0 0.0 0.0 0.0 0.0 0.0 0.0 0.0 0.0 0.0 0.0 0.0 0.0 0.0 0.0 0.0 0.0 0.0 0.0 0.0 0.0 0.0 0.0 0.0 0.0 0.0 0.0 0.0 0.0 0.0 0.0 0.0 0.0 0.0 0.0 0.0 0.0 0.0 0.0 0.0 0.0 0.0 0.0 0.0 0.0 0.0 0.0 0.0 0.0 0.0 0.0 0.0 0.0 0.0 0.0 0.0 0.0 0.0 0.0 0.0 0.0 0.0 0.0 0.0 0.0 0.0 0.0 0.0 0.0 0.0 0.0 0.0 0.0 0.0 0.0 0.0 0.0 0.0 0.0 0.0 0.0 0.0 0.0 0.0 0.0 0.0 0.0 0.0 0.0 0.0 0.0 0.0 0.0 0.0 0.0 0.0 0.0 0.0 0.0 0.0 0.0 0.0 0.0 0.0 0.0 0.0 0.0 0.0 0.0 0.0 0.0 0.0 0.0 0.0 0.0 0.0 0.0 0.0 0.0 0.0 0.0 0.0 0.0 0.0 0.0 0.0 0.0 0.0 0.0 0.0 0.0 0.0 0.0 0.0 0.0 0.0 0.0 0.0 0.0 0.0 0.0 0.0 0.0 0.0 0.0 0.0 0.0 0.0 0.0 0.0 0.0 0.0 0.0 0.0 0.0 0.0 0.0 0.0 0.0 0.0 0.0 0.0 0.0 0.0 0.0 0.0 0.0 0.0 0.0 0.0 0.0 0.0 0.0 0.0 0.0 0.0 0.0 0.0 0.0 0.0 0.0 0.0 0.0 0.0 0.0 0.0 0.0 0.0 0.0 0.0 0.0 0.0 0.0 0.0 0.0 0.0 0.0 0.0 0.0 0.0 0.0 0.0 0.0 0.0 0.0 0.0 0.0 0.0 0.0 0.0 0.0 0.0 0.0 0.0 0.0 0.0 0.0 0.0 0.0 0.0 0.0 0.0 0.0 0.0 0.0 0.0 0.0 0.0 0.0 0.0 0.0 0.0 0.0 0.0 0.0 0.0 0.0 0.0 0.0 0.0 0.0 0.0 0.0 0.0 0.0 0.0 0.0 0.0 0.0 0.0 0.0 0.0 0.0 0.0 0.0 0.0 0.0 0.0 0.0 0.0 0.0 0.0 0.0 0.0 0.0 0.0 0.0 0.0 0.0 0.0 0.0 0.0 0.0 0.0 0.0 0.0 0.0 0.0 0.0 0.0 0.0 0.0 0.0 0.0 0.0 0.0 0.0 0.0 0.0 0.0 0.0 0.0 0.0 0.0 0.0 0.0 0.0 0.0 0.0 0.0 0.0 0.0 0.0 0.0 0.0 0.0 0.0 0.0 0.0 0.0 0.0 0.0 0.0 0.0 0.0 0.0 0.0 0.0 0.0 0.0 0.0 0.0 0.0 0.0 0.0 0.0 0.0 0.0 0.0 0.0 0.0 0.0 0.0 0.0 0.0 0.0 0.0 0.0 0.0 0.0 0.0 0.0 0.0 0.0 0.0 0.0 0.0 0.0 0.0 0.0 0.0 0.0 0.0 0.0 0.0 0.0 0.0 0.0 0.0 0.0 0.0 0.0 0.0 0.0 0.0 0.0 0.0 0.0 0.0 0.0 0.0 0.0 0.0 0.0 0.0 0.0 0.0 0.0 0.0 0.0 0.0 0.0 0.0 0.0 0.0 0.0 0.0 0.0 0.0 0.0 0.0 0.0 0.0 0.0 0.0 0.0 0.0 0.0 0.0 0.0 0.0 0.0 0.0 0.0 0.0 0.0 0.0 0.0 0.0 0.0 0.0 0.0 0.0 0.0 0.0 0.0 0.0 0.0 0.0 0.0 0.0 0.0 0.0 0.0 0.0 0.0 0.0 0.0 0.0 0.0 0.0 0.0 0.0 0.0 0.0 0.0 0.0 0.0 0.0 0.0 0.0 0.0 0.0 0.0 0.0 0.0 0.0 0.0 0.0 0.0 0.0 0.0 0.0 0.0 0.0 0.0 0.0 0.0 0.0 0.0 0.0 0.0 0.0 0.0 0.0 0.0 0.0 0.0 0.0 0.0 0.0 0.0 0.0 0.0 0.0 0.0 0.0 0.0 0.0 0.0 0.0 0.0 0.0 0.0 0.0 0.0 0.0 0.0 0.0 0.0 0.0 0.0 0.0 0.0 0.0 0.0 0.0 0.0 0.0 0.0 0.0 0.0 0.0 0.0 0.0 0.0 0.0 0.0 0.0 0.0 0.0 0.0 0.0 0.0 0.0 0.0 0.0 0.0 0.0 0.0 0.0 0.0 0.0 0.0 0.0 0.0 0.0 0.0 0.0 0.0 0.0 0.0 0.0 0.0 0.0 0.0 0.0 0.0 0.0 0.0 0.0 0.0 0.0 0.0 0.0 0.0 0.0 0.0 0.0 0.0 0.0 0.0 0.0 0.0 0.0 0.0 0.0 0.0 0.0 0.0 0.0 0.0 0.0 0.0 0.0 0.0 0.0 0.0 0.0 0.0 0.0 0.0 0.0 0.0 0.0 0.0 0.0 0.0 0.0 0.0 0.0 0.0 0.0 0.0 0.0 0.0 0.0 0.0 0.0 0.0 0.0 0.0 0.0 0.0 0.0 0.0 0.0 0.0 0.0 0.0 0.0 0.0 0.0 0.0 0.0 0.0 0.0 0.0 0.0 0.0 0.0 0.0 0.0 0.0 0.0 0.0 0.0 0.0 0.0 0.0 0.0 0.0 0.0 0.0 0.0 0.0 0.0 0.0 0.0 0.0 0.0 0.0 0.0 0.0 0.0 0.0 0.0 0.0 0.0 0.0 0.0 0.0 0.0 0.0 0.0 0.0 0.0 0.0 0.0 0.0 0.0 0.0 0.0 0.0 0.0 0.0 0.0 0.0 0.0 0.0 0.0 0.0 0.0 0.0 0.0 0.0 0.0 0.0 0.0 0.0 0.0 0.0 0.0 0.0 0.0 0.0 0.0 0.0 0.0 0.0 0.0 0.0 0.0 0.0 0.0 0.0 0.0 0.0 0.0 0.0 0.0 0.0 0.0 0.0 0.0 0.0 0.0 0.0 0.0 0.0 0.0 0.0 0.0 0.0 0.0 0.0 0.0 0.0 0.0 0.0 0.0 0.0 0.0 0.0 0.0 0.0 0.0 0.0 0.0 0.0 0.0 0.0 0.0 0.0 0.0 0.0 0.0 0.0 0.0 0.0 0.0 0.0 0.0 0.0 0.0 0.0 0.0 0.0 0.0 0.0 0.0 0.0 0.0 0.0 0.0 0.0 0.0 0.0 0.0 0.0 0.0 0.0 0.0 0.0 0.0 0.0 0.0 0.0 0.0 0.0 0.0 0.0 0.0 0.0 0.0 0.0 0.0 0.0 0.0 0.0 0.0 0.0 0.0 0.0 0.0 0.0 0.0 0.0 0.0 0.0 0.0 0.0 0.0 0.0 0.0 0.0 0.0 0.0 0.0 0.0 0.0 0.0 0.0 0.0 0.0 0.0 0.0 0.0 0.0 0.0 0.0 0.0 0.0 0.0 0.0 0.0 0.0 0.0 0.0 0.0 0.0 0.0 0.0 0.0 0.0 0.0 0.0 0.0 0.0 0.0 0.0 0.0 0.0 0.0 0.0 0.0 0.0 0.0 0.0 0.0 0.0 0.0 0.0 0.0 0.0 0.0 0.0 0.0 0.0 0.0 0.0 0.0 0.0 0.0 0.0 0.0 0.0 0.0 0.0 0.0 0.0 0.0 0.0 0.0 0.0 0.0 0.0 0.0 0.0 0.0 0.0 0.0 0.0 0.0 0.0 0.0 0.0 0.0 0.0 0.0 0.0 0.0 0.0 0.0 0.0 0.0 0.0 0.0 0.0 0.0 0.0 0.0 0.0 0.0 0.0 0.0 0.0 0.0 0.0 0.0 0.0 0.0 0.0 0.0 0.0 0.0 0.0 0.0 0.0 0.0 0.0 0.0 0.0 0.0 0.0 0.0 0.0 0.0 0.0 0.0 0.0 0.0 0.0 0.0 0.0 0.0 0.0 0.0 0.0 0.0 0.0 0.0 0.0 0.0 0.0 0.0 0.0 0.0 0.0 0.0 0.0 0.0 0.0 0.0 0.0 0.0 0.0 0.0 0.0 0.0 0.0 0.0 0.0 0.0 0.0 0.0 0.0 0.0 0.0 0.0 0.0 0.0 0.0 0.0 0.0 0.0 0.0 0.0 0.0 0.0 0.0 0.0 0.0 0.0 0.0 0.0 0.0 0.0 0.0 0.0 0.0 0.0 0.0 0.0 0.0 0.0 0.0 0.0 0.0 0.0 0.0 0.0 0.0 0.0 0.0 0.0 0.0 0.0 0.0 0.0 0.0 0.0 0.0 0.0 0.0 0.0 0.0 0.0 0.0 0.0 0.0 0.0 0.0 0.0 0.0 0.0 0.0 0.0 0.0 0.0 0.0 0.0 0.0 0.0 0.0 0.0 0.0 0.0 0.0 0.0 0.0 0.0 0.0 0.0 0.0 0.0 0.0 0.0 0.0 0.0 0.0 0.0 0.0 0.0 0.0 0.0 0.0 0.0 0.0 0.0 0.0 0.0 0.0 0.0 0.0 0.0 0.0 0.0 0.0 0.0 0.0 0.0 0.0 0.0 0.0 0.0 0.0 0.0 0.0 0.0 0.0 0.0 0.0 0.0 0.0 0.0 0.0 0.0 0.0 0.0 0.0 0.0 0.0 0.0 0.0 0.0 0.0 0.0 0.0 0.0 0.0 0.0 0.0 0.0 0.0 0.0 0.0 0.0 0.0 0.0 0.0 0.0 0.0 0.0 0.0 0.0 0.0 0.0 0.0 0.0 0.0 0.0 0.0 0.0 0.0 0.0 0.0 0.0 0.0 0.0 0.0 0.0 0.0 0.0 0.0 0.0 0.0 0.0 0.0 0.0 0.0 0.0 0.0 0.0 0.0 0.0 0.0 0.0 0.0 0.0 0.0 0.0 0.0 0.0 0.0 0.0 0.0 0.0 0.0 0.0 0.0 0.0 0.0 0.0 0.0 0.0 0.0 0.0 0.0 0.0 0.0 0.0 0.0 0.0 0.0 0.0 0.0 0.0 0.0 0.0 0.0 0.0 0.0 0.0 0.0 0.0 0.0 0.0 0.0 0.0 0.0 0.0 0.0 0.0 0.0 0.0 0.0 0.0 0.0 0.0 0.0 0.0 0.0 0.0 0.0 0.0 0.0 0.0 0.0 0.0 0.0 0.0 0.0 0.0 0.0 0.0 0.0 0.0 0.0 0.0 0.0 0.0 0.0 0.0 0.0 0.0 0.0 0.0 0.0 0.0 0.0 0.0 0.0 0.0 0.0 0.0 0.0 0.0 0.0 0.0 0.0 0.0 0.0 0.0 0.0 0.0 0.0 0.0 0.0 0.0 0.0 0.0 0.0 0.0 0.0 0.0 0.0 0.0 0.0 0.0 0.0 0.0 0.0 0.0 0.0 0.0 0.0 0.0 0.0 0.0 0.0 0.0 0.0 0.0 0.0 0.0 0.0 0.0 0.0 0.0 0.0 0.0 0.0 0.0 0.0 0.0 0.0 0.0 0.0 0.0 0.0 0.0 0.0 0.0 0.0 0.0 0.0 0.0 0.0 0.0 0.0 0.0 0.0 0.0 0.0 0.0 0.0 0.0 0.0 0.0 0.0 0.0 0.0 0.0 0.0 0.0 0.0 0.0 0.0 0.0 0.0 0.0 0.0 0.0 0.0 0.0 0.0 0.0 0.0 0.0 0.0 0.0 0.0 0.0 0.0 0.0 0.0 0.0 0.0 0.0 0.0 0.0 0.0 0.0 0.0 0.0 0.0 0.0 0.0 0.0 0.0 0.0 0.0 0.0 0.0 0.0 0.0 0.0 0.0 0.0 0.0 0.0 0.0 0.0 0.0 0.0 0.0 0.0 0.0 0.0 0.0 0.0 0.0 0.0 0.0 0.0 0.0 0.0 0.0 0.0 0.0 0.0 0.0 0.0 0.0 0.0 0.0 0.0 0.0 0.0 0.0 0.0 0.0 0.0 0.0 0.0 0.0 0.0 0.0 0.0 0.0 0.0 0.0 0.0 0.0 0.0 0.0 0.0 0.0 0.0 0.0 0.0 0.0 0.0 0.0 0.0 0.0 0.0 0.0 0.0 0.0 0.0 0.0 0.0 0.0 0.0 0.0 0.0 0.0 0.0 0.0 0.0 0.0 0.0 0.0 0.0 0.0 0.0 0.0 0.0 0.0 0.0 0.0 0.0 0.0 0.0 0.0 0.0 0.0 0.0 0.0 0.0 0.0 0.0 0.0 0.0 0.0 0.0 0.0 0.0 0.0 0.0 0.0 0.0 0.0 0.0 0.0 0.0 0.0 0.0 0.0 0.0 0.0 0.0 0.0 0.0 0.0 0.0 0.0 0.0 0.0 0.0 0.0 0.0 0.0 0.0 0.0 0.0 0.0 0.0 0.0 0.0 0.0 0.0 0.0 0.0 0.0 0.0 0.0 0.0 0.0 0.0 0.0 0.0 0.0 0.0 0.0 0.0 0.0 0.0 0.0 0.0 0.0 0.0 0.0 0.0 0.0 0.0 0.0 0.0 0.0 0.0 0.0 0.0 0.0 0.0 0.0 0.0 0.0 0.0 0.0 0.0 0.0 0.0 0.0 0.0 0.0 0.0 0.0 0.0 0.0 0.0 0.0 0.0 0.0 0.0 0.0 0.0 0.0 0.0 0.0 0.0 0.0 0.0 0.0 0.0 0.0 0.0 0.0 0.0 0.0 0.0 0.0 0.0 0.0 0.0 0.0 0.0 0.0 0.0 0.0 0.0 0.0 0.0 0.0 0.0 0.0 0.0 0.0 0.0 0.0 0.0 0.0 0.0 0.0 0.0 0.0 0.0 0.0 0.0 0.0 0.0 0.0 0.0 0.0 0.0 0.0 0.0 0.0 0.0 0.0 0.0 0.0 0.0 0.0 0.0 0.0 0.0 0.0 0.0 0.0 0.0 0.0 0.0 0.0 0.0 0.0 0.0 0.0 0.0 0.0 0.0 0.0 0.0 0.0 0.0 0.0 0.0 0.0 0.0 0.0 0.0 0.0 0.0 0.0 0.0 0.0 0.0 0.0 0.0 0.0 0.0 0.0 0.0 0.0 0.0 0.0 0.0 0.0 0.0 0.0 0.0 0.0 0.0 0.0 0.0 0.0 0.0 0.0 0.0 0.0 0.0 0.0 0.0 0.0 0.0 0.0 0.0 0.0 0.0 0.0 0.0 0.0 0.0 0.0 0.0 0.0 0.0 0.0 0.0 0.0 0.0 0.0 0.0 0.0 0.0 0.0 0.0 0.0 0.0 0.0 0.0 0.0 0.0 0.0 0.0 0.0 0.0 0.0 0.0 0.0 0.0 0.0 0.0 0.0 0.0 0.0 0.0 0.0 0.0 0.0 0.0 0.0 0.0 0.0 0.0 0.0 0.0 0.0 0.0 0.0 0.0 0.0 0.0 0.0 0.0 0.0 0.0 0.0 0.0 0.0 0.0 0.0 0.0 0.0 0.0 0.0 0.0 0.0 0.0 0.0 0.0 0.0 0.0 0.0 0.0 0.0 0.0 0.0 0.0 0.0 0.0 0.0 0.0 0.0 0.0 0.0 0.0 0.0 0.0 0.0 0.0 0.0 0.0 0.0 0.0 0.0 0.0 0.0 0.0 0.0 0.0 0.0 0.0 0.0 0.0 0.0 0.0 0.0 0.0 0.0 0.0 0.0 0.0 0.0 0.0 0.0 0.0 0.0 0.0 0.0 0.0 0.0 0.0 0.0 0.0 0.0 0.0 0.0 0.0 0.0 0.0 0.0 0.0 0.0 0.0 0.0 0.0 0.0 0.0 0.0 0.0 0.0 0.0 0.0 0.0 0.0 0.0 0.0 0.0 0.0 0.0 0.0 0.0 0.0 0.0 0.0 0.0 0.0 0.0 0.0 0.0 0.0 0.0 0.0 0.0 0.0 0.0 0.0 0.0 0.0 0.0 0.0 0.0 0.0 0.0 0.0 0.0 0.0 0.0 0.0 0.0 0.0 0.0 0.0 0.0 0.0 0.0 0.0 0.0 0.0 0.0 0.0 0.0 0.0 0.0 0.0 0.0 0.0 0.0 0.0 0.0 0.0 0.0 0.0 0.0 0.0 0.0 0.0 0.0 0.0 0.0 0.0 0.0 0.0 0.0 0.0 0.0 0.0 0.0 0.0 0.0 0.0 0.0 0.0 0.0 0.0 0.0 0.0 0.0 0.0 0.0 0.0 0.0 0.0 0.0 0.0 0.0 0.0 0.0 0.0 0.0 0.0 0.0 0.0 0.0 0.0 0.0 0.0 0.0 0.0 0.0 0.0 0.0 0.0 0.0 0.0 0.0 0.0 0.0 0.0 0.0 0.0 0.0 0.0 0.0 0.0 0.0 0.0 0.0 0.0 0.0 0.0 0.0 0.0 0.0 0.0 0.0 0.0 0.0 0.0 0.0 0.0 0.0 0.0 0.0 0.0 0.0 0.0 0.0 0.0 0.0 0.0 0.0 0.0 0.0 0.0 0.0 0.0 0.0 0.0 0.0 0.0 0.0 0.0 0.0 0.0 0.0 0.0 0.0 0.0 0.0 0.0 0.0 0.0 0.0 0.0 0.0 0.0 0.0 0.0 0.0 0.0 0.0 0.0 0.0 0.0 0.0 0.0 0.0 0.0 0.0 0.0 0.0 0.0 0.0 0.0 0.0 0.0 0.0 0.0 0.0 0.0 0.0 0.0 0.0 0.0 0.0 0.0 0.0 0.0 0.0 0.0 0.0 0.0 0.0 0.0 0.0 0.0 0.0 0.0 0.0 0.0 0.0 0.0 0.0 0.0 0.0 0.0 0.0 0.0 0.0 0.0 0.0 0.0 0.0 0.0 0.0 0.0 0.0 0.0 0.0 0.0 0.0 0.0 0.0 0.0 0.0 0.0 0.0 0.0 0.0 0.0 0.0 0.0 0.0 0.0 0.0 0.0 0.0 0.0 0.0 0.0 0.0 0.0 0.0 0.0 0.0 0.0 0.0 0.0 0.0 0.0 0.0 0.0 0.0 0.0 0.0 0.0 0.0 0.0 0.0 0.0 0.0 0.0 0.0 0.0 0.0 0.0 0.0 0.0 0.0 0.0 0.0 0.0 0.0 0.0 0.0 0.0 0.0 0.0 0.0 0.0 0.0 0.0 0.0 0.0 0.0 0.0 0.0 0.0 0.0 0.0 0.0 0.0 0.0 0.0 0.0 0.0 0.0 0.0 0.0 0.0 0.0 0.0 0.0 0.0 0.0 0.0 0.0 0.0 0.0 0.0 0.0 0.0 0.0 0.0 0.0 0.0 0.0 0.0 0.0 0.0 0.0 0.0 0.0 0.0 0.0 0.0 0.0 0.0 0.0 0.0 0.0 0.0 0.0 0.0 0.0 0.0 0.0 0.0 0.0 0.0 0.0 0.0 0.0 0.0 0.0 0.0 0.0 0.0 0.0 0.0 0.0 0.0 0.0 0.0 0.0 0.0 0.0 0.0 0.0 0.0 0.0 0.0 0.0 0.0 0.0 0.0 0.0 0.0 0.0 0.0 0.0 0.0 0.0 0.0 0.0 0.0 0.0 0.0 0.0 0.0 0.0 0.0 0.0 0.0 0.0 0.0 0.0 0.0 0.0 0.0 0.0 0.0 0.0 0.0 0.0 0.0 0.0 0.0 0.0 0.0 0.0 0.0 0.0 0.0 0.0 0.0 0.0 0.0 0.0 0.0 0.0 0.0 0.0 0.0 0.0 0.0 0.0 0.0 0.0 0.0 0.0 0.0 0.0 0.0 0.0 0.0 0.0 0.0 0.0 0.0 0.0 0.0 0.0 0.0 0.0 0.0 0.0 0.0 0.0 0.0 0.0 0.0 0.0 0.0 0.0 0.0 0.0 0.0 0.0 0.0 0.0 0.0 0.0 0.0 0.0 0.0 0.0 0.0 0.0 0.0 0.0 0.0 0.0 0.0 0.0 0.0 0.0 0.0 0.0 0.0 0.0 0.0 0.0 0.0 0.0 0.0 0.0 0.0 0.0 0.0 0.0 0.0 0.0 0.0 0.0 0.0 0.0 0.0 0.0 0.0 0.0 0.0 0.0 0.0 0.0 0.0 0.0 0.0 0.0 0.0 0.0 0.0 0.0 0.0 0.0 0.0 0.0 0.0 0.0 0.0 0.0 0.0 0.0 0.0 0.0 0.0 0.0 0.0 0.0 0.0 0.0 0.0 0.0 0.0 0.0 0.0 0.0 0.0 0.0 0.0 0.0 0.0 0.0 0.0 0.0 0.0 0.0 0.0 0.0 0.0 0.0 0.0 0.0 0.0 0.0 0.0 0.0 0.0 0.0 0.0 0.0 0.0 0.0 0.0 0.0 0.0 0.0 0.0 0.0 0.0 0.0 0.0 0.0 0.0 0.0 0.0 0.0 0.0 0.0 0.0 0.0 0.0 0.0 0.0 0.0 0.0 0.0 0.0 0.0 0.0 0.0 0.0 0.0 0.0 0.0 0.0 0.0 0.0 0.0 0.0 0.0 0.0 0.0 0.0 0.0 0.0 0.0 0.0 0.0 0.0 0.0 0.0 0.0 0.0 0.0 0.0 0.0 0.0 0.0 0.0 0.0 0.0 0.0 0.0 0.0 0.0 0.0 0.0 0.0 0.0 0.0 0.0 0.0 0.0 0.0 0.0 0.0 0.0 0.0 0.0 0.0 0.0 0.0 0.0 0.0 0.0 0.0 0.0 0.0 0.0 0.0 0.0 0.0 0.0 0.0 0.0 0.0 0.0 0.0 0.0 0.0 0.0 0.0 0.0 0.0 0.0 0.0 0.0 0.0 0.0 0.0 0.0 0.0 0.0 0.0 0.0 0.0 0.0 0.0 0.0 0.0 0.0 0.0 0.0 0.0 0.0 0.0 0.0 0.0 0.0 0.0 0.0 0.0 0.0 0.0 0.0 0.0 0.0 0.0 0.0 0.0 0.0 0.0 0.0 0.0 0.0 0.0 0.0 0.0 0.0 0.0 0.0 0.0 0.0 0.0 0.0 0.0 0.0 0.0 0.0 0.0 0.0 0.0 0.0 0.0 0.0 0.0 0.0 0.0 0.0 0.0 0.0 0.0 0.0 0.0 0.0 0.0 0.0 0.0 0.0 0.0 0.0 0.0 0.0 0.0 0.0 0.0 0.0 0.0 0.0 0.0 0.0 0.0 0.0 0.0 0.0 0.0 0.0 0.0 0.0 0.0 0.0 0.0 0.0 0.0 0.0 0.0 0.0 0.0 0.0 0.0 0.0 0.0 0.0 0.0 0.0 0.0 0.0 0.0 0.0 0.0 0.0 0.0 0.0 0.0 0.0 0.0 0.0 0.0 0.0 0.0 0.0 0.0 0.0 0.0 0.0 0.0 0.0 0.0 0.0 0.0 0.0 0.0 0.0 0.0 0.0 0.0 0.0 0.0 0.0 0.0 0.0 0.0 0.0 0.0 0.0 0.0 0.0 0.0 0.0 0.0 0.0 0.0 0.0 0.0 0.0 0.0 0.0 0.0 0.0 0.0 0.0 0.0 0.0 0.0 0.0 0.0 0.0 0.0 0.0 0.0 0.0 0.0 0.0 0.0 0.0 0.0 0.0 0.0 0.0 0.0 0.0 0.0 0.0 0.0 0.0 0.0 0.0 0.0 0.0 0.0 0.0 0.0 0.0 0.0 0.0 0.0 0.0 0.0 0.0 0.0 0.0 0.0 0.0 0.0 0.0 0.0 0.0 0.0 0.0 0.0 0.0 0.0 0.0 0.0 0.0 0.0 0.0 0.0 0.0 0.0 0.0 0.0 0.0 0.0 0.0 0.0 0.0 0.0 0.0 0.0 0.0 0.0 0.0 0.0 0.0 0.0 0.0 0.0 0.0 0.0 0.0 0.0 0.0 0.0 0.0 0.0 0.0 0.0 0.0 0.0 0.0 0.0 0.0 0.0 0.0 0.0 0.0 0.0 0.0 0.0 0.0 0.0 0.0 0.0 0.0 0.0 0.0 0.0 0.0 0.0 0.0 0.0 0.0 0.0 0.0 0.0 0.0 0.0 0.0 0.0 0.0 0.0 0.0 0.0 0.0 0.0 0.0 0.0 0.0 0.0 0.0 0.0 0.0 0.0 0.0 0.0 0.0
        </DataArray>
        <DataArray type="Float64" Name="stress_xz" NumberOfComponents="1" format="ascii">
 0.0 0.0 0.0 0.0 0.0 0.0 0.0 0.0 0.0 0.0 0.0 0.0 0.0 0.0 0.0 0.0 0.0 0.0 0.0 0.0 0.0 0.0 0.0 0.0 0.0 0.0 0.0 0.0 0.0 0.0 0.0 0.0 0.0 0.0 0.0 0.0 0.0 0.0 0.0 0.0 0.0 0.0 0.0 0.0 0.0 0.0 0.0 0.0 0.0 0.0 0.0 0.0 0.0 0.0 0.0 0.0 0.0 0.0 0.0 0.0 0.0 0.0 0.0 0.0 0.0 0.0 0.0 0.0 0.0 0.0 0.0 0.0 0.0 0.0 0.0 0.0 0.0 0.0 0.0 0.0 0.0 0.0 0.0 0.0 0.0 0.0 0.0 0.0 0.0 0.0 0.0 0.0 0.0 0.0 0.0 0.0 0.0 0.0 0.0 0.0 0.0 0.0 0.0 0.0 0.0 0.0 0.0 0.0 0.0 0.0 0.0 0.0 0.0 0.0 0.0 0.0 0.0 0.0 0.0 0.0 0.0 0.0 0.0 0.0 0.0 0.0 0.0 0.0 0.0 0.0 0.0 0.0 0.0 0.0 0.0 0.0 0.0 0.0 0.0 0.0 0.0 0.0 0.0 0.0 0.0 0.0 0.0 0.0 0.0 0.0 0.0 0.0 0.0 0.0 0.0 0.0 0.0 0.0 0.0 0.0 0.0 0.0 0.0 0.0 0.0 0.0 0.0 0.0 0.0 0.0 0.0 0.0 0.0 0.0 0.0 0.0 0.0 0.0 0.0 0.0 0.0 0.0 0.0 0.0 0.0 0.0 0.0 0.0 0.0 0.0 0.0 0.0 0.0 0.0 0.0 0.0 0.0 0.0 0.0 0.0 0.0 0.0 0.0 0.0 0.0 0.0 0.0 0.0 0.0 0.0 0.0 0.0 0.0 0.0 0.0 0.0 0.0 0.0 0.0 0.0 0.0 0.0 0.0 0.0 0.0 0.0 0.0 0.0 0.0 0.0 0.0 0.0 0.0 0.0 0.0 0.0 0.0 0.0 0.0 0.0 0.0 0.0 0.0 0.0 0.0 0.0 0.0 0.0 0.0 0.0 0.0 0.0 0.0 0.0 0.0 0.0 0.0 0.0 0.0 0.0 0.0 0.0 0.0 0.0 0.0 0.0 0.0 0.0 0.0 0.0 0.0 0.0 0.0 0.0 0.0 0.0 0.0 0.0 0.0 0.0 0.0 0.0 0.0 0.0 0.0 0.0 0.0 0.0 0.0 0.0 0.0 0.0 0.0 0.0 0.0 0.0 0.0 0.0 0.0 0.0 0.0 0.0 0.0 0.0 0.0 0.0 0.0 0.0 0.0 0.0 0.0 0.0 0.0 0.0 0.0 0.0 0.0 0.0 0.0 0.0 0.0 0.0 0.0 0.0 0.0 0.0 0.0 0.0 0.0 0.0 0.0 0.0 0.0 0.0 0.0 0.0 0.0 0.0 0.0 0.0 0.0 0.0 0.0 0.0 0.0 0.0 0.0 0.0 0.0 0.0 0.0 0.0 0.0 0.0 0.0 0.0 0.0 0.0 0.0 0.0 0.0 0.0 0.0 0.0 0.0 0.0 0.0 0.0 0.0 0.0 0.0 0.0 0.0 0.0 0.0 0.0 0.0 0.0 0.0 0.0 0.0 0.0 0.0 0.0 0.0 0.0 0.0 0.0 0.0 0.0 0.0 0.0 0.0 0.0 0.0 0.0 0.0 0.0 0.0 0.0 0.0 0.0 0.0 0.0 0.0 0.0 0.0 0.0 0.0 0.0 0.0 0.0 0.0 0.0 0.0 0.0 0.0 0.0 0.0 0.0 0.0 0.0 0.0 0.0 0.0 0.0 0.0 0.0 0.0 0.0 0.0 0.0 0.0 0.0 0.0 0.0 0.0 0.0 0.0 0.0 0.0 0.0 0.0 0.0 0.0 0.0 0.0 0.0 0.0 0.0 0.0 0.0 0.0 0.0 0.0 0.0 0.0 0.0 0.0 0.0 0.0 0.0 0.0 0.0 0.0 0.0 0.0 0.0 0.0 0.0 0.0 0.0 0.0 0.0 0.0 0.0 0.0 0.0 0.0 0.0 0.0 0.0 0.0 0.0 0.0 0.0 0.0 0.0 0.0 0.0 0.0 0.0 0.0 0.0 0.0 0.0 0.0 0.0 0.0 0.0 0.0 0.0 0.0 0.0 0.0 0.0 0.0 0.0 0.0 0.0 0.0 0.0 0.0 0.0 0.0 0.0 0.0 0.0 0.0 0.0 0.0 0.0 0.0 0.0 0.0 0.0 0.0 0.0 0.0 0.0 0.0 0.0 0.0 0.0 0.0 0.0 0.0 0.0 0.0 0.0 0.0 0.0 0.0 0.0 0.0 0.0 0.0 0.0 0.0 0.0 0.0 0.0 0.0 0.0 0.0 0.0 0.0 0.0 0.0 0.0 0.0 0.0 0.0 0.0 0.0 0.0 0.0 0.0 0.0 0.0 0.0 0.0 0.0 0.0 0.0 0.0 0.0 0.0 0.0 0.0 0.0 0.0 0.0 0.0 0.0 0.0 0.0 0.0 0.0 0.0 0.0 0.0 0.0 0.0 0.0 0.0 0.0 0.0 0.0 0.0 0.0 0.0 0.0 0.0 0.0 0.0 0.0 0.0 0.0 0.0 0.0 0.0 0.0 0.0 0.0 0.0 0.0 0.0 0.0 0.0 0.0 0.0 0.0 0.0 0.0 0.0 0.0 0.0 0.0 0.0 0.0 0.0 0.0 0.0 0.0 0.0 0.0 0.0 0.0 0.0 0.0 0.0 0.0 0.0 0.0 0.0 0.0 0.0 0.0 0.0 0.0 0.0 0.0 0.0 0.0 0.0 0.0 0.0 0.0 0.0 0.0 0.0 0.0 0.0 0.0 0.0 0.0 0.0 0.0 0.0 0.0 0.0 0.0 0.0 0.0 0.0 0.0 0.0 0.0 0.0 0.0 0.0 0.0 0.0 0.0 0.0 0.0 0.0 0.0 0.0 0.0 0.0 0.0 0.0 0.0 0.0 0.0 0.0 0.0 0.0 0.0 0.0 0.0 0.0 0.0 0.0 0.0 0.0 0.0 0.0 0.0 0.0 0.0 0.0 0.0 0.0 0.0 0.0 0.0 0.0 0.0 0.0 0.0 0.0 0.0 0.0 0.0 0.0 0.0 0.0 0.0 0.0 0.0 0.0 0.0 0.0 0.0 0.0 0.0 0.0 0.0 0.0 0.0 0.0 0.0 0.0 0.0 0.0 0.0 0.0 0.0 0.0 0.0 0.0 0.0 0.0 0.0 0.0 0.0 0.0 0.0 0.0 0.0 0.0 0.0 0.0 0.0 0.0 0.0 0.0 0.0 0.0 0.0 0.0 0.0 0.0 0.0 0.0 0.0 0.0 0.0 0.0 0.0 0.0 0.0 0.0 0.0 0.0 0.0 0.0 0.0 0.0 0.0 0.0 0.0 0.0 0.0 0.0 0.0 0.0 0.0 0.0 0.0 0.0 0.0 0.0 0.0 0.0 0.0 0.0 0.0 0.0 0.0 0.0 0.0 0.0 0.0 0.0 0.0 0.0 0.0 0.0 0.0 0.0 0.0 0.0 0.0 0.0 0.0 0.0 0.0 0.0 0.0 0.0 0.0 0.0 0.0 0.0 0.0 0.0 0.0 0.0 0.0 0.0 0.0 0.0 0.0 0.0 0.0 0.0 0.0 0.0 0.0 0.0 0.0 0.0 0.0 0.0 0.0 0.0 0.0 0.0 0.0 0.0 0.0 0.0 0.0 0.0 0.0 0.0 0.0 0.0 0.0 0.0 0.0 0.0 0.0 0.0 0.0 0.0 0.0 0.0 0.0 0.0 0.0 0.0 0.0 0.0 0.0 0.0 0.0 0.0 0.0 0.0 0.0 0.0 0.0 0.0 0.0 0.0 0.0 0.0 0.0 0.0 0.0 0.0 0.0 0.0 0.0 0.0 0.0 0.0 0.0 0.0 0.0 0.0 0.0 0.0 0.0 0.0 0.0 0.0 0.0 0.0 0.0 0.0 0.0 0.0 0.0 0.0 0.0 0.0 0.0 0.0 0.0 0.0 0.0 0.0 0.0 0.0 0.0 0.0 0.0 0.0 0.0 0.0 0.0 0.0 0.0 0.0 0.0 0.0 0.0 0.0 0.0 0.0 0.0 0.0 0.0 0.0 0.0 0.0 0.0 0.0 0.0 0.0 0.0 0.0 0.0 0.0 0.0 0.0 0.0 0.0 0.0 0.0 0.0 0.0 0.0 0.0 0.0 0.0 0.0 0.0 0.0 0.0 0.0 0.0 0.0 0.0 0.0 0.0 0.0 0.0 0.0 0.0 0.0 0.0 0.0 0.0 0.0 0.0 0.0 0.0 0.0 0.0 0.0 0.0 0.0 0.0 0.0 0.0 0.0 0.0 0.0 0.0 0.0 0.0 0.0 0.0 0.0 0.0 0.0 0.0 0.0 0.0 0.0 0.0 0.0 0.0 0.0 0.0 0.0 0.0 0.0 0.0 0.0 0.0 0.0 0.0 0.0 0.0 0.0 0.0 0.0 0.0 0.0 0.0 0.0 0.0 0.0 0.0 0.0 0.0 0.0 0.0 0.0 0.0 0.0 0.0 0.0 0.0 0.0 0.0 0.0 0.0 0.0 0.0 0.0 0.0 0.0 0.0 0.0 0.0 0.0 0.0 0.0 0.0 0.0 0.0 0.0 0.0 0.0 0.0 0.0 0.0 0.0 0.0 0.0 0.0 0.0 0.0 0.0 0.0 0.0 0.0 0.0 0.0 0.0 0.0 0.0 0.0 0.0 0.0 0.0 0.0 0.0 0.0 0.0 0.0 0.0 0.0 0.0 0.0 0.0 0.0 0.0 0.0 0.0 0.0 0.0 0.0 0.0 0.0 0.0 0.0 0.0 0.0 0.0 0.0 0.0 0.0 0.0 0.0 0.0 0.0 0.0 0.0 0.0 0.0 0.0 0.0 0.0 0.0 0.0 0.0 0.0 0.0 0.0 0.0 0.0 0.0 0.0 0.0 0.0 0.0 0.0 0.0 0.0 0.0 0.0 0.0 0.0 0.0 0.0 0.0 0.0 0.0 0.0 0.0 0.0 0.0 0.0 0.0 0.0 0.0 0.0 0.0 0.0 0.0 0.0 0.0 0.0 0.0 0.0 0.0 0.0 0.0 0.0 0.0 0.0 0.0 0.0 0.0 0.0 0.0 0.0 0.0 0.0 0.0 0.0 0.0 0.0 0.0 0.0 0.0 0.0 0.0 0.0 0.0 0.0 0.0 0.0 0.0 0.0 0.0 0.0 0.0 0.0 0.0 0.0 0.0 0.0 0.0 0.0 0.0 0.0 0.0 0.0 0.0 0.0 0.0 0.0 0.0 0.0 0.0 0.0 0.0 0.0 0.0 0.0 0.0 0.0 0.0 0.0 0.0 0.0 0.0 0.0 0.0 0.0 0.0 0.0 0.0 0.0 0.0 0.0 0.0 0.0 0.0 0.0 0.0 0.0 0.0 0.0 0.0 0.0 0.0 0.0 0.0 0.0 0.0 0.0 0.0 0.0 0.0 0.0 0.0 0.0 0.0 0.0 0.0 0.0 0.0 0.0 0.0 0.0 0.0 0.0 0.0 0.0 0.0 0.0 0.0 0.0 0.0 0.0 0.0 0.0 0.0 0.0 0.0 0.0 0.0 0.0 0.0 0.0 0.0 0.0 0.0 0.0 0.0 0.0 0.0 0.0 0.0 0.0 0.0 0.0 0.0 0.0 0.0 0.0 0.0 0.0 0.0 0.0 0.0 0.0 0.0 0.0 0.0 0.0 0.0 0.0 0.0 0.0 0.0 0.0 0.0 0.0 0.0 0.0 0.0 0.0 0.0 0.0 0.0 0.0 0.0 0.0 0.0 0.0 0.0 0.0 0.0 0.0 0.0 0.0 0.0 0.0 0.0 0.0 0.0 0.0 0.0 0.0 0.0 0.0 0.0 0.0 0.0 0.0 0.0 0.0 0.0 0.0 0.0 0.0 0.0 0.0 0.0 0.0 0.0 0.0 0.0 0.0 0.0 0.0 0.0 0.0 0.0 0.0 0.0 0.0 0.0 0.0 0.0 0.0 0.0 0.0 0.0 0.0 0.0 0.0 0.0 0.0 0.0 0.0 0.0 0.0 0.0 0.0 0.0 0.0 0.0 0.0 0.0 0.0 0.0 0.0 0.0 0.0 0.0 0.0 0.0 0.0 0.0 0.0 0.0 0.0 0.0 0.0 0.0 0.0 0.0 0.0 0.0 0.0 0.0 0.0 0.0 0.0 0.0 0.0 0.0 0.0 0.0 0.0 0.0 0.0 0.0 0.0 0.0 0.0 0.0 0.0 0.0 0.0 0.0 0.0 0.0 0.0 0.0 0.0 0.0 0.0 0.0 0.0 0.0 0.0 0.0 0.0 0.0 0.0 0.0 0.0 0.0 0.0 0.0 0.0 0.0 0.0 0.0 0.0 0.0 0.0 0.0 0.0 0.0 0.0 0.0 0.0 0.0 0.0 0.0 0.0 0.0 0.0 0.0 0.0 0.0 0.0 0.0 0.0 0.0 0.0 0.0 0.0 0.0 0.0 0.0 0.0 0.0 0.0 0.0 0.0 0.0 0.0 0.0 0.0 0.0 0.0 0.0 0.0 0.0 0.0 0.0 0.0 0.0 0.0 0.0 0.0 0.0 0.0 0.0 0.0 0.0 0.0 0.0 0.0 0.0 0.0 0.0 0.0 0.0 0.0 0.0 0.0 0.0 0.0 0.0 0.0 0.0 0.0 0.0 0.0 0.0 0.0 0.0 0.0 0.0 0.0 0.0 0.0 0.0 0.0 0.0 0.0 0.0 0.0 0.0 0.0 0.0 0.0 0.0 0.0 0.0 0.0 0.0 0.0 0.0 0.0 0.0 0.0 0.0 0.0 0.0 0.0 0.0 0.0 0.0 0.0 0.0 0.0 0.0 0.0 0.0 0.0 0.0 0.0 0.0 0.0 0.0 0.0 0.0 0.0 0.0 0.0 0.0 0.0 0.0 0.0 0.0 0.0 0.0 0.0 0.0 0.0 0.0 0.0 0.0 0.0 0.0 0.0 0.0 0.0 0.0 0.0 0.0 0.0 0.0 0.0 0.0 0.0 0.0 0.0 0.0 0.0 0.0 0.0 0.0 0.0 0.0 0.0 0.0 0.0 0.0 0.0 0.0 0.0 0.0 0.0 0.0 0.0 0.0 0.0 0.0 0.0 0.0 0.0 0.0 0.0 0.0 0.0 0.0 0.0 0.0 0.0 0.0 0.0 0.0 0.0 0.0 0.0 0.0 0.0 0.0 0.0 0.0 0.0 0.0 0.0 0.0 0.0 0.0 0.0 0.0 0.0 0.0 0.0 0.0 0.0 0.0 0.0 0.0 0.0 0.0 0.0 0.0 0.0 0.0 0.0 0.0 0.0 0.0 0.0 0.0 0.0 0.0 0.0 0.0 0.0 0.0 0.0 0.0 0.0 0.0 0.0 0.0 0.0 0.0 0.0 0.0 0.0 0.0 0.0 0.0 0.0 0.0 0.0 0.0 0.0 0.0 0.0 0.0 0.0 0.0 0.0 0.0 0.0 0.0 0.0 0.0 0.0 0.0 0.0 0.0 0.0 0.0 0.0 0.0 0.0 0.0 0.0 0.0 0.0 0.0 0.0 0.0 0.0 0.0 0.0 0.0 0.0 0.0 0.0 0.0 0.0 0.0 0.0 0.0 0.0 0.0 0.0 0.0 0.0 0.0 0.0 0.0 0.0 0.0 0.0 0.0 0.0 0.0 0.0 0.0 0.0 0.0 0.0 0.0 0.0 0.0 0.0 0.0 0.0 0.0 0.0 0.0 0.0 0.0 0.0 0.0 0.0 0.0 0.0 0.0 0.0 0.0 0.0 0.0 0.0 0.0 0.0 0.0 0.0 0.0 0.0 0.0 0.0 0.0 0.0 0.0 0.0 0.0 0.0 0.0 0.0 0.0 0.0 0.0 0.0 0.0 0.0 0.0 0.0 0.0 0.0 0.0 0.0 0.0 0.0 0.0 0.0 0.0 0.0 0.0 0.0 0.0 0.0 0.0 0.0 0.0 0.0 0.0 0.0 0.0 0.0 0.0 0.0 0.0 0.0 0.0 0.0 0.0 0.0 0.0 0.0 0.0 0.0 0.0 0.0 0.0 0.0 0.0 0.0 0.0 0.0 0.0 0.0 0.0 0.0 0.0 0.0 0.0 0.0 0.0 0.0 0.0 0.0 0.0 0.0 0.0 0.0 0.0 0.0 0.0 0.0 0.0 0.0 0.0 0.0 0.0 0.0 0.0 0.0 0.0 0.0 0.0 0.0 0.0 0.0 0.0 0.0 0.0 0.0 0.0 0.0 0.0 0.0 0.0 0.0 0.0 0.0 0.0 0.0 0.0 0.0 0.0 0.0 0.0 0.0 0.0 0.0 0.0 0.0 0.0 0.0 0.0 0.0 0.0 0.0 0.0 0.0 0.0 0.0 0.0 0.0 0.0 0.0 0.0 0.0 0.0 0.0 0.0 0.0 0.0 0.0 0.0 0.0 0.0 0.0 0.0 0.0 0.0 0.0 0.0 0.0 0.0 0.0 0.0 0.0 0.0 0.0 0.0 0.0 0.0 0.0 0.0 0.0 0.0 0.0 0.0 0.0 0.0 0.0 0.0 0.0 0.0 0.0 0.0 0.0 0.0 0.0 0.0 0.0 0.0 0.0 0.0 0.0 0.0 0.0 0.0 0.0 0.0 0.0 0.0 0.0 0.0 0.0 0.0 0.0 0.0 0.0 0.0 0.0 0.0 0.0 0.0 0.0 0.0 0.0 0.0 0.0 0.0 0.0 0.0 0.0 0.0 0.0 0.0 0.0 0.0 0.0 0.0 0.0 0.0 0.0 0.0 0.0 0.0 0.0 0.0 0.0 0.0 0.0 0.0 0.0 0.0 0.0 0.0 0.0 0.0 0.0 0.0 0.0 0.0 0.0 0.0 0.0 0.0 0.0 0.0 0.0 0.0 0.0 0.0 0.0 0.0 0.0 0.0 0.0 0.0 0.0 0.0 0.0 0.0 0.0 0.0 0.0 0.0 0.0 0.0 0.0 0.0 0.0 0.0 0.0 0.0 0.0 0.0 0.0 0.0 0.0 0.0 0.0 0.0 0.0 0.0 0.0 0.0 0.0 0.0 0.0 0.0 0.0 0.0 0.0 0.0 0.0 0.0 0.0 0.0 0.0 0.0 0.0 0.0 0.0 0.0 0.0 0.0 0.0 0.0 0.0 0.0 0.0 0.0 0.0 0.0 0.0 0.0 0.0 0.0 0.0 0.0 0.0 0.0 0.0 0.0 0.0 0.0 0.0 0.0 0.0 0.0 0.0 0.0 0.0 0.0 0.0 0.0 0.0 0.0 0.0 0.0 0.0 0.0 0.0 0.0 0.0 0.0 0.0 0.0 0.0 0.0 0.0 0.0 0.0 0.0 0.0 0.0 0.0 0.0 0.0 0.0 0.0 0.0 0.0 0.0 0.0 0.0 0.0 0.0 0.0 0.0 0.0 0.0 0.0 0.0 0.0 0.0 0.0 0.0 0.0 0.0 0.0 0.0 0.0 0.0 0.0 0.0 0.0 0.0 0.0 0.0 0.0 0.0 0.0 0.0 0.0 0.0 0.0 0.0 0.0 0.0 0.0 0.0 0.0 0.0 0.0 0.0 0.0 0.0 0.0 0.0 0.0 0.0 0.0 0.0 0.0 0.0 0.0 0.0 0.0 0.0 0.0 0.0 0.0 0.0 0.0 0.0 0.0 0.0 0.0 0.0 0.0 0.0 0.0 0.0 0.0 0.0 0.0 0.0 0.0 0.0 0.0 0.0 0.0 0.0 0.0 0.0 0.0 0.0 0.0 0.0 0.0 0.0 0.0 0.0 0.0 0.0 0.0 0.0 0.0 0.0 0.0 0.0 0.0 0.0 0.0 0.0 0.0 0.0 0.0 0.0 0.0 0.0 0.0 0.0 0.0 0.0 0.0 0.0 0.0 0.0 0.0 0.0 0.0 0.0 0.0 0.0 0.0 0.0 0.0 0.0 0.0 0.0 0.0 0.0 0.0 0.0 0.0 0.0 0.0 0.0 0.0 0.0 0.0 0.0 0.0 0.0 0.0 0.0 0.0 0.0 0.0 0.0 0.0 0.0 0.0 0.0 0.0 0.0 0.0 0.0 0.0 0.0 0.0 0.0 0.0 0.0 0.0 0.0 0.0 0.0 0.0 0.0 0.0 0.0 0.0 0.0 0.0 0.0 0.0 0.0 0.0 0.0 0.0 0.0 0.0 0.0 0.0 0.0 0.0 0.0 0.0 0.0 0.0 0.0 0.0 0.0 0.0 0.0 0.0 0.0 0.0 0.0 0.0 0.0 0.0 0.0 0.0 0.0 0.0 0.0 0.0 0.0 0.0 0.0 0.0 0.0 0.0 0.0 0.0 0.0 0.0 0.0 0.0 0.0 0.0 0.0 0.0 0.0 0.0 0.0 0.0 0.0 0.0 0.0 0.0 0.0 0.0 0.0 0.0 0.0 0.0 0.0 0.0 0.0 0.0 0.0 0.0 0.0 0.0 0.0 0.0 0.0 0.0 0.0 0.0 0.0 0.0 0.0 0.0 0.0 0.0 0.0 0.0 0.0 0.0 0.0 0.0 0.0 0.0 0.0 0.0 0.0 0.0 0.0 0.0 0.0 0.0 0.0 0.0 0.0 0.0 0.0 0.0 0.0 0.0 0.0 0.0 0.0 0.0 0.0 0.0 0.0 0.0 0.0 0.0 0.0 0.0 0.0 0.0 0.0 0.0 0.0 0.0 0.0 0.0 0.0 0.0 0.0 0.0 0.0 0.0 0.0 0.0 0.0 0.0 0.0 0.0 0.0 0.0 0.0 0.0 0.0 0.0 0.0 0.0 0.0 0.0 0.0 0.0 0.0 0.0 0.0 0.0 0.0 0.0 0.0 0.0 0.0 0.0 0.0 0.0 0.0 0.0 0.0 0.0 0.0 0.0 0.0 0.0 0.0 0.0 0.0 0.0 0.0 0.0 0.0 0.0 0.0 0.0 0.0 0.0 0.0 0.0 0.0 0.0 0.0 0.0 0.0 0.0 0.0 0.0 0.0 0.0 0.0 0.0 0.0 0.0 0.0 0.0 0.0 0.0 0.0 0.0 0.0 0.0 0.0 0.0 0.0 0.0 0.0 0.0 0.0 0.0 0.0 0.0 0.0 0.0 0.0 0.0 0.0 0.0 0.0 0.0 0.0 0.0 0.0 0.0 0.0 0.0 0.0 0.0 0.0 0.0 0.0 0.0 0.0 0.0 0.0 0.0 0.0 0.0 0.0 0.0 0.0 0.0 0.0 0.0 0.0 0.0 0.0 0.0 0.0 0.0 0.0 0.0 0.0 0.0 0.0 0.0 0.0 0.0 0.0 0.0 0.0 0.0 0.0 0.0 0.0 0.0 0.0 0.0 0.0 0.0 0.0 0.0 0.0 0.0 0.0 0.0 0.0 0.0 0.0 0.0 0.0 0.0 0.0 0.0 0.0 0.0 0.0 0.0 0.0 0.0 0.0 0.0 0.0 0.0 0.0 0.0 0.0 0.0 0.0 0.0 0.0 0.0 0.0 0.0 0.0 0.0 0.0 0.0 0.0 0.0 0.0 0.0 0.0 0.0 0.0 0.0 0.0 0.0 0.0 0.0 0.0 0.0 0.0 0.0 0.0 0.0 0.0 0.0 0.0 0.0 0.0 0.0 0.0 0.0 0.0 0.0 0.0 0.0 0.0 0.0 0.0 0.0 0.0 0.0 0.0 0.0 0.0 0.0 0.0 0.0 0.0 0.0 0.0 0.0 0.0 0.0 0.0 0.0 0.0 0.0 0.0 0.0 0.0 0.0 0.0 0.0 0.0 0.0 0.0 0.0 0.0 0.0 0.0 0.0 0.0 0.0 0.0 0.0 0.0 0.0 0.0 0.0 0.0 0.0 0.0 0.0 0.0 0.0 0.0 0.0 0.0 0.0 0.0 0.0 0.0 0.0 0.0 0.0 0.0 0.0 0.0 0.0 0.0 0.0 0.0 0.0 0.0 0.0 0.0 0.0 0.0 0.0 0.0 0.0 0.0 0.0 0.0 0.0 0.0 0.0 0.0 0.0 0.0 0.0 0.0 0.0 0.0 0.0 0.0 0.0 0.0 0.0 0.0 0.0 0.0 0.0 0.0 0.0 0.0 0.0 0.0 0.0 0.0 0.0 0.0 0.0 0.0 0.0 0.0 0.0 0.0 0.0 0.0 0.0 0.0 0.0 0.0 0.0 0.0 0.0 0.0 0.0 0.0 0.0 0.0 0.0 0.0 0.0 0.0 0.0 0.0 0.0 0.0 0.0 0.0 0.0 0.0 0.0 0.0 0.0 0.0 0.0 0.0 0.0 0.0 0.0 0.0 0.0 0.0 0.0 0.0 0.0 0.0 0.0 0.0 0.0 0.0 0.0 0.0 0.0 0.0 0.0 0.0 0.0 0.0 0.0 0.0 0.0 0.0 0.0 0.0 0.0 0.0 0.0 0.0 0.0 0.0 0.0 0.0 0.0 0.0 0.0 0.0 0.0 0.0 0.0 0.0 0.0 0.0 0.0 0.0 0.0 0.0 0.0 0.0 0.0 0.0 0.0 0.0 0.0 0.0 0.0 0.0 0.0 0.0 0.0 0.0 0.0 0.0 0.0 0.0 0.0 0.0 0.0 0.0 0.0 0.0 0.0 0.0 0.0 0.0 0.0 0.0 0.0 0.0 0.0 0.0 0.0 0.0 0.0 0.0 0.0 0.0 0.0 0.0 0.0 0.0 0.0 0.0 0.0 0.0 0.0 0.0 0.0 0.0 0.0 0.0 0.0 0.0 0.0 0.0 0.0 0.0 0.0 0.0 0.0 0.0 0.0 0.0 0.0 0.0 0.0 0.0 0.0 0.0 0.0 0.0 0.0 0.0 0.0 0.0 0.0 0.0 0.0 0.0 0.0 0.0 0.0 0.0 0.0 0.0 0.0 0.0 0.0 0.0 0.0 0.0 0.0 0.0 0.0 0.0 0.0 0.0 0.0 0.0 0.0 0.0 0.0 0.0 0.0 0.0 0.0 0.0 0.0 0.0 0.0 0.0 0.0 0.0 0.0 0.0 0.0 0.0 0.0 0.0 0.0 0.0 0.0 0.0 0.0 0.0 0.0 0.0 0.0 0.0 0.0 0.0 0.0 0.0 0.0 0.0 0.0 0.0 0.0 0.0 0.0 0.0 0.0 0.0 0.0 0.0 0.0 0.0 0.0 0.0 0.0 0.0 0.0 0.0 0.0 0.0 0.0 0.0 0.0 0.0 0.0 0.0 0.0 0.0 0.0 0.0 0.0 0.0 0.0 0.0 0.0 0.0 0.0 0.0 0.0 0.0 0.0 0.0 0.0 0.0 0.0 0.0 0.0 0.0 0.0 0.0 0.0 0.0 0.0 0.0 0.0 0.0 0.0 0.0 0.0 0.0 0.0 0.0 0.0 0.0 0.0 0.0 0.0 0.0 0.0 0.0 0.0 0.0 0.0 0.0 0.0 0.0 0.0 0.0 0.0 0.0 0.0 0.0 0.0 0.0 0.0 0.0 0.0 0.0 0.0 0.0 0.0 0.0 0.0 0.0 0.0 0.0 0.0 0.0 0.0 0.0 0.0 0.0 0.0 0.0 0.0 0.0 0.0 0.0 0.0 0.0 0.0 0.0 0.0 0.0 0.0 0.0 0.0 0.0 0.0 0.0 0.0 0.0 0.0 0.0 0.0 0.0 0.0 0.0 0.0 0.0 0.0 0.0 0.0 0.0 0.0 0.0 0.0 0.0 0.0 0.0 0.0 0.0 0.0 0.0 0.0 0.0 0.0 0.0 0.0 0.0 0.0 0.0 0.0 0.0 0.0 0.0 0.0 0.0 0.0 0.0 0.0 0.0 0.0 0.0 0.0 0.0 0.0 0.0 0.0 0.0 0.0 0.0 0.0 0.0 0.0 0.0 0.0 0.0 0.0 0.0 0.0 0.0 0.0 0.0 0.0 0.0 0.0 0.0 0.0 0.0 0.0 0.0 0.0 0.0 0.0 0.0 0.0 0.0 0.0 0.0 0.0 0.0 0.0 0.0 0.0 0.0 0.0 0.0 0.0 0.0 0.0 0.0 0.0 0.0 0.0 0.0 0.0 0.0 0.0 0.0 0.0 0.0 0.0 0.0 0.0 0.0 0.0 0.0 0.0 0.0 0.0 0.0 0.0 0.0 0.0 0.0 0.0 0.0 0.0 0.0 0.0 0.0 0.0 0.0 0.0 0.0 0.0 0.0 0.0 0.0 0.0 0.0 0.0 0.0 0.0 0.0 0.0 0.0 0.0 0.0 0.0 0.0 0.0 0.0 0.0 0.0 0.0 0.0 0.0 0.0 0.0 0.0 0.0 0.0 0.0 0.0 0.0 0.0 0.0 0.0 0.0 0.0 0.0 0.0 0.0 0.0 0.0 0.0 0.0 0.0 0.0 0.0 0.0 0.0 0.0 0.0 0.0 0.0 0.0 0.0 0.0 0.0 0.0 0.0 0.0 0.0 0.0 0.0 0.0 0.0 0.0 0.0 0.0 0.0 0.0 0.0 0.0 0.0 0.0 0.0 0.0 0.0 0.0 0.0 0.0 0.0 0.0 0.0 0.0 0.0 0.0 0.0 0.0 0.0 0.0 0.0 0.0 0.0 0.0 0.0 0.0 0.0 0.0 0.0 0.0 0.0 0.0 0.0 0.0 0.0 0.0 0.0 0.0 0.0 0.0 0.0 0.0 0.0 0.0 0.0 0.0 0.0 0.0 0.0 0.0 0.0 0.0 0.0 0.0 0.0 0.0 0.0 0.0 0.0 0.0 0.0 0.0 0.0 0.0 0.0 0.0 0.0 0.0 0.0 0.0 0.0 0.0 0.0 0.0 0.0 0.0 0.0 0.0 0.0 0.0 0.0 0.0 0.0 0.0 0.0 0.0 0.0 0.0 0.0 0.0 0.0 0.0 0.0 0.0 0.0 0.0 0.0 0.0 0.0 0.0 0.0 0.0 0.0 0.0 0.0 0.0 0.0 0.0 0.0 0.0 0.0 0.0 0.0 0.0 0.0 0.0 0.0 0.0 0.0 0.0 0.0 0.0 0.0 0.0 0.0 0.0 0.0 0.0 0.0 0.0 0.0 0.0 0.0 0.0 0.0 0.0 0.0 0.0 0.0 0.0 0.0 0.0 0.0 0.0 0.0 0.0 0.0 0.0 0.0 0.0 0.0 0.0 0.0 0.0 0.0 0.0 0.0 0.0 0.0 0.0 0.0 0.0 0.0 0.0 0.0 0.0 0.0 0.0 0.0 0.0 0.0 0.0 0.0 0.0 0.0 0.0 0.0 0.0 0.0 0.0 0.0 0.0 0.0 0.0 0.0 0.0 0.0 0.0 0.0 0.0 0.0 0.0 0.0 0.0 0.0 0.0 0.0 0.0 0.0 0.0 0.0 0.0 0.0 0.0
        </DataArray>
        <DataArray type="Float64" Name="vonmises" NumberOfComponents="1" format="ascii">
 0.0 0.0 0.0 0.0  7.8652834E+003  3.7401089E+004  1.9185426E+004  5.9317499E+005 0.0 0.0 0.0 0.0 0.0 0.0 0.0 0.0 0.0  1.5813285E+005 0.0 0.0 0.0 0.0 0.0 0.0 0.0 0.0 0.0 0.0 0.0 0.0 0.0 0.0 0.0 0.0 0.0 0.0 0.0 0.0 0.0 0.0 0.0 0.0 0.0 0.0 0.0 0.0  8.6978439E+003  5.1393016E+003  2.8874585E+003  2.0594408E+003  1.1656937E+003  7.2687321E+002  5.7809160E+002  5.0114063E+002  9.0001625E+002  1.1062819E+003  1.3784709E+003  1.6603451E+003  1.4758248E+003  1.3274933E+003  2.0263862E+003  5.4603594E+003  2.3686140E+005  1.1446179E+005  5.3137335E+004  1.9272657E+004  1.7958906E+004  2.8636566E+004  3.6043441E+004  3.9539557E+004  4.1310891E+004  4.1389913E+004  4.1776187E+004  4.1512999E+004  4.1207681E+004  4.1161311E+004  4.0905965E+004  4.0641407E+004  4.0858230E+004  4.0569725E+004  4.0290676E+004  4.0224405E+004  4.0029565E+004  4.0045074E+004  3.9795103E+004  3.9841999E+004  3.9546578E+004  3.9518484E+004  3.9340134E+004  3.9384556E+004  3.9169925E+004  3.9194458E+004  3.8924969E+004  3.8897794E+004  3.8714151E+004  3.8773651E+004  3.8580077E+004  3.8654358E+004  3.8387926E+004  3.8388117E+004  3.8219982E+004  3.8280115E+004  3.8071214E+004  3.8162400E+004  3.7939632E+004  3.7942398E+004  3.7775795E+004  3.7859064E+004  3.7711717E+004  3.7799769E+004  3.7540857E+004  3.7667704E+004  3.7433426E+004  3.7539116E+004  3.7309621E+004  3.7355529E+004  3.7226616E+004  3.7277234E+004  3.7235418E+004  3.7231287E+004  3.7175070E+004  3.7284329E+004  3.7158105E+004  3.7108316E+004  3.7061352E+004  3.7070452E+004  3.7045599E+004  3.7051954E+004  3.7025603E+004  3.7146435E+004  3.7108804E+004  3.7083258E+004  3.6866231E+004  3.7037453E+004  3.7172902E+004  3.7232361E+004  3.7419656E+004  3.7518103E+004  3.7567326E+004  3.7563775E+004  3.7475665E+004  3.7599668E+004  3.7284760E+004  3.6329554E+004  3.3215162E+004 0.0 0.0 0.0 0.0 0.0 0.0 0.0 0.0 0.0 0.0 0.0 0.0 0.0 0.0 0.0 0.0 0.0 0.0 0.0 0.0 0.0 0.0 0.0 0.0 0.0 0.0 0.0 0.0 0.0 0.0 0.0 0.0 0.0 0.0 0.0 0.0 0.0 0.0 0.0 0.0 0.0 0.0 0.0 0.0 0.0 0.0 0.0 0.0 0.0 0.0 0.0 0.0 0.0 0.0 0.0 0.0 0.0 0.0 0.0 0.0 0.0 0.0 0.0 0.0 0.0 0.0 0.0 0.0 0.0 0.0 0.0 0.0 0.0 0.0 0.0 0.0 0.0 0.0 0.0 0.0 0.0 0.0 0.0 0.0 0.0 0.0 0.0 0.0 0.0 0.0 0.0 0.0 0.0 0.0 0.0 0.0 0.0 0.0 0.0 0.0 0.0 0.0 0.0 0.0 0.0 0.0 0.0 0.0 0.0 0.0 0.0 0.0 0.0 0.0 0.0 0.0 0.0 0.0 0.0 0.0 0.0 0.0 0.0 0.0 0.0 0.0 0.0 0.0 0.0 0.0 0.0 0.0 0.0 0.0 0.0 0.0 0.0 0.0 0.0 0.0 0.0 0.0 0.0 0.0 0.0 0.0 0.0 0.0 0.0 0.0 0.0 0.0 0.0 0.0 0.0 0.0 0.0 0.0 0.0 0.0 0.0 0.0 0.0 0.0 0.0 0.0 0.0 0.0 0.0 0.0 0.0 0.0 0.0 0.0 0.0 0.0 0.0 0.0 0.0 0.0 0.0 0.0 0.0 0.0 0.0 0.0 0.0 0.0 0.0 0.0 0.0 0.0 0.0 0.0 0.0 0.0 0.0 0.0 0.0 0.0 0.0 0.0 0.0 0.0 0.0 0.0 0.0 0.0 0.0 0.0 0.0 0.0 0.0 0.0 0.0 0.0 0.0 0.0 0.0 0.0 0.0 0.0 0.0 0.0 0.0 0.0 0.0 0.0 0.0 0.0 0.0 0.0 0.0 0.0 0.0 0.0 0.0 0.0 0.0 0.0 0.0  3.2143184E+005  2.0656039E+005  1.4243286E+005  1.1546916E+005  1.1479121E+005  1.2557678E+005  1.3869746E+005  1.4932886E+005  1.5692757E+005 0.0 0.0 0.0 0.0 0.0 0.0 0.0 0.0 0.0 0.0 0.0 0.0 0.0 0.0 0.0 0.0 0.0 0.0 0.0 0.0 0.0 0.0 0.0 0.0 0.0 0.0 0.0 0.0 0.0 0.0 0.0 0.0 0.0 0.0 0.0 0.0 0.0 0.0 0.0 0.0 0.0 0.0 0.0 0.0 0.0 0.0 0.0 0.0 0.0  3.3292119E+003  1.1011295E+003  9.6747386E+002  5.8335662E+002  4.3418295E+002  5.3219987E+001  2.1870070E+002  5.1983158E+002  6.7197527E+002  7.3001623E+002  5.1372130E+002  2.8614062E+002  1.9939649E+003  4.7999227E+003  8.7611947E+003  1.3387128E+004  1.8116748E+004  2.2218252E+004  2.5101298E+004  2.6955398E+004  2.8036220E+004  2.8356201E+004  2.8282531E+004  2.8454998E+004  2.8542820E+004  2.8570190E+004  2.8406445E+004  2.8369822E+004  2.8404562E+004  2.8223807E+004  2.8091517E+004  2.8173013E+004  2.8301144E+004  2.8394459E+004  2.8322060E+004  2.8421133E+004  2.8394094E+004  2.8460095E+004  2.8313752E+004  2.8220058E+004  2.8236353E+004  2.8402119E+004  2.8484066E+004  2.8627913E+004  2.8560770E+004  2.8617820E+004  2.8484604E+004  2.8434089E+004  2.8508177E+004  2.8692824E+004  2.8744164E+004  2.8668857E+004  2.8654648E+004  2.8862899E+004  2.9026991E+004  2.9143888E+004  2.8975089E+004  2.8888747E+004  2.8920627E+004  2.9171354E+004  2.9359822E+004  2.9488358E+004  2.9329270E+004  2.9263490E+004  2.9301809E+004  2.9536464E+004  2.9735705E+004  2.9858501E+004  2.9703024E+004  2.9734442E+004  2.9732084E+004  2.9958341E+004  3.0192907E+004  3.0330343E+004  3.0178321E+004  3.0228638E+004  3.0231199E+004  3.0481408E+004  3.0730709E+004  3.0872377E+004  3.0730533E+004  3.0796796E+004  3.0834297E+004  3.1177288E+004  3.1429823E+004  3.1546407E+004  3.1398852E+004  3.1421572E+004  3.1220332E+004  3.0796579E+004  3.0030921E+004  2.7029554E+004  2.0110898E+004  9.7812642E+003  5.1087724E+003  2.4959921E+004  5.0336702E+004  8.1604389E+004  1.1764822E+005 0.0 0.0 0.0 0.0 0.0 0.0 0.0 0.0 0.0 0.0 0.0 0.0 0.0 0.0 0.0 0.0 0.0 0.0 0.0 0.0 0.0 0.0 0.0 0.0 0.0 0.0 0.0 0.0 0.0 0.0 0.0 0.0 0.0 0.0 0.0 0.0 0.0 0.0 0.0 0.0 0.0 0.0 0.0 0.0 0.0 0.0 0.0 0.0 0.0 0.0 0.0 0.0 0.0 0.0 0.0 0.0 0.0 0.0 0.0 0.0 0.0 0.0 0.0 0.0 0.0 0.0 0.0 0.0 0.0 0.0 0.0 0.0 0.0 0.0 0.0 0.0 0.0 0.0 0.0 0.0 0.0 0.0 0.0 0.0 0.0 0.0 0.0 0.0 0.0 0.0 0.0 0.0 0.0 0.0 0.0 0.0 0.0 0.0 0.0 0.0 0.0 0.0 0.0 0.0 0.0 0.0 0.0 0.0 0.0 0.0 0.0 0.0 0.0 0.0 0.0 0.0 0.0 0.0 0.0 0.0 0.0 0.0 0.0 0.0 0.0 0.0 0.0 0.0 0.0 0.0 0.0 0.0 0.0 0.0 0.0 0.0 0.0 0.0 0.0 0.0 0.0 0.0 0.0 0.0 0.0 0.0 0.0 0.0 0.0 0.0 0.0 0.0 0.0 0.0 0.0 0.0 0.0 0.0 0.0 0.0 0.0 0.0 0.0 0.0 0.0 0.0 0.0 0.0 0.0 0.0 0.0 0.0 0.0 0.0 0.0 0.0 0.0 0.0 0.0 0.0 0.0 0.0 0.0 0.0 0.0 0.0 0.0 0.0 0.0 0.0 0.0 0.0 0.0 0.0 0.0 0.0 0.0 0.0 0.0 0.0 0.0 0.0 0.0 0.0 0.0 0.0 0.0 0.0 0.0 0.0 0.0 0.0 0.0 0.0 0.0 0.0 0.0 0.0 0.0 0.0 0.0 0.0 0.0 0.0 0.0 0.0 0.0 0.0 0.0 0.0 0.0 0.0 0.0 0.0 0.0 0.0 0.0 0.0 0.0 0.0 0.0 0.0 0.0 0.0 0.0 0.0 0.0 0.0 0.0 0.0 0.0 0.0 0.0 0.0 0.0 0.0 0.0 0.0 0.0 0.0 0.0 0.0 0.0 0.0 0.0 0.0 0.0 0.0 0.0 0.0 0.0 0.0 0.0 0.0 0.0 0.0 0.0 0.0 0.0 0.0 0.0 0.0 0.0 0.0 0.0 0.0 0.0 0.0 0.0 0.0 0.0 0.0 0.0 0.0 0.0 0.0 0.0 0.0 0.0 0.0 0.0 0.0 0.0 0.0 0.0 0.0 0.0 0.0 0.0 0.0 0.0 0.0 0.0 0.0 0.0 0.0 0.0 0.0 0.0 0.0 0.0 0.0 0.0 0.0 0.0 0.0 0.0 0.0 0.0 0.0 0.0 0.0 0.0 0.0 0.0 0.0 0.0 0.0 0.0 0.0 0.0 0.0 0.0 0.0 0.0 0.0 0.0 0.0 0.0 0.0 0.0 0.0 0.0 0.0 0.0 0.0 0.0 0.0 0.0 0.0 0.0 0.0 0.0 0.0 0.0 0.0 0.0 0.0 0.0 0.0 0.0 0.0 0.0 0.0 0.0 0.0 0.0 0.0 0.0 0.0 0.0 0.0 0.0 0.0 0.0 0.0 0.0 0.0 0.0 0.0 0.0 0.0 0.0 0.0 0.0 0.0 0.0 0.0 0.0 0.0 0.0 0.0 0.0 0.0 0.0 0.0 0.0 0.0 0.0 0.0 0.0 0.0 0.0 0.0 0.0 0.0 0.0 0.0 0.0 0.0 0.0 0.0 0.0 0.0 0.0 0.0 0.0 0.0 0.0 0.0 0.0 0.0 0.0 0.0 0.0 0.0 0.0 0.0 0.0 0.0 0.0 0.0 0.0 0.0 0.0 0.0 0.0 0.0 0.0 0.0 0.0 0.0 0.0 0.0 0.0 0.0 0.0 0.0 0.0 0.0 0.0 0.0 0.0 0.0 0.0 0.0 0.0 0.0 0.0 0.0 0.0 0.0 0.0 0.0 0.0 0.0 0.0 0.0 0.0 0.0 0.0 0.0 0.0 0.0 0.0 0.0 0.0 0.0 0.0 0.0 0.0 0.0 0.0 0.0 0.0 0.0 0.0 0.0 0.0 0.0 0.0 0.0 0.0 0.0 0.0 0.0 0.0 0.0 0.0 0.0 0.0 0.0 0.0 0.0 0.0 0.0 0.0 0.0 0.0 0.0 0.0 0.0 0.0 0.0 0.0 0.0 0.0 0.0 0.0 0.0 0.0 0.0 0.0 0.0 0.0 0.0 0.0 0.0 0.0 0.0 0.0 0.0 0.0 0.0 0.0 0.0 0.0 0.0 0.0 0.0 0.0 0.0 0.0 0.0 0.0 0.0 0.0 0.0 0.0 0.0 0.0 0.0 0.0 0.0 0.0 0.0 0.0 0.0 0.0 0.0 0.0 0.0 0.0 0.0 0.0 0.0 0.0 0.0 0.0 0.0 0.0 0.0 0.0 0.0 0.0 0.0 0.0 0.0 0.0 0.0 0.0 0.0 0.0 0.0 0.0 0.0 0.0 0.0 0.0 0.0 0.0 0.0 0.0 0.0 0.0 0.0 0.0 0.0 0.0 0.0 0.0 0.0 0.0 0.0 0.0 0.0 0.0 0.0 0.0 0.0 0.0 0.0 0.0 0.0 0.0 0.0 0.0 0.0 0.0 0.0 0.0 0.0 0.0 0.0 0.0 0.0 0.0 0.0 0.0 0.0 0.0 0.0 0.0 0.0 0.0 0.0 0.0 0.0 0.0 0.0 0.0 0.0 0.0 0.0 0.0 0.0 0.0 0.0 0.0 0.0 0.0 0.0 0.0 0.0 0.0 0.0 0.0 0.0 0.0 0.0 0.0 0.0 0.0 0.0 0.0 0.0 0.0 0.0 0.0 0.0 0.0 0.0 0.0 0.0 0.0 0.0 0.0 0.0 0.0 0.0 0.0 0.0 0.0 0.0 0.0 0.0 0.0 0.0 0.0 0.0 0.0 0.0 0.0 0.0 0.0 0.0 0.0 0.0 0.0 0.0 0.0 0.0 0.0 0.0 0.0 0.0 0.0 0.0 0.0 0.0 0.0 0.0 0.0 0.0 0.0 0.0 0.0 0.0 0.0 0.0 0.0 0.0 0.0 0.0 0.0 0.0 0.0 0.0 0.0 0.0 0.0 0.0 0.0 0.0 0.0 0.0 0.0 0.0 0.0 0.0 0.0 0.0 0.0 0.0 0.0 0.0 0.0 0.0 0.0 0.0 0.0 0.0 0.0 0.0 0.0 0.0 0.0 0.0 0.0 0.0 0.0 0.0 0.0 0.0 0.0 0.0 0.0 0.0 0.0 0.0 0.0 0.0 0.0 0.0 0.0 0.0 0.0 0.0 0.0 0.0 0.0 0.0 0.0 0.0 0.0 0.0 0.0 0.0 0.0 0.0 0.0 0.0 0.0 0.0 0.0 0.0 0.0 0.0 0.0 0.0 0.0 0.0 0.0 0.0 0.0 0.0 0.0 0.0 0.0 0.0 0.0 0.0 0.0 0.0 0.0 0.0 0.0 0.0 0.0 0.0 0.0 0.0 0.0 0.0 0.0 0.0 0.0 0.0 0.0 0.0 0.0 0.0 0.0 0.0 0.0 0.0 0.0 0.0 0.0 0.0 0.0 0.0 0.0 0.0 0.0 0.0 0.0 0.0 0.0 0.0 0.0 0.0 0.0 0.0 0.0 0.0 0.0 0.0 0.0 0.0 0.0 0.0 0.0 0.0 0.0 0.0 0.0 0.0 0.0 0.0 0.0 0.0 0.0 0.0 0.0 0.0 0.0 0.0 0.0 0.0 0.0 0.0 0.0 0.0 0.0 0.0 0.0 0.0 0.0 0.0 0.0 0.0 0.0 0.0 0.0 0.0 0.0 0.0 0.0 0.0 0.0 0.0 0.0 0.0 0.0 0.0 0.0 0.0 0.0 0.0 0.0 0.0 0.0 0.0 0.0 0.0 0.0 0.0 0.0 0.0 0.0 0.0 0.0 0.0 0.0 0.0 0.0 0.0 0.0 0.0 0.0 0.0 0.0 0.0 0.0 0.0 0.0 0.0 0.0 0.0 0.0 0.0 0.0 0.0 0.0 0.0 0.0 0.0 0.0 0.0 0.0 0.0 0.0 0.0 0.0 0.0 0.0 0.0 0.0 0.0 0.0 0.0 0.0 0.0 0.0 0.0 0.0 0.0 0.0 0.0 0.0 0.0 0.0 0.0 0.0 0.0 0.0 0.0 0.0 0.0 0.0 0.0 0.0 0.0 0.0 0.0 0.0 0.0 0.0 0.0 0.0 0.0 0.0 0.0 0.0 0.0 0.0 0.0 0.0 0.0 0.0 0.0 0.0 0.0 0.0 0.0 0.0 0.0 0.0 0.0 0.0 0.0 0.0 0.0 0.0 0.0 0.0 0.0 0.0 0.0 0.0 0.0 0.0 0.0 0.0 0.0 0.0 0.0 0.0 0.0 0.0 0.0 0.0 0.0 0.0 0.0 0.0 0.0 0.0 0.0 0.0 0.0 0.0 0.0 0.0 0.0 0.0 0.0 0.0 0.0 0.0 0.0 0.0 0.0 0.0 0.0 0.0 0.0 0.0 0.0 0.0 0.0 0.0 0.0 0.0 0.0 0.0 0.0 0.0 0.0 0.0 0.0 0.0 0.0 0.0 0.0 0.0 0.0 0.0 0.0 0.0 0.0 0.0 0.0 0.0 0.0 0.0 0.0 0.0 0.0 0.0 0.0 0.0 0.0 0.0 0.0 0.0 0.0 0.0 0.0 0.0 0.0 0.0 0.0 0.0 0.0 0.0 0.0 0.0 0.0 0.0 0.0 0.0 0.0 0.0 0.0 0.0 0.0 0.0 0.0 0.0 0.0 0.0 0.0 0.0 0.0 0.0 0.0 0.0 0.0 0.0 0.0 0.0 0.0 0.0 0.0 0.0 0.0 0.0 0.0 0.0 0.0 0.0 0.0 0.0 0.0 0.0 0.0 0.0 0.0 0.0 0.0 0.0 0.0 0.0 0.0 0.0 0.0 0.0 0.0 0.0 0.0 0.0 0.0 0.0 0.0 0.0 0.0 0.0 0.0 0.0 0.0 0.0 0.0 0.0 0.0 0.0 0.0 0.0 0.0 0.0 0.0 0.0 0.0 0.0 0.0 0.0 0.0 0.0 0.0 0.0 0.0 0.0 0.0 0.0 0.0 0.0 0.0 0.0 0.0 0.0 0.0 0.0 0.0 0.0 0.0 0.0 0.0 0.0 0.0 0.0 0.0 0.0 0.0 0.0 0.0 0.0 0.0 0.0 0.0 0.0 0.0 0.0 0.0 0.0 0.0 0.0 0.0 0.0 0.0 0.0 0.0 0.0 0.0 0.0 0.0 0.0 0.0 0.0 0.0 0.0 0.0 0.0 0.0 0.0 0.0 0.0 0.0 0.0 0.0 0.0 0.0 0.0 0.0 0.0 0.0 0.0 0.0 0.0 0.0 0.0 0.0 0.0 0.0 0.0 0.0 0.0 0.0 0.0 0.0 0.0 0.0 0.0 0.0 0.0 0.0 0.0 0.0 0.0 0.0 0.0 0.0 0.0 0.0 0.0 0.0 0.0 0.0 0.0 0.0 0.0 0.0 0.0 0.0 0.0 0.0 0.0 0.0 0.0 0.0 0.0 0.0 0.0 0.0 0.0 0.0 0.0 0.0 0.0 0.0 0.0 0.0 0.0 0.0 0.0 0.0 0.0 0.0 0.0 0.0 0.0 0.0 0.0 0.0 0.0 0.0 0.0 0.0 0.0 0.0 0.0 0.0 0.0 0.0 0.0 0.0 0.0 0.0 0.0 0.0 0.0 0.0 0.0 0.0 0.0 0.0 0.0 0.0 0.0 0.0 0.0 0.0 0.0 0.0 0.0 0.0 0.0 0.0 0.0 0.0 0.0 0.0 0.0 0.0 0.0 0.0 0.0 0.0 0.0 0.0 0.0 0.0 0.0 0.0 0.0 0.0 0.0 0.0 0.0 0.0 0.0 0.0 0.0 0.0 0.0 0.0 0.0 0.0 0.0 0.0 0.0 0.0 0.0 0.0 0.0 0.0 0.0 0.0 0.0 0.0 0.0 0.0 0.0 0.0 0.0 0.0 0.0 0.0 0.0 0.0 0.0 0.0 0.0 0.0 0.0 0.0 0.0 0.0 0.0 0.0 0.0 0.0 0.0 0.0  8.6768700E+004  1.5288739E+004  1.7244065E+004  1.5000678E+004  9.8070306E+004  1.3838218E+005  1.3511895E+004  1.5858190E+004  1.1681670E+004  1.5524634E+004  1.5671748E+004  1.6620635E+004  1.5291583E+004  1.5336930E+004  1.6218606E+004  1.6780661E+004  1.5039501E+004  1.5940312E+004  1.6513269E+004  1.4788358E+004  1.5686282E+004  1.6251126E+004  1.4563614E+004  1.5487142E+004  1.6054479E+004  1.4376880E+004  1.5305796E+004  1.5883202E+004  6.5817170E+004  1.4218340E+004  1.5767626E+004  1.4125109E+004  1.5079479E+004  1.5073953E+004  1.5632543E+004  1.4018794E+004  1.4986916E+004  1.5003737E+004  1.4966956E+004  1.5548612E+004  1.6137792E+004  1.5012226E+004  1.5066215E+004  1.5724386E+004  1.5798171E+004  1.5342642E+004  3.6492474E+003  2.2347215E+004  3.1434540E+003  9.5835483E+004  2.8436295E+004  2.9166630E+004  2.8983826E+004  2.9165332E+004  2.8662723E+004  2.8367045E+004  2.8490695E+004  2.8141143E+004  2.7861428E+004  2.7987789E+004  2.7679066E+004  2.7427380E+004  2.7592780E+004  2.7230510E+004  2.7174522E+004  2.7298135E+004  2.6872613E+004  2.6851052E+004  2.6995774E+004  2.6637256E+004  2.6607102E+004  2.6460890E+004  2.6386664E+004  2.6628219E+004  2.6539606E+004  2.6247800E+004  2.6231854E+004  2.6466295E+004  2.6456576E+004  2.6455127E+004  2.6030740E+004  2.6150514E+004  2.6590758E+004  2.6717191E+004  2.6110061E+004  2.5462813E+004  1.4729306E+004  8.1378888E+002  5.7000998E+002  2.7400637E+002  1.1930372E+005  2.4188437E+002  3.0285252E+001  2.2669762E+004  1.6392634E+004  1.9996026E+004  8.2062699E+003  9.6966758E+003  9.1002855E+003  7.7543708E+003  1.7581886E+004  1.6893322E+004  3.1577323E+004  3.2129296E+004  2.3879363E+004  4.4423380E+004  4.8555411E+004  5.4151335E+004  3.8759297E+004  6.3967393E+004  8.4835641E+004  5.2908710E+004  9.2374959E+004  5.4496497E+004  1.5516523E+005  9.4744438E+003  1.0558249E+004  1.1728151E+004  3.3035009E+003  9.5101776E+003  3.9042343E+004  4.7343108E+002  2.8589188E+004  1.8773722E+004  1.8479731E+004  9.1027759E+003  1.0838308E+003  1.9614238E+003  4.0534128E+003  1.0396451E+004  9.6073693E+003  1.2741950E+004  2.7988411E+004  1.8360182E+004  1.8117161E+004  9.3694268E+003  2.6413710E+004  1.7262345E+004  1.7230066E+004  8.7479039E+003  2.7150276E+004  1.7792919E+004  1.7730418E+004  9.0651020E+003  3.0062670E+002  3.3404210E+002  2.6116743E+004  1.8517104E+004  1.9194496E+004  8.5554422E+003  2.6366918E+004  1.8032357E+004  2.6149562E+004  1.7103157E+004  1.7125300E+004  8.6939966E+003  2.6392024E+004  1.8055736E+004  2.7521279E+004  1.8052644E+004  1.7829005E+004  9.2269562E+003  2.6801419E+004  1.7555808E+004  1.7518501E+004  8.8703969E+003  2.6325632E+004  2.6606339E+004  1.8210543E+004  2.6536364E+004  1.7355729E+004  1.7367271E+004  8.7924170E+003  2.7151151E+004  1.8506975E+004  2.6934500E+004  2.6371370E+004  1.8602761E+004  1.9009159E+004  8.5049182E+003  2.6548926E+004  1.8175158E+004  2.6757315E+004  2.7470007E+004  1.8719511E+004  2.7828863E+004  1.8492385E+004  1.9056277E+004  2.6400488E+004  1.8097058E+004  2.6497588E+004  1.8038255E+004  2.6645012E+004  1.8139696E+004  2.7269404E+004  2.7668569E+004  2.9383152E+004  1.9229153E+004  2.4413186E+004  1.6390902E+004  2.6371885E+004  2.6489701E+004  6.3287747E+003  2.8120870E+004  2.8641255E+004  2.6522266E+004  2.8760803E+004  1.8828891E+004  2.8738006E+004  1.9034358E+004  1.8826460E+004  9.1530437E+003  2.9249991E+004  2.8263165E+004  1.8495997E+004  1.3844792E+004  1.4278080E+004  1.0333318E+004  1.4774736E+004  1.0197435E+004  1.5201153E+004  1.0918763E+004  1.5267980E+004  9.9212004E+003  1.4358791E+004  1.0374160E+004  1.5381775E+004  1.0510048E+004  1.6529095E+004  1.1293941E+004  1.5350726E+004  9.9856196E+003  1.4583876E+004  1.0315479E+004  1.5732835E+004  1.0661927E+004  1.1911090E+004  1.5798587E+004  1.0791214E+004  1.5624562E+004  1.0657979E+004  1.4591365E+004  1.0559505E+004  1.5825052E+004  1.1331562E+004  1.5371310E+004  9.4254942E+003  1.4959540E+004  1.0759433E+004  1.4765970E+004  1.0680275E+004  1.5290547E+004  1.0061593E+004  1.4396405E+004  1.0533760E+004  1.6005670E+004  1.0922741E+004  1.6258224E+004  1.1099409E+004  1.5476067E+004  1.1121585E+004  1.5355486E+004  9.1477083E+003  1.5247204E+004  9.9828769E+003  1.5519959E+004  9.5026016E+003  1.6714364E+004  1.1708193E+004  9.9009860E+004  9.9688548E+004  8.9382598E+004  1.1396171E+004  1.0913797E+004  1.1233791E+004  1.0864942E+004  1.1014310E+004  9.5857866E+003  1.0911634E+004  1.1131821E+004  9.6138846E+003  1.1598024E+004  1.1833501E+004  6.7360617E+003  9.4185561E+001  2.6460859E+003  5.9110854E+002  2.7983741E+002  4.3590599E+003  3.2253858E+004  1.4625982E+004  3.4956312E+002  9.8280636E+004  4.4116137E+004  2.7195131E+004  1.5039363E+003  1.8323436E+004  4.7871604E+002  1.8585650E+002  6.4106051E+003  6.9182835E+004  1.0579855E+004  6.8003963E+004  2.0256692E+005  8.2674761E+004  9.2301705E+002  2.1872265E+004  7.1728702E+002  2.0225916E+002  7.2229327E+003  1.9823475E+004  2.0111355E+004  5.7647713E+003  1.8586699E+004  2.0262126E+004  2.0370524E+004  1.7820350E+004  2.0628851E+004  2.0702804E+004  2.0947011E+004  1.8258024E+004  1.6146010E+004  2.0914661E+004  2.0613779E+004  2.1244490E+004  8.8375132E+003  2.1622215E+004  2.2082400E+004  1.8402783E+004  1.9642139E+004  2.1312095E+004  1.8537351E+004  8.7097229E+003  2.1498379E+004  8.7980036E+003  1.8715065E+004  1.9427463E+004  2.1184915E+004  1.8949975E+004  2.1101437E+004  8.6282666E+003  1.9226426E+004  2.1675239E+004  8.6381156E+003  8.7185576E+003  1.9540816E+004  2.1420962E+004  2.1196535E+004  2.1231606E+004  2.1641498E+004  2.1772201E+004  8.7653913E+003  8.7665298E+003  2.1990333E+004  2.1745003E+004  2.2133520E+004  8.9800256E+003  2.1986845E+004  2.2385072E+004  2.2234297E+004  9.0786184E+003  2.2604590E+004  2.2551757E+004  2.2919321E+004  9.1946418E+003  2.2941836E+004  2.3332161E+004  9.3423528E+003  2.3494146E+004  2.3823397E+004  2.2307131E+004  9.5008980E+003  9.6801805E+003  5.3873988E+004  6.5190512E+003  8.2547313E+003  9.1171354E+003  1.2861284E+005  2.7609715E+005  8.9987710E+003  1.6945583E+005  8.7734249E+003  8.8645829E+003  8.9188654E+003  9.1737313E+003  9.1308868E+003  9.4172854E+003  9.5821689E+003  1.0411754E+004  1.0504373E+004  1.0752869E+004  7.2860149E+004  2.1885753E+003  1.0587725E+004  4.3656341E+003  3.1452904E+004  1.2475179E+005  1.0294614E+004  1.1180669E+004  7.3819801E+002  1.0125977E+004  4.5351635E+003  7.4936945E+004  1.0080804E+004  9.9285015E+003  9.8144411E+003  9.7589650E+003  1.0383301E+002  3.1473027E+004  9.7138964E+003 0.0 0.0 0.0 0.0 0.0 0.0 0.0 0.0 0.0 0.0 0.0 0.0 0.0 0.0 0.0 0.0 0.0 0.0 0.0 0.0 0.0 0.0 0.0 0.0 0.0 0.0 0.0 0.0 0.0 0.0 0.0 0.0 0.0 0.0 0.0 0.0 0.0 0.0 0.0 0.0 0.0 0.0 0.0 0.0 0.0 0.0 0.0 0.0 0.0 0.0 0.0 0.0 0.0 0.0 0.0 0.0 0.0 0.0 0.0 0.0 0.0 0.0 0.0 0.0 0.0 0.0 0.0 0.0 0.0 0.0 0.0 0.0 0.0 0.0 0.0 0.0 0.0 0.0 0.0 0.0 0.0 0.0 0.0 0.0 0.0 0.0 0.0 0.0 0.0 0.0 0.0 0.0 0.0 0.0 0.0 0.0 0.0 0.0 0.0 0.0 0.0 0.0 0.0 0.0 0.0 0.0 0.0 0.0 0.0 0.0 0.0 0.0 0.0 0.0 0.0 0.0 0.0 0.0 0.0 0.0 0.0 0.0 0.0 0.0 0.0 0.0 0.0 0.0 0.0 0.0 0.0 0.0 0.0 0.0 0.0 0.0 0.0 0.0 0.0 0.0 0.0 0.0 0.0 0.0 0.0 0.0 0.0 0.0 0.0 0.0 0.0 0.0 0.0 0.0 0.0 0.0 0.0 0.0 0.0 0.0 0.0 0.0 0.0 0.0 0.0 0.0 0.0 0.0 0.0 0.0 0.0 0.0 0.0 0.0 0.0 0.0 0.0 0.0 0.0 0.0 0.0 0.0 0.0 0.0 0.0 0.0 0.0 0.0 0.0 0.0 0.0 0.0 0.0 0.0 0.0 0.0 0.0 0.0 0.0 0.0 0.0 0.0 0.0 0.0 0.0 0.0 0.0 0.0 0.0 0.0 0.0 0.0 0.0 0.0 0.0 0.0 0.0 0.0 0.0 0.0 0.0 0.0 0.0 0.0 0.0 0.0 0.0 0.0 0.0 0.0 0.0 0.0 0.0 0.0 0.0 0.0 0.0 0.0 0.0 0.0 0.0 0.0 0.0 0.0 0.0 0.0 0.0 0.0 0.0 0.0 0.0 0.0 0.0 0.0 0.0 0.0 0.0 0.0 0.0 0.0 0.0 0.0 0.0 0.0 0.0 0.0 0.0 0.0 0.0 0.0 0.0 0.0 0.0 0.0 0.0 0.0 0.0 0.0 0.0 0.0 0.0 0.0 0.0 0.0 0.0 0.0 0.0 0.0 0.0 0.0 0.0 0.0 0.0 0.0 0.0 0.0 0.0 0.0 0.0 0.0 0.0 0.0 0.0 0.0 0.0 0.0 0.0 0.0 0.0 0.0 0.0 0.0 0.0 0.0 0.0 0.0 0.0 0.0 0.0 0.0 0.0 0.0 0.0 0.0 0.0 0.0 0.0 0.0 0.0 0.0 0.0 0.0 0.0 0.0 0.0 0.0 0.0 0.0 0.0 0.0 0.0 0.0 0.0 0.0 0.0 0.0 0.0 0.0 0.0 0.0 0.0 0.0 0.0 0.0 0.0 0.0 0.0 0.0 0.0 0.0 0.0 0.0 0.0 0.0 0.0 0.0 0.0 0.0 0.0 0.0 0.0 0.0 0.0 0.0 0.0 0.0 0.0 0.0 0.0 0.0 0.0 0.0 0.0 0.0 0.0 0.0 0.0 0.0 0.0 0.0 0.0 0.0 0.0 0.0 0.0 0.0 0.0 0.0 0.0 0.0 0.0 0.0 0.0 0.0 0.0 0.0 0.0 0.0 0.0 0.0 0.0 0.0 0.0 0.0 0.0 0.0 0.0 0.0 0.0 0.0 0.0 0.0 0.0 0.0 0.0 0.0 0.0 0.0 0.0 0.0 0.0 0.0 0.0 0.0 0.0 0.0 0.0 0.0 0.0 0.0 0.0 0.0 0.0 0.0 0.0 0.0 0.0 0.0 0.0 0.0 0.0 0.0 0.0 0.0 0.0 0.0 0.0 0.0 0.0 0.0 0.0 0.0 0.0 0.0 0.0 0.0 0.0 0.0 0.0 0.0 0.0 0.0 0.0 0.0 0.0 0.0 0.0 0.0 0.0 0.0 0.0 0.0 0.0 0.0 0.0 0.0 0.0 0.0 0.0 0.0 0.0 0.0 0.0 0.0 0.0 0.0 0.0 0.0 0.0 0.0 0.0 0.0 0.0 0.0 0.0 0.0 0.0 0.0 0.0 0.0 0.0 0.0 0.0 0.0 0.0 0.0 0.0 0.0 0.0 0.0 0.0 0.0 0.0 0.0 0.0 0.0 0.0 0.0 0.0 0.0 0.0 0.0 0.0 0.0 0.0 0.0 0.0 0.0 0.0 0.0 0.0 0.0 0.0 0.0 0.0 0.0 0.0 0.0 0.0 0.0 0.0 0.0 0.0 0.0 0.0 0.0 0.0 0.0 0.0 0.0 0.0 0.0 0.0 0.0 0.0 0.0 0.0 0.0 0.0 0.0 0.0 0.0 0.0 0.0 0.0 0.0 0.0 0.0 0.0 0.0 0.0 0.0 0.0 0.0 0.0 0.0 0.0 0.0 0.0 0.0 0.0 0.0 0.0 0.0 0.0 0.0 0.0 0.0 0.0 0.0 0.0 0.0 0.0 0.0 0.0 0.0 0.0 0.0 0.0 0.0 0.0 0.0 0.0 0.0 0.0 0.0 0.0 0.0 0.0 0.0 0.0 0.0 0.0 0.0 0.0 0.0 0.0 0.0 0.0 0.0 0.0 0.0 0.0 0.0 0.0 0.0 0.0 0.0 0.0 0.0 0.0 0.0 0.0 0.0 0.0 0.0 0.0 0.0 0.0 0.0 0.0 0.0 0.0 0.0 0.0 0.0 0.0 0.0 0.0 0.0 0.0 0.0 0.0 0.0 0.0 0.0 0.0 0.0 0.0 0.0 0.0 0.0 0.0 0.0 0.0 0.0 0.0 0.0 0.0 0.0 0.0 0.0 0.0 0.0 0.0 0.0 0.0 0.0 0.0 0.0 0.0 0.0 0.0 0.0 0.0 0.0 0.0 0.0 0.0 0.0 0.0 0.0 0.0 0.0 0.0 0.0 0.0 0.0 0.0 0.0 0.0 0.0 0.0 0.0 0.0 0.0 0.0 0.0 0.0 0.0 0.0 0.0 0.0 0.0 0.0 0.0 0.0 0.0 0.0 0.0 0.0 0.0 0.0 0.0 0.0 0.0 0.0 0.0 0.0 0.0 0.0 0.0 0.0 0.0 0.0 0.0 0.0 0.0 0.0 0.0 0.0 0.0 0.0 0.0 0.0 0.0 0.0 0.0 0.0 0.0 0.0 0.0 0.0 0.0 0.0 0.0 0.0 0.0 0.0 0.0 0.0 0.0 0.0 0.0 0.0 0.0 0.0 0.0 0.0 0.0 0.0 0.0 0.0 0.0 0.0 0.0 0.0 0.0 0.0 0.0 0.0 0.0 0.0 0.0 0.0 0.0 0.0 0.0 0.0 0.0 0.0 0.0 0.0 0.0 0.0 0.0 0.0 0.0 0.0 0.0 0.0 0.0 0.0 0.0 0.0 0.0 0.0 0.0 0.0 0.0 0.0 0.0 0.0 0.0 0.0 0.0 0.0 0.0 0.0 0.0 0.0 0.0 0.0 0.0 0.0 0.0 0.0 0.0 0.0 0.0 0.0 0.0 0.0 0.0 0.0 0.0 0.0 0.0 0.0 0.0 0.0 0.0 0.0 0.0 0.0 0.0 0.0 0.0 0.0 0.0 0.0 0.0 0.0 0.0 0.0 0.0 0.0 0.0 0.0 0.0 0.0 0.0 0.0 0.0 0.0 0.0 0.0 0.0 0.0 0.0 0.0 0.0 0.0 0.0 0.0 0.0 0.0 0.0 0.0 0.0 0.0 0.0 0.0 0.0 0.0 0.0 0.0 0.0 0.0 0.0 0.0 0.0 0.0 0.0 0.0 0.0 0.0 0.0 0.0 0.0 0.0 0.0 0.0 0.0 0.0 0.0 0.0 0.0 0.0 0.0 0.0 0.0 0.0 0.0 0.0 0.0 0.0 0.0 0.0 0.0 0.0 0.0 0.0 0.0 0.0 0.0 0.0 0.0 0.0 0.0 0.0 0.0 0.0 0.0 0.0 0.0 0.0 0.0 0.0 0.0 0.0 0.0 0.0 0.0 0.0 0.0 0.0 0.0 0.0 0.0 0.0 0.0 0.0 0.0 0.0 0.0 0.0 0.0 0.0 0.0 0.0 0.0 0.0 0.0 0.0 0.0 0.0 0.0 0.0 0.0 0.0 0.0 0.0 0.0 0.0 0.0 0.0 0.0 0.0 0.0 0.0 0.0 0.0 0.0 0.0 0.0 0.0 0.0 0.0 0.0 0.0 0.0 0.0 0.0 0.0 0.0 0.0 0.0 0.0 0.0 0.0 0.0 0.0 0.0 0.0 0.0 0.0 0.0 0.0 0.0 0.0 0.0 0.0 0.0 0.0 0.0 0.0 0.0 0.0 0.0 0.0 0.0 0.0 0.0 0.0 0.0 0.0 0.0 0.0 0.0 0.0 0.0 0.0 0.0 0.0 0.0 0.0 0.0 0.0 0.0 0.0 0.0 0.0 0.0 0.0 0.0 0.0 0.0 0.0 0.0 0.0 0.0 0.0 0.0 0.0 0.0 0.0 0.0 0.0 0.0 0.0 0.0 0.0 0.0 0.0 0.0 0.0 0.0 0.0 0.0 0.0 0.0 0.0 0.0 0.0 0.0 0.0 0.0 0.0 0.0 0.0 0.0 0.0 0.0 0.0 0.0 0.0 0.0 0.0 0.0 0.0 0.0 0.0 0.0 0.0 0.0 0.0 0.0 0.0 0.0 0.0 0.0 0.0 0.0 0.0 0.0 0.0 0.0 0.0 0.0 0.0 0.0 0.0 0.0 0.0 0.0 0.0 0.0 0.0 0.0 0.0 0.0 0.0 0.0 0.0 0.0 0.0 0.0 0.0 0.0 0.0 0.0 0.0 0.0 0.0 0.0 0.0 0.0 0.0 0.0 0.0 0.0 0.0 0.0 0.0 0.0 0.0 0.0 0.0 0.0 0.0 0.0
        </DataArray>
        <DataArray type="Float64" Name="displacement" NumberOfComponents="3" format="ascii">
 0.0 0.0 0.0 0.0 0.0 0.0 0.0 0.0 0.0 0.0 0.0 0.0  3.9529816E-013 0.0 0.0 -1.2652999E-006 0.0 0.0 -6.0718666E-006  2.4847881E-005 0.0 -5.8782101E-008  1.0218181E-004 0.0 0.0 0.0 0.0 0.0 0.0 0.0 0.0 0.0 0.0 0.0 0.0 0.0 0.0 0.0 0.0 0.0 0.0 0.0 0.0 0.0 0.0 0.0 0.0 0.0 0.0 0.0 0.0 -2.4408169E-013  1.0194152E-004 0.0 0.0 0.0 0.0 0.0 0.0 0.0 0.0 0.0 0.0 0.0 0.0 0.0 0.0 0.0 0.0 0.0 0.0 0.0 0.0 0.0 0.0 0.0 0.0 0.0 0.0 0.0 0.0 0.0 0.0 0.0 0.0 0.0 0.0 0.0 0.0 0.0 0.0 0.0 0.0 0.0 0.0 0.0 0.0 0.0 0.0 0.0 0.0 0.0 0.0 0.0 0.0 0.0 0.0 0.0 0.0 0.0 0.0 0.0 0.0 0.0 0.0 0.0 0.0 0.0 0.0 0.0 0.0 0.0 0.0 0.0 0.0 0.0 0.0 0.0 0.0 0.0 0.0 0.0 0.0 0.0 0.0 0.0 0.0 0.0 -1.5609296E-006  1.4886375E-006 0.0 -1.8545099E-006  2.9746572E-006 0.0 -2.1463041E-006  4.4576297E-006 0.0 -2.4364273E-006  5.9372483E-006 0.0 -2.7249240E-006  7.4133766E-006 0.0 -3.0118418E-006  8.8859324E-006 0.0 -3.2972014E-006  1.0354864E-005 0.0 -3.5810835E-006  1.1820154E-005 0.0 -3.8634933E-006  1.3281831E-005 0.0 -4.1444552E-006  1.4739901E-005 0.0 -4.4239841E-006  1.6194381E-005 0.0 -4.7020988E-006  1.7645289E-005 0.0 -4.9788245E-006  1.9092650E-005 0.0 -5.2541661E-006  2.0536506E-005 0.0 -5.5281322E-006  2.1976904E-005 0.0 -5.8007202E-006  2.3413940E-005 0.0 -1.1301973E-007  1.0217894E-004 0.0 -1.7004139E-007  1.0216645E-004 0.0 -2.3131607E-007  1.0214485E-004 0.0 -2.9868822E-007  1.0211203E-004 0.0 -3.7434032E-007  1.0206418E-004 0.0 -4.6107942E-007  1.0199516E-004 0.0 -5.6269444E-007  1.0189505E-004 0.0 -6.8376304E-007  1.0174829E-004 0.0 -8.1076779E-007  1.0156163E-004 0.0 -9.3615685E-007  1.0134368E-004 0.0 -1.0599526E-006  1.0109486E-004 0.0 -1.1821482E-006  1.0081558E-004 0.0 -1.3027588E-006  1.0050624E-004 0.0 -1.4217948E-006  1.0016723E-004 0.0 -1.5392581E-006  9.9798947E-005 0.0 -1.6551596E-006  9.9401769E-005 0.0 -1.7695101E-006  9.8976079E-005 0.0 -1.8823003E-006  9.8522272E-005 0.0 -1.9935432E-006  9.8040723E-005 0.0 -2.1032470E-006  9.7531823E-005 0.0 -2.2114149E-006  9.6995949E-005 0.0 -2.3180560E-006  9.6433478E-005 0.0 -2.4231657E-006  9.5844788E-005 0.0 -2.5267573E-006  9.5230261E-005 0.0 -2.6288255E-006  9.4590268E-005 0.0 -2.7293838E-006  9.3925191E-005 0.0 -2.8284331E-006  9.3235401E-005 0.0 -2.9259819E-006  9.2521268E-005 0.0 -3.0220244E-006  9.1783164E-005 0.0 -3.1165723E-006  9.1021465E-005 0.0 -3.2096218E-006  9.0236536E-005 0.0 -3.3011849E-006  8.9428754E-005 0.0 -3.3912626E-006  8.8598483E-005 0.0 -3.4798640E-006  8.7746089E-005 0.0 -3.5669827E-006  8.6871935E-005 0.0 -3.6526293E-006  8.5976393E-005 0.0 -3.7367978E-006  8.5059822E-005 0.0 -3.8195006E-006  8.4122594E-005 0.0 -3.9007374E-006  8.3165069E-005 0.0 -3.9805164E-006  8.2187606E-005 0.0 -4.0588316E-006  8.1190568E-005 0.0 -4.1356944E-006  8.0174319E-005 0.0 -4.2110981E-006  7.9139213E-005 0.0 -4.2850529E-006  7.8085617E-005 0.0 -4.3575586E-006  7.7013889E-005 0.0 -4.4286239E-006  7.5924384E-005 0.0 -4.4982416E-006  7.4817457E-005 0.0 -4.5664201E-006  7.3693470E-005 0.0 -4.6331531E-006  7.2552777E-005 0.0 -4.6984538E-006  7.1395738E-005 0.0 -4.7623140E-006  7.0222706E-005 0.0 -4.8247471E-006  6.9034040E-005 0.0 -4.8857447E-006  6.7830087E-005 0.0 -4.9453179E-006  6.6611210E-005 0.0 -5.0034645E-006  6.5377757E-005 0.0 -5.0601908E-006  6.4130080E-005 0.0 -5.1154932E-006  6.2868530E-005 0.0 -5.1693736E-006  6.1593460E-005 0.0 -5.2218315E-006  6.0305223E-005 0.0 -5.2728707E-006  5.9004170E-005 0.0 -5.3224843E-006  5.7690650E-005 0.0 -5.3706780E-006  5.6365024E-005 0.0 -5.4174553E-006  5.5027640E-005 0.0 -5.4628182E-006  5.3678846E-005 0.0 -5.5067652E-006  5.2318992E-005 0.0 -5.5492974E-006  5.0948431E-005 0.0 -5.5904150E-006  4.9567510E-005 0.0 -5.6301193E-006  4.8176580E-005 0.0 -5.6684035E-006  4.6775990E-005 0.0 -5.7052692E-006  4.5366095E-005 0.0 -5.7407173E-006  4.3947249E-005 0.0 -5.7747596E-006  4.2519799E-005 0.0 -5.8073874E-006  4.1084088E-005 0.0 -5.8385952E-006  3.9640469E-005 0.0 -5.8683822E-006  3.8189291E-005 0.0 -5.8967394E-006  3.6730908E-005 0.0 -5.9236623E-006  3.5265676E-005 0.0 -5.9491483E-006  3.3793951E-005 0.0 -5.9731974E-006  3.2316095E-005 0.0 -5.9958132E-006  3.0832460E-005 0.0 -6.0169820E-006  2.9343407E-005 0.0 -6.0367023E-006  2.7849316E-005 0.0 -6.0549733E-006  2.6350602E-005 0.0 0.0 0.0 0.0 0.0 0.0 0.0 0.0 0.0 0.0 0.0 0.0 0.0 0.0 0.0 0.0 0.0 0.0 0.0 0.0 0.0 0.0 0.0 0.0 0.0 0.0 0.0 0.0 0.0 0.0 0.0 0.0 0.0 0.0 0.0 0.0 0.0 0.0 0.0 0.0 0.0 0.0 0.0 0.0 0.0 0.0 0.0 0.0 0.0 0.0 0.0 0.0 0.0 0.0 0.0 0.0 0.0 0.0 0.0 0.0 0.0 0.0 0.0 0.0 0.0 0.0 0.0 0.0 0.0 0.0 0.0 0.0 0.0 0.0 0.0 0.0 0.0 0.0 0.0 0.0 0.0 0.0 0.0 0.0 0.0 0.0 0.0 0.0 0.0 0.0 0.0 0.0 0.0 0.0 0.0 0.0 0.0 0.0 0.0 0.0 0.0 0.0 0.0 0.0 0.0 0.0 0.0 0.0 0.0 0.0 0.0 0.0 0.0 0.0 0.0 0.0 0.0 0.0 0.0 0.0 0.0 0.0 0.0 0.0 0.0 0.0 0.0 0.0 0.0 0.0 0.0 0.0 0.0 0.0 0.0 0.0 0.0 0.0 0.0 0.0 0.0 0.0 0.0 0.0 0.0 0.0 0.0 0.0 0.0 0.0 0.0 0.0 0.0 0.0 0.0 0.0 0.0 0.0 0.0 0.0 0.0 0.0 0.0 0.0 0.0 0.0 0.0 0.0 0.0 0.0 0.0 0.0 0.0 0.0 0.0 0.0 0.0 0.0 0.0 0.0 0.0 0.0 0.0 0.0 0.0 0.0 0.0 0.0 0.0 0.0 0.0 0.0 0.0 0.0 0.0 0.0 0.0 0.0 0.0 0.0 0.0 0.0 0.0 0.0 0.0 0.0 0.0 0.0 0.0 0.0 0.0 0.0 0.0 0.0 0.0 0.0 0.0 0.0 0.0 0.0 0.0 0.0 0.0 0.0 0.0 0.0 0.0 0.0 0.0 0.0 0.0 0.0 0.0 0.0 0.0 0.0 0.0 0.0 0.0 0.0 0.0 0.0 0.0 0.0 0.0 0.0 0.0 0.0 0.0 0.0 0.0 0.0 0.0 0.0 0.0 0.0 0.0 0.0 0.0 0.0 0.0 0.0 0.0 0.0 0.0 0.0 0.0 0.0 0.0 0.0 0.0 0.0 0.0 0.0 0.0 0.0 0.0 0.0 0.0 0.0 0.0 0.0 0.0 0.0 0.0 0.0 0.0 0.0 0.0 0.0 0.0 0.0 0.0 0.0 0.0 0.0 0.0 0.0 0.0 0.0 0.0 0.0 0.0 0.0 0.0 0.0 0.0 0.0 0.0 0.0 0.0 0.0 0.0 0.0 0.0 0.0 0.0 0.0 0.0 0.0 0.0 0.0 0.0 0.0 0.0 0.0 0.0 0.0 0.0 0.0 0.0 0.0 0.0 0.0 0.0 0.0 0.0 0.0 0.0 0.0 0.0 0.0 0.0 0.0 0.0 0.0 0.0 0.0 0.0 0.0 0.0 0.0 0.0 0.0 0.0 0.0 0.0 0.0 0.0 0.0 0.0 0.0 0.0 0.0 0.0 0.0 0.0 0.0 0.0 0.0 0.0 0.0 0.0 0.0 0.0 0.0 0.0 0.0 0.0 0.0 0.0 0.0 0.0 0.0 0.0 0.0 0.0 0.0 0.0 0.0 0.0 0.0 0.0 0.0 0.0 0.0 0.0 0.0 0.0 0.0 0.0 0.0 0.0 0.0 0.0 0.0 0.0 0.0 0.0 0.0 0.0 0.0 0.0 0.0 0.0 0.0 0.0 0.0 0.0 0.0 0.0 0.0 0.0 0.0 0.0 0.0 0.0 0.0 0.0 0.0 0.0 0.0 0.0 0.0 0.0 0.0 0.0 0.0 0.0 0.0 0.0 0.0 0.0 0.0 0.0 0.0 0.0 0.0 0.0 0.0 0.0 0.0 0.0 0.0 0.0 0.0 0.0 0.0 0.0 0.0 0.0 0.0 0.0 0.0 0.0 0.0 0.0 0.0 0.0 0.0 0.0 0.0 0.0 0.0 0.0 0.0 0.0 0.0 0.0 0.0 0.0 0.0 0.0 0.0 0.0 0.0 0.0 0.0 0.0 0.0 0.0 0.0 0.0 0.0 0.0 0.0 0.0 0.0 0.0 0.0 0.0 0.0 0.0 0.0 0.0 0.0 0.0 0.0 0.0 0.0 0.0 0.0 0.0 0.0 0.0 0.0 0.0 0.0 0.0 0.0 0.0 0.0 0.0 0.0 0.0 0.0 0.0 0.0 0.0 0.0 0.0 0.0 0.0 0.0 0.0 0.0 0.0 0.0 0.0 0.0 0.0 0.0 0.0 0.0 0.0 0.0 0.0 0.0 0.0 0.0 0.0 0.0 0.0 0.0 0.0 0.0 0.0 0.0 0.0 0.0 0.0 0.0 0.0 0.0 0.0 0.0 0.0 0.0 0.0 0.0 0.0 0.0 0.0 0.0 0.0 0.0 0.0 0.0 0.0 0.0 0.0 0.0 0.0 0.0 0.0 0.0 0.0 0.0 0.0 0.0 0.0 0.0 0.0 0.0 0.0 0.0 0.0 0.0 0.0 0.0 0.0 0.0 0.0 0.0 0.0 0.0 0.0 0.0 0.0 0.0 0.0 0.0 0.0 0.0 0.0 0.0 0.0 0.0 0.0 0.0 0.0 0.0 0.0 0.0 0.0 0.0 0.0 0.0 0.0 0.0 0.0 0.0 0.0 0.0 0.0 0.0 0.0 0.0 0.0 0.0 0.0 0.0 0.0 0.0 0.0 0.0 0.0 0.0 0.0 0.0 0.0 0.0 0.0 0.0 0.0 0.0 0.0 0.0 0.0 0.0 0.0 0.0 0.0 0.0 0.0 0.0 0.0 0.0 0.0 0.0 0.0 0.0 0.0 0.0 0.0 0.0 0.0 0.0 0.0 0.0 0.0 0.0 0.0 0.0 0.0 0.0 0.0 0.0 0.0 0.0 0.0 0.0 0.0 0.0 0.0 0.0 0.0 0.0 0.0 0.0 0.0 0.0 0.0 0.0 0.0 0.0 0.0 0.0 0.0 0.0 0.0 0.0 0.0 0.0 0.0 0.0 0.0 0.0 0.0 0.0 0.0 0.0 0.0 0.0 -5.9111479E-008  1.0213401E-004 0.0 -5.6288812E-008  1.0209249E-004 0.0 -5.1843283E-008  1.0205646E-004 0.0 -4.6229927E-008  1.0202558E-004 0.0 -3.9738137E-008  1.0199968E-004 0.0 -3.2559998E-008  1.0197863E-004 0.0 -2.4861977E-008  1.0196234E-004 0.0 -1.6785181E-008  1.0195074E-004 0.0 -8.4618098E-009  1.0194382E-004 0.0 0.0 0.0 0.0 0.0 0.0 0.0 0.0 0.0 0.0 0.0 0.0 0.0 0.0 0.0 0.0 0.0 0.0 0.0 0.0 0.0 0.0 0.0 0.0 0.0 0.0 0.0 0.0 0.0 0.0 0.0 0.0 0.0 0.0 0.0 0.0 0.0 0.0 0.0 0.0 0.0 0.0 0.0 0.0 0.0 0.0 0.0 0.0 0.0 0.0 0.0 0.0 0.0 0.0 0.0 0.0 0.0 0.0 0.0 0.0 0.0 0.0 0.0 0.0 0.0 0.0 0.0 0.0 0.0 0.0 0.0 0.0 0.0 0.0 0.0 0.0 0.0 0.0 0.0 0.0 0.0 0.0 0.0 0.0 0.0 0.0 0.0 0.0 0.0 0.0 0.0 0.0 0.0 0.0 0.0 0.0 0.0 0.0 0.0 0.0 0.0 0.0 0.0 0.0 0.0 0.0 0.0 0.0 0.0 0.0 0.0 0.0 0.0 0.0 0.0 0.0 0.0 0.0 0.0 0.0 0.0 0.0 0.0 0.0 0.0 0.0 0.0 0.0 0.0 0.0 0.0 0.0 0.0 0.0 0.0 0.0 0.0 0.0 0.0 0.0 0.0 0.0 0.0 0.0 0.0 0.0 0.0 0.0 -8.5218308E-014  1.5677042E-006 0.0 -5.3549870E-015  3.1328287E-006 0.0 -1.7973692E-015  4.6944198E-006 0.0  1.2249739E-016  6.2521309E-006 0.0  7.1316701E-015  7.8057998E-006 0.0  6.7436289E-015  9.3553471E-006 0.0  7.0825615E-016  1.0900741E-005 0.0  6.7693698E-016  1.2441975E-005 0.0 -5.1247572E-017  1.3979059E-005 0.0  6.5880176E-016  1.5512010E-005 0.0  5.3651660E-016  1.7040842E-005 0.0  1.1571402E-015  1.8565568E-005 0.0  5.3940358E-016  2.0086187E-005 0.0  7.2735748E-016  2.1602682E-005 0.0 -5.5547893E-015  2.3115007E-005 0.0 -5.7487184E-015  2.4623077E-005 0.0  8.6744353E-015  2.6126754E-005 0.0 -2.7935760E-015  2.7625841E-005 0.0  1.7772900E-014  2.9120087E-005 0.0  6.6103210E-015  3.0609209E-005 0.0  3.0189018E-014  3.2092888E-005 0.0  7.2759432E-015  3.3570785E-005 0.0  3.0656218E-014  3.5042571E-005 0.0  5.2769080E-015  3.6507889E-005 0.0  2.5336131E-014  3.7966378E-005 0.0  7.9284826E-015  3.9417689E-005 0.0  2.2055305E-014  4.0861466E-005 0.0  6.3011842E-015  4.2297358E-005 0.0  3.4378820E-014  4.3725008E-005 0.0  1.3964987E-014  4.5144061E-005 0.0  2.9548733E-014  4.6554175E-005 0.0  4.9818138E-015  4.7954994E-005 0.0  2.5112366E-014  4.9346158E-005 0.0  8.3313898E-015  5.0727320E-005 0.0  2.4713996E-014  5.2098127E-005 0.0  7.8445937E-015  5.3458226E-005 0.0  2.1648699E-014  5.4807265E-005 0.0  8.8073825E-015  5.6144893E-005 0.0  2.9858419E-014  5.7470757E-005 0.0  2.8312440E-015  5.8784504E-005 0.0  2.7456230E-014  6.0085781E-005 0.0  1.3188417E-016  6.1374237E-005 0.0  2.3959316E-014  6.2649512E-005 0.0  8.0061467E-015  6.3911253E-005 0.0  2.1841281E-014  6.5159107E-005 0.0  8.9586033E-015  6.6392722E-005 0.0  3.0161686E-014  6.7611745E-005 0.0  2.4432174E-015  6.8815818E-005 0.0  2.4232274E-014  7.0004585E-005 0.0  1.9567204E-016  7.1177693E-005 0.0  2.9637491E-014  7.2334782E-005 0.0  2.5047097E-015  7.3475492E-005 0.0  2.7969999E-014  7.4599471E-005 0.0 -1.5547420E-016  7.5706361E-005 0.0  2.1494470E-014  7.6795797E-005 0.0  9.0819816E-015  7.7867420E-005 0.0  3.0422547E-014  7.8920875E-005 0.0  2.7512753E-015  7.9955800E-005 0.0  2.8306392E-014  8.0971834E-005 0.0 -1.2948328E-016  8.1968616E-005 0.0  2.1801363E-014  8.2945776E-005 0.0  9.2047781E-015  8.3902953E-005 0.0  3.0748999E-014  8.4839787E-005 0.0  2.5479611E-015  8.5755912E-005 0.0  2.8588122E-014  8.6650963E-005 0.0 -1.4324710E-015  8.7524575E-005 0.0  1.8951374E-014  8.8376372E-005 0.0  5.0779091E-015  8.9205989E-005 0.0  2.6517602E-014  9.0013062E-005 0.0  1.2912046E-015  9.0797216E-005 0.0  2.9632153E-014  9.1558083E-005 0.0 -2.1764931E-015  9.2295295E-005 0.0  1.7769963E-014  9.3008469E-005 0.0  4.4072656E-015  9.3697232E-005 0.0  2.6857250E-014  9.4361217E-005 0.0  1.2391636E-015  9.5000042E-005 0.0  3.0189545E-014  9.5613333E-005 0.0 -2.1261626E-015  9.6200716E-005 0.0  1.8104346E-014  9.6761801E-005 0.0  4.2000440E-015  9.7296210E-005 0.0  2.7114179E-014  9.7803568E-005 0.0  1.3712996E-015  9.8283486E-005 0.0  3.0310757E-014  9.8735584E-005 0.0 -1.9661535E-015  9.9159478E-005 0.0  1.8273706E-014  9.9554772E-005 0.0  3.9144848E-015  9.9921081E-005 0.0  2.7354825E-014  1.0025802E-004 0.0  7.7429615E-016  1.0056520E-004 0.0  3.2016588E-014  1.0084223E-004 0.0  3.0535462E-015  1.0108873E-004 0.0  3.3090135E-014  1.0130433E-004 0.0  1.1716133E-014  1.0148870E-004 0.0  5.6212100E-016  1.0163379E-004 0.0 -1.2092037E-014  1.0173297E-004 0.0  9.3820840E-015  1.0180186E-004 0.0  2.6337629E-015  1.0185056E-004 0.0  8.3684038E-015  1.0188544E-004 0.0 -9.2992608E-016  1.0191058E-004 0.0  3.0347587E-014  1.0192868E-004 0.0 0.0 0.0 0.0 0.0 0.0 0.0 0.0 0.0 0.0 0.0 0.0 0.0 0.0 0.0 0.0 0.0 0.0 0.0 0.0 0.0 0.0 0.0 0.0 0.0 0.0 0.0 0.0 0.0 0.0 0.0 0.0 0.0 0.0 0.0 0.0 0.0 0.0 0.0 0.0 0.0 0.0 0.0 0.0 0.0 0.0 0.0 0.0 0.0 0.0 0.0 0.0 0.0 0.0 0.0 0.0 0.0 0.0 0.0 0.0 0.0 0.0 0.0 0.0 0.0 0.0 0.0 0.0 0.0 0.0 0.0 0.0 0.0 0.0 0.0 0.0 0.0 0.0 0.0 0.0 0.0 0.0 0.0 0.0 0.0 0.0 0.0 0.0 0.0 0.0 0.0 0.0 0.0 0.0 0.0 0.0 0.0 0.0 0.0 0.0 0.0 0.0 0.0 0.0 0.0 0.0 0.0 0.0 0.0 0.0 0.0 0.0 0.0 0.0 0.0 0.0 0.0 0.0 0.0 0.0 0.0 0.0 0.0 0.0 0.0 0.0 0.0 0.0 0.0 0.0 0.0 0.0 0.0 0.0 0.0 0.0 0.0 0.0 0.0 0.0 0.0 0.0 0.0 0.0 0.0 0.0 0.0 0.0 0.0 0.0 0.0 0.0 0.0 0.0 0.0 0.0 0.0 0.0 0.0 0.0 0.0 0.0 0.0 0.0 0.0 0.0 0.0 0.0 0.0 0.0 0.0 0.0 0.0 0.0 0.0 0.0 0.0 0.0 0.0 0.0 0.0 0.0 0.0 0.0 0.0 0.0 0.0 0.0 0.0 0.0 0.0 0.0 0.0 0.0 0.0 0.0 0.0 0.0 0.0 0.0 0.0 0.0 0.0 0.0 0.0 0.0 0.0 0.0 0.0 0.0 0.0 0.0 0.0 0.0 0.0 0.0 0.0 0.0 0.0 0.0 0.0 0.0 0.0 0.0 0.0 0.0 0.0 0.0 0.0 0.0 0.0 0.0 0.0 0.0 0.0 0.0 0.0 0.0 0.0 0.0 0.0 0.0 0.0 0.0 0.0 0.0 0.0 0.0 0.0 0.0 0.0 0.0 0.0 0.0 0.0 0.0 0.0 0.0 0.0 0.0 0.0 0.0 0.0 0.0 0.0 0.0 0.0 0.0 0.0 0.0 0.0 0.0 0.0 0.0 0.0 0.0 0.0 0.0 0.0 0.0 0.0 0.0 0.0 0.0 0.0 0.0 0.0 0.0 0.0 0.0 0.0 0.0 0.0 0.0 0.0 0.0 0.0 0.0 0.0 0.0 0.0 0.0 0.0 0.0 0.0 0.0 0.0 0.0 0.0 0.0 0.0 0.0 0.0 0.0 0.0 0.0 0.0 0.0 0.0 0.0 0.0 0.0 0.0 0.0 0.0 0.0 0.0 0.0 0.0 0.0 0.0 0.0 0.0 0.0 0.0 0.0 0.0 0.0 0.0 0.0 0.0 0.0 0.0 0.0 0.0 0.0 0.0 0.0 0.0 0.0 0.0 0.0 0.0 0.0 0.0 0.0 0.0 0.0 0.0 0.0 0.0 0.0 0.0 0.0 0.0 0.0 0.0 0.0 0.0 0.0 0.0 0.0 0.0 0.0 0.0 0.0 0.0 0.0 0.0 0.0 0.0 0.0 0.0 0.0 0.0 0.0 0.0 0.0 0.0 0.0 0.0 0.0 0.0 0.0 0.0 0.0 0.0 0.0 0.0 0.0 0.0 0.0 0.0 0.0 0.0 0.0 0.0 0.0 0.0 0.0 0.0 0.0 0.0 0.0 0.0 0.0 0.0 0.0 0.0 0.0 0.0 0.0 0.0 0.0 0.0 0.0 0.0 0.0 0.0 0.0 0.0 0.0 0.0 0.0 0.0 0.0 0.0 0.0 0.0 0.0 0.0 0.0 0.0 0.0 0.0 0.0 0.0 0.0 0.0 0.0 0.0 0.0 0.0 0.0 0.0 0.0 0.0 0.0 0.0 0.0 0.0 0.0 0.0 0.0 0.0 0.0 0.0 0.0 0.0 0.0 0.0 0.0 0.0 0.0 0.0 0.0 0.0 0.0 0.0 0.0 0.0 0.0 0.0 0.0 0.0 0.0 0.0 0.0 0.0 0.0 0.0 0.0 0.0 0.0 0.0 0.0 0.0 0.0 0.0 0.0 0.0 0.0 0.0 0.0 0.0 0.0 0.0 0.0 0.0 0.0 0.0 0.0 0.0 0.0 0.0 0.0 0.0 0.0 0.0 0.0 0.0 0.0 0.0 0.0 0.0 0.0 0.0 0.0 0.0 0.0 0.0 0.0 0.0 0.0 0.0 0.0 0.0 0.0 0.0 0.0 0.0 0.0 0.0 0.0 0.0 0.0 0.0 0.0 0.0 0.0 0.0 0.0 0.0 0.0 0.0 0.0 0.0 0.0 0.0 0.0 0.0 0.0 0.0 0.0 0.0 0.0 0.0 0.0 0.0 0.0 0.0 0.0 0.0 0.0 0.0 0.0 0.0 0.0 0.0 0.0 0.0 0.0 0.0 0.0 0.0 0.0 0.0 0.0 0.0 0.0 0.0 0.0 0.0 0.0 0.0 0.0 0.0 0.0 0.0 0.0 0.0 0.0 0.0 0.0 0.0 0.0 0.0 0.0 0.0 0.0 0.0 0.0 0.0 0.0 0.0 0.0 0.0 0.0 0.0 0.0 0.0 0.0 0.0 0.0 0.0 0.0 0.0 0.0 0.0 0.0 0.0 0.0 0.0 0.0 0.0 0.0 0.0 0.0 0.0 0.0 0.0 0.0 0.0 0.0 0.0 0.0 0.0 0.0 0.0 0.0 0.0 0.0 0.0 0.0 0.0 0.0 0.0 0.0 0.0 0.0 0.0 0.0 0.0 0.0 0.0 0.0 0.0 0.0 0.0 0.0 0.0 0.0 0.0 0.0 0.0 0.0 0.0 0.0 0.0 0.0 0.0 0.0 0.0 0.0 0.0 0.0 0.0 0.0 0.0 0.0 0.0 0.0 0.0 0.0 0.0 0.0 0.0 0.0 0.0 0.0 0.0 0.0 0.0 0.0 0.0 0.0 0.0 0.0 0.0 0.0 0.0 0.0 0.0 0.0 0.0 0.0 0.0 0.0 0.0 0.0 0.0 0.0 0.0 0.0 0.0 0.0 0.0 0.0 0.0 0.0 0.0 0.0 0.0 0.0 0.0 0.0 0.0 0.0 0.0 0.0 0.0 0.0 0.0 0.0 0.0 0.0 0.0 0.0 0.0 0.0 0.0 0.0 0.0 0.0 0.0 0.0 0.0 0.0 0.0 0.0 0.0 0.0 0.0 0.0 0.0 0.0 0.0 0.0 0.0 0.0 0.0 0.0 0.0 0.0 0.0 0.0 0.0 0.0 0.0 0.0 0.0 0.0 0.0 0.0 0.0 0.0 0.0 0.0 0.0 0.0 0.0 0.0 0.0 0.0 0.0 0.0 0.0 0.0 0.0 0.0 0.0 0.0 0.0 0.0 0.0 0.0 0.0 0.0 0.0 0.0 0.0 0.0 0.0 0.0 0.0 0.0 0.0 0.0 0.0 0.0 0.0 0.0 0.0 0.0 0.0 0.0 0.0 0.0 0.0 0.0 0.0 0.0 0.0 0.0 0.0 0.0 0.0 0.0 0.0 0.0 0.0 0.0 0.0 0.0 0.0 0.0 0.0 0.0 0.0 0.0 0.0 0.0 0.0 0.0 0.0 0.0 0.0 0.0 0.0 0.0 0.0 0.0 0.0 0.0 0.0 0.0 0.0 0.0 0.0 0.0 0.0 0.0 0.0 0.0 0.0 0.0 0.0 0.0 0.0 0.0 0.0 0.0 0.0 0.0 0.0 0.0 0.0 0.0 0.0 0.0 0.0 0.0 0.0 0.0 0.0 0.0 0.0 0.0 0.0 0.0 0.0 0.0 0.0 0.0 0.0 0.0 0.0 0.0 0.0 0.0 0.0 0.0 0.0 0.0 0.0 0.0 0.0 0.0 0.0 0.0 0.0 0.0 0.0 0.0 0.0 0.0 0.0 0.0 0.0 0.0 0.0 0.0 0.0 0.0 0.0 0.0 0.0 0.0 0.0 0.0 0.0 0.0 0.0 0.0 0.0 0.0 0.0 0.0 0.0 0.0 0.0 0.0 0.0 0.0 0.0 0.0 0.0 0.0 0.0 0.0 0.0 0.0 0.0 0.0 0.0 0.0 0.0 0.0 0.0 0.0 0.0 0.0 0.0 0.0 0.0 0.0 0.0 0.0 0.0 0.0 0.0 0.0 0.0 0.0 0.0 0.0 0.0 0.0 0.0 0.0 0.0 0.0 0.0 0.0 0.0 0.0 0.0 0.0 0.0 0.0 0.0 0.0 0.0 0.0 0.0 0.0 0.0 0.0 0.0 0.0 0.0 0.0 0.0 0.0 0.0 0.0 0.0 0.0 0.0 0.0 0.0 0.0 0.0 0.0 0.0 0.0 0.0 0.0 0.0 0.0 0.0 0.0 0.0 0.0 0.0 0.0 0.0 0.0 0.0 0.0 0.0 0.0 0.0 0.0 0.0 0.0 0.0 0.0 0.0 0.0 0.0 0.0 0.0 0.0 0.0 0.0 0.0 0.0 0.0 0.0 0.0 0.0 0.0 0.0 0.0 0.0 0.0 0.0 0.0 0.0 0.0 0.0 0.0 0.0 0.0 0.0 0.0 0.0 0.0 0.0 0.0 0.0 0.0 0.0 0.0 0.0 0.0 0.0 0.0 0.0 0.0 0.0 0.0 0.0 0.0 0.0 0.0 0.0 0.0 0.0 0.0 0.0 0.0 0.0 0.0 0.0 0.0 0.0 0.0 0.0 0.0 0.0 0.0 0.0 0.0 0.0 0.0 0.0 0.0 0.0 0.0 0.0 0.0 0.0 0.0 0.0 0.0 0.0 0.0 0.0 0.0 0.0 0.0 0.0 0.0 0.0 0.0 0.0 0.0 0.0 0.0 0.0 0.0 0.0 0.0 0.0 0.0 0.0 0.0 0.0 0.0 0.0 0.0 0.0 0.0 0.0 0.0 0.0 0.0 0.0 0.0 0.0 0.0 0.0 0.0 0.0 0.0 0.0 0.0 0.0 0.0 0.0 0.0 0.0 0.0 0.0 0.0 0.0 0.0 0.0 0.0 0.0 0.0 0.0 0.0 0.0 0.0 0.0 0.0 0.0 0.0 0.0 0.0 0.0 0.0 0.0 0.0 0.0 0.0 0.0 0.0 0.0 0.0 0.0 0.0 0.0 0.0 0.0 0.0 0.0 0.0 0.0 0.0 0.0 0.0 0.0 0.0 0.0 0.0 0.0 0.0 0.0 0.0 0.0 0.0 0.0 0.0 0.0 0.0 0.0 0.0 0.0 0.0 0.0 0.0 0.0 0.0 0.0 0.0 0.0 0.0 0.0 0.0 0.0 0.0 0.0 0.0 0.0 0.0 0.0 0.0 0.0 0.0 0.0 0.0 0.0 0.0 0.0 0.0 0.0 0.0 0.0 0.0 0.0 0.0 0.0 0.0 0.0 0.0 0.0 0.0 0.0 0.0 0.0 0.0 0.0 0.0 0.0 0.0 0.0 0.0 0.0 0.0 0.0 0.0 0.0 0.0 0.0 0.0 0.0 0.0 0.0 0.0 0.0 0.0 0.0 0.0 0.0 0.0 0.0 0.0 0.0 0.0 0.0 0.0 0.0 0.0 0.0 0.0 0.0 0.0 0.0 0.0 0.0 0.0 0.0 0.0 0.0 0.0 0.0 0.0 0.0 0.0 0.0 0.0 0.0 0.0 0.0 0.0 0.0 0.0 0.0 0.0 0.0 0.0 0.0 0.0 0.0 0.0 0.0 0.0 0.0 0.0 0.0 0.0 0.0 0.0 0.0 0.0 0.0 0.0 0.0 0.0 0.0 0.0 0.0 0.0 0.0 0.0 0.0 0.0 0.0 0.0 0.0 0.0 0.0 0.0 0.0 0.0 0.0 0.0 0.0 0.0 0.0 0.0 0.0 0.0 0.0 0.0 0.0 0.0 0.0 0.0 0.0 0.0 0.0 0.0 0.0 0.0 0.0 0.0 0.0 0.0 0.0 0.0 0.0 0.0 0.0 0.0 0.0 0.0 0.0 0.0 0.0 0.0 0.0 0.0 0.0 0.0 0.0 0.0 0.0 0.0 0.0 0.0 0.0 0.0 0.0 0.0 0.0 0.0 0.0 0.0 0.0 0.0 0.0 0.0 0.0 0.0 0.0 0.0 0.0 0.0 0.0 0.0 0.0 0.0 0.0 0.0 0.0 0.0 0.0 0.0 0.0 0.0 0.0 0.0 0.0 0.0 0.0 0.0 0.0 0.0 0.0 0.0 0.0 0.0 0.0 0.0 0.0 0.0 0.0 0.0 0.0 0.0 0.0 0.0 0.0 0.0 0.0 0.0 0.0 0.0 0.0 0.0 0.0 0.0 0.0 0.0 0.0 0.0 0.0 0.0 0.0 0.0 0.0 0.0 0.0 0.0 0.0 0.0 0.0 0.0 0.0 0.0 0.0 0.0 0.0 0.0 0.0 0.0 0.0 0.0 0.0 0.0 0.0 0.0 0.0 0.0 0.0 0.0 0.0 0.0 0.0 0.0 0.0 0.0 0.0 0.0 0.0 0.0 0.0 0.0 0.0 0.0 0.0 0.0 0.0 0.0 0.0 0.0 0.0 0.0 0.0 0.0 0.0 0.0 0.0 0.0 0.0 0.0 0.0 0.0 0.0 0.0 0.0 0.0 0.0 0.0 0.0 0.0 0.0 0.0 0.0 0.0 0.0 0.0 0.0 0.0 0.0 0.0 0.0 0.0 0.0 0.0 0.0 0.0 0.0 0.0 0.0 0.0 0.0 0.0 0.0 0.0 0.0 0.0 0.0 0.0 0.0 0.0 0.0 0.0 0.0 0.0 0.0 0.0 0.0 0.0 0.0 0.0 0.0 0.0 0.0 0.0 0.0 0.0 0.0 0.0 0.0 0.0 0.0 0.0 0.0 0.0 0.0 0.0 0.0 0.0 0.0 0.0 0.0 0.0 0.0 0.0 0.0 0.0 0.0 0.0 0.0 0.0 0.0 0.0 0.0 0.0 0.0 0.0 0.0 0.0 0.0 0.0 0.0 0.0 0.0 0.0 0.0 0.0 0.0 0.0 0.0 0.0 0.0 0.0 0.0 0.0 0.0 0.0 0.0 0.0 0.0 0.0 0.0 0.0 0.0 0.0 0.0 0.0 0.0 0.0 0.0 0.0 0.0 0.0 0.0 0.0 0.0 0.0 0.0 0.0 0.0 0.0 0.0 0.0 0.0 0.0 0.0 0.0 0.0 0.0 0.0 0.0 0.0 0.0 0.0 0.0 0.0 0.0 0.0 0.0 0.0 0.0 0.0 0.0 0.0 0.0 0.0 0.0 0.0 0.0 0.0 0.0 0.0 0.0 0.0 0.0 0.0 0.0 0.0 0.0 0.0 0.0 0.0 0.0 0.0 0.0 0.0 0.0 0.0 0.0 0.0 0.0 0.0 0.0 0.0 0.0 0.0 0.0 0.0 0.0 0.0 0.0 0.0 0.0 0.0 0.0 0.0 0.0 0.0 0.0 0.0 0.0 0.0 0.0 0.0 0.0 0.0 0.0 0.0 0.0 0.0 0.0 0.0 0.0 0.0 0.0 0.0 0.0 0.0 0.0 0.0 0.0 0.0 0.0 0.0 0.0 0.0 0.0 0.0 0.0 0.0 0.0 0.0 0.0 0.0 0.0 0.0 0.0 0.0 0.0 0.0 0.0 0.0 0.0 0.0 0.0 0.0 0.0 0.0 0.0 0.0 0.0 0.0 0.0 0.0 0.0 0.0 0.0 0.0 0.0 0.0 0.0 0.0 0.0 0.0 0.0 0.0 0.0 0.0 0.0 0.0 0.0 0.0 0.0 0.0 0.0 0.0 0.0 0.0 0.0 0.0 0.0 0.0 0.0 0.0 0.0 0.0 0.0 0.0 0.0 0.0 0.0 0.0 0.0 0.0 0.0 0.0 0.0 0.0 0.0 0.0 0.0 0.0 0.0 0.0 0.0 0.0 0.0 0.0 0.0 0.0 0.0 0.0 0.0 0.0 0.0 0.0 0.0 0.0 0.0 0.0 0.0 0.0 0.0 0.0 0.0 0.0 0.0 0.0 0.0 0.0 0.0 0.0 0.0 0.0 0.0 0.0 0.0 0.0 0.0 0.0 0.0 0.0 0.0 0.0 0.0 0.0 0.0 0.0 0.0 0.0 0.0 0.0 0.0 0.0 0.0 0.0 0.0 0.0 0.0 0.0 0.0 0.0 0.0 0.0 0.0 0.0 0.0 0.0 0.0 0.0 0.0 0.0 0.0 0.0 0.0 0.0 0.0 0.0 0.0 0.0 0.0 0.0 0.0 0.0 0.0 0.0 0.0 0.0 0.0 0.0 0.0 0.0 0.0 0.0 0.0 0.0 0.0 0.0 0.0 0.0 0.0 0.0 0.0 0.0 0.0 0.0 0.0 0.0 0.0 0.0 0.0 0.0 0.0 0.0 0.0 0.0 0.0 0.0 0.0 0.0 0.0 0.0 0.0 0.0 0.0 0.0 0.0 0.0 0.0 0.0 0.0 0.0 0.0 0.0 0.0 0.0 0.0 0.0 0.0 0.0 0.0 0.0 0.0 0.0 0.0 0.0 0.0 0.0 0.0 0.0 0.0 0.0 0.0 0.0 0.0 0.0 0.0 0.0 0.0 0.0 0.0 0.0 0.0 0.0 0.0 0.0 0.0 0.0 0.0 0.0 0.0 0.0 0.0 0.0 0.0 0.0 0.0 0.0 0.0 0.0 0.0 0.0 0.0 0.0 0.0 0.0 0.0 0.0 0.0 0.0 0.0 0.0 0.0 0.0 0.0 0.0 0.0 0.0 0.0 0.0 0.0 0.0 0.0 0.0 0.0 0.0 0.0 0.0 0.0 0.0 0.0 0.0 0.0 0.0 0.0 0.0 0.0 0.0 0.0 0.0 0.0 0.0 0.0 0.0 0.0 0.0 0.0 0.0 0.0 0.0 0.0 0.0 0.0 0.0 0.0 0.0 0.0 0.0 0.0 0.0 0.0 0.0 0.0 0.0 0.0 0.0 0.0 0.0 0.0 0.0 0.0 0.0 0.0 0.0 0.0 0.0 0.0 0.0 0.0 0.0 0.0 0.0 0.0 0.0 0.0 0.0 0.0 0.0 0.0 0.0 0.0 0.0 0.0 0.0 0.0 0.0 0.0 0.0 0.0 0.0 0.0 0.0 0.0 0.0 0.0 0.0 0.0 0.0 0.0 0.0 0.0 0.0 0.0 0.0 0.0 0.0 0.0 0.0 0.0 0.0 0.0 0.0 0.0 0.0 0.0 0.0 0.0 0.0 0.0 0.0 0.0 0.0 0.0 0.0 0.0 0.0 0.0 0.0 0.0 0.0 0.0 0.0 0.0 0.0 0.0 0.0 0.0 0.0 0.0 0.0 0.0 0.0 0.0 0.0 0.0 0.0 0.0 0.0 0.0 0.0 0.0 0.0 0.0 0.0 0.0 0.0 0.0 0.0 0.0 0.0 0.0 0.0 0.0 0.0 0.0 0.0 0.0 0.0 0.0 0.0 0.0 0.0 0.0 0.0 0.0 0.0 0.0 0.0 0.0 0.0 0.0 0.0 0.0 0.0 0.0 0.0 0.0 0.0 0.0 0.0 0.0 0.0 0.0 0.0 0.0 0.0 0.0 0.0 0.0 0.0 0.0 0.0 0.0 0.0 0.0 0.0 0.0 0.0 0.0 0.0 0.0 0.0 0.0 0.0 0.0 0.0 0.0 0.0 0.0 0.0 0.0 0.0 0.0 0.0 0.0 0.0 0.0 0.0 0.0 0.0 0.0 0.0 0.0 0.0 0.0 0.0 0.0 0.0 0.0 0.0 0.0 0.0 0.0 0.0 0.0 0.0 0.0 0.0 0.0 0.0 0.0 0.0 0.0 0.0 0.0 0.0 0.0 0.0 0.0 0.0 0.0 0.0 0.0 0.0 0.0 0.0 0.0 0.0 0.0 0.0 0.0 0.0 0.0 0.0 0.0 0.0 0.0 0.0 0.0 0.0 0.0 0.0 0.0 0.0 0.0 0.0 0.0 0.0 0.0 0.0 0.0 0.0 0.0 0.0 0.0 0.0 0.0 0.0 0.0 0.0 0.0 0.0 0.0 0.0 0.0 0.0 0.0 0.0 0.0 0.0 0.0 0.0 0.0 0.0 0.0 0.0 0.0 0.0 0.0 0.0 0.0 0.0 0.0 0.0 0.0 0.0 0.0 0.0 0.0 0.0 0.0 0.0 0.0 0.0 0.0 0.0 0.0 0.0 0.0 0.0 0.0 0.0 0.0 0.0 0.0 0.0 0.0 0.0 0.0 0.0 0.0 0.0 0.0 0.0 0.0 0.0 0.0 0.0 0.0 0.0 0.0 0.0 0.0 0.0 0.0 0.0 0.0 0.0 0.0 0.0 0.0 0.0 0.0 0.0 0.0 0.0 0.0 0.0 0.0 0.0 0.0 0.0 0.0 0.0 0.0 0.0 0.0 0.0 0.0 0.0 0.0 0.0 0.0 0.0 0.0 0.0 0.0 0.0 0.0 0.0 0.0 0.0 0.0 0.0 0.0 0.0 0.0 0.0 0.0 0.0 0.0 0.0 0.0 0.0 0.0 0.0 0.0 0.0 0.0 0.0 0.0 0.0 0.0 0.0 0.0 0.0 0.0 0.0 0.0 0.0 0.0 0.0 0.0 0.0 0.0 0.0 0.0 0.0 0.0 0.0 0.0 0.0 0.0 0.0 0.0 0.0 0.0 0.0 0.0 0.0 0.0 0.0 0.0 0.0 0.0 0.0 0.0 0.0 0.0 0.0 0.0 0.0 0.0 0.0 0.0 0.0 0.0 0.0 0.0 0.0 0.0 0.0 0.0 0.0 0.0 0.0 0.0 0.0 0.0 0.0 0.0 0.0 0.0 0.0 0.0 0.0 0.0 0.0 0.0 0.0 0.0 0.0 0.0 0.0 0.0 0.0 0.0 0.0 0.0 0.0 0.0 0.0 0.0 0.0 0.0 0.0 0.0 0.0 0.0 0.0 0.0 0.0 0.0 0.0 0.0 0.0 0.0 0.0 0.0 0.0 0.0 0.0 0.0 0.0 0.0 0.0 0.0 0.0 0.0 0.0 0.0 0.0 0.0 0.0 0.0 0.0 0.0 0.0 0.0 0.0 0.0 0.0 0.0 0.0 0.0 0.0 0.0 0.0 0.0 0.0 0.0 0.0 0.0 0.0 0.0 0.0 0.0 0.0 0.0 0.0 0.0 0.0 0.0 0.0 0.0 0.0 0.0 0.0 0.0 0.0 0.0 0.0 0.0 0.0 0.0 0.0 0.0 0.0 0.0 0.0 0.0 0.0 0.0 0.0 0.0 0.0 0.0 0.0 0.0 0.0 0.0 0.0 0.0 0.0 0.0 0.0 0.0 0.0 0.0 0.0 0.0 0.0 0.0 0.0 0.0 0.0 0.0 0.0 0.0 0.0 0.0 0.0 0.0 0.0 0.0 0.0 0.0 0.0 0.0 0.0 0.0 0.0 0.0 0.0 0.0 0.0 0.0 0.0 0.0 0.0 0.0 0.0 0.0 0.0 0.0 0.0 0.0 0.0 0.0 0.0 0.0 0.0 0.0 0.0 0.0 0.0 0.0 0.0 0.0 0.0 0.0 0.0 0.0 0.0 0.0 0.0 0.0 0.0 0.0 0.0 0.0 0.0 0.0 0.0 0.0 0.0 0.0 0.0 0.0 0.0 0.0 0.0 0.0 0.0 0.0 0.0 0.0 0.0 0.0 0.0 0.0 0.0 0.0 0.0 0.0 0.0 0.0 0.0 0.0 0.0 0.0 0.0 0.0 0.0 0.0 0.0 0.0 0.0 0.0 0.0 0.0 0.0 0.0 0.0 0.0 0.0 0.0 0.0 0.0 0.0 0.0 0.0 0.0 0.0 0.0 0.0 0.0 0.0 0.0 0.0 0.0 0.0 0.0 0.0 0.0 0.0 0.0 0.0 0.0 0.0 0.0 0.0 0.0 0.0 0.0 0.0 0.0 0.0 0.0 0.0 0.0 0.0 0.0 0.0 0.0 0.0 0.0 0.0 0.0 0.0 0.0 0.0 0.0 0.0 0.0 0.0 0.0 0.0 0.0 0.0 0.0 0.0 0.0 0.0 0.0 0.0 0.0 0.0 0.0 0.0 0.0 0.0 0.0 0.0 0.0 0.0 0.0 0.0 0.0 0.0 0.0 0.0 0.0 0.0 0.0 0.0 0.0 0.0 0.0 0.0 0.0 0.0 0.0 0.0 0.0 0.0 0.0 0.0 0.0 0.0 0.0 0.0 0.0 0.0 0.0 0.0 0.0 0.0 0.0 0.0 0.0 0.0 0.0 0.0 0.0 0.0 0.0 0.0 0.0 0.0 0.0 0.0 0.0 0.0 0.0 0.0 0.0 0.0 0.0 0.0 0.0 0.0 0.0 0.0 0.0 0.0 0.0 0.0 0.0 0.0 0.0 0.0 0.0 0.0 0.0 0.0 0.0 0.0 0.0 0.0 0.0 0.0 0.0 0.0 0.0 0.0 0.0 0.0 0.0 0.0 0.0 0.0 0.0 0.0 0.0 0.0 0.0 0.0 0.0 0.0 0.0 0.0 0.0 0.0 0.0 0.0 0.0 0.0 0.0 0.0 0.0 0.0 0.0 0.0 0.0 0.0 0.0 0.0 0.0 0.0 0.0 0.0 0.0 0.0 0.0 0.0 0.0 0.0 0.0 0.0 0.0 0.0 0.0 0.0 0.0 0.0 0.0 0.0 0.0 0.0 0.0 0.0 0.0 0.0 0.0 0.0 0.0 0.0 0.0 0.0 0.0 0.0 0.0 0.0 0.0 0.0 0.0 0.0 0.0 0.0 0.0 0.0 0.0 0.0 0.0 0.0 0.0 0.0 0.0 0.0 0.0 0.0 0.0 0.0 0.0 0.0 0.0 0.0 0.0 0.0 0.0 0.0 0.0 0.0 0.0 0.0 0.0 0.0 0.0 0.0 0.0 0.0 0.0 0.0 0.0 0.0 0.0 0.0 0.0 0.0 0.0 0.0 0.0 0.0 0.0 0.0 0.0 0.0 0.0 0.0 0.0 0.0 0.0 0.0 0.0 0.0 0.0 0.0 0.0 0.0 0.0 0.0 0.0 0.0 0.0 0.0 0.0 0.0 0.0 0.0 0.0 0.0 0.0 0.0 0.0 0.0 0.0 0.0 0.0 0.0 0.0 0.0 0.0 0.0 0.0 0.0 0.0 0.0 0.0 0.0 0.0 0.0 0.0 0.0 0.0 0.0 0.0 0.0 0.0 0.0 0.0 0.0 0.0 0.0 0.0 0.0 0.0 0.0 0.0 0.0 0.0 0.0 0.0 0.0 0.0 0.0 0.0 0.0 0.0 0.0 0.0 0.0 0.0 0.0 0.0 0.0 0.0 0.0 0.0 0.0 0.0 0.0 0.0 0.0 0.0 0.0 0.0 0.0 0.0 0.0 0.0 0.0 0.0 0.0 0.0 0.0 0.0 0.0 0.0 0.0 0.0 0.0 0.0 0.0 0.0 0.0 0.0 0.0 0.0 0.0 0.0 0.0 0.0 0.0 0.0 0.0 0.0 0.0 0.0 0.0 0.0 0.0 0.0 0.0 0.0 0.0 0.0 0.0 0.0 0.0 0.0 0.0 0.0 0.0 0.0 0.0 0.0 0.0 0.0 0.0 0.0 0.0 0.0 0.0 0.0 0.0 0.0 0.0 0.0 0.0 0.0 0.0 0.0 0.0 0.0 0.0 0.0 0.0 0.0 0.0 0.0 0.0 0.0 0.0 0.0 0.0 0.0 0.0 0.0 0.0 0.0 0.0 0.0 0.0 0.0 0.0 0.0 0.0 0.0 0.0 0.0 0.0 0.0 0.0 0.0 0.0 0.0 0.0 0.0 0.0 0.0 0.0 0.0 0.0 0.0 0.0 0.0 0.0 0.0 0.0 0.0 0.0 0.0 0.0 0.0 0.0 0.0 0.0 0.0 0.0 0.0 0.0 0.0 0.0 0.0 0.0 0.0 0.0 0.0 0.0 0.0 0.0 0.0 0.0 0.0 0.0 0.0 0.0 0.0 0.0 0.0 0.0 0.0 0.0 0.0 0.0 0.0 0.0 0.0 0.0 0.0 0.0 0.0 0.0 0.0 0.0 0.0 0.0 0.0 0.0 0.0 0.0 0.0 0.0 0.0 0.0 0.0 0.0 0.0 0.0 0.0 0.0 0.0 0.0 0.0 0.0 0.0 0.0 0.0 0.0 0.0 0.0 0.0 0.0 0.0 0.0 0.0 0.0 0.0 0.0 0.0 0.0 0.0 0.0 0.0 0.0 0.0 0.0 0.0 0.0 0.0 0.0 0.0 0.0 0.0 0.0 0.0 0.0 0.0 0.0 0.0 0.0 0.0 0.0 0.0 0.0 0.0 0.0 0.0 0.0 0.0 0.0 0.0 0.0 0.0 0.0 0.0 0.0 0.0 0.0 0.0 0.0 0.0 0.0 0.0 0.0 0.0 0.0 0.0 0.0 0.0 0.0 0.0 0.0 0.0 0.0 0.0 0.0 0.0 0.0 0.0 0.0 0.0 0.0 0.0 0.0 0.0 0.0 0.0 0.0 0.0 0.0 0.0 0.0 0.0 0.0 0.0 0.0 0.0 0.0 0.0 0.0 0.0 0.0 0.0 0.0 0.0 0.0 0.0 0.0 0.0 0.0 0.0 0.0 0.0 0.0 0.0 0.0 0.0 0.0 0.0 0.0 0.0 0.0 0.0 0.0 0.0 0.0 0.0 0.0 0.0 0.0 0.0 0.0 0.0 0.0 0.0 0.0 0.0 0.0 0.0 0.0 0.0 0.0 0.0 0.0 0.0 0.0 0.0 0.0 0.0 0.0 0.0 0.0 0.0 0.0 0.0 0.0 0.0 0.0 0.0 0.0 0.0 0.0 0.0 0.0 0.0 0.0 0.0 0.0 0.0 0.0 0.0 0.0 0.0 0.0 0.0 0.0 0.0 0.0 0.0 0.0 0.0 0.0 0.0 0.0 0.0 0.0 0.0 0.0 0.0 0.0 0.0 0.0 0.0 0.0 0.0 0.0 0.0 0.0 0.0 0.0 0.0 0.0 0.0 0.0 0.0 0.0 0.0 0.0 0.0 0.0 0.0 0.0 0.0 0.0 0.0 0.0 0.0 0.0 0.0 0.0 0.0 0.0 0.0 0.0 0.0 0.0 0.0 0.0 0.0 0.0 0.0 0.0 0.0 0.0 0.0 0.0 0.0 0.0 0.0 0.0 0.0 0.0 0.0 0.0 0.0 0.0 0.0 0.0 0.0 0.0 0.0 0.0 0.0 0.0 0.0 0.0 0.0 0.0 0.0 0.0 0.0 0.0 0.0 0.0 0.0 0.0 0.0 0.0 0.0 0.0 0.0 0.0 0.0 0.0 0.0 0.0 0.0 0.0 0.0 0.0 0.0 0.0 0.0 0.0 0.0 0.0 0.0 0.0 0.0 0.0 0.0 0.0 0.0 0.0 0.0 0.0 0.0 0.0 0.0 0.0 0.0 0.0 0.0 0.0 0.0 0.0 0.0 0.0 0.0 0.0 0.0 0.0 0.0 0.0 0.0 0.0 0.0 0.0 0.0 0.0 0.0 0.0 0.0 0.0 0.0 0.0 0.0 0.0 0.0 0.0 0.0 0.0 0.0 0.0 0.0 0.0 0.0 0.0 0.0 0.0 0.0 0.0 0.0 0.0 0.0 0.0 0.0 0.0 0.0 0.0 0.0 0.0 0.0 0.0 0.0 0.0 0.0 0.0 0.0 0.0 0.0 0.0 0.0 0.0 0.0 0.0 0.0 0.0 0.0 0.0 0.0 0.0 0.0 0.0 0.0 0.0 0.0 0.0 0.0 0.0 0.0 0.0 0.0 0.0 0.0 0.0 0.0 0.0 0.0 0.0 0.0 0.0 0.0 0.0 0.0 0.0 0.0 0.0 0.0 0.0 0.0 0.0 0.0 0.0 0.0 0.0 0.0 0.0 0.0 0.0 0.0 0.0 0.0 0.0 0.0 0.0 0.0 0.0 0.0 0.0 0.0 0.0 0.0 0.0 0.0 0.0 0.0 0.0 0.0 0.0 0.0 0.0 0.0 0.0 0.0 0.0 0.0 0.0 0.0 0.0 0.0 0.0 0.0 0.0 0.0 0.0 0.0 0.0 0.0 0.0 0.0 0.0 0.0 0.0 0.0 0.0 0.0 0.0 0.0 0.0 0.0 0.0 0.0 0.0 0.0 0.0 0.0 0.0 0.0 0.0 0.0 0.0 0.0 0.0 0.0 0.0 0.0 0.0 0.0 0.0 0.0 0.0 0.0 0.0 0.0 0.0 0.0 0.0 0.0 0.0 0.0 0.0 0.0 0.0 0.0 0.0 0.0 0.0 0.0 0.0 0.0 0.0 0.0 0.0 0.0 0.0 0.0 0.0 0.0 0.0 0.0 0.0 0.0 0.0 0.0 0.0 0.0 0.0 0.0 0.0 0.0 0.0 0.0 0.0 0.0 0.0 0.0 0.0 0.0 0.0 0.0 0.0 0.0 0.0 0.0 0.0 0.0 0.0 0.0 0.0 0.0 0.0 0.0 0.0 0.0 0.0 0.0 0.0 0.0 0.0 0.0 0.0 0.0 0.0 0.0 0.0 0.0 0.0 0.0 0.0 0.0 0.0 0.0 0.0 0.0 0.0 0.0 0.0 0.0 0.0 0.0 0.0 0.0 0.0 0.0 0.0 0.0 0.0 0.0 0.0 0.0 0.0 0.0 0.0 0.0 0.0 0.0 0.0 0.0 0.0 0.0 0.0 0.0 0.0 0.0 0.0 0.0 0.0 0.0 0.0 0.0 0.0 0.0 0.0 0.0 0.0 0.0 0.0 0.0 0.0 0.0 0.0 0.0 0.0 0.0 0.0 0.0 0.0 0.0 0.0 0.0 0.0 0.0 0.0 0.0 0.0 0.0 0.0 0.0 0.0 0.0 0.0 0.0 0.0 0.0 0.0 0.0 0.0 0.0 0.0 0.0 0.0 0.0 0.0 0.0 0.0 0.0 0.0 0.0 0.0 0.0 0.0 0.0 0.0 0.0 0.0 0.0 0.0 0.0 0.0 0.0 0.0 0.0 0.0 0.0 0.0 0.0 0.0 0.0 0.0 0.0 0.0 0.0 0.0 0.0 0.0 0.0 0.0 0.0 0.0 0.0 0.0 0.0 0.0 0.0 0.0 0.0 0.0 0.0 0.0 0.0 0.0 0.0 0.0 0.0 0.0 0.0 0.0 0.0 0.0 0.0 0.0 0.0 0.0 0.0 0.0 0.0 0.0 0.0 0.0 0.0 0.0 0.0 0.0 0.0 0.0 0.0 0.0 0.0 0.0 0.0 0.0 0.0 0.0 0.0 0.0 0.0 0.0 0.0 0.0 0.0 0.0 0.0 0.0 0.0 0.0 0.0 0.0 0.0 0.0 0.0 0.0 0.0 0.0 0.0 0.0 0.0 0.0 0.0 0.0 0.0 0.0 0.0 0.0 0.0 0.0 0.0 0.0 0.0 0.0 0.0 0.0 0.0 0.0 0.0 0.0 0.0 0.0 0.0 0.0 0.0 0.0 0.0 0.0 0.0 0.0 0.0 0.0 0.0 0.0 0.0 0.0 0.0 0.0 0.0 0.0 0.0 0.0 0.0 0.0 0.0 0.0 0.0 0.0 0.0 0.0 0.0 0.0 0.0 0.0 0.0 0.0 0.0 0.0 0.0 0.0 0.0 0.0 0.0 0.0 0.0 0.0 0.0 0.0 0.0 0.0 0.0 0.0 0.0 0.0 0.0 0.0 0.0 0.0 0.0 0.0 0.0 0.0 0.0 0.0 0.0 0.0 0.0 0.0 0.0 0.0 0.0 0.0 0.0 0.0 0.0 0.0 0.0 0.0 0.0 0.0 0.0 0.0 0.0 0.0 0.0 0.0 0.0 0.0 0.0 0.0 0.0 0.0 0.0 0.0 0.0 0.0 0.0 0.0 0.0 0.0 0.0 0.0 0.0 0.0 0.0 0.0 0.0 0.0 0.0 0.0 0.0 0.0 0.0 0.0 0.0 0.0 0.0 0.0 0.0 0.0 0.0 0.0 0.0 0.0 0.0 0.0 0.0 0.0 0.0 0.0 0.0 0.0 0.0 0.0 0.0 0.0 0.0 0.0 0.0 0.0 0.0 0.0 0.0 0.0 0.0 0.0 0.0 0.0 0.0 0.0 0.0 0.0 0.0 0.0 0.0 0.0 0.0 0.0 0.0 0.0 0.0 0.0 0.0 0.0 0.0 0.0 0.0 0.0 0.0 0.0 0.0 0.0 0.0 0.0 0.0 0.0 0.0 0.0 0.0 0.0 0.0 0.0 0.0 0.0 0.0 0.0 0.0 0.0 0.0 0.0 0.0 0.0 0.0 0.0 0.0 0.0 0.0 0.0 0.0 0.0 0.0 0.0 0.0 0.0 0.0 0.0 0.0 0.0 0.0 0.0 0.0 0.0 0.0 0.0 0.0 0.0 0.0 0.0 0.0 0.0 0.0 0.0 0.0 0.0 0.0 0.0 0.0 0.0 0.0 0.0 0.0 0.0 0.0 0.0 0.0 0.0 0.0 0.0 0.0 0.0 0.0 0.0 0.0 0.0 0.0 0.0 0.0 0.0 0.0 0.0 0.0 0.0 0.0 0.0 0.0 0.0 0.0 0.0 0.0 0.0 0.0 0.0 0.0 0.0 0.0 -6.4381448E-008  1.0200300E-004 0.0 -4.1509559E-008  1.0183657E-004 0.0 -3.0060330E-007  1.0203267E-004 0.0 -8.1451155E-008  1.0169536E-004 0.0 -4.3747846E-008  1.0196138E-004 0.0 -8.4698656E-008  1.0206428E-004 0.0 -4.3250428E-007  1.0187274E-004 0.0 -5.9702119E-007  1.0156088E-004 0.0 -4.8067000E-006  2.5766467E-005 0.0 -7.8882147E-007  1.0109657E-004 0.0 -9.6352907E-007  1.0059223E-004 0.0 -1.1766958E-006  9.9899463E-005 0.0 -1.3451429E-006  9.9052200E-005 0.0 -1.5074293E-006  9.8231820E-005 0.0 -1.7147540E-006  9.7186875E-005 0.0 -1.8974374E-006  9.6086936E-005 0.0 -2.0077516E-006  9.4878027E-005 0.0 -2.2088886E-006  9.3509775E-005 0.0 -2.3816667E-006  9.2110597E-005 0.0 -2.4653178E-006  9.0612738E-005 0.0 -2.6598658E-006  8.8949481E-005 0.0 -2.8226341E-006  8.7277089E-005 0.0 -2.8808230E-006  8.5516437E-005 0.0 -3.0683519E-006  8.3585985E-005 0.0 -3.2209762E-006  8.1666050E-005 0.0 -3.2548696E-006  7.9668386E-005 0.0 -3.4349123E-006  7.7498120E-005 0.0 -3.5772289E-006  7.5356023E-005 0.0 -1.8129129E-008  1.0190200E-004 0.0 -3.5879712E-006  7.3146811E-005 0.0 -3.7915648E-006  7.0799372E-005 0.0 -3.7874939E-006  6.8463153E-005 0.0 -3.9539239E-006  6.5953069E-005 0.0 -4.0440714E-006  6.3459917E-005 0.0 -4.1651521E-006  6.0948743E-005 0.0 -4.1329422E-006  5.8391852E-005 0.0 -4.2873660E-006  5.5663011E-005 0.0 -4.3594366E-006  5.2967614E-005 0.0 -4.4270052E-006  5.0228680E-005 0.0 -4.5295676E-006  4.7485895E-005 0.0 -4.6224866E-006  4.4724902E-005 0.0 -4.6026850E-006  4.1778700E-005 0.0 -4.6522360E-006  3.8893661E-005 0.0 -4.7392767E-006  3.6015175E-005 0.0 -4.7773280E-006  3.3104723E-005 0.0 -4.7735797E-006  3.0072836E-005 0.0 -4.5393933E-006  2.2898299E-005 0.0 -1.2381753E-006  2.8375277E-005 0.0 -1.3162285E-006  2.0848368E-005 0.0 -1.7908082E-007  1.0210549E-004 0.0 -1.7646129E-007  1.0121202E-004 0.0 -2.4149606E-007  1.0071859E-004 0.0 -2.9283619E-007  1.0010433E-004 0.0 -3.2799722E-007  9.9370575E-005 0.0 -3.9341546E-007  9.8523028E-005 0.0 -4.4039917E-007  9.7563510E-005 0.0 -4.6514708E-007  9.6493631E-005 0.0 -5.3328979E-007  9.5318832E-005 0.0 -5.7602387E-007  9.4041708E-005 0.0 -5.9098239E-007  9.2663199E-005 0.0 -6.6134906E-007  9.1188484E-005 0.0 -6.9992607E-007  8.9620890E-005 0.0 -7.0569982E-007  8.7960751E-005 0.0 -7.7778673E-007  8.6212995E-005 0.0 -8.1229091E-007  8.4381632E-005 0.0 -8.0946997E-007  8.2466448E-005 0.0 -8.8277028E-007  8.0472129E-005 0.0 -9.1327578E-007  7.8403321E-005 0.0 -9.0243680E-007  7.6259320E-005 0.0 -9.7644288E-007  7.4044576E-005 0.0 -1.0030152E-006  7.1764335E-005 0.0 -1.0326636E-006  6.9416500E-005 0.0 -1.0566452E-006  6.7009619E-005 0.0 -1.0336876E-006  6.4541753E-005 0.0 -1.0564174E-006  6.2018117E-005 0.0 -1.1302974E-006  5.9439879E-005 0.0 -1.1491675E-006  5.6813794E-005 0.0 -1.1175993E-006  5.4137999E-005 0.0 -1.1356639E-006  5.1417647E-005 0.0 -1.1525643E-006  4.8655171E-005 0.0 -1.2247475E-006  4.5851951E-005 0.0 -1.2373158E-006  4.3015392E-005 0.0 -1.1962887E-006  4.0143183E-005 0.0 -1.2085296E-006  3.7240409E-005 0.0 -1.2782731E-006  3.4308015E-005 0.0 -1.2858124E-006  3.1353845E-005 0.0 -1.3055267E-006  2.5378995E-005 0.0 -3.5794768E-006  1.8507959E-005 0.0 -1.3960932E-006  1.6308166E-005 0.0 -2.7254346E-006  1.4074384E-005 0.0 -1.7914968E-008  1.0193580E-004 0.0 -1.3022543E-006  1.1513852E-005 0.0 -2.0823006E-006  1.0093177E-005 0.0 -1.0479303E-007  1.0158166E-004 0.0 -1.8907833E-007  1.0167154E-004 0.0 -2.3853512E-007  1.0153996E-004 0.0 -1.3541881E-007  1.0177372E-004 0.0 -2.4295288E-007  1.0176859E-004 0.0 -1.9003159E-007  1.0184300E-004 0.0 -2.7119267E-007  1.0186033E-004 0.0 -2.1053105E-007  1.0191548E-004 0.0 -1.5030783E-007  1.0189767E-004 0.0 -1.6170331E-007  1.0195537E-004 0.0 -1.1591498E-007  1.0193627E-004 0.0 -1.0146921E-007  1.0189444E-004 0.0 -7.8296439E-008  1.0192494E-004 0.0 -1.2192034E-007  1.0198063E-004 0.0 -1.6024642E-007  1.0200652E-004 0.0 -6.3440644E-008  1.0189510E-004 0.0 -4.9190131E-008  1.0192189E-004 0.0 -1.1538827E-007  1.0203032E-004 0.0 -8.5176078E-008  1.0196076E-004 0.0 -1.5015531E-007  1.0205942E-004 0.0 -2.0038120E-007  1.0204017E-004 0.0 -1.2531351E-007  1.0210450E-004 0.0 -1.2278189E-007  1.0184849E-004 0.0 -3.1669665E-007  1.0167095E-004 0.0 -4.8107244E-007  1.0172744E-004 0.0 -5.5660157E-008  1.0177717E-004 0.0 -3.6609678E-007  1.0196813E-004 0.0 -2.5590922E-008  1.0187493E-004 0.0 -1.3244737E-006  1.3254073E-005 0.0 -3.4903715E-007  9.8960570E-005 0.0 -7.6556724E-007  9.8825825E-005 0.0 -8.2856686E-007  9.8286087E-005 0.0 -1.1767832E-006  9.8609306E-005 0.0 -1.2672763E-006  1.9328122E-005 0.0 -2.6407294E-006  2.0092358E-005 0.0 -2.6297683E-006  2.1620097E-005 0.0 -1.3080425E-006  2.3872423E-005 0.0 -2.5878097E-006  2.4630396E-005 0.0 -2.4435979E-006  2.6098518E-005 0.0 -4.8328169E-007  9.5918968E-005 0.0 -1.0508695E-006  9.5718382E-005 0.0 -1.1101621E-006  9.4986579E-005 0.0 -1.5826380E-006  9.5361717E-005 0.0 -9.7209141E-007  7.0598307E-005 0.0 -2.0737560E-006  7.0165728E-005 0.0 -2.1030067E-006  6.8773408E-005 0.0 -3.0718308E-006  6.9423618E-005 0.0 -7.1838216E-007  8.7097587E-005 0.0 -1.5503071E-006  8.6782797E-005 0.0 -1.5939316E-006  8.5734517E-005 0.0 -2.3048785E-006  8.6232141E-005 0.0 -1.2738825E-006  1.7810103E-005 0.0 -2.5951256E-006  1.7248032E-005 0.0 -1.1520671E-006  4.7258680E-005 0.0 -2.3459818E-006  4.6506918E-005 0.0 -2.3169875E-006  4.5051503E-005 0.0 -3.5763199E-006  4.5698165E-005 0.0 -1.1266376E-006  5.0041394E-005 0.0 -2.3299457E-006  4.9420211E-005 0.0 -1.0594817E-006  6.0735758E-005 0.0 -2.2737017E-006  6.0258513E-005 0.0 -2.2970984E-006  5.8734424E-005 0.0 -3.3615508E-006  5.9437030E-005 0.0 -1.1094080E-006  5.2783153E-005 0.0 -2.2950697E-006  5.2170513E-005 0.0 -6.0633322E-007  9.1937560E-005 0.0 -1.3123186E-006  9.1677012E-005 0.0 -1.3677032E-006  9.0769595E-005 0.0 -1.9612117E-006  9.1218314E-005 0.0 -8.1959359E-007  8.1479006E-005 0.0 -1.7651768E-006  8.1115551E-005 0.0 -1.8038196E-006  7.9925571E-005 0.0 -2.6267457E-006  8.0493446E-005 0.0 -1.0932014E-006  5.8121551E-005 0.0 -1.0290332E-006  6.3286648E-005 0.0 -2.1319441E-006  6.2715263E-005 0.0 -9.1010794E-007  7.5160675E-005 0.0 -1.9572167E-006  7.4754001E-005 0.0 -1.9908233E-006  7.3437589E-005 0.0 -2.9048779E-006  7.4057126E-005 0.0 -8.8079035E-007  7.7339923E-005 0.0 -1.8169715E-006  7.6852326E-005 0.0 -8.6134061E-007  7.9436957E-005 0.0 -1.2053403E-006  3.5778006E-005 0.0 -2.4516579E-006  3.4989406E-005 0.0 -2.4576689E-006  3.3500501E-005 0.0 -3.7644176E-006  3.4193922E-005 0.0 -1.1841090E-006  3.8695399E-005 0.0 -2.4458395E-006  3.8046934E-005 0.0 -9.4928429E-007  7.2902008E-005 0.0 -7.8675850E-007  8.3433681E-005 0.0 -1.6264422E-006  8.2998330E-005 0.0 -6.8198900E-007  8.8801512E-005 0.0 -1.4457956E-006  8.8415611E-005 0.0 -1.2050099E-006  2.6873003E-005 0.0 -1.1805852E-006  4.1583142E-005 0.0 -2.4217177E-006  4.0940443E-005 0.0 -1.0995761E-006  5.5481438E-005 0.0 -2.2590592E-006  5.4878003E-005 0.0 -1.0139708E-006  6.5782580E-005 0.0 -2.0863746E-006  6.5223258E-005 0.0 -7.6260238E-007  8.5298417E-005 0.0 -6.5400861E-007  9.0405090E-005 0.0 -3.0164798E-007  9.9751403E-005 0.0 -6.6445506E-007  9.9598588E-005 0.0 -1.2245316E-006  2.9867083E-005 0.0 -2.5091155E-006  2.9205270E-005 0.0 -1.2298725E-006  4.4438918E-005 0.0 -1.0019866E-006  6.8209592E-005 0.0 -1.3112081E-006  2.2364252E-005 0.0 -5.3308294E-007  9.4683426E-005 0.0 -4.0085915E-007  9.8049495E-005 0.0 -1.2288167E-006  3.2825019E-005 0.0 -4.3962151E-007  9.7041414E-005 0.0 -9.5470685E-007  9.6802125E-005 0.0 -2.0283420E-007  1.0097982E-004 0.0 -4.5585262E-007  1.0091679E-004 0.0 -5.2242397E-007  1.0058590E-004 0.0 -7.2722029E-007  1.0080927E-004 0.0 -2.5711470E-007  1.0042110E-004 0.0 -5.6633460E-007  9.3364212E-005 0.0 -1.2211046E-006  9.3045368E-005 0.0 -4.7584708E-006  2.7109223E-005 0.0 -4.1995008E-006  5.6992068E-005 0.0 -3.0553730E-006  5.6300192E-005 0.0 -4.7237486E-006  3.1568867E-005 0.0 -3.3947030E-006  3.0769730E-005 0.0 -2.1041369E-006  9.4183096E-005 0.0 -1.5524168E-006  9.3788933E-005 0.0 -4.3409782E-006  5.4321388E-005 0.0 -3.1654786E-006  5.3579005E-005 0.0 -3.8609026E-006  6.7176434E-005 0.0 -2.8133357E-006  6.6530850E-005 0.0 -4.1094137E-006  6.2199237E-005 0.0 -2.9408291E-006  6.1520876E-005 0.0 -1.8093720E-006  9.6643509E-005 0.0 -1.3183611E-006  9.6288936E-005 0.0 -4.0153509E-006  6.4714091E-005 0.0 -2.9323931E-006  6.4022581E-005 0.0 -4.5508438E-006  4.3224224E-005 0.0 -3.2743762E-006  4.2454222E-005 0.0 -6.8577265E-007  1.0135960E-004 0.0 -4.8416777E-007  1.0135536E-004 0.0 -5.4483216E-007  1.0116204E-004 0.0 -3.1489757E-006  8.2625703E-005 0.0 -2.2643423E-006  8.2079692E-005 0.0 -3.5106033E-006  7.6424952E-005 0.0 -2.5193260E-006  7.5828355E-005 0.0 -3.3366007E-006  7.8557526E-005 0.0 -2.4376300E-006  7.7985639E-005 0.0 -1.0697357E-006  1.0024839E-004 0.0 -8.0836227E-007  1.0000579E-004 0.0 -4.4831492E-006  4.8850274E-005 0.0 -3.4026539E-006  4.8364487E-005 0.0 -2.5568334E-006  8.9764687E-005 0.0 -1.8777863E-006  8.9304760E-005 0.0 -2.9674627E-006  8.4529826E-005 0.0 -2.1727197E-006  8.4010683E-005 0.0 -4.6461521E-006  4.0340359E-005 0.0 -3.3828261E-006  3.9550196E-005 0.0 -3.6647357E-006  7.1925794E-005 0.0 -2.6728657E-006  7.1307572E-005 0.0 -2.7452799E-006  8.8115012E-005 0.0 -1.9794597E-006  8.7626143E-005 0.0 -2.2989632E-006  9.2814212E-005 0.0 -1.6642863E-006  9.2389123E-005 0.0 -1.6086994E-006  9.7704850E-005 0.0 -1.1961289E-006  9.7383096E-005 0.0 -4.8007500E-006  2.8586207E-005 0.0 -3.5699960E-006  2.8012130E-005 0.0 -4.4110572E-006  5.1603842E-005 0.0 -3.2153429E-006  5.0850481E-005 0.0 -4.7005742E-006  3.7446171E-005 0.0 -3.5657117E-006  3.6937400E-005 0.0 -1.2722345E-006  9.9510360E-005 0.0 -9.4515852E-007  9.9247014E-005 0.0 -3.4119250E-008  1.0194201E-004 0.0 -7.6153769E-008  1.0203008E-004 0.0 -5.4170313E-008  1.0197963E-004 0.0 -1.5252473E-006  9.4490469E-005 0.0 -3.0653825E-006  5.7655296E-005 0.0 -1.8632403E-006  9.0155206E-005 0.0 -2.8235625E-006  6.7790519E-005 0.0 -2.4333581E-006  7.9076869E-005 0.0 -3.4131769E-006  4.4148622E-005 0.0 -2.6774799E-006  7.2504372E-005 0.0 -2.1589649E-006  8.4982653E-005 0.0 -3.5573633E-006  3.2540063E-005 0.0 -1.1554519E-006  9.7920977E-005 0.0 -7.5324480E-007  1.0036493E-004 0.0 -2.5776616E-006  2.3126309E-005 0.0 -1.4204852E-006  8.6580271E-006 0.0 -4.0054881E-006  2.1362507E-005 0.0 -1.4235236E-006  1.4804034E-005 0.0 -1.2912367E-006  6.9145106E-006 0.0 -3.4970731E-007  1.0179491E-004 0.0 -2.0928653E-007  1.0198141E-004 0.0 -2.7833177E-007  1.0195202E-004 0.0 -3.0937185E-006  1.5697714E-005 0.0 -1.2663603E-008  1.0192180E-004 0.0 -2.4157294E-007  1.0207973E-004 0.0 -1.3547862E-007  1.0141569E-004 0.0 -4.0644798E-006  1.9950323E-005 0.0 -7.9930045E-008  1.0186058E-004 0.0 -1.1515484E-006  5.3783938E-006 0.0 -2.5478975E-006  1.2536303E-005 0.0 -4.7281402E-006  2.4366524E-005 0.0 -5.7402560E-008  1.0194267E-004 0.0 -4.0439866E-007  1.0153436E-004 0.0 -9.2044241E-008  1.0199890E-004 0.0 -8.9223891E-008  1.0210356E-004 0.0 -2.8883733E-008  1.0192096E-004 0.0 -1.0040137E-006  3.8396368E-006 0.0 -2.9340980E-007  1.0135216E-004 0.0 -2.2713118E-006  1.8597541E-005 0.0 -2.5621907E-006  1.1263808E-005 0.0 -3.6040248E-006  2.5314097E-005 0.0 -2.3585591E-006  3.1934557E-005 0.0 -2.2691094E-006  4.3569930E-005 0.0 -3.5795075E-006  2.3812277E-005 0.0 -4.9332261E-006  3.4559927E-005 0.0 -2.0721099E-006  5.7351406E-005 0.0 -1.9038859E-006  6.7504625E-005 0.0 -4.6963548E-006  4.6109829E-005 0.0 -1.8058100E-006  7.2234182E-005 0.0 -1.6419429E-006  7.8831577E-005 0.0 -1.4577741E-006  8.4763703E-005 0.0 -4.3562610E-006  5.9674385E-005 0.0 -2.2933906E-006  2.7607479E-005 0.0 -1.2799229E-006  8.9916182E-005 0.0 -2.1546371E-006  3.0626473E-005 0.0 -1.0501042E-006  9.4287910E-005 0.0 -3.8097076E-006  2.9329507E-005 0.0 -7.9863102E-007  9.7757019E-005 0.0 -5.2508837E-007  1.0024160E-004 0.0 -3.9793992E-006  6.9638629E-005 0.0 -2.3526836E-006  3.6437777E-005 0.0 -2.1263978E-006  3.9475843E-005 0.0 -3.7624053E-006  7.4260515E-005 0.0 -3.7494782E-006  3.8175202E-005 0.0 -2.0767123E-006  4.2313190E-005 0.0 -3.6657287E-006  4.1013409E-005 0.0 -3.4008840E-006  8.0679035E-005 0.0 -2.2461170E-006  4.7889474E-005 0.0 -2.0208047E-006  5.0780893E-005 0.0 -2.9951338E-006  8.6410735E-005 0.0 -1.9896040E-006  5.3510635E-005 0.0 -3.5716062E-006  4.9543275E-005 0.0 -2.5459423E-006  9.1378706E-005 0.0 -1.9271050E-006  5.6165812E-005 0.0 -3.4895588E-006  5.2235112E-005 0.0 -3.4218261E-006  5.4949251E-005 0.0 -2.0519140E-006  9.5502859E-005 0.0 -1.8926709E-006  6.1450644E-005 0.0 -1.5434008E-006  9.8687703E-005 0.0 -1.8429886E-006  6.3959032E-005 0.0 -9.4755382E-007  1.0088864E-004 0.0 -1.7748511E-006  6.6411244E-005 0.0 -3.2321142E-006  6.2784496E-005 0.0 -3.1604341E-006  6.5289919E-005 0.0 -1.7053151E-006  7.1214901E-005 0.0 -1.6213856E-006  7.5772161E-005 0.0 -1.5380603E-006  7.7883882E-005 0.0 -2.7432046E-006  7.6926424E-005 0.0 -1.4571561E-006  8.2029174E-005 0.0 -1.3710830E-006  8.3919095E-005 0.0 -1.2801958E-006  8.7577990E-005 0.0 -2.4559412E-006  8.3066995E-005 0.0 -1.1968281E-006  8.9213262E-005 0.0 -1.0793452E-006  9.2343952E-005 0.0 -9.9275745E-007  9.3707239E-005 0.0 -2.1419335E-006  8.8483937E-005 0.0 -8.5479846E-007  9.6246058E-005 0.0 -7.6536849E-007  9.7311177E-005 0.0 -1.7894368E-006  9.3111476E-005 0.0 -6.1076654E-007  9.9202268E-005 0.0 -5.1785142E-007  9.9942218E-005 0.0 -3.5430079E-007  1.0114439E-004 0.0 -1.3989467E-006  9.6863086E-005 0.0 -9.7351720E-007  9.9654734E-005 0.0 -4.0377896E-008  1.0190044E-004 0.0 -8.4347825E-008  1.0181969E-004 0.0 -3.6335960E-006  2.6668660E-005 0.0 -3.6306463E-006  3.5445623E-005 0.0 -8.7017634E-009  1.0193382E-004 0.0 -9.3776055E-008  1.0214366E-004 0.0 -3.4691046E-006  4.6961877E-005 0.0 -1.3663123E-007  1.0214029E-004 0.0 -3.3077866E-006  6.0410211E-005 0.0 -3.0142414E-006  7.0307283E-005 0.0 -2.8455652E-006  7.4889986E-005 0.0 -2.5388612E-006  8.1253187E-005 0.0 -2.2508342E-006  8.6898920E-005 0.0 -1.8840601E-006  9.1791346E-005 0.0 -1.5068310E-006  9.5820382E-005 0.0 -1.0613166E-006  9.8930106E-005 0.0 -6.2927435E-007  1.0099657E-004 0.0 -7.3855753E-007  1.0058504E-004 0.0 -7.2062886E-008  1.0198029E-004 0.0 -8.7116589E-007  2.3978196E-006 0.0 -1.1607543E-006  9.8255338E-005 0.0 -3.4678411E-007  1.0188854E-004 0.0 -2.4513629E-007  1.0201797E-004 0.0 -1.1772422E-007  1.0207035E-004 0.0 -1.5561269E-006  9.4929146E-005 0.0 -6.7020006E-007  7.7397573E-007 0.0 -3.7579603E-006  1.7075226E-005 0.0 -1.9140966E-006  9.0688889E-005 0.0 -3.4523784E-006  2.2430740E-005 0.0 -6.2384029E-008  1.0196466E-004 0.0 -2.2343965E-006  8.5616380E-005 0.0 -2.5295406E-006  7.9791023E-005 0.0 -2.7901689E-006  7.3286413E-005 0.0 -2.9463780E-006  6.8612605E-005 0.0 -9.1517675E-007  1.0111566E-005 0.0 -5.1878169E-008  1.0187156E-004 0.0 -3.2142122E-006  5.8554588E-005 0.0 0.0 0.0 0.0 0.0 0.0 0.0 0.0 0.0 0.0 0.0 0.0 0.0 0.0 0.0 0.0 0.0 0.0 0.0 0.0 0.0 0.0 0.0 0.0 0.0 0.0 0.0 0.0 0.0 0.0 0.0 0.0 0.0 0.0 0.0 0.0 0.0 0.0 0.0 0.0 0.0 0.0 0.0 0.0 0.0 0.0 0.0 0.0 0.0 0.0 0.0 0.0 0.0 0.0 0.0 0.0 0.0 0.0 0.0 0.0 0.0 0.0 0.0 0.0 0.0 0.0 0.0 0.0 0.0 0.0 0.0 0.0 0.0 0.0 0.0 0.0 0.0 0.0 0.0 0.0 0.0 0.0 0.0 0.0 0.0 0.0 0.0 0.0 0.0 0.0 0.0 0.0 0.0 0.0 0.0 0.0 0.0 0.0 0.0 0.0 0.0 0.0 0.0 0.0 0.0 0.0 0.0 0.0 0.0 0.0 0.0 0.0 0.0 0.0 0.0 0.0 0.0 0.0 0.0 0.0 0.0 0.0 0.0 0.0 0.0 0.0 0.0 0.0 0.0 0.0 0.0 0.0 0.0 0.0 0.0 0.0 0.0 0.0 0.0 0.0 0.0 0.0 0.0 0.0 0.0 0.0 0.0 0.0 0.0 0.0 0.0 0.0 0.0 0.0 0.0 0.0 0.0 0.0 0.0 0.0 0.0 0.0 0.0 0.0 0.0 0.0 0.0 0.0 0.0 0.0 0.0 0.0 0.0 0.0 0.0 0.0 0.0 0.0 0.0 0.0 0.0 0.0 0.0 0.0 0.0 0.0 0.0 0.0 0.0 0.0 0.0 0.0 0.0 0.0 0.0 0.0 0.0 0.0 0.0 0.0 0.0 0.0 0.0 0.0 0.0 0.0 0.0 0.0 0.0 0.0 0.0 0.0 0.0 0.0 0.0 0.0 0.0 0.0 0.0 0.0 0.0 0.0 0.0 0.0 0.0 0.0 0.0 0.0 0.0 0.0 0.0 0.0 0.0 0.0 0.0 0.0 0.0 0.0 0.0 0.0 0.0 0.0 0.0 0.0 0.0 0.0 0.0 0.0 0.0 0.0 0.0 0.0 0.0 0.0 0.0 0.0 0.0 0.0 0.0 0.0 0.0 0.0 0.0 0.0 0.0 0.0 0.0 0.0 0.0 0.0 0.0 0.0 0.0 0.0 0.0 0.0 0.0 0.0 0.0 0.0 0.0 0.0 0.0 0.0 0.0 0.0 0.0 0.0 0.0 0.0 0.0 0.0 0.0 0.0 0.0 0.0 0.0 0.0 0.0 0.0 0.0 0.0 0.0 0.0 0.0 0.0 0.0 0.0 0.0 0.0 0.0 0.0 0.0 0.0 0.0 0.0 0.0 0.0 0.0 0.0 0.0 0.0 0.0 0.0 0.0 0.0 0.0 0.0 0.0 0.0 0.0 0.0 0.0 0.0 0.0 0.0 0.0 0.0 0.0 0.0 0.0 0.0 0.0 0.0 0.0 0.0 0.0 0.0 0.0 0.0 0.0 0.0 0.0 0.0 0.0 0.0 0.0 0.0 0.0 0.0 0.0 0.0 0.0 0.0 0.0 0.0 0.0 0.0 0.0 0.0 0.0 0.0 0.0 0.0 0.0 0.0 0.0 0.0 0.0 0.0 0.0 0.0 0.0 0.0 0.0 0.0 0.0 0.0 0.0 0.0 0.0 0.0 0.0 0.0 0.0 0.0 0.0 0.0 0.0 0.0 0.0 0.0 0.0 0.0 0.0 0.0 0.0 0.0 0.0 0.0 0.0 0.0 0.0 0.0 0.0 0.0 0.0 0.0 0.0 0.0 0.0 0.0 0.0 0.0 0.0 0.0 0.0 0.0 0.0 0.0 0.0 0.0 0.0 0.0 0.0 0.0 0.0 0.0 0.0 0.0 0.0 0.0 0.0 0.0 0.0 0.0 0.0 0.0 0.0 0.0 0.0 0.0 0.0 0.0 0.0 0.0 0.0 0.0 0.0 0.0 0.0 0.0 0.0 0.0 0.0 0.0 0.0 0.0 0.0 0.0 0.0 0.0 0.0 0.0 0.0 0.0 0.0 0.0 0.0 0.0 0.0 0.0 0.0 0.0 0.0 0.0 0.0 0.0 0.0 0.0 0.0 0.0 0.0 0.0 0.0 0.0 0.0 0.0 0.0 0.0 0.0 0.0 0.0 0.0 0.0 0.0 0.0 0.0 0.0 0.0 0.0 0.0 0.0 0.0 0.0 0.0 0.0 0.0 0.0 0.0 0.0 0.0 0.0 0.0 0.0 0.0 0.0 0.0 0.0 0.0 0.0 0.0 0.0 0.0 0.0 0.0 0.0 0.0 0.0 0.0 0.0 0.0 0.0 0.0 0.0 0.0 0.0 0.0 0.0 0.0 0.0 0.0 0.0 0.0 0.0 0.0 0.0 0.0 0.0 0.0 0.0 0.0 0.0 0.0 0.0 0.0 0.0 0.0 0.0 0.0 0.0 0.0 0.0 0.0 0.0 0.0 0.0 0.0 0.0 0.0 0.0 0.0 0.0 0.0 0.0 0.0 0.0 0.0 0.0 0.0 0.0 0.0 0.0 0.0 0.0 0.0 0.0 0.0 0.0 0.0 0.0 0.0 0.0 0.0 0.0 0.0 0.0 0.0 0.0 0.0 0.0 0.0 0.0 0.0 0.0 0.0 0.0 0.0 0.0 0.0 0.0 0.0 0.0 0.0 0.0 0.0 0.0 0.0 0.0 0.0 0.0 0.0 0.0 0.0 0.0 0.0 0.0 0.0 0.0 0.0 0.0 0.0 0.0 0.0 0.0 0.0 0.0 0.0 0.0 0.0 0.0 0.0 0.0 0.0 0.0 0.0 0.0 0.0 0.0 0.0 0.0 0.0 0.0 0.0 0.0 0.0 0.0 0.0 0.0 0.0 0.0 0.0 0.0 0.0 0.0 0.0 0.0 0.0 0.0 0.0 0.0 0.0 0.0 0.0 0.0 0.0 0.0 0.0 0.0 0.0 0.0 0.0 0.0 0.0 0.0 0.0 0.0 0.0 0.0 0.0 0.0 0.0 0.0 0.0 0.0 0.0 0.0 0.0 0.0 0.0 0.0 0.0 0.0 0.0 0.0 0.0 0.0 0.0 0.0 0.0 0.0 0.0 0.0 0.0 0.0 0.0 0.0 0.0 0.0 0.0 0.0 0.0 0.0 0.0 0.0 0.0 0.0 0.0 0.0 0.0 0.0 0.0 0.0 0.0 0.0 0.0 0.0 0.0 0.0 0.0 0.0 0.0 0.0 0.0 0.0 0.0 0.0 0.0 0.0 0.0 0.0 0.0 0.0 0.0 0.0 0.0 0.0 0.0 0.0 0.0 0.0 0.0 0.0 0.0 0.0 0.0 0.0 0.0 0.0 0.0 0.0 0.0 0.0 0.0 0.0 0.0 0.0 0.0 0.0 0.0 0.0 0.0 0.0 0.0 0.0 0.0 0.0 0.0 0.0 0.0 0.0 0.0 0.0 0.0 0.0 0.0 0.0 0.0 0.0 0.0 0.0 0.0 0.0 0.0 0.0 0.0 0.0 0.0 0.0 0.0 0.0 0.0 0.0 0.0 0.0 0.0 0.0 0.0 0.0 0.0 0.0 0.0 0.0 0.0 0.0 0.0 0.0 0.0 0.0 0.0 0.0 0.0 0.0 0.0 0.0 0.0 0.0 0.0 0.0 0.0 0.0 0.0 0.0 0.0 0.0 0.0 0.0 0.0 0.0 0.0 0.0 0.0 0.0 0.0 0.0 0.0 0.0 0.0 0.0 0.0 0.0 0.0 0.0 0.0 0.0 0.0 0.0 0.0 0.0 0.0 0.0 0.0 0.0 0.0 0.0 0.0 0.0 0.0 0.0 0.0 0.0 0.0 0.0 0.0 0.0 0.0 0.0 0.0 0.0 0.0 0.0 0.0 0.0 0.0 0.0 0.0 0.0 0.0 0.0 0.0 0.0 0.0 0.0 0.0 0.0 0.0 0.0 0.0 0.0 0.0 0.0 0.0 0.0 0.0 0.0 0.0 0.0 0.0 0.0 0.0 0.0 0.0 0.0 0.0 0.0 0.0 0.0 0.0 0.0 0.0 0.0 0.0 0.0 0.0 0.0 0.0 0.0 0.0 0.0 0.0 0.0 0.0 0.0 0.0 0.0 0.0 0.0 0.0 0.0 0.0 0.0 0.0 0.0 0.0 0.0 0.0 0.0 0.0 0.0 0.0 0.0 0.0 0.0 0.0 0.0 0.0 0.0 0.0 0.0 0.0 0.0 0.0 0.0 0.0 0.0 0.0 0.0 0.0 0.0 0.0 0.0 0.0 0.0 0.0 0.0 0.0 0.0 0.0 0.0 0.0 0.0 0.0 0.0 0.0 0.0 0.0 0.0 0.0 0.0 0.0 0.0 0.0 0.0 0.0 0.0 0.0 0.0 0.0 0.0 0.0 0.0 0.0 0.0 0.0 0.0 0.0 0.0 0.0 0.0 0.0 0.0 0.0 0.0 0.0 0.0 0.0 0.0 0.0 0.0 0.0 0.0 0.0 0.0 0.0 0.0 0.0 0.0 0.0 0.0 0.0 0.0 0.0 0.0 0.0 0.0 0.0 0.0 0.0 0.0 0.0 0.0 0.0 0.0 0.0 0.0 0.0 0.0 0.0 0.0 0.0 0.0 0.0 0.0 0.0 0.0 0.0 0.0 0.0 0.0 0.0 0.0 0.0 0.0 0.0 0.0 0.0 0.0 0.0 0.0 0.0 0.0 0.0 0.0 0.0 0.0 0.0 0.0 0.0 0.0 0.0 0.0 0.0 0.0 0.0 0.0 0.0 0.0 0.0 0.0 0.0 0.0 0.0 0.0 0.0 0.0 0.0 0.0 0.0 0.0 0.0 0.0 0.0 0.0 0.0 0.0 0.0 0.0 0.0 0.0 0.0 0.0 0.0 0.0 0.0 0.0 0.0 0.0 0.0 0.0 0.0 0.0 0.0 0.0 0.0 0.0 0.0 0.0 0.0 0.0 0.0 0.0 0.0 0.0 0.0 0.0 0.0 0.0 0.0 0.0 0.0 0.0 0.0 0.0 0.0 0.0 0.0 0.0 0.0 0.0 0.0 0.0 0.0 0.0 0.0 0.0 0.0 0.0 0.0 0.0 0.0 0.0 0.0 0.0 0.0 0.0 0.0 0.0 0.0 0.0 0.0 0.0 0.0 0.0 0.0 0.0 0.0 0.0 0.0 0.0 0.0 0.0 0.0 0.0 0.0 0.0 0.0 0.0 0.0 0.0 0.0 0.0 0.0 0.0 0.0 0.0 0.0 0.0 0.0 0.0 0.0 0.0 0.0 0.0 0.0 0.0 0.0 0.0 0.0 0.0 0.0 0.0 0.0 0.0 0.0 0.0 0.0 0.0 0.0 0.0 0.0 0.0 0.0 0.0 0.0 0.0 0.0 0.0 0.0 0.0 0.0 0.0 0.0 0.0 0.0 0.0 0.0 0.0 0.0 0.0 0.0 0.0 0.0 0.0 0.0 0.0 0.0 0.0 0.0 0.0 0.0 0.0 0.0 0.0 0.0 0.0 0.0 0.0 0.0 0.0 0.0 0.0 0.0 0.0 0.0 0.0 0.0 0.0 0.0 0.0 0.0 0.0 0.0 0.0 0.0 0.0 0.0 0.0 0.0 0.0 0.0 0.0 0.0 0.0 0.0 0.0 0.0 0.0 0.0 0.0 0.0 0.0 0.0 0.0 0.0 0.0 0.0 0.0 0.0 0.0 0.0 0.0 0.0 0.0 0.0 0.0 0.0 0.0 0.0 0.0 0.0 0.0 0.0 0.0 0.0 0.0 0.0 0.0 0.0 0.0 0.0 0.0 0.0 0.0 0.0 0.0 0.0 0.0 0.0 0.0 0.0 0.0 0.0 0.0 0.0 0.0 0.0 0.0 0.0 0.0 0.0 0.0 0.0 0.0 0.0 0.0 0.0 0.0 0.0 0.0 0.0 0.0 0.0 0.0 0.0 0.0 0.0 0.0 0.0 0.0 0.0 0.0 0.0 0.0 0.0 0.0 0.0 0.0 0.0 0.0 0.0 0.0 0.0 0.0 0.0 0.0 0.0 0.0 0.0 0.0 0.0 0.0 0.0 0.0 0.0 0.0 0.0 0.0 0.0 0.0 0.0 0.0 0.0 0.0 0.0 0.0 0.0 0.0 0.0 0.0 0.0 0.0 0.0 0.0 0.0 0.0 0.0 0.0 0.0 0.0 0.0 0.0 0.0 0.0 0.0 0.0 0.0 0.0 0.0 0.0 0.0 0.0 0.0 0.0 0.0 0.0 0.0 0.0 0.0 0.0 0.0 0.0 0.0 0.0 0.0 0.0 0.0 0.0 0.0 0.0 0.0 0.0 0.0 0.0 0.0 0.0 0.0 0.0 0.0 0.0 0.0 0.0 0.0 0.0 0.0 0.0 0.0 0.0 0.0 0.0 0.0 0.0 0.0 0.0 0.0 0.0 0.0 0.0 0.0 0.0 0.0 0.0 0.0 0.0 0.0 0.0 0.0 0.0 0.0 0.0 0.0 0.0 0.0 0.0 0.0 0.0 0.0 0.0 0.0 0.0 0.0 0.0 0.0 0.0 0.0 0.0 0.0 0.0 0.0 0.0 0.0 0.0 0.0 0.0 0.0 0.0 0.0 0.0 0.0 0.0 0.0 0.0 0.0 0.0 0.0 0.0 0.0 0.0 0.0 0.0 0.0 0.0 0.0 0.0 0.0 0.0 0.0 0.0 0.0 0.0 0.0 0.0 0.0 0.0 0.0 0.0 0.0 0.0 0.0 0.0 0.0 0.0 0.0 0.0 0.0 0.0 0.0 0.0 0.0 0.0 0.0 0.0 0.0 0.0 0.0 0.0 0.0 0.0 0.0 0.0 0.0 0.0 0.0 0.0 0.0 0.0 0.0 0.0 0.0 0.0 0.0 0.0 0.0 0.0 0.0 0.0 0.0 0.0 0.0 0.0 0.0 0.0 0.0 0.0 0.0 0.0 0.0 0.0 0.0 0.0 0.0 0.0 0.0 0.0 0.0 0.0 0.0 0.0 0.0 0.0 0.0 0.0 0.0 0.0 0.0 0.0 0.0 0.0 0.0 0.0 0.0 0.0 0.0 0.0 0.0 0.0 0.0 0.0 0.0 0.0 0.0 0.0 0.0 0.0 0.0 0.0 0.0 0.0 0.0 0.0 0.0 0.0 0.0 0.0 0.0 0.0 0.0 0.0 0.0 0.0 0.0 0.0 0.0 0.0 0.0 0.0 0.0 0.0 0.0 0.0 0.0 0.0 0.0 0.0 0.0 0.0 0.0 0.0 0.0 0.0 0.0 0.0 0.0 0.0 0.0 0.0 0.0 0.0 0.0 0.0 0.0 0.0 0.0 0.0 0.0 0.0 0.0 0.0 0.0 0.0 0.0 0.0 0.0 0.0 0.0 0.0 0.0 0.0 0.0 0.0 0.0 0.0 0.0 0.0 0.0 0.0 0.0 0.0 0.0 0.0 0.0 0.0 0.0 0.0 0.0 0.0 0.0 0.0 0.0 0.0 0.0 0.0 0.0 0.0 0.0 0.0 0.0 0.0 0.0 0.0 0.0 0.0 0.0 0.0 0.0 0.0 0.0 0.0 0.0 0.0 0.0 0.0 0.0 0.0 0.0 0.0 0.0 0.0 0.0 0.0 0.0 0.0 0.0 0.0 0.0 0.0 0.0 0.0 0.0 0.0 0.0 0.0 0.0 0.0 0.0 0.0 0.0 0.0 0.0 0.0 0.0 0.0 0.0 0.0 0.0 0.0 0.0 0.0 0.0 0.0 0.0 0.0 0.0 0.0 0.0 0.0 0.0 0.0 0.0 0.0 0.0 0.0 0.0 0.0 0.0 0.0 0.0 0.0 0.0 0.0 0.0 0.0 0.0 0.0 0.0 0.0 0.0 0.0 0.0 0.0 0.0 0.0 0.0 0.0 0.0 0.0 0.0 0.0 0.0 0.0 0.0 0.0 0.0 0.0 0.0 0.0 0.0 0.0 0.0 0.0 0.0 0.0 0.0 0.0 0.0 0.0 0.0 0.0 0.0 0.0 0.0 0.0 0.0 0.0 0.0 0.0 0.0 0.0 0.0 0.0 0.0 0.0 0.0 0.0 0.0 0.0 0.0 0.0 0.0 0.0 0.0 0.0 0.0 0.0 0.0 0.0 0.0 0.0 0.0 0.0 0.0 0.0 0.0 0.0 0.0 0.0 0.0 0.0 0.0 0.0 0.0 0.0 0.0 0.0 0.0 0.0 0.0 0.0 0.0 0.0 0.0 0.0 0.0 0.0 0.0 0.0 0.0 0.0 0.0 0.0 0.0 0.0 0.0 0.0 0.0 0.0 0.0 0.0 0.0 0.0 0.0 0.0 0.0 0.0 0.0 0.0 0.0 0.0 0.0 0.0 0.0 0.0 0.0 0.0 0.0 0.0 0.0 0.0 0.0 0.0 0.0 0.0 0.0 0.0 0.0 0.0 0.0 0.0 0.0 0.0 0.0 0.0 0.0 0.0 0.0 0.0 0.0 0.0 0.0 0.0 0.0 0.0 0.0 0.0 0.0 0.0 0.0 0.0 0.0 0.0 0.0 0.0 0.0 0.0 0.0 0.0 0.0 0.0 0.0 0.0 0.0 0.0 0.0 0.0 0.0 0.0 0.0 0.0 0.0 0.0 0.0 0.0 0.0 0.0 0.0 0.0 0.0 0.0 0.0 0.0 0.0 0.0 0.0 0.0 0.0 0.0 0.0 0.0 0.0 0.0 0.0 0.0 0.0 0.0 0.0 0.0 0.0 0.0 0.0 0.0 0.0 0.0 0.0 0.0 0.0 0.0 0.0 0.0 0.0 0.0 0.0 0.0 0.0 0.0 0.0 0.0 0.0 0.0 0.0 0.0 0.0 0.0 0.0 0.0 0.0 0.0 0.0 0.0 0.0 0.0 0.0 0.0 0.0 0.0 0.0 0.0 0.0 0.0 0.0 0.0 0.0 0.0 0.0 0.0 0.0 0.0 0.0 0.0 0.0 0.0 0.0 0.0 0.0 0.0 0.0 0.0 0.0 0.0 0.0 0.0 0.0 0.0 0.0 0.0 0.0 0.0 0.0 0.0 0.0 0.0 0.0 0.0 0.0 0.0 0.0 0.0 0.0 0.0 0.0 0.0 0.0 0.0 0.0 0.0 0.0 0.0 0.0 0.0 0.0 0.0 0.0 0.0 0.0 0.0 0.0 0.0 0.0 0.0 0.0 0.0 0.0 0.0 0.0 0.0 0.0 0.0 0.0 0.0 0.0 0.0 0.0 0.0 0.0 0.0 0.0 0.0 0.0 0.0 0.0 0.0 0.0 0.0 0.0 0.0 0.0 0.0 0.0 0.0 0.0 0.0 0.0 0.0 0.0 0.0 0.0 0.0 0.0 0.0 0.0 0.0 0.0 0.0 0.0 0.0 0.0 0.0 0.0 0.0 0.0 0.0 0.0 0.0 0.0 0.0 0.0 0.0 0.0 0.0 0.0 0.0 0.0 0.0 0.0 0.0 0.0 0.0 0.0 0.0 0.0 0.0 0.0 0.0 0.0 0.0 0.0 0.0 0.0 0.0 0.0 0.0 0.0 0.0 0.0 0.0 0.0 0.0 0.0 0.0 0.0 0.0 0.0 0.0 0.0 0.0 0.0 0.0 0.0 0.0 0.0 0.0 0.0 0.0 0.0 0.0 0.0 0.0 0.0 0.0 0.0 0.0 0.0 0.0 0.0 0.0 0.0 0.0 0.0 0.0 0.0 0.0 0.0 0.0 0.0 0.0 0.0 0.0 0.0 0.0 0.0 0.0 0.0 0.0 0.0 0.0 0.0 0.0 0.0 0.0 0.0 0.0 0.0 0.0 0.0 0.0 0.0 0.0 0.0 0.0 0.0 0.0 0.0 0.0 0.0 0.0 0.0 0.0 0.0 0.0 0.0 0.0 0.0 0.0 0.0 0.0 0.0 0.0 0.0 0.0 0.0 0.0 0.0 0.0 0.0 0.0 0.0 0.0 0.0 0.0 0.0 0.0 0.0 0.0 0.0 0.0 0.0 0.0 0.0 0.0 0.0 0.0 0.0 0.0 0.0 0.0 0.0 0.0 0.0 0.0 0.0 0.0 0.0 0.0 0.0 0.0 0.0 0.0 0.0 0.0 0.0 0.0 0.0 0.0 0.0 0.0 0.0 0.0 0.0 0.0 0.0 0.0 0.0 0.0 0.0 0.0 0.0 0.0 0.0 0.0 0.0 0.0 0.0 0.0 0.0 0.0 0.0 0.0 0.0 0.0 0.0 0.0 0.0 0.0 0.0 0.0 0.0 0.0 0.0 0.0 0.0 0.0 0.0 0.0 0.0 0.0 0.0 0.0 0.0 0.0 0.0 0.0 0.0 0.0 0.0 0.0 0.0 0.0 0.0 0.0 0.0 0.0 0.0 0.0 0.0 0.0 0.0 0.0 0.0 0.0 0.0 0.0 0.0 0.0 0.0 0.0 0.0 0.0 0.0 0.0 0.0 0.0 0.0 0.0 0.0 0.0 0.0 0.0 0.0 0.0 0.0 0.0 0.0 0.0 0.0 0.0 0.0 0.0 0.0 0.0 0.0 0.0 0.0 0.0 0.0 0.0 0.0 0.0 0.0 0.0 0.0 0.0 0.0 0.0 0.0 0.0 0.0 0.0 0.0 0.0 0.0 0.0 0.0 0.0 0.0 0.0 0.0 0.0 0.0 0.0 0.0 0.0 0.0 0.0 0.0 0.0 0.0 0.0 0.0 0.0 0.0 0.0 0.0 0.0 0.0 0.0 0.0 0.0 0.0 0.0 0.0 0.0 0.0 0.0 0.0 0.0 0.0 0.0 0.0 0.0 0.0 0.0 0.0 0.0 0.0 0.0 0.0 0.0 0.0 0.0 0.0 0.0 0.0 0.0 0.0 0.0 0.0 0.0 0.0 0.0 0.0 0.0 0.0 0.0 0.0 0.0 0.0 0.0 0.0 0.0 0.0 0.0 0.0 0.0 0.0 0.0 0.0 0.0 0.0 0.0 0.0 0.0 0.0 0.0 0.0 0.0 0.0 0.0 0.0 0.0 0.0 0.0 0.0 0.0 0.0 0.0 0.0 0.0 0.0 0.0 0.0 0.0 0.0 0.0 0.0 0.0 0.0 0.0 0.0 0.0 0.0 0.0 0.0 0.0 0.0 0.0 0.0 0.0 0.0 0.0 0.0 0.0 0.0 0.0 0.0 0.0 0.0 0.0 0.0 0.0 0.0 0.0 0.0 0.0 0.0 0.0 0.0 0.0 0.0 0.0 0.0 0.0 0.0 0.0 0.0 0.0 0.0 0.0 0.0 0.0 0.0 0.0 0.0 0.0 0.0 0.0 0.0 0.0 0.0 0.0 0.0 0.0 0.0 0.0 0.0 0.0 0.0 0.0 0.0 0.0 0.0 0.0 0.0 0.0 0.0 0.0 0.0 0.0 0.0 0.0 0.0 0.0 0.0 0.0 0.0 0.0 0.0 0.0 0.0 0.0 0.0 0.0 0.0 0.0 0.0 0.0 0.0 0.0 0.0 0.0 0.0 0.0 0.0 0.0 0.0 0.0 0.0 0.0 0.0 0.0 0.0 0.0 0.0 0.0 0.0 0.0 0.0 0.0 0.0 0.0 0.0 0.0 0.0 0.0 0.0 0.0 0.0 0.0 0.0 0.0 0.0 0.0 0.0 0.0 0.0 0.0 0.0 0.0 0.0 0.0 0.0 0.0 0.0 0.0 0.0 0.0 0.0 0.0 0.0 0.0 0.0 0.0 0.0 0.0 0.0 0.0 0.0 0.0 0.0 0.0 0.0 0.0 0.0 0.0 0.0 0.0 0.0 0.0 0.0 0.0 0.0 0.0 0.0 0.0 0.0 0.0 0.0 0.0 0.0 0.0 0.0 0.0 0.0 0.0 0.0 0.0 0.0 0.0 0.0 0.0 0.0 0.0 0.0 0.0 0.0 0.0 0.0 0.0 0.0 0.0 0.0 0.0 0.0 0.0 0.0 0.0 0.0 0.0 0.0 0.0 0.0 0.0 0.0 0.0 0.0 0.0 0.0 0.0 0.0 0.0 0.0 0.0 0.0 0.0 0.0 0.0 0.0 0.0 0.0 0.0 0.0 0.0 0.0 0.0 0.0 0.0 0.0 0.0 0.0 0.0 0.0 0.0 0.0 0.0 0.0 0.0 0.0 0.0 0.0 0.0 0.0 0.0 0.0 0.0 0.0 0.0 0.0 0.0 0.0 0.0 0.0 0.0 0.0 0.0 0.0 0.0 0.0 0.0 0.0 0.0 0.0 0.0 0.0 0.0 0.0 0.0 0.0 0.0 0.0 0.0 0.0 0.0 0.0 0.0 0.0 0.0 0.0 0.0 0.0 0.0 0.0 0.0 0.0 0.0 0.0 0.0 0.0 0.0 0.0 0.0 0.0 0.0 0.0 0.0 0.0 0.0 0.0 0.0 0.0 0.0 0.0 0.0 0.0 0.0 0.0 0.0 0.0 0.0 0.0 0.0 0.0 0.0 0.0 0.0 0.0 0.0 0.0 0.0 0.0 0.0 0.0 0.0 0.0 0.0 0.0 0.0 0.0 0.0 0.0 0.0 0.0 0.0 0.0 0.0 0.0 0.0 0.0 0.0 0.0 0.0 0.0 0.0 0.0 0.0 0.0 0.0 0.0 0.0 0.0 0.0 0.0 0.0 0.0 0.0 0.0 0.0 0.0 0.0 0.0 0.0 0.0 0.0 0.0 0.0 0.0 0.0 0.0 0.0 0.0 0.0 0.0 0.0 0.0 0.0 0.0 0.0 0.0 0.0 0.0 0.0 0.0 0.0 0.0 0.0 0.0 0.0 0.0 0.0 0.0 0.0 0.0 0.0 0.0 0.0 0.0 0.0 0.0 0.0 0.0 0.0 0.0 0.0 0.0 0.0 0.0 0.0 0.0 0.0 0.0 0.0 0.0 0.0 0.0 0.0 0.0 0.0 0.0 0.0 0.0 0.0 0.0 0.0 0.0 0.0 0.0 0.0 0.0 0.0 0.0 0.0 0.0 0.0 0.0 0.0 0.0 0.0 0.0 0.0 0.0 0.0 0.0 0.0 0.0 0.0 0.0 0.0 0.0 0.0 0.0 0.0 0.0 0.0 0.0 0.0 0.0 0.0 0.0 0.0 0.0 0.0 0.0 0.0 0.0 0.0 0.0 0.0 0.0 0.0 0.0 0.0 0.0 0.0 0.0 0.0 0.0 0.0 0.0 0.0 0.0 0.0 0.0 0.0 0.0 0.0 0.0 0.0 0.0 0.0 0.0 0.0 0.0 0.0 0.0 0.0 0.0 0.0 0.0 0.0 0.0 0.0 0.0 0.0 0.0 0.0 0.0 0.0 0.0 0.0 0.0 0.0 0.0 0.0 0.0 0.0 0.0 0.0 0.0 0.0 0.0 0.0 0.0 0.0 0.0 0.0 0.0 0.0 0.0 0.0 0.0 0.0 0.0 0.0 0.0 0.0 0.0 0.0 0.0 0.0 0.0 0.0 0.0 0.0 0.0 0.0 0.0 0.0 0.0 0.0 0.0 0.0 0.0 0.0 0.0 0.0 0.0 0.0 0.0 0.0 0.0 0.0 0.0 0.0 0.0 0.0 0.0 0.0 0.0 0.0 0.0 0.0 0.0 0.0 0.0 0.0 0.0 0.0 0.0 0.0 0.0 0.0 0.0 0.0 0.0 0.0 0.0 0.0 0.0 0.0 0.0 0.0 0.0 0.0 0.0 0.0 0.0 0.0 0.0 0.0 0.0 0.0 0.0 0.0 0.0 0.0 0.0 0.0 0.0 0.0 0.0 0.0 0.0 0.0 0.0 0.0 0.0 0.0 0.0 0.0 0.0 0.0 0.0 0.0 0.0 0.0 0.0 0.0 0.0 0.0 0.0 0.0 0.0 0.0 0.0 0.0 0.0 0.0 0.0 0.0 0.0 0.0 0.0 0.0 0.0 0.0 0.0 0.0 0.0 0.0 0.0 0.0 0.0 0.0 0.0 0.0 0.0 0.0 0.0 0.0 0.0 0.0 0.0 0.0 0.0 0.0 0.0 0.0 0.0 0.0 0.0 0.0 0.0 0.0 0.0 0.0 0.0 0.0 0.0 0.0 0.0 0.0 0.0 0.0 0.0 0.0 0.0 0.0 0.0 0.0 0.0 0.0 0.0 0.0 0.0 0.0 0.0 0.0 0.0 0.0 0.0 0.0 0.0 0.0 0.0 0.0 0.0 0.0 0.0 0.0 0.0 0.0 0.0 0.0 0.0 0.0 0.0 0.0 0.0 0.0 0.0 0.0 0.0 0.0 0.0 0.0 0.0 0.0 0.0 0.0 0.0 0.0 0.0 0.0 0.0 0.0 0.0 0.0 0.0 0.0 0.0 0.0 0.0 0.0 0.0 0.0 0.0 0.0 0.0 0.0 0.0 0.0 0.0 0.0 0.0 0.0 0.0 0.0 0.0 0.0 0.0 0.0 0.0 0.0 0.0 0.0 0.0 0.0 0.0 0.0 0.0 0.0 0.0 0.0 0.0 0.0 0.0 0.0 0.0 0.0 0.0 0.0 0.0 0.0 0.0 0.0 0.0 0.0 0.0 0.0 0.0 0.0 0.0 0.0 0.0 0.0 0.0 0.0 0.0 0.0 0.0 0.0 0.0 0.0 0.0 0.0 0.0 0.0 0.0 0.0 0.0 0.0 0.0 0.0 0.0 0.0 0.0 0.0 0.0 0.0 0.0 0.0 0.0 0.0 0.0 0.0 0.0 0.0 0.0 0.0 0.0 0.0 0.0 0.0 0.0 0.0 0.0 0.0 0.0 0.0 0.0 0.0 0.0 0.0 0.0 0.0 0.0 0.0 0.0 0.0 0.0 0.0 0.0 0.0 0.0 0.0 0.0 0.0 0.0 0.0 0.0 0.0 0.0 0.0 0.0 0.0 0.0 0.0 0.0 0.0 0.0 0.0 0.0 0.0 0.0 0.0 0.0 0.0 0.0 0.0 0.0 0.0 0.0 0.0 0.0 0.0 0.0 0.0 0.0 0.0 0.0 0.0 0.0 0.0 0.0 0.0 0.0 0.0 0.0 0.0 0.0 0.0 0.0 0.0 0.0 0.0 0.0 0.0 0.0 0.0 0.0 0.0 0.0 0.0 0.0 0.0 0.0 0.0 0.0 0.0 0.0 0.0 0.0 0.0 0.0 0.0 0.0 0.0 0.0 0.0 0.0 0.0
        </DataArray>
      </PointData>
      <CellData>
        <DataArray type="Int32" Name="GeometryIds" format="ascii">
 2 2 2 2 2 2 2 2 2 2 2 2 2 2 2 2 2 2 2 2 2 2 2 2 2 2 2 2 2 2 2 2 2 2 2 2 2 2 2 2 2 2 2 2 2 2 2 2 2 2 2 2 2 2 2 2 2 2 2 2 2 2 2 2 2 2 2 2 2 2 2 2 2 2 2 2 2 2 2 2 2 2 2 2 2 2 2 2 2 2 2 2 2 2 2 2 2 2 2 2 2 2 2 2 2 2 2 2 2 2 2 2 2 2 2 2 2 2 2 2 2 2 2 2 2 2 2 2 2 2 2 2 2 2 2 2 2 2 2 2 2 2 2 2 2 2 2 2 2 2 2 2 2 2 2 2 2 2 2 2 2 2 2 2 2 2 2 2 2 2 2 2 2 2 2 2 2 2 2 2 2 2 2 2 2 2 2 2 2 2 2 2 2 2 2 2 2 2 2 2 2 2 2 2 2 2 2 2 2 2 2 2 2 2 2 2 2 2 2 2 2 2 2 2 2 2 2 2 2 2 2 2 2 2 2 2 2 2 2 2 2 2 2 2 2 2 2 2 2 2 2 2 2 2 2 2 2 2 2 2 2 2 2 2 2 2 2 2 2 2 2 2 2 2 2 2 2 2 2 2 2 2 2 2 2 2 2 2 2 2 2 2 2 2 2 2 2 2 2 2 2 2 2 2 2 2 2 2 2 2 2 2 2 2 2 2 2 2 2 2 2 2 2 2 2 2 2 2 2 2 2 2 2 2 2 2 2 2 2 2 2 2 2 2 2 2 2 2 2 2 2 2 2 2 2 2 2 2 2 2 2 2 2 2 2 2 2 2 2 2 2 2 2 2 2 2 2 2 2 2 2 2 2 2 2 2 2 2 2 2 2 2 2 2 2 2 2 2 2 2 2 2 2 2 2 2 2 2 2 2 2 2 2 2 2 2 2 2 2 2 2 2 2 2 2 2 2 2 2 2 2 2 2 2 2 2 2 2 2 2 2 2 2 2 2 2 2 2 2 2 2 2 2 2 2 2 2 2 2 2 2 2 2 2 2 2 2 2 2 2 2 2 2 2 2 2 2 2 2 2 2 2 2 2 2 2 2 2 2 2 2 2 2 2 2 2 2 2 2 2 2 2 2 2 2 2 2 2 2 2 2 2 2 2 2 2 2 2 2 2 2 2 2 2 2 2 2 2 2 2 2 2 2 2 2 2 2 2 2 2 2 2 2 2 2 2 2 2 2 2 2 2 2 2 2 2 2 2 2 2 2 2 2 2 2 2 2 2 2 2 2 2 2 2 2 2 2 2 2 2 2 2 2 2 2 2 2 2 2 2 2 2 2 2 2 2 2 2 2 2 2 2 2 2 2 2 2 2 2 2 2 2 2 2 2 2 2 2 2 2 2 2 2 2 2 2 2 2 2 2 2 2 2 2 2 2 2 2 2 2 2 2 2 2 2 2 2 2 2 2 2 2 2 2 2 2 2 2 2 2 2 2 2 2 2 2 2 2 2 2 2 2 2 2 2 2 2 2 2 2 2 2 2 2 2 2 2 2 2 2 2 2 2 2 2 2 2 2 2 2 2 2 2 2 2 2 2 2 2 2 2 2 2 2 2 2 2 2 2 2 2 2 2 2 2 2 2 2 2 2 2 2 2 2 2 2 2 2 2 2 2 2 2 2 2 2 2 2 2 2 2 2 2 2 2 2 2 2 2 2 2 2 2 2 2 2 2 2 2 2 2 2 2 2 2 2 2 2 2 2 2 2 2 2 2 2 2 2 2 2 2 2 2 2 2 2 2 2 2 2 2 2 2 2 2 2 2 2 2 2 2 2 2 2 2 2 2 2 2 2 2 2 2 2 2 2 2 2 2 2 2 2 2 2 2 2 2 2 2 2 2 2 2 2 2 2 2 2 2 2 2 2 2 2 2 2 2 2 2 2 2 2 2 2 2 2 2 2 2 2 2 2 2 2 2 2 2 2 2 2 2 2 2 2 2 2 2 2 2 2 2 2 2 2 2 2 2 2 2 2 2 2 2 2 2 2 2 2 2 2 2 2 2 2 2 2 2 2 2 2 2 2 2 2 2 2 2 2 2 2 2 2 2 2 2 2 2 2 2 2 2 2 2 2 2 2 2 2 2 2 2 2 2 2 2 2 2 2 2 2 2 2 2 2 2 2 2 2 2 2 2 2 2 2 2 2 2 2 2 2 2 2 2 2 2 2 2 2 2 2 2 2 2 2 2 2 2 2 2 2 2 2 2 2 2 2 2 2 2 2 2 2 2 2 2 2 2 2 2 2 2 2 2 2 2 2 2 2 2 2 2 2 2 2 2 2 2 2 2 2 2 2 2 2 2 2 2 2 2 2 2 2 2 2 2 2 2 2 2 2 2 2 2 2 2 2 2 2 2 2 2 2 2 2 2 2 2 2 2 2 2 2 2 2 2 2 2 2 2 2 2 2 2 2 2 2 2 2 2 2 2 2 2 2 2 2 2 2 2 2 2 2 2 2 2 2 2 2 2 2 2 2 2 2 2 2 2 2 2 2 2 2 2 2 2 2 2 2 2 2 2 2 2 2 2 2 2 2 2 2 2 2 2 2 2 2 2 2 2 2 2 2 2 2 2 2 2 2 2 2 2 2 2 2 2 2 2 2 2 2 2 2 2 2 2 2 2 2 2 2 2 2 2 2 2 2 2 2 2 2 2 2 2 2 2 2 2 2 2 2 2 2 2 2 2 2 2 2 2 2 2 2 2 2 2 2 2 2 2 2 2 2 2 2 2 2 2 2 2 2 2 2 2 2 2 2 2 2 2 2 2 2 2 2 2 2 2 2 2 2 2 2 2 2 2 2 2 2 2 2 2 2 2 2 2 2 2 2 2 2 2 2 2 2 2 2 2 2 2 2 2 2 2 2 2 2 2 2 2 2 2 2 2 2 2 2 2 2 2 2 2 2 2 2 2 2 2 2 2 2 2 2 2 2 2 2 2 2 2 2 2 2 2 2 2 2 2 2 2 2 2 2 2 2 2 2 2 2 2 2 2 2 2 2 2 2 2 2 2 2 2 2 2 2 2 2 2 2 2 2 2 2 2 2 2 2 2 2 2 2 2 2 2 2 2 3 3 3 3 3 3 3 3 3 3 3 3 3 3 3 3 3 3 3 3 3 3 3 3 3 3 3 3 3 3 3 3 3 3 3 3 3 3 3 3 3 3 3 3 3 3 3 3 3 3 3 3 3 3 3 3 3 3 3 3 3 3 3 3 3 3 3 3 3 3 3 3 3 3 3 3 3 3 3 3 3 3 3 3 3 3 3 3 3 3 3 3 3 3 3 3 3 3 3 3 3 3 3 3 3 3 3 3 3 3 3 3 3 3 3 3 3 3 3 3 3 3 3 3 3 3 3 3 3 3 3 3 3 3 3 3 3 3 3 3 3 3 3 3 3 3 3 3 3 3 3 3 3 3 3 3 3 3 3 3 3 3 3 3 3 3 3 3 3 3 3 3 3 3 3 3 3 3 3 3 3 3 3 3 3 3 3 3 3 3 3 3 3 3 3 3 3 3 3 3 3 3 3 3 3 3 3 3 3 3 3 3 3 3 3 3 3 3 3 3 3 3 3 3 3 3 3 3 3 3 3 3 3 3 3 3 3 3 3 3 3 3 3 3 3 3 3 3 3 3 3 3 3 3 3 3 3 3 3 3 3 3 3 3 3 3 3 3 3 3 3 3 3 3 3 3 3 3 3 3 3 3 3 3 3 3 3 3 3 3 3 3 3 3 3 3 3 3 3 3 3 3 3 3 3 3 3 3 3 3 3 3 3 3 3 3 3 3 3 3 3 3 3 3 3 3 3 3 3 3 3 3 3 3 3 3 3 3 3 3 3 3 3 3 3 3 3 3 3 3 3 3 3 3 3 3 3 3 3 3 3 3 3 3 3 3 3 3 3 3 3 3 3 3 3 3 3 3 3 3 3 3 3 3 3 3 3 3 3 3 3 3 3 3 3 3 3 3 3 3 3 3 3 3 3 3 3 3 3 3 3 3 3 3 3 3 3 3 3 3 3 3 3 3 3 3 3 3 3 3 3 3 3 3 3 3 3 3 3 3 3 3 3 3 3 3 3 3 3 3 3 3 3 3 3 3 3 3 3 3 3 3 3 3 3 3 3 3 3 3 3 3 3 3 3 3 3 3 3 3 3 3 3 3 3 3 3 3 3 3 3 3 3 3 3 3 3 3 3 3 3 3 3 3 3 3 3 3 3 3 3 3 3 3 3 3 3 3 3 3 3 3 3 3 3 3 3 3 3 3 3 3 3 3 3 3 3 3 3 3 3 3 3 3 3 3 3 3 3 3 3 3 3 3 3 3 3 3 3 3 3 3 3 3 3 3 3 3 3 3 3 3 3 3 3 3 3 3 3 3 3 3 3 3 3 3 3 3 3 3 3 3 3 3 3 3 3 3 3 3 3 3 3 3 3 3 3 3 3 3 3 3 3 3 3 3 3 3 3 3 3 3 3 3 3 3 3 3 3 3 3 3 3 3 3 3 3 3 3 3 3 3 3 3 3 3 3 3 3 3 3 3 3 3 3 3 3 3 3 3 3 3 3 3 3 3 3 3 3 3 3 3 3 3 3 3 3 3 3 3 3 3 3 3 3 3 3 3 3 3 3 3 3 3 3 3 3 3 3 3 3 3 3 3 3 3 3 3 3 3 3 3 3 3 3 3 3 3 3 3 3 3 3 3 3 3 3 3 3 3 3 3 3 3 3 3 3 3 3 3 3 3 3 3 3 3 3 3 3 3 3 3 3 3 3 3 3 3 3 3 3 3 3 3 3 3 3 3 3 3 3 3 3 3 3 3 3 3 3 3 3 3 3 3 3 3 3 3 3 3 3 3 3 3 3 3 3 3 3 3 3 3 3 3 3 3 3 3 3 3 3 3 3 3 3 3 3 3 3 3 3 3 3 3 3 3 3 3 3 3 3 3 3 3 3 3 3 3 3 3 3 3 3 3 3 3 3 3 3 3 3 3 3 3 3 3 3 3 3 3 3 3 3 3 3 3 3 3 3 3 3 3 3 3 3 3 3 3 3 3 3 3 3 3 3 3 3 3 3 3 3 3 3 3 3 3 3 3 3 3 3 3 3 3 3 3 3 3 3 3 3 3 3 3 3 3 3 3 3 3 3 3 3 3 3 3 3 3 3 3 3 3 3 3 3 3 3 3 3 3 3 3 3 3 3 3 3 3 3 3 3 3 3 3 3 3 3 3 3 3 3 3 3 3 3 3 3 3 3 3 3 3 3 3 3 3 3 3 3 3 3 3 3 3 3 3 3 3 3 3 3 3 3 3 3 3 3 3 3 3 3 3 3 3 3 3 3 3 3 3 3 3 3 3 3 3 3 3 3 3 3 3 3 3 3 3 3 3 3 3 3 3 3 3 3 3 3 3 3 3 3 3 3 3 3 3 3 3 3 3 3 3 3 3 3 3 3 3 3 3 3 3 3 3 3 3 3 3 3 3 3 3 3 3 3 3 3 3 3 3 3 3 3 3 3 3 3 3 3 3 3 3 3 3 3 3 3 3 3 3 3 3 3 3 3 3 3 3 3 3 3 3 3 3 3 3 3 3 3 3 3 3 3 3 3 3 3 3 3 3 3 3 3 3 3 3 3 3 3 3 3 3 3 3 3 3 3 3 3 3 3 3 3 3 3 3 3 3 3 3 3 3 3 3 3 3 3 3 3 3 3 3 3 3 3 3 3 3 3 3 3 3 3 3 3 3 3 3 3 3 3 3 3 3 3 3 3 3 3 3 3 3 3 3 3 3 3 3 3 3 3 3 3 3 3 3 3 3 3 3 3 3 3 3 3 3 3 3 3 3 3 3 3 3 3 3 3 3 3 3 3 3 3 3 3 3 3 3 3 3 3 3 3 3 3 3 3 3 3 3 3 3 3 3 3 3 3 3 3 3 3 3 3 3 3 3 3 3 3 3 3 3 3 3 3 3 3 3 3 3 3 3 3 3 3 3 3 3 3 3 3 3 3 3 3 3 3 3 3 3 3 3 3 3 3 3 3 3 3 3 3 3 3 3 3 3 3 3 3 3 3 3 3 3 3 3 3 3 3 3 3 3 3 3 3 3 3 3 3 3 3 3 3 3 3 3 3 3 3 3 3 3 3 3 3 3 3 3 3 3 3 3 3 3 3 3 3 3 3 3 3 3 3 3 3 3 3 3 3 3 3 3 3 3 3 3 3 3 3 3 3 3 3 3 3 3 3 3 3 3 3 3 3 3 3 3 3 3 3 3 3 3 3 3 3 3 3 3 3 3 3 3 3 3 3 3 3 3 3 3 3 3 3 3 3 3 3 3 3 3 3 3 3 3 3 3 3 3 3 3 3 3 3 3 3 3 3 3 3 3 3 3 3 3 3 3 3 3 3 3 3 3 3 3 3 3 3 3 3 3 3 3 3 3 3 3 3 3 3 3 3 3 3 3 3 3 3 3 3 3 3 3 3 3 3 3 3 3 3 3 3 3 3 3 3 3 3 3 3 3 3 3 3 3 3 3 3 3 3 3 3 3 3 3 3 3 3 3 3 3 3 3 3 3 3 3 3 3 3 3 3 3 3 3 3 3 3 3 3 3 3 3 3 3 3 3 3 3 3 3 3 3 3 3 3 3 3 3 3 3 3 3 3 3 3 3 3 3 3 3 3 3 3 3 3 3 3 3 3 3 3 3 3 3 3 3 3 3 3 3 3 3 3 3 3 3 3 3 3 3 3 3 3 3 3 3 3 3 3 3 3 3 3 3 3 3 3 3 3 3 3 3 3 3 3 3 3 3 3 3 3 3 3 3 3 3 3 3 3 3 3 3 3 3 3 3 3 3 3 3 3 3 3 3 3 3 3 3 3 3 3 3 3 3 3 3 3 3 3 3 3 3 3 3 3 3 3 3 3 3 3 3 3 3 3 3 3 3 3 3 3 3 3 3 3 3 3 3 3 3 3 3 3 3 3 3 3 3 3 3 3 3 3 3 3 3 3 3 3 3 3 3 1 1 1 1 1 1 1 1 1 1 1 1 1 1 1 1 1 1 1 1 1 1 1 1 1 1 1 1 1 1 1 1 1 1 1 1 1 1 1 1 1 1 1 1 1 1 1 1 1 1 1 1 1 1 1 1 1 1 1 1 1 1 1 1 1 1 1 1 1 1 1 1 1 1 1 1 1 1 1 1 1 1 1 1 1 1 1 1 1 1 1 1 1 1 1 1 1 1 1 1 1 1 1 1 1 1 1 1 1 1 1 1 1 1 1 1 1 1 1 1 1 1 1 1 1 1 1 1 1 1 1 1 1 1 1 1 1 1 1 1 1 1 1 1 1 1 1 1 1 1 1 1 1 1 1 1 1 1 1 1 1 1 1 1 1 1 1 1 1 1 1 1 1 1 1 1 1 1 1 1 1 1 1 1 1 1 1 1 1 1 1 1 1 1 1 1 1 1 1 1 1 1 1 1 1 1 1 1 1 1 1 1 1 1 1 1 1 1 1 1 1 1 1 1 1 1 1 1 1 1 1 1 1 1 1 1 1 1 1 1 1 1 1 1 1 1 1 1 1 1 1 1 1 1 1 1 1 1 1 1 1 1 1 1 1 1 1 1 1 1 1 1 1 1 1 1 1 1 1 1 1 1 1 1 1 1 1 1 1 1 1 1 1 1 1 1 1 1 1 1 1 1 1 1 1 1 1 1 1 1 1 1 1 1 1 1 1 1 1 1 1 1 1 1 1 1 1 1 1 1 1 1 1 1 1 1 1 1 1 1 1 1 1 1 1 1 1 1 1 1 1 1 1 1 1 1 1 1 1 1 1 1 1 1 1 1 1 1 1 1 1 1 1 1 1 1 1 1 1 1 1 1 1 1 1 1 1 1 1 1 1 1 1 1 1 1 1 1 1 1 1 1 1 1 1 1 1 1 1 1 1 1 1 1 1 1 1 1 1 1 1 1 1 1 1 1 1 1 1 1 1 1 1 1 1 1 1 1 1 1 1 1 1 1 1 1 1 1 1 1 1 1 1 1 1 1 1 1 1 1 1 1 1 1 1 1 1 1 1 1 1 1 1 1 1 1 1 1 1 1 1 1 1 1 1 1 1 1 1 1 1 1 1 1 1 1 1 1 1 1 1 1 1 1 1 1 1 1 1 1 1 1 1 1 1 1 1 1 1 1 1 1 1 1 1 1 1 1 1 1 1 1 1 1 1 1 1 1 1 1 1 1 1 1 1 1 1 1 1 1 1 1 1 1 1 1 1 1 1 1 1 1 1 1 1 1 1 1 1 1 1 1 1 1 1 1 1 1 1 1 1 1 1 1 1 1 1 1 1 1 1 1 1 1 1 1 1 1 1 1 1 1 1 1 1 1 1 1 1 1 1 1 1 1 1 1 1 1 1 1 1 1 1 1 1 1 1 1 1 1 1 1 1 1 1 1 1 1 1 1 1 1 1 1 1 1 1 1 1 1 1 1 1 1 1 1 1 1 1 1 1 1 1 1 1 1 1 1 1 1 1 1 1 1 1 1 1 1 1 1 1 1 1 1 1 1 1 1 1 1 1 1 1 1 1 1 1 1 1 1 1 1 1 1 1 1 1 1 1 1 1 1 1 1 1 1 1 1 1 1 1 1 1 1 1 1 1 1 1 1 1 1 1 1 1 1 1 1 1 1 1 1 1 1 1 1 1 1 1 1 1 1 1 1 1 1 1 1 1 1 1 1 1 1 1 1 1 1 1 1 1 1 1 1 1 1 1 1 1 1 1 1 1 1 1 1 1 1 1 1 1 1 1 1 1 1 1 1 1 1 1 1 1 1 1 1 1 1 1 1 1 1 1 1 1 1 1 1 1 1 1 1 1 1 1 1 1 1 1 1 1 1 1 1 1 1 1 1 1 1 1 1 1 1 1 1 1 1 1 1 1 1 1 1 1 1 1 1 1 1 1 1 1 1 1 1 1 1 1 1 1 1 1 1 1 1 1 1 1 1 1 1 1 1 1 1 1 1 1 1 1 1 1 1 1 1 1 1 1 1 1 1 1 1 1 1 1 1 1 1 1 1 1 1 1 1 1 1 1 1 1 1 1 1 1 1 1 1 1 1 1 1 1 1 1 1 1 1 1 1 1 1 1 1 1 1 1 1 1 1 1 1 1 1 1 1 1 1 1 1 1 1 1 1 1 1 1 1 1 1 1 1 1 1 1 1 1 1 1 1 1 1 1 1 1 1 1 1 1 1 1 1 1 1 1 1 1 1 1 1 1 1 1 1 1 1 1 1 1 1 1 1 1 1 1 1 1 1 1 1 1 1 1 1 1 1 1 1 1 1 4 4 4 4 4 4 4 4 4 4 4 4 4 4 4 4 4 4 4 4 4 4 4 4 4 4 4 4 4 4 4 4 4 4 4 4 4 4 4 4 4 4 4 4 4 4 4 4 4 4 4 4 4 4 4 4 4 4 4 4 4 4 4 4 4 4 4 4 4 4 4 4 4 4 4 4 4 4 4 4 4 4 4 4 4 4 4 4 4 4 4 4 4 4 4 4 4 4 4 4 4 4 4 4 4 4 4 4 4 4 4 4 4 4 4 4 4 4 4 4 4 4 4 4 4 4 4 4 4 4 4 4 4 4 4 4 4 4 4 4 4 4 4 4 4 4 4 4 4 4 4 4 4 4 4 4 4 4 4 4 4 4 4 4 4 4 4 4 4 4 4 4 4 4 4 4 4 4 4 4 4 4 4 4 4 4 4 4 4 4 4 4 4 4 4 4 4 4 4 4 4 4 4 4 4 4 4 4 4 4 4 4 4 4 4 4 4 4 4 4 4 4 4 4 4 4 4 4 4 4 4 4 4 4 4 4 4 4 4 4 4 4 4 4 4 4 4 4 4 4 4 4 4 4 4 4 4 4 4 4 4 4 4 4 4 4 4 4 4 4 4 4 4 4 4 4 4 4 4 4 4 4 4 4 4 4 4 4 4 4 4 4 4 4 4 4 4 4 4 4 4 4 4 4 4 4 4 4 4 4 4 4 4 4 4 4 4 4 4 4 4 4 4 4 4 4 4 4 4 4 4 4 4 4 4 4 4 4 4 4 4 4 4 4 4 4 4 4 4 4 4 4 4 4 4 4 4 4 4 4 4 4 4 4 4 4 4 4 4 4 4 4 4 4 4 4 4 4 4 4 5 5 5 5 5 5 5 5 5 5 5 5 5 5 5 5 5 5 5 5 5 5 5 5 5 5 5 5 5 5 5 5 5 5 5 5 5 5 5 5 5 5 5 5 5 5 5 5 5 5 5 5 5 5 5 5 5 5 5 5 5 5 5 5 5 5 5 5 5 5 5 5 5 5 5 5 5 5 5 5 5 5 5 5 5 5 5 5 5 5 5 5 5 5 5 5 5 5 5 5 5 5 5 5 5 5 5 5 5 5 5 5 5 5 5 5 5 5 5 5 5 5 5 5 5 5 5 5 5 5 5 5 5 5 5 5 5 5 5 5 5 5 5 5 5 5 5 5 5 5 5 5 5 5 5 5 5 5 5 5 5 5 5 5 5 5 5 5 5 5 5 5 5 5 5 5 5 5 5 5 5 5 5 5 5 5 5 5 5 5 5 5 5 5 5 5 5 5 5 5 5 5 5 5 5 5 5 5 5 5 5 5 5 5 5 5 5 5 5 5 5 5 5 5 5 5 5 5 5 5 5 5 5 5 5 5 5 5 5 5 5 5 5 5 5 5 5 5 5 5 5 5 5 5 5 5 5 5 5 5 5 5 5 5 5 5 5 5 5 5 5 5 5 5 5 5 5 5 5 5 5 5 5 5 5 5 5 5 5 5 5 5 5 5 5 5 5 5 5 5 5 5 5 5 5 5 5 5 5 5 5 5 5 5 5 5 5 5 5 5 5 5 5 5 5 5 5 5 5 5 5 5 5 5 5 5 5 5 5 5 5 5 5 5 5 5 5 5 5 5 5 5 5 5 5 5 5 5 5 5 5 5 5 5 5 5 5 5 5 5 5 5 5 5 5 5 5 5 5 5 5 5 5 5 5 5 5 5 5 5 5 5 5 5 5 5 5 5 5 5 5 5 5 5 5 5 5 5 5 5 5 5 5 5 5 5 5 5 5 5 5 5 5 5 5 5 5 5 5 5 5 5 5 5 5 5 5 5 5 5 5 5 5 5 5 5 5 5 5 5 5 5 5 5 5 5 5 5 5 5 5 5 5 5 5 5 5 5 5 5 5 5 5 5 5 5 5 5 5 5 5 5 5 5 5 5 5 5 5 5 5 5 5 5 5 5 5 5 5 5 5 5 5 5 5 5 5 5 5 5 5 5 5 5 5 5 5 5 5 5 5 5 5 5 5 5 5 5 5 5 5 5 5 5 5 5 5 5 5 5 5 5 5 5 5 5 5 5 5 5 5 5 5 5 5 5 5 5 5 5 5 5 5 5 5 5 5 5 5 5 5 5 5 5 5 5 5 5 5 5 5 5 5 5 5 5 5 5 5 5 5 5 5 5 5 5 5 5 5 5 5 5 5 5 5 5 5 5 5 5 5 5 5 5 5 5 5 5 5 5 5 5 5 5 5 5 5 5 5 5 5 5 5 5 5 5 5 5 5 5 5 5 5 5 5 5 5 5 5 5 5 5 5 5 5 5 5 5 5 5 5 5 5 5 5 5 5 5 5 5 5 5 5 5 5 5 5 5 5 5 5 5 5 5 5 5 5 5 5 5 5 5 5 5 5 5 5 5 5 5 5 5 5 5 5 5 5 5 5 5 5 5 5 5 5 5 5 5 5 5 5 5 5 5 5 5 5 5 5 5 5 5 5 5 5 5 5 5 5 5 5 5 5 5 5 5 5 5 5 5 5 5 5 5 5 5 5 5 5 5 5 5 5 5 5 5 5 5 5 5 5 5 5 5 5 5 5 5 5 5 5 5 5 5 5 5 5 5 5 5 5 5 5 5 5 5 5 5 5 5 5 5 5 5 5 5 5 5 5 5 5 5 5 5 5 5 5 5 5 5 5 5 5 5 5 5 5 5 5 5 5 5 5 5 5 5 5 5 5 5 5 5 5 5 5 5 5 5 5 5 5 5 5 5 5 5 5 5 5 5 5 5 5 5 5 5 5 5 5 5 5 5 5 5 5 5 5 5 5 5 5 5 5 5 5 5 5 5 5 5 5 5 5 5 5 5 5 5 5 5 5 5 5 5 5 5 5 5 5 5 5 5 5 5 5 5 5 5 5 5 5 5 5 5 5 5 5 5 5 5 5 5 5 5 5 5 5 5 5 5 5 5 5 5 5 5 5 5 5 5 5 5 5 5 5 5 5 5 5 5 5 5 5 5 5 5 5 5 5 5 5 5 5 5 5 5 5 5 5 5 5 5 5 5 5 5 5 5 5 5 5 5 5 5 5 5 5 5 5 5 5 5 5 5 5 5 5 5 5 5 5 5 5 5 5 5 5 5 5 5 5 5 5 5 5 5 5 5 5 5 5 5 5 5 5 5 5 5 5 5 5 5 5 5 5 5 5 5 5 5 5 5 5 5 5 5 5 5 5 5 5 5 5 5 5 5 5 5 5 5 5 5 5 5 5 5 5 5 5 5 5 5 5 5 5 5 5 5 5 5 5 5 5 5 5 5 5 5 5 5 5 5 5 5 5 5 5 5 5 5 5 5 5 5 5 5 5 5 5 5 5 5 5 5 5 5 5 5 5 5 5 5 5 5 5 5 5 5 5 5 5 5 5 5 5 5 5 5 5 5 5 5 5 5 5 5 5 5 5 5 5 5 5 5 5 5 5 5 5 5 5 5 5 5 5 5 5 5 5 5 5 5 5 5 5 5 5 5 5 5 5 5 5 5 5 5 5 5 5 5 5 5 5 5 5 5 5 5 5 5 5 5 5 5 5 5 5 5 5 5 5 5 5 5 5 5 5 5 5 5 5 5 5 5 5 5 5 5 5 5 5 5 5 5 5 5 5 5 5 5 5 5 5 5 5 5 5 5 5 5 5 5 5 5 5 5 5 5 5 5 5 5 5 5 5 5 5 5 5 5 5 5 5 5 5 5 5 5 5 5 5 5 5 5 5 5 5 5 5 5 5 5 5 5 5 5 5 5 5 5 5 5 5 5 5 5 5 5 5 5 5 5 5 5 5 5 5 5 5 5 5 5 5 5 5 5 5 5 5 5 5 5 5 5 5 5 5 5 5 5 5 5 5 5 5 5 5 5 5 5 5 5 5 5 5 5 5 5 5 5 5 5 5 5 5 5 5 5 5 5 5 5 5 5 5 5 5 5 5 5 5 5 5 5 5 5 5 5 5 5 5 5 5 5 5 5 5 5 5 5 5 5 5 5 5 5 5 5 5 5 5 5 5 5 5 5 5 5 5 5 5 5 5 5 5 5 5 5 5 5 5 5 5 5 5 5 5 5 5 5 5 5 5 5 5 5 5 5 5 5 5 5 5 5 5 5 5 5 5 5 5 5 5 5 5 5 5 5 5 5 5 5 5 5 5 5 5 5 5 5 5 5 5 5 5 5 5 5 5 5 5 5 5 5 5 5 5 5 5 5 5 5 5 5 5 5 5 5 5 5 5 5 5 5 5 5 5 5 5 5 5 5 5 5 5 5 5 5 5 5 5 5 5 5 5 5 5 5 5 5 5 5 5 5 5 5 5 5 5 5 5 5 5 5 5 5 5 5 5 5 5 5 5 5 5 5 5 5 5 5 5 5 5 5 5 5 5 5 5 5 5 5 5 5 5 5 5 5 5 5 5 5 5 5 5 5 5 5 5 5 5 5 5 5 5 5 5 5 5 5 5 5 5 5 5 5 5 5 5 5 5 5 5 5 5 5 5 5 5 5 5 5 5 5 5 5 5 5 5 5 5 5 5 5 5 5 5 5 5 5 5 5 5 5 5 5 5 5 5 5 5 5 5 5 5 5 5 5 5 5 5 5 5 5 5 5 5 5 5 5 5 5 5 5 5 5 5 5 5 5 5 5 5 5 5 5 5 5 5 5 5 5 5 5 5 5 5 5 5 5 5 5 5 5 5 5 5 5 5 5 5 5 5 5 5 5 5 5 5 5 5 5 5 5 5 5 5 5 5 5 5 5 5 5 5 5 5 5 5 5 5 5 5 5 5 5 5 5 5 5 5 5 5 5 5 5 5 5 5 5 5 5 5 5 5 5 5 5 5 5 5 5 5 5 5 5 5 5 5 5 5 5 5 5 5 5 5 5 5 5 5 5 5 5 5 5 5 5 5 5 5 5 5 5 5 5 5 5 5 5 5 5 5 5 5 5 5 5 5 5 5 5 5 5 5 5 5 5 5 5 5 5 5 5 5 5 5 5 5 5 5 5 5 5 5 5 5 5 5 5 5 5 5 5 5 5 5 5 5 5 5 5 5 5 5 5 5 5 5 5 5 5 5 5 5 5 5 5 5 5 5 5 5 5 5 5 5 5 5 5 5 5 5 5 5 5 5 5 5 5 5 5 5 5 5 5 5 5 5 5 5 5 5 5 5 5 5 5 5 5 5 5 5 5 5 5 5 5 5 5 5 5 5 5 5 5 5 5 5 5 5 5 5 5 5 5 5 5 5 5 5 5 5 5 5 5 5 5 5 5 5 5 5 5 5 5 5 5 5 5 5 5 5 5 5 5 5 5 5 5 5 5 5 5 5 5 5 5 5 5 5 5 5 5 5 5 5 5 5 5 5 5 5 5 5 5 5 5 5 5 5 5 5 5 5 5 5 5 5 5 5 5 5 5 5 5 5 5 5 5 5 5 5 5 5 5 5 5 5 5 5 5 5 5 5 5 5 5 5 5 5 5 5 5 5 5 5 5 5 5 5 5 5 5 5 5 5 5 5 5 5 5 5 5 5 5 5 5 5 5 5 5 5 5 5 5 5 5 5 5 5 5 5 5 5 5 5 5 5 5 5 5 5 5 5 5 5 5 5 5 5 5 5 5 5 5 5 5 5 5 5 5 5 5 5 5 5 5 5 5 5 5 5 5 5 5 5 5 5 5 5 5 5 5 5 5 5 5 5 5 5 5 5 5 5 5 5 5 5 5 5 5 5 5 5 5 5 5 5 5 5 5 5 5 5 5 5 5 5 5 5 5 5 5 5 5 5 5 5 5 5 5 5 5 5 5 5 5 5 5 5 5 5 5 5 5 5 5 5 5 5 5 5 5 5 5 5 5 5 5 5 5 5 5 5 5 5 5 5 5 5 5 5 5 5 5 5 5 5 5 5 5 5 5 5 5 5 5 5 5 5 5 5 5 5 5 5 5 5 5 5 5 5 5 5 5 5 5 5 5 5 5 5 5 5 5 5 5 5 5 5 5 5 5 5 5 5 5 5 5 5 5 5 5 5 5 5 5 5 5 5 5 5 5 5 5 5 5 5 5 5 5 5 5 104 104 104 104 104 104 104 104 104 104 104 104 104 104 104 104 104 104 104 104 104 104 104 104 104 104 104 104 104 106 103 103 103 103 103 103 103 103 103 103 103 103 103 103 103 103 103 103 103 103 103 103 103 103 103 103 103 103 103 103 103 103 103 103 103 103 103 103 103 103 103 103 103 103 103 103 103 103 103 103 103 103 103 103 103 103 103 103 103 103 103 103 103 103 103 103 103 103 103 103 103 103 103 103 103 103 103 103 103 103 103 103 103 103 103 103 103 103 103 103 103 103 103 103 103 103 103 103 103 103 103 105 105 105 105 105 105 105 105 105 105 105 105 105 105 105 105 105 105 105 105 105 105 105 105 105 105 105 105 105 105 105 105 105 105 105 105 105 105 105 105 104 104 104 104 104 104 104 104 102 102 102 102 102 102 102 102 102 102 102 102 102 102 102 102 102 102 102 102 102 102 102 102 102 102 102 102 102 102 102 102 102 102 102 102 102 102 102 102 100 100 100 100 100 100 100 100 100 100 100 100 100 100 100 100 100 100 109 109 109 109 109 109 109 109 109 109 109 109 109 109 109 109 109 109 109 109 109 109 109 109 109 109 109 109 109 109 109 109 109 109 109 109 109 109 109 109 109 109 109 109 109 109 109 109 109 109 109 109 109 109 109 100 100 100 100 100 100 100 100 100 100 105 105 105 105 105 105 105 105 105 105 105 105 107 107 107 107 107 107 107 107 107 107 107 107 107 107 107 107 107 107 107 107 107 107 107 107 107 107 107 107 107 107 107 107 107 107 107 107 107 107 107 107 107 107 107 107 107 107 107 107 107 107 107 107 107 107 107 107 107 107 107 107 107 107 107 107 107 107 107 107 107 107 101 101 101 101 101 101 101 101 101 101 100 100 100 100 100 100 100 100 100 100 100 100 100 100 100 100 100 100 100 100 100 100 100 100 100 100 100 100 108 108 108 108 108 108 108 108 108 108 108 108 108 108 108 108 108 108 108 108 108 108 108 108 100 100 100 100 100 100 100 100 100 100 100 100 100 100 100 100 100 100 100 100 100 100 100 100 100 100 100 100 100 100 100 100 100 100 100 100 100 100 100 100 100 100 100 100 100 100 100 100 100 100 100 100 100 100 100 100 100 100 100 100 100 100 100 100 100 100 100 100 100 100 100 100 100 100 100 100 100 100 100 100 100 100 100 100 100 100 100 100 100 100 100 100 100 100 100 100 100 100 100 100 100 100 100 100
        </DataArray>
      </CellData>
      <Points>
        <DataArray type="Float64" NumberOfComponents="3" format="ascii">
  2.5000000E-002  1.0000000E-002 0.0  2.5000000E-002  1.5000000E-002 0.0  6.0000000E-002  1.5000000E-002 0.0  6.0000000E-002 -1.5000000E-002 0.0 0.0  1.3000000E-001 0.0  1.0000000E-003  1.3000000E-001 0.0  5.0000000E-003  1.1000000E-001 0.0  5.0000000E-003  1.0000000E-002 0.0 0.0 -2.5000000E-002 0.0  9.0000000E-002 -2.5000000E-002 0.0  9.0000000E-002 -1.5000000E-002 0.0 0.0  3.6500000E-001 0.0  3.0000000E-001  3.6500000E-001 0.0  3.0000000E-001 -1.3500000E-001 0.0 0.0 -1.3500000E-001 0.0 0.0 0.0 0.0  2.5000000E-002 0.0 0.0 0.0  1.0000000E-002 0.0 0.0 -1.5000000E-002 0.0  5.7593274E-002  1.5000000E-002 0.0  5.5186548E-002  1.5000000E-002 0.0  5.2779823E-002  1.5000000E-002 0.0  5.0373097E-002  1.5000000E-002 0.0  4.7966371E-002  1.5000000E-002 0.0  4.5559645E-002  1.5000000E-002 0.0  4.3152919E-002  1.5000000E-002 0.0  4.0746194E-002  1.5000000E-002 0.0  3.8339468E-002  1.5000000E-002 0.0  3.5932742E-002  1.5000000E-002 0.0  3.3540770E-002  1.5000000E-002 0.0  3.1513374E-002  1.5000000E-002 0.0  2.9864063E-002  1.5000000E-002 0.0  2.8464753E-002  1.5000000E-002 0.0  2.7228140E-002  1.5000000E-002 0.0  2.6090447E-002  1.5000000E-002 0.0  6.0000000E-002 -1.2500000E-002 0.0  6.0000000E-002 -1.0000000E-002 0.0  6.0000000E-002 -7.5000000E-003 0.0  6.0000000E-002 -5.0000000E-003 0.0  6.0000000E-002 -2.5000000E-003 0.0  6.0000000E-002 0.0 0.0  6.0000000E-002  2.5000000E-003 0.0  6.0000000E-002  5.0000000E-003 0.0  6.0000000E-002  7.5000000E-003 0.0  6.0000000E-002  1.0000000E-002 0.0  6.0000000E-002  1.2500000E-002 0.0  1.2352941E-003  1.2882353E-001 0.0  1.4705882E-003  1.2764706E-001 0.0  1.7058824E-003  1.2647059E-001 0.0  1.9411765E-003  1.2529412E-001 0.0  2.1764706E-003  1.2411765E-001 0.0  2.4117647E-003  1.2294118E-001 0.0  2.6470588E-003  1.2176471E-001 0.0  2.8823529E-003  1.2058824E-001 0.0  3.1176471E-003  1.1941176E-001 0.0  3.3529412E-003  1.1823529E-001 0.0  3.5882353E-003  1.1705882E-001 0.0  3.8235294E-003  1.1588235E-001 0.0  4.0588235E-003  1.1470588E-001 0.0  4.2941176E-003  1.1352941E-001 0.0  4.5294118E-003  1.1235294E-001 0.0  4.7647059E-003  1.1117647E-001 0.0  5.0000000E-003  1.0501292E-002 0.0  5.0000000E-003  1.1027679E-002 0.0  5.0000000E-003  1.1595904E-002 0.0  5.0000000E-003  1.2223799E-002 0.0  5.0000000E-003  1.2933139E-002 0.0  5.0000000E-003  1.3752410E-002 0.0  5.0000000E-003  1.4720685E-002 0.0  5.0000000E-003  1.5886865E-002 0.0  5.0000000E-003  1.7125196E-002 0.0  5.0000000E-003  1.8363527E-002 0.0  5.0000000E-003  1.9601857E-002 0.0  5.0000000E-003  2.0840188E-002 0.0  5.0000000E-003  2.2078519E-002 0.0  5.0000000E-003  2.3316849E-002 0.0  5.0000000E-003  2.4555180E-002 0.0  5.0000000E-003  2.5793511E-002 0.0  5.0000000E-003  2.7031842E-002 0.0  5.0000000E-003  2.8270172E-002 0.0  5.0000000E-003  2.9508503E-002 0.0  5.0000000E-003  3.0746834E-002 0.0  5.0000000E-003  3.1985164E-002 0.0  5.0000000E-003  3.3223495E-002 0.0  5.0000000E-003  3.4461826E-002 0.0  5.0000000E-003  3.5700157E-002 0.0  5.0000000E-003  3.6938487E-002 0.0  5.0000000E-003  3.8176818E-002 0.0  5.0000000E-003  3.9415149E-002 0.0  5.0000000E-003  4.0653480E-002 0.0  5.0000000E-003  4.1891810E-002 0.0  5.0000000E-003  4.3130141E-002 0.0  5.0000000E-003  4.4368472E-002 0.0  5.0000000E-003  4.5606802E-002 0.0  5.0000000E-003  4.6845133E-002 0.0  5.0000000E-003  4.8083464E-002 0.0  5.0000000E-003  4.9321795E-002 0.0  5.0000000E-003  5.0560125E-002 0.0  5.0000000E-003  5.1798456E-002 0.0  5.0000000E-003  5.3036787E-002 0.0  5.0000000E-003  5.4275117E-002 0.0  5.0000000E-003  5.5513448E-002 0.0  5.0000000E-003  5.6751779E-002 0.0  5.0000000E-003  5.7990110E-002 0.0  5.0000000E-003  5.9228440E-002 0.0  5.0000000E-003  6.0466771E-002 0.0  5.0000000E-003  6.1705102E-002 0.0  5.0000000E-003  6.2943433E-002 0.0  5.0000000E-003  6.4181763E-002 0.0  5.0000000E-003  6.5420094E-002 0.0  5.0000000E-003  6.6658425E-002 0.0  5.0000000E-003  6.7896755E-002 0.0  5.0000000E-003  6.9135086E-002 0.0  5.0000000E-003  7.0373417E-002 0.0  5.0000000E-003  7.1611748E-002 0.0  5.0000000E-003  7.2850078E-002 0.0  5.0000000E-003  7.4088409E-002 0.0  5.0000000E-003  7.5326740E-002 0.0  5.0000000E-003  7.6565070E-002 0.0  5.0000000E-003  7.7803401E-002 0.0  5.0000000E-003  7.9041732E-002 0.0  5.0000000E-003  8.0280063E-002 0.0  5.0000000E-003  8.1518393E-002 0.0  5.0000000E-003  8.2756724E-002 0.0  5.0000000E-003  8.3995055E-002 0.0  5.0000000E-003  8.5233386E-002 0.0  5.0000000E-003  8.6471716E-002 0.0  5.0000000E-003  8.7710047E-002 0.0  5.0000000E-003  8.8948378E-002 0.0  5.0000000E-003  9.0186708E-002 0.0  5.0000000E-003  9.1425039E-002 0.0  5.0000000E-003  9.2663370E-002 0.0  5.0000000E-003  9.3901701E-002 0.0  5.0000000E-003  9.5140031E-002 0.0  5.0000000E-003  9.6378362E-002 0.0  5.0000000E-003  9.7616693E-002 0.0  5.0000000E-003  9.8855023E-002 0.0  5.0000000E-003  1.0009335E-001 0.0  5.0000000E-003  1.0133168E-001 0.0  5.0000000E-003  1.0257002E-001 0.0  5.0000000E-003  1.0380835E-001 0.0  5.0000000E-003  1.0504668E-001 0.0  5.0000000E-003  1.0628501E-001 0.0  5.0000000E-003  1.0752334E-001 0.0  5.0000000E-003  1.0876167E-001 0.0  2.5000000E-003 -2.5000000E-002 0.0  5.0000000E-003 -2.5000000E-002 0.0  7.5000000E-003 -2.5000000E-002 0.0  1.0000000E-002 -2.5000000E-002 0.0  1.2500000E-002 -2.5000000E-002 0.0  1.5000000E-002 -2.5000000E-002 0.0  1.7500000E-002 -2.5000000E-002 0.0  2.0000000E-002 -2.5000000E-002 0.0  2.2500000E-002 -2.5000000E-002 0.0  2.5000000E-002 -2.5000000E-002 0.0  2.7500000E-002 -2.5000000E-002 0.0  3.0000000E-002 -2.5000000E-002 0.0  3.2500000E-002 -2.5000000E-002 0.0  3.5000000E-002 -2.5000000E-002 0.0  3.7500000E-002 -2.5000000E-002 0.0  4.0000000E-002 -2.5000000E-002 0.0  4.2500000E-002 -2.5000000E-002 0.0  4.5000000E-002 -2.5000000E-002 0.0  4.7500000E-002 -2.5000000E-002 0.0  5.0000000E-002 -2.5000000E-002 0.0  5.2500000E-002 -2.5000000E-002 0.0  5.5000000E-002 -2.5000000E-002 0.0  5.7500000E-002 -2.5000000E-002 0.0  6.0000000E-002 -2.5000000E-002 0.0  6.2500000E-002 -2.5000000E-002 0.0  6.5000000E-002 -2.5000000E-002 0.0  6.7500000E-002 -2.5000000E-002 0.0  7.0000000E-002 -2.5000000E-002 0.0  7.2500000E-002 -2.5000000E-002 0.0  7.5000000E-002 -2.5000000E-002 0.0  7.7500000E-002 -2.5000000E-002 0.0  8.0000000E-002 -2.5000000E-002 0.0  8.2500000E-002 -2.5000000E-002 0.0  8.5000000E-002 -2.5000000E-002 0.0  8.7500000E-002 -2.5000000E-002 0.0  9.0000000E-002 -2.2500000E-002 0.0  9.0000000E-002 -2.0000000E-002 0.0  9.0000000E-002 -1.7500000E-002 0.0  2.5000000E-002  1.0453970E-002 0.0  2.5000000E-002  1.0927271E-002 0.0  2.5000000E-002  1.1432451E-002 0.0  2.5000000E-002  1.1982365E-002 0.0  2.5000000E-002  1.2592065E-002 0.0  2.5000000E-002  1.3280379E-002 0.0  2.5000000E-002  1.4071919E-002 0.0  2.4500000E-002  1.0000000E-002 0.0  2.4000000E-002  1.0000000E-002 0.0  2.3500000E-002  1.0000000E-002 0.0  2.3000000E-002  1.0000000E-002 0.0  2.2500000E-002  1.0000000E-002 0.0  2.2000000E-002  1.0000000E-002 0.0  2.1500000E-002  1.0000000E-002 0.0  2.1000000E-002  1.0000000E-002 0.0  2.0500000E-002  1.0000000E-002 0.0  2.0000000E-002  1.0000000E-002 0.0  1.9500000E-002  1.0000000E-002 0.0  1.9000000E-002  1.0000000E-002 0.0  1.8500000E-002  1.0000000E-002 0.0  1.8000000E-002  1.0000000E-002 0.0  1.7500000E-002  1.0000000E-002 0.0  1.7000000E-002  1.0000000E-002 0.0  1.6500000E-002  1.0000000E-002 0.0  1.6000000E-002  1.0000000E-002 0.0  1.5500000E-002  1.0000000E-002 0.0  1.5000000E-002  1.0000000E-002 0.0  1.4500000E-002  1.0000000E-002 0.0  1.4000000E-002  1.0000000E-002 0.0  1.3500000E-002  1.0000000E-002 0.0  1.3000000E-002  1.0000000E-002 0.0  1.2500000E-002  1.0000000E-002 0.0  1.2000000E-002  1.0000000E-002 0.0  1.1500000E-002  1.0000000E-002 0.0  1.1000000E-002  1.0000000E-002 0.0  1.0500000E-002  1.0000000E-002 0.0  1.0000000E-002  1.0000000E-002 0.0  9.5000002E-003  1.0000000E-002 0.0  9.0000002E-003  1.0000000E-002 0.0  8.5000003E-003  1.0000000E-002 0.0  8.0000003E-003  1.0000000E-002 0.0  7.5000003E-003  1.0000000E-002 0.0  7.0000003E-003  1.0000000E-002 0.0  6.5000003E-003  1.0000000E-002 0.0  6.0000003E-003  1.0000000E-002 0.0  5.5000003E-003  1.0000000E-002 0.0 0.0  3.4597495E-001 0.0 0.0  3.2694990E-001 0.0 0.0  3.0792486E-001 0.0 0.0  2.8889981E-001 0.0 0.0  2.6987476E-001 0.0 0.0  2.5084971E-001 0.0 0.0  2.3182467E-001 0.0 0.0  2.1279962E-001 0.0 0.0  1.9377457E-001 0.0 0.0  1.7558686E-001 0.0 0.0  1.6193447E-001 0.0 0.0  1.5205660E-001 0.0 0.0  1.4492093E-001 0.0 0.0  1.3976574E-001 0.0 0.0  1.3604092E-001 0.0 0.0  1.3334961E-001 0.0 0.0  1.3140503E-001 0.0  2.8000000E-001  3.6500000E-001 0.0  2.6000000E-001  3.6500000E-001 0.0  2.4000000E-001  3.6500000E-001 0.0  2.2000000E-001  3.6500000E-001 0.0  2.0000000E-001  3.6500000E-001 0.0  1.8000000E-001  3.6500000E-001 0.0  1.6000000E-001  3.6500000E-001 0.0  1.4000000E-001  3.6500000E-001 0.0  1.2000000E-001  3.6500000E-001 0.0  1.0000000E-001  3.6500000E-001 0.0  8.0000000E-002  3.6500000E-001 0.0  6.0000000E-002  3.6500000E-001 0.0  4.0000000E-002  3.6500000E-001 0.0  2.0000000E-002  3.6500000E-001 0.0  3.0000000E-001 -1.1500000E-001 0.0  3.0000000E-001 -9.5000000E-002 0.0  3.0000000E-001 -7.5000000E-002 0.0  3.0000000E-001 -5.5000000E-002 0.0  3.0000000E-001 -3.5000000E-002 0.0  3.0000000E-001 -1.5000000E-002 0.0  3.0000000E-001  5.0000000E-003 0.0  3.0000000E-001  2.5000000E-002 0.0  3.0000000E-001  4.5000000E-002 0.0  3.0000000E-001  6.5000000E-002 0.0  3.0000000E-001  8.5000000E-002 0.0  3.0000000E-001  1.0500000E-001 0.0  3.0000000E-001  1.2500000E-001 0.0  3.0000000E-001  1.4500000E-001 0.0  3.0000000E-001  1.6500000E-001 0.0  3.0000000E-001  1.8500000E-001 0.0  3.0000000E-001  2.0500000E-001 0.0  3.0000000E-001  2.2500000E-001 0.0  3.0000000E-001  2.4500000E-001 0.0  3.0000000E-001  2.6500000E-001 0.0  3.0000000E-001  2.8500000E-001 0.0  3.0000000E-001  3.0500000E-001 0.0  3.0000000E-001  3.2500000E-001 0.0  3.0000000E-001  3.4500000E-001 0.0  2.0000000E-002 -1.3500000E-001 0.0  4.0000000E-002 -1.3500000E-001 0.0  6.0000000E-002 -1.3500000E-001 0.0  8.0000000E-002 -1.3500000E-001 0.0  1.0000000E-001 -1.3500000E-001 0.0  1.2000000E-001 -1.3500000E-001 0.0  1.4000000E-001 -1.3500000E-001 0.0  1.6000000E-001 -1.3500000E-001 0.0  1.8000000E-001 -1.3500000E-001 0.0  2.0000000E-001 -1.3500000E-001 0.0  2.2000000E-001 -1.3500000E-001 0.0  2.4000000E-001 -1.3500000E-001 0.0  2.6000000E-001 -1.3500000E-001 0.0  2.8000000E-001 -1.3500000E-001 0.0 0.0 -2.7642998E-002 0.0 0.0 -3.1240601E-002 0.0 0.0 -3.6137594E-002 0.0 0.0 -4.2803294E-002 0.0 0.0 -5.1878300E-002 0.0 0.0 -6.4227041E-002 0.0 0.0 -8.0845976E-002 0.0 0.0 -9.8897317E-002 0.0 0.0 -1.1694866E-001 0.0  8.7500000E-002 -1.5000000E-002 0.0  8.5000000E-002 -1.5000000E-002 0.0  8.2500000E-002 -1.5000000E-002 0.0  8.0000000E-002 -1.5000000E-002 0.0  7.7500000E-002 -1.5000000E-002 0.0  7.5000000E-002 -1.5000000E-002 0.0  7.2500000E-002 -1.5000000E-002 0.0  7.0000000E-002 -1.5000000E-002 0.0  6.7500000E-002 -1.5000000E-002 0.0  6.5000000E-002 -1.5000000E-002 0.0  6.2500000E-002 -1.5000000E-002 0.0  5.0000165E-004 0.0 0.0  1.0000016E-003 0.0 0.0  1.5000016E-003 0.0 0.0  2.0000016E-003 0.0 0.0  2.5000015E-003 0.0 0.0  3.0000015E-003 0.0 0.0  3.5000015E-003 0.0 0.0  4.0000014E-003 0.0 0.0  4.5000014E-003 0.0 0.0  5.0000014E-003 0.0 0.0  5.5000013E-003 0.0 0.0  6.0000013E-003 0.0 0.0  6.5000012E-003 0.0 0.0  7.0000012E-003 0.0 0.0  7.5000012E-003 0.0 0.0  8.0000011E-003 0.0 0.0  8.5000011E-003 0.0 0.0  9.0000010E-003 0.0 0.0  9.5000009E-003 0.0 0.0  1.0000001E-002 0.0 0.0  1.0500001E-002 0.0 0.0  1.1000001E-002 0.0 0.0  1.1500001E-002 0.0 0.0  1.2000001E-002 0.0 0.0  1.2500001E-002 0.0 0.0  1.3000000E-002 0.0 0.0  1.3500000E-002 0.0 0.0  1.4000000E-002 0.0 0.0  1.4500000E-002 0.0 0.0  1.5000000E-002 0.0 0.0  1.5500000E-002 0.0 0.0  1.6000000E-002 0.0 0.0  1.6500000E-002 0.0 0.0  1.7000000E-002 0.0 0.0  1.7500000E-002 0.0 0.0  1.8000000E-002 0.0 0.0  1.8500000E-002 0.0 0.0  1.9000000E-002 0.0 0.0  1.9500000E-002 0.0 0.0  2.0000000E-002 0.0 0.0  2.0500000E-002 0.0 0.0  2.1000000E-002 0.0 0.0  2.1500000E-002 0.0 0.0  2.2000000E-002 0.0 0.0  2.2500000E-002 0.0 0.0  2.3000000E-002 0.0 0.0  2.3499999E-002 0.0 0.0  2.3999999E-002 0.0 0.0  2.4499999E-002 0.0 0.0  2.5000000E-002  4.9999976E-004 0.0  2.5000000E-002  1.0000001E-003 0.0  2.5000000E-002  1.5000004E-003 0.0  2.5000000E-002  1.9999999E-003 0.0  2.5000000E-002  2.4999994E-003 0.0  2.5000000E-002  2.9999998E-003 0.0  2.5000000E-002  3.5000002E-003 0.0  2.5000000E-002  3.9999999E-003 0.0  2.5000000E-002  4.4999995E-003 0.0  2.5000000E-002  5.0000000E-003 0.0  2.5000000E-002  5.5000005E-003 0.0  2.5000000E-002  6.0000001E-003 0.0  2.5000000E-002  6.4999998E-003 0.0  2.5000000E-002  7.0000002E-003 0.0  2.5000000E-002  7.5000006E-003 0.0  2.5000000E-002  8.0000001E-003 0.0  2.5000000E-002  8.4999996E-003 0.0  2.5000000E-002  8.9999999E-003 0.0  2.5000000E-002  9.5000002E-003 0.0  4.5000000E-003  1.0000000E-002 0.0  4.0000000E-003  1.0000000E-002 0.0  3.5000000E-003  1.0000000E-002 0.0  3.0000000E-003  1.0000000E-002 0.0  2.5000000E-003  1.0000000E-002 0.0  2.0000000E-003  1.0000000E-002 0.0  1.5000000E-003  1.0000000E-002 0.0  9.9999999E-004  1.0000000E-002 0.0  5.0000003E-004  1.0000000E-002 0.0 0.0  9.5152507E-003 0.0 0.0  9.0075226E-003 0.0 0.0  8.4616415E-003 0.0 0.0  7.8616609E-003 0.0 0.0  7.1883931E-003 0.0 0.0  6.4171306E-003 0.0 0.0  5.5145561E-003 0.0 0.0  4.4857036E-003 0.0 0.0  3.5830772E-003 0.0 0.0  2.8117736E-003 0.0 0.0  2.1384717E-003 0.0 0.0  1.5384616E-003 0.0 0.0  9.9255282E-004 0.0 0.0  4.8479594E-004 0.0 0.0 -4.7631306E-004 0.0 0.0 -9.7454635E-004 0.0 0.0 -1.5091294E-003 0.0 0.0 -2.0951073E-003 0.0 0.0 -2.7504464E-003 0.0 0.0 -3.4980964E-003 0.0 0.0 -4.3687373E-003 0.0 0.0 -5.4049400E-003 0.0 0.0 -6.6678945E-003 0.0 0.0 -8.2488722E-003 0.0 0.0 -1.0289801E-002 0.0 0.0 -1.2644788E-002 0.0  2.5000000E-003 -1.5000000E-002 0.0  5.0000000E-003 -1.5000000E-002 0.0  7.5000000E-003 -1.5000000E-002 0.0  1.0000000E-002 -1.5000000E-002 0.0  1.2500000E-002 -1.5000000E-002 0.0  1.5000000E-002 -1.5000000E-002 0.0  1.7500000E-002 -1.5000000E-002 0.0  2.0000000E-002 -1.5000000E-002 0.0  2.2500000E-002 -1.5000000E-002 0.0  2.5000000E-002 -1.5000000E-002 0.0  2.7500000E-002 -1.5000000E-002 0.0  3.0000000E-002 -1.5000000E-002 0.0  3.2500000E-002 -1.5000000E-002 0.0  3.5000000E-002 -1.5000000E-002 0.0  3.7500000E-002 -1.5000000E-002 0.0  4.0000000E-002 -1.5000000E-002 0.0  4.2500000E-002 -1.5000000E-002 0.0  4.5000000E-002 -1.5000000E-002 0.0  4.7500000E-002 -1.5000000E-002 0.0  5.0000000E-002 -1.5000000E-002 0.0  5.2500000E-002 -1.5000000E-002 0.0  5.5000000E-002 -1.5000000E-002 0.0  5.7500000E-002 -1.5000000E-002 0.0 0.0  1.2875980E-001 0.0 0.0  1.2751960E-001 0.0 0.0  1.2627941E-001 0.0 0.0  1.2503921E-001 0.0 0.0  1.2379901E-001 0.0 0.0  1.2255881E-001 0.0 0.0  1.2131862E-001 0.0 0.0  1.2007842E-001 0.0 0.0  1.1883822E-001 0.0 0.0  1.1759802E-001 0.0 0.0  1.1635782E-001 0.0 0.0  1.1511763E-001 0.0 0.0  1.1387743E-001 0.0 0.0  1.1263723E-001 0.0 0.0  1.1139703E-001 0.0 0.0  1.1015684E-001 0.0 0.0  1.0891664E-001 0.0 0.0  1.0767644E-001 0.0 0.0  1.0643624E-001 0.0 0.0  1.0519604E-001 0.0 0.0  1.0395585E-001 0.0 0.0  1.0271565E-001 0.0 0.0  1.0147545E-001 0.0 0.0  1.0023525E-001 0.0 0.0  9.8995055E-002 0.0 0.0  9.7754857E-002 0.0 0.0  9.6514659E-002 0.0 0.0  9.5274461E-002 0.0 0.0  9.4034264E-002 0.0 0.0  9.2794066E-002 0.0 0.0  9.1553868E-002 0.0 0.0  9.0313670E-002 0.0 0.0  8.9073472E-002 0.0 0.0  8.7833275E-002 0.0 0.0  8.6593077E-002 0.0 0.0  8.5352879E-002 0.0 0.0  8.4112681E-002 0.0 0.0  8.2872483E-002 0.0 0.0  8.1632286E-002 0.0 0.0  8.0392088E-002 0.0 0.0  7.9151890E-002 0.0 0.0  7.7911692E-002 0.0 0.0  7.6671494E-002 0.0 0.0  7.5431297E-002 0.0 0.0  7.4191099E-002 0.0 0.0  7.2950901E-002 0.0 0.0  7.1710703E-002 0.0 0.0  7.0470505E-002 0.0 0.0  6.9230307E-002 0.0 0.0  6.7990110E-002 0.0 0.0  6.6749912E-002 0.0 0.0  6.5509714E-002 0.0 0.0  6.4269516E-002 0.0 0.0  6.3029318E-002 0.0 0.0  6.1789121E-002 0.0 0.0  6.0548923E-002 0.0 0.0  5.9308725E-002 0.0 0.0  5.8068527E-002 0.0 0.0  5.6828329E-002 0.0 0.0  5.5588132E-002 0.0 0.0  5.4347934E-002 0.0 0.0  5.3107736E-002 0.0 0.0  5.1867538E-002 0.0 0.0  5.0627340E-002 0.0 0.0  4.9387143E-002 0.0 0.0  4.8146945E-002 0.0 0.0  4.6906747E-002 0.0 0.0  4.5666549E-002 0.0 0.0  4.4426351E-002 0.0 0.0  4.3186154E-002 0.0 0.0  4.1945956E-002 0.0 0.0  4.0705758E-002 0.0 0.0  3.9465560E-002 0.0 0.0  3.8225362E-002 0.0 0.0  3.6985164E-002 0.0 0.0  3.5744967E-002 0.0 0.0  3.4504769E-002 0.0 0.0  3.3264571E-002 0.0 0.0  3.2024373E-002 0.0 0.0  3.0784175E-002 0.0 0.0  2.9543978E-002 0.0 0.0  2.8303780E-002 0.0 0.0  2.7063582E-002 0.0 0.0  2.5823384E-002 0.0 0.0  2.4583186E-002 0.0 0.0  2.3342989E-002 0.0 0.0  2.2102791E-002 0.0 0.0  2.0862593E-002 0.0 0.0  1.9622395E-002 0.0 0.0  1.8382197E-002 0.0 0.0  1.7142000E-002 0.0 0.0  1.5901802E-002 0.0 0.0  1.4731879E-002 0.0 0.0  1.3760432E-002 0.0 0.0  1.2938862E-002 0.0 0.0  1.2227808E-002 0.0 0.0  1.1598596E-002 0.0 0.0  1.1029322E-002 0.0 0.0  1.0502062E-002 0.0 0.0 -1.7500000E-002 0.0 0.0 -2.0000000E-002 0.0 0.0 -2.2500000E-002 0.0  1.5750000E-002  4.1013835E-004 0.0  9.2159558E-003  4.2992886E-004 0.0  1.2308015E-002  4.3677495E-004 0.0  1.8250000E-002  9.5669873E-003 0.0  6.7361216E-003  3.5035388E-004 0.0  1.9740878E-002  4.5093694E-004 0.0  5.2712737E-003  9.5189472E-003 0.0  1.4243711E-002  9.5479736E-003 0.0  1.0701460E-002  9.5739842E-003 0.0  7.7928391E-003  9.5849518E-003 0.0  2.4603132E-002  5.3122033E-003 0.0  1.6250000E-002  9.5803857E-003 0.0  1.7768319E-002  4.7246482E-004 0.0  2.0264667E-002  9.5777259E-003 0.0  4.7505443E-003  4.4362870E-004 0.0  2.1750000E-002  4.3301267E-004 0.0  8.2027755E-004  4.9604011E-003 0.0  2.4579508E-002  3.2500000E-003 0.0  2.4568122E-002  7.2447547E-003 0.0  1.2729399E-002  9.5757743E-003 0.0  3.2497612E-003  3.8719446E-004 0.0  2.1728107E-002  9.5025460E-003 0.0  9.2247294E-003  9.5904320E-003 0.0  1.4215780E-002  4.6466842E-004 0.0  3.7300777E-003  9.5181008E-003 0.0  1.0698129E-002  4.7027866E-004 0.0  2.2338606E-003  9.5275746E-003 0.0  4.3128622E-004  2.4519240E-003 0.0  2.4566988E-002  1.7500001E-003 0.0  5.4728373E-004  7.5345949E-003 0.0  2.3241271E-002  9.5678331E-003 0.0  2.3234114E-002  4.4581385E-004 0.0  1.7500016E-003  4.1704358E-004 0.0  1.5257888E-002  9.5586330E-003 0.0  1.1704719E-002  9.5530470E-003 0.0  2.4587295E-002  4.2384159E-003 0.0  1.7250000E-002  9.5669873E-003 0.0  2.4532008E-002  8.2640071E-003 0.0  2.4603302E-002  6.2690012E-003 0.0  1.9231309E-002  9.5824267E-003 0.0  2.0739065E-002  4.2838338E-004 0.0  5.7500013E-003  4.3301267E-004 0.0  7.7544211E-003  4.8777872E-004 0.0  6.6922147E-003  9.5297822E-003 0.0  1.8694810E-002  3.9522025E-004 0.0  1.6735601E-002  4.1966954E-004 0.0  1.3245948E-002  4.2995186E-004 0.0  1.2500000E-003  9.5669873E-003 0.0  5.7142678E-004  1.2560413E-003 0.0  4.6273553E-004  8.7287391E-003 0.0  2.4253609E-002  4.3000409E-004 0.0  2.4252386E-002  9.5784992E-003 0.0  7.5091197E-004  3.8090687E-004 0.0  7.9895888E-004  5.9189624E-003 0.0  1.7401717E-003  5.5289147E-003 0.0  1.6511902E-003  4.2745054E-003 0.0  2.6032593E-003  4.7961517E-003 0.0  2.6614292E-003  5.8640907E-003 0.0  3.4984889E-003  5.3921119E-003 0.0  3.4282982E-003  4.1925537E-003 0.0  4.3230786E-003  4.6736174E-003 0.0  4.4923081E-003  5.6948483E-003 0.0  5.2619895E-003  5.0722303E-003 0.0  5.3877955E-003  6.0546471E-003 0.0  6.2167720E-003  5.4543280E-003 0.0  6.0960115E-003  4.4796579E-003 0.0  7.0606956E-003  4.8690759E-003 0.0  7.0601990E-003  5.8499769E-003 0.0  7.9757076E-003  5.4355440E-003 0.0  7.9096745E-003  4.2042926E-003 0.0  8.8508088E-003  4.6628616E-003 0.0  9.0013625E-003  5.7231445E-003 0.0  9.8074354E-003  5.0445525E-003 0.0  1.0021033E-002  6.1587856E-003 0.0  1.0778813E-002  5.4581164E-003 0.0  1.0641356E-002  4.4102432E-003 0.0  1.1541329E-002  4.8230544E-003 0.0  1.1727663E-002  5.8312585E-003 0.0  1.2472861E-002  5.2068892E-003 0.0  1.2628753E-002  6.1854199E-003 0.0  1.3423570E-002  5.5720186E-003 0.0  1.3189903E-002  4.6179970E-003 0.0  1.4191538E-002  4.8161230E-003 0.0  1.4325329E-002  5.9082935E-003 0.0  1.5179996E-002  5.3167757E-003 0.0  1.5119302E-002  4.2929327E-003 0.0  1.6010693E-002  4.7371188E-003 0.0  1.6156132E-002  5.7526108E-003 0.0  1.6947710E-002  5.1331767E-003 0.0  1.7090209E-002  6.1070843E-003 0.0  1.7903906E-002  5.4998433E-003 0.0  1.7795449E-002  4.4918760E-003 0.0  1.8762207E-002  4.8669162E-003 0.0  1.8853943E-002  5.8452063E-003 0.0  1.9686135E-002  5.2602134E-003 0.0  1.9604793E-002  4.2456568E-003 0.0  2.0492975E-002  4.6543047E-003 0.0  2.0566515E-002  5.5951820E-003 0.0  1.1498235E-002  3.7352858E-003 0.0  1.0597778E-002  3.4355268E-003 0.0  1.5922352E-002  3.7087206E-003 0.0  2.0348831E-002  3.5741945E-003 0.0  2.1231008E-002  4.0306297E-003 0.0  4.2651694E-003  3.6226389E-003 0.0  1.5076930E-002  3.3513764E-003 0.0  1.9472799E-002  3.3684303E-003 0.0  3.4445563E-003  3.2541948E-003 0.0  9.1976056E-003  6.6620392E-003 0.0  4.6398311E-003  6.6259362E-003 0.0  5.4372868E-003  6.9537017E-003 0.0  2.1164871E-002  3.1742433E-003 0.0  1.6339264E-002  6.6780119E-003 0.0  1.7166537E-002  6.9950110E-003 0.0  9.9342106E-003  7.0273407E-003 0.0  2.1937105E-002  3.5313033E-003 0.0  2.2037110E-002  4.3336788E-003 0.0  1.1228921E-002  2.8903565E-003 0.0  1.0524598E-002  2.6034251E-003 0.0  2.1837065E-002  2.7268656E-003 0.0  1.5730428E-002  2.8431546E-003 0.0  4.1062442E-003  2.7696316E-003 0.0  4.7342073E-003  7.5438902E-003 0.0  1.5043678E-002  2.4343778E-003 0.0  9.2929018E-003  7.4607384E-003 0.0  3.4456098E-003  2.3445563E-003 0.0  5.4662626E-003  7.7559117E-003 0.0  2.2522731E-002  3.0542444E-003 0.0  2.2434247E-002  2.3321887E-003 0.0  2.1102206E-002  2.3592767E-003 0.0  1.6504954E-002  7.4915702E-003 0.0  9.9380969E-003  7.7930682E-003 0.0  2.7776197E-003  2.8144585E-003 0.0  2.7576158E-003  2.0889689E-003 0.0  1.7206975E-002  7.7741357E-003 0.0  1.1118918E-002  2.1680807E-003 0.0  1.1765438E-002  2.3964552E-003 0.0  1.1914629E-002  6.7714543E-003 0.0  1.2706784E-002  7.0543312E-003 0.0  1.2095817E-002  7.5620674E-003 0.0  1.2767658E-002  7.8219114E-003 0.0  1.5783568E-002  7.2690052E-003 0.0  2.3065694E-002  2.6046630E-003 0.0  1.0470592E-002  1.9009294E-003 0.0  9.9076211E-003  2.2876689E-003 0.0  8.5792458E-003  7.1932986E-003 0.0  8.7055778E-003  7.9010315E-003 0.0  8.0473605E-003  7.6735685E-003 0.0  6.0694381E-003  7.3699789E-003 0.0  4.0942773E-003  2.0318085E-003 0.0  4.6871034E-003  2.3143991E-003 0.0  4.0336154E-003  7.1617690E-003 0.0  1.4383062E-002  2.9550276E-003 0.0  1.4334244E-002  2.2007001E-003 0.0  2.3177656E-002  3.2779593E-003 0.0  1.3725666E-002  2.5957260E-003 0.0  1.5929855E-002  7.9591277E-003 0.0  1.5283370E-002  7.7499950E-003 0.0  1.3346907E-002  7.4282472E-003 0.0  1.3368684E-002  8.1067991E-003 0.0  1.5691960E-002  2.0972083E-003 0.0  1.6302861E-002  2.3630043E-003 0.0  4.0951233E-003  7.9075432E-003 0.0  3.4877379E-003  7.6549178E-003 0.0  6.0718546E-003  8.0600509E-003 0.0  1.7815643E-002  7.3891664E-003 0.0  2.2991864E-002  1.9535429E-003 0.0  1.7859525E-002  8.0746683E-003 0.0  1.8421012E-002  7.7028903E-003 0.0  1.3732081E-002  1.9009052E-003 0.0  1.1661159E-002  1.7469965E-003 0.0  2.2401743E-002  1.6599129E-003 0.0  1.6189776E-002  1.7020089E-003 0.0  1.6862924E-002  1.8282030E-003 0.0  1.6939065E-002  2.5757922E-003 0.0  1.7472387E-002  2.1234426E-003 0.0  1.2213010E-002  8.2425448E-003 0.0  1.1586627E-002  8.0347822E-003 0.0  1.8472440E-002  8.3594616E-003 0.0  1.9027688E-002  8.0119438E-003 0.0  2.1746129E-003  2.4316504E-003 0.0  2.1617306E-003  1.7769143E-003 0.0  9.8567953E-003  1.6235344E-003 0.0  9.3015954E-003  1.9675649E-003 0.0  9.3333793E-003  2.6510057E-003 0.0  8.7491828E-003  2.3100229E-003 0.0  8.7235284E-003  1.6619317E-003 0.0  8.2112972E-003  1.9879872E-003 0.0  1.2236357E-002  1.9969188E-003 0.0  3.5956085E-003  8.3064888E-003 0.0  3.0026444E-003  8.0906727E-003 0.0  4.1296878E-003  8.5551140E-003 0.0  3.1211580E-003  8.6942888E-003 0.0  2.5553728E-003  8.4962776E-003 0.0  2.4191408E-003  7.8870582E-003 0.0  1.9597401E-003  8.3012532E-003 0.0  8.1791803E-003  8.3227469E-003 0.0  7.5917866E-003  8.1441793E-003 0.0  1.2453977E-002  2.5942706E-003 0.0  7.2759741E-003  7.4892311E-003 0.0  1.8161567E-003  7.6702968E-003 0.0  1.7581672E-002  2.8174164E-003 0.0  1.8089826E-002  2.3518085E-003 0.0  1.7972731E-002  1.7056927E-003 0.0  1.8574962E-002  1.9001702E-003 0.0  4.5987107E-003  1.6571591E-003 0.0  5.2211805E-003  1.9011869E-003 0.0  5.2986974E-003  2.5522460E-003 0.0  5.8485833E-003  2.1345765E-003 0.0  4.0685648E-003  1.4012535E-003 0.0  5.9380399E-003  2.8174426E-003 0.0  6.4580098E-003  2.3847501E-003 0.0  6.3687357E-003  1.7230514E-003 0.0  5.5466888E-003  8.3931109E-003 0.0  6.5980049E-003  3.1004545E-003 0.0  1.5418302E-002  8.3927283E-003 0.0  1.4827696E-002  8.2035473E-003 0.0  1.4521317E-002  7.5554845E-003 0.0  2.6690688E-003  1.4474686E-003 0.0  1.5625985E-002  1.4580791E-003 0.0  8.7946154E-003  8.5474268E-003 0.0  1.4272398E-002  1.5592964E-003 0.0  8.1715287E-003  2.6395816E-003 0.0  1.7303215E-002  8.4403865E-003 0.0  6.0897320E-003  8.6927601E-003 0.0  2.3568182E-002  2.2196258E-003 0.0  2.3494166E-002  1.6093657E-003 0.0  6.9554139E-003  1.9800733E-003 0.0  1.0603152E-002  7.3499136E-003 0.0  1.8973862E-002  7.3426411E-003 0.0  1.9572941E-002  7.6525822E-003 0.0  1.9629232E-002  8.3192356E-003 0.0  2.0173418E-002  7.9832926E-003 0.0  2.0193712E-002  7.1734035E-003 0.0  2.0744495E-002  7.6531935E-003 0.0  2.0738666E-002  8.3085626E-003 0.0  2.1323287E-002  8.0104407E-003 0.0  2.1351023E-002  7.3596322E-003 0.0  2.1935447E-002  7.7149854E-003 0.0  2.1958973E-002  7.0159323E-003 0.0  2.2648026E-002  7.3745374E-003 0.0  2.2603971E-002  6.6457664E-003 0.0  2.2520486E-002  8.0768971E-003 0.0  2.3114878E-002  7.8402097E-003 0.0  2.3025504E-002  8.4484439E-003 0.0  2.2462344E-002  8.7057828E-003 0.0  2.1252385E-002  8.6336964E-003 0.0  2.1978509E-002  6.2842331E-003 0.0  2.2619130E-002  5.9681419E-003 0.0  2.3193507E-002  6.3055271E-003 0.0  2.3223403E-002  5.6774136E-003 0.0  1.8292180E-002  3.0161848E-003 0.0  8.2462114E-003  1.3668747E-003 0.0  1.5975939E-002  8.5876934E-003 0.0  5.1176900E-003  1.3101319E-003 0.0  2.3588631E-002  8.1840000E-003 0.0  2.3647976E-002  7.6304567E-003 0.0  2.2859384E-003  7.2270436E-003 0.0  3.3408561E-003  6.9536676E-003 0.0  1.3723404E-002  1.2871218E-003 0.0  1.6057504E-003  2.0876818E-003 0.0  1.6874276E-003  2.7968224E-003 0.0  1.5966371E-003  1.4543248E-003 0.0  1.3207959E-002  1.5625281E-003 0.0  1.1720443E-002  8.6260574E-003 0.0  1.1122838E-002  8.4394842E-003 0.0  1.0359413E-002  1.2848366E-003 0.0  1.8431376E-002  1.3029338E-003 0.0  1.9023310E-002  1.4848330E-003 0.0  1.9165154E-002  2.0717911E-003 0.0  1.9611546E-002  1.6448852E-003 0.0  1.9771865E-002  2.2139188E-003 0.0  2.0210109E-002  1.7720795E-003 0.0  2.1993224E-002  5.5524856E-003 0.0  2.3510923E-002  8.7508942E-003 0.0  1.2163431E-002  1.3398525E-003 0.0  1.1555836E-002  1.1452016E-003 0.0  6.8354020E-003  1.3603256E-003 0.0  1.7074273E-002  3.2134725E-003 0.0  5.4159792E-003  3.1836204E-003 0.0  6.6060305E-003  8.3481443E-003 0.0  1.6604624E-002  1.2526305E-003 0.0  6.3024882E-003  1.1075369E-003 0.0  1.3788965E-003  8.0864111E-003 0.0  1.4818356E-003  8.7249177E-003 0.0  1.4943742E-002  8.7574776E-003 0.0  1.4369124E-002  8.6075828E-003 0.0  1.2353002E-002  8.7916296E-003 0.0  2.0066338E-002  1.2496398E-003 0.0  2.0725754E-002  1.3263392E-003 0.0  1.6072262E-003  6.9961325E-003 0.0  2.3794871E-002  6.0506617E-003 0.0  2.3696504E-002  6.6478416E-003 0.0  2.3751917E-002  5.4154300E-003 0.0  2.3272503E-002  5.0769395E-003 0.0  2.3792674E-002  4.8154924E-003 0.0  2.3354212E-002  4.4871824E-003 0.0  8.3272862E-003  8.9144394E-003 0.0  9.8124566E-003  1.0437910E-003 0.0  8.6741606E-003  1.0656447E-003 0.0  2.0733456E-002  8.9263374E-003 0.0  1.3725577E-002  3.3321637E-003 0.0  8.8005838E-003  3.7391680E-003 0.0  1.0679078E-003  1.6860391E-003 0.0  1.1248607E-002  9.0417819E-003 0.0  1.0722310E-002  8.8012557E-003 0.0  2.0562360E-002  2.8287150E-003 0.0  2.3786226E-002  4.3273659E-003 0.0  7.3875886E-003  1.5508650E-003 0.0  5.7751336E-003  1.4171709E-003 0.0  1.1033299E-002  6.4824678E-003 0.0  1.7858032E-002  1.0917885E-003 0.0  1.7428396E-002  1.4807134E-003 0.0  1.7383938E-002  9.1846655E-004 0.0  7.2826138E-003  9.6228756E-004 0.0  2.1852198E-002  8.4390922E-003 0.0  9.3312707E-003  8.1756516E-003 0.0  9.3609279E-003  8.7880904E-003 0.0  9.8805146E-003  8.4607300E-003 0.0  9.8807988E-003  9.0872272E-003 0.0  9.2285947E-003  1.3074733E-003 0.0  1.5320096E-002  6.3714221E-003 0.0  4.5377324E-003  9.8165486E-004 0.0  3.9395774E-003  8.4313187E-004 0.0  3.5955374E-003  1.2533553E-003 0.0  1.0487049E-002  8.2135420E-003 0.0  1.7928012E-002  8.6730030E-003 0.0  1.8483989E-002  8.9639661E-003 0.0  2.0949799E-003  1.1938420E-003 0.0  2.5408524E-003  8.5842582E-004 0.0  3.6720631E-003  8.9219244E-003 0.0  4.1993238E-003  9.1408385E-003 0.0  4.6710639E-003  8.7460095E-003 0.0  5.0055202E-003  8.2160401E-003 0.0  9.7246842E-003  3.9521147E-003 0.0  1.6070064E-002  1.1429896E-003 0.0  3.2034035E-003  9.2444191E-003 0.0  1.5477982E-002  9.0346838E-003 0.0  2.0178790E-002  8.5966731E-003 0.0  1.9700304E-002  8.9147913E-003 0.0  1.9132745E-002  8.6987088E-003 0.0  1.4828993E-002  1.7341205E-003 0.0  1.4685364E-002  1.1848818E-003 0.0  5.5647826E-003  9.0318630E-003 0.0  6.1569429E-003  9.2467308E-003 0.0  2.3641860E-002  2.8289496E-003 0.0  2.4089204E-002  2.4927196E-003 0.0  2.3778420E-002  3.4258999E-003 0.0  2.1207948E-002  9.2039453E-003 0.0  1.2847950E-002  8.4594677E-003 0.0  1.3400137E-002  8.7221638E-003 0.0  7.8131808E-003  8.7296060E-003 0.0  6.2688713E-003  6.4996324E-003 0.0  1.6581942E-002  8.2709029E-003 0.0  1.6868013E-002  8.8240134E-003 0.0  8.3873354E-003  6.3975497E-003 0.0  2.2650017E-002  3.8604490E-003 0.0  1.0979994E-002  1.4452207E-003 0.0  2.1811003E-002  2.0079658E-003 0.0  2.1845096E-002  1.3742792E-003 0.0  2.2378920E-002  1.0821938E-003 0.0  2.1264772E-002  1.6679431E-003 0.0  2.1325452E-002  1.0237256E-003 0.0  2.3175400E-002  6.9097784E-003 0.0  1.8023620E-002  6.4771629E-003 0.0  2.6680845E-003  9.0749435E-003 0.0  2.1447121E-003  8.9140598E-003 0.0  8.9108344E-003  9.1607119E-003 0.0  2.1405854E-002  4.9477410E-003 0.0  2.2749369E-002  4.6022894E-003 0.0  2.2924641E-002  1.3504305E-003 0.0  2.1963340E-002  9.0047811E-003 0.0  2.2404393E-002  9.2262442E-003 0.0  2.2989356E-002  9.0708477E-003 0.0  1.8320233E-002  7.5133285E-004 0.0  1.3511048E-002  6.5933940E-003 0.0  1.9515848E-002  9.9849401E-004 0.0  2.3471955E-002  9.7958215E-004 0.0  2.3965126E-002  1.2416458E-003 0.0  1.7500000E-003  9.3126620E-003 0.0  3.2054598E-003  1.6588671E-003 0.0  2.4037102E-002  8.5196083E-003 0.0  2.5904301E-003  3.7040256E-003 0.0  1.3139369E-002  2.2470301E-003 0.0  1.1417985E-002  7.3936224E-003 0.0  6.6658825E-003  7.7066663E-003 0.0  6.6411378E-003  8.9264901E-003 0.0  7.0657909E-003  9.1600304E-003 0.0  2.4221455E-002  5.6794801E-003 0.0  2.3394450E-002  3.9036589E-003 0.0  7.6007770E-003  2.2082436E-003 0.0  7.6056192E-003  2.9699245E-003 0.0  4.7128478E-003  9.4467395E-003 0.0  1.8683027E-002  3.7947901E-003 0.0  1.1084974E-002  8.2644240E-004 0.0  1.1493207E-002  5.8037728E-004 0.0  8.2290538E-003  8.0681762E-004 0.0  1.1471950E-003  1.2059889E-003 0.0  1.7448900E-002  9.0235210E-003 0.0  1.3897954E-002  7.7789316E-003 0.0  8.3679405E-003  9.4864696E-003 0.0  2.4026360E-002  9.1060419E-003 0.0  2.4541979E-002  8.7732761E-003 0.0  8.6738335E-003  5.0275873E-004 0.0  2.4087379E-002  7.9694332E-003 0.0  1.3232861E-002  9.8218893E-004 0.0  7.1296103E-004  3.9651308E-003 0.0  5.7450797E-004  3.0781282E-003 0.0  8.1088096E-004  6.8320697E-003 0.0  4.2545826E-004  9.2450278E-003 0.0  9.4333844E-004  9.0307018E-003 0.0  1.9807841E-002  6.2892406E-003 0.0  2.0676394E-002  6.4894088E-003 0.0  5.4821382E-003  8.6713751E-004 0.0  1.3091066E-002  2.9743106E-003 0.0  1.2369940E-002  3.3814059E-003 0.0  4.8922876E-004  8.1616512E-003 0.0  1.2931959E-002  9.0842092E-003 0.0  1.3442656E-002  9.2035690E-003 0.0  1.3944809E-002  9.0304250E-003 0.0  2.2838650E-002  7.9456932E-004 0.0  2.2343896E-002  5.1441675E-004 0.0  2.4074797E-002  1.8661939E-003 0.0  2.3759444E-002  4.4816743E-004 0.0  1.4401033E-002  6.7960525E-003 0.0  1.4201011E-002  1.0032602E-003 0.0  1.3728167E-002  7.4624208E-004 0.0  1.2770846E-002  7.1375787E-004 0.0  1.2743940E-002  1.2056567E-003 0.0  1.0252132E-002  7.5002206E-004 0.0  1.6839548E-002  3.9715273E-003 0.0  2.4563387E-002  2.7487864E-003 0.0  1.5750000E-002  9.5669873E-003 0.0  1.4750267E-002  9.5754211E-003 0.0  1.6750000E-002  9.5760186E-003 0.0  1.2501533E-003  4.0524827E-004 0.0  2.2568100E-003  4.0481960E-004 0.0  2.4498759E-002  1.2250359E-003 0.0  1.1174065E-002  9.5615090E-003 0.0  1.8745869E-002  9.5515287E-003 0.0  1.2217525E-002  9.5773004E-003 0.0  1.7741483E-002  9.5555851E-003 0.0  2.4559506E-002  7.7436576E-003 0.0  2.4579201E-002  6.7522927E-003 0.0  2.4139731E-002  6.9529077E-003 0.0  2.4589743E-002  4.7822935E-003 0.0  1.0208502E-002  9.5618731E-003 0.0  1.9743905E-002  9.4831553E-003 0.0  2.1208152E-002  4.5235906E-004 0.0  2.4591720E-002  3.7364854E-003 0.0  2.0779438E-002  9.5155033E-003 0.0  2.0246657E-002  4.2272846E-004 0.0  5.2471146E-003  4.2862414E-004 0.0  1.9228400E-002  4.6483223E-004 0.0  6.2813168E-003  5.0831122E-004 0.0  7.2500012E-003  4.3301266E-004 0.0  2.3753336E-002  9.5773652E-003 0.0  1.6247600E-002  3.9970111E-004 0.0  9.7624354E-003  4.6172110E-004 0.0  1.5250000E-002  4.2040066E-004 0.0  1.5560409E-002  8.8058246E-004 0.0  1.4758069E-002  4.1717970E-004 0.0  4.9745531E-004  1.8520835E-003 0.0  1.1043530E-002  7.8862689E-003 0.0  6.9564538E-003  3.8969533E-003 0.0  1.9553431E-002  6.9501291E-003 0.0  1.5484243E-003  8.8465576E-004 0.0  1.8868996E-002  8.9960769E-004 0.0  7.1877701E-003  8.6493153E-003 0.0  7.1211515E-003  6.7177141E-003 0.0  3.8472202E-003  6.2789120E-003 0.0  1.4541942E-002  9.1236027E-003 0.0  5.1686672E-003  3.9284924E-003 0.0  1.8720012E-002  2.5230261E-003 0.0  2.8092248E-003  9.5874982E-003 0.0  1.2358983E-002  4.2489825E-003 0.0  2.4577388E-002  2.2499997E-003 0.0  1.5061877E-002  7.1483918E-003 0.0  7.8774327E-003  6.9949454E-003 0.0  1.7216910E-002  4.3752860E-004 0.0  2.0465739E-002  8.4982300E-004 0.0  2.0779120E-002  1.9160720E-003 0.0  4.2481179E-003  4.3035295E-004 0.0  1.4376253E-002  3.8437946E-003 0.0  1.3074123E-002  3.7606326E-003 0.0  1.8439068E-003  3.5503027E-003 0.0  9.9291577E-003  3.0275449E-003 0.0  9.7119535E-003  9.5754615E-003 0.0  1.8395634E-002  7.0592595E-003 0.0  2.4143538E-002  3.0410593E-003 0.0  2.4599679E-002  7.4999991E-004 0.0  4.2132280E-004  7.2132785E-004 0.0  5.7603060E-003  9.5780751E-003 0.0  2.1751070E-003  6.4930720E-003 0.0  2.2698019E-002  5.3245764E-003 0.0  3.7428068E-003  3.9832654E-004 0.0  1.6428582E-002  7.9125766E-004 0.0  1.1871801E-003  7.4931351E-003 0.0  1.3865302E-002  8.4078607E-003 0.0  1.6039040E-002  9.1361024E-003 0.0  2.2745185E-002  9.5875842E-003 0.0  2.7500015E-003  3.9402833E-004 0.0  2.8800043E-003  7.4363127E-003 0.0  4.2390050E-003  9.6152263E-003 0.0  1.9312950E-002  2.6594494E-003 0.0  5.0766801E-003  9.0886371E-003 0.0  1.1921468E-002  7.8035498E-004 0.0  7.5922639E-004  9.5824786E-003 0.0  4.7841212E-003  2.9701724E-003 0.0  1.9000000E-002  9.1586916E-003 0.0  1.6425937E-002  3.0181434E-003 0.0  7.2606769E-003  9.5933318E-003 0.0  7.7909901E-003  1.1160899E-003 0.0  9.3200364E-004  8.4461869E-003 0.0  2.1356977E-002  6.6926016E-003 0.0  1.7711025E-002  3.5508778E-003 0.0  6.0288594E-003  3.5677702E-003 0.0  2.4110850E-002  7.4408733E-003 0.0  7.0543963E-003  2.6647521E-003 0.0  1.3739979E-002  9.5742092E-003 0.0  1.8934722E-002  6.6606066E-003 0.0  5.0193175E-003  8.1244414E-004 0.0  2.2202180E-002  4.9586904E-003 0.0  2.0123202E-002  9.1052491E-003 0.0  1.7970477E-002  9.1566125E-003 0.0  2.1928673E-002  8.8552560E-004 0.0  8.7810762E-003  2.9712878E-003 0.0  2.1335964E-002  5.9135658E-003 0.0  2.4180601E-002  6.4999998E-003 0.0  1.1871032E-002  9.1090689E-003 0.0  1.2381540E-002  8.9527939E-004 0.0  1.0414006E-002  9.1385351E-003 0.0  8.8101686E-003  9.6150698E-003 0.0  9.3900607E-003  8.7922886E-004 0.0  1.6546845E-002  9.1889969E-003 0.0  1.4264690E-003  6.3538303E-003 0.0  8.2314621E-003  3.5947101E-004 0.0  2.1250000E-002  9.6476102E-003 0.0  1.5010549E-002  8.2177889E-004 0.0  2.4576343E-002  9.2658580E-003 0.0  3.0848172E-003  1.1058926E-003 0.0  1.0322413E-003  2.4274167E-003 0.0  8.1477200E-003  3.3583100E-003 0.0  6.7068214E-003  8.6003272E-004 0.0  1.2721015E-002  1.7196472E-003 0.0  2.2783332E-002  3.5095998E-004 0.0  1.3474123E-003  9.1398395E-003 0.0  1.1863302E-002  2.9995548E-003 0.0  9.3383907E-003  3.3407626E-003 0.0  7.0376905E-003  8.0739059E-003 0.0  1.8884998E-002  3.1387529E-003 0.0  6.6620088E-003  7.1398113E-003 0.0  7.5498158E-003  9.1617117E-003 0.0  2.4253570E-002  3.4767882E-003 0.0  1.6972752E-002  9.2359074E-003 0.0  1.3197019E-002  9.5929643E-003 0.0  6.2500003E-003  9.6644528E-003 0.0  2.3504249E-002  9.2145964E-003 0.0  2.0892832E-002  8.1612604E-004 0.0  2.4195804E-002  4.5201704E-003 0.0  2.4175438E-002  5.1034061E-003 0.0  2.2246994E-002  9.6524977E-003 0.0  2.3669745E-002  7.1604709E-003 0.0  2.4635752E-002  5.7818617E-003 0.0  5.1578897E-003  8.6828885E-003 0.0  5.9415829E-003  8.4231875E-004 0.0  1.4296279E-002  8.1106814E-003 0.0  2.4096990E-002  8.3360450E-004 0.0  2.0007092E-002  7.9432445E-004 0.0  2.4174665E-002  3.9304964E-003 0.0  1.4994364E-002  9.2099636E-003 0.0  1.2500000E-002  9.2259121E-003 0.0  7.6843652E-003  6.2791460E-003 0.0  1.0250001E-002  3.2199780E-004 0.0  3.2500000E-003  9.6780518E-003 0.0  1.9906357E-002  2.8200489E-003 0.0  1.1844538E-002  3.5950144E-004 0.0  2.1974949E-003  3.0544358E-003 0.0  1.2201181E-003  3.3351181E-003 0.0  1.4580428E-002  8.0588708E-004 0.0  1.3711479E-002  4.0741422E-003 0.0  7.9702125E-003  9.1754357E-003 0.0  1.6913604E-002  8.1457067E-004 0.0  1.1145328E-002  3.7257997E-004 0.0  1.3746871E-002  3.1492371E-004 0.0  9.0049278E-003  7.7687045E-004 0.0  2.0000016E-003  7.5941988E-004 0.0  2.7515347E-003  6.7397737E-003 0.0  3.1846574E-003  6.3090738E-003 0.0  2.0414427E-002  2.2838544E-003 0.0  9.4823903E-004  8.0902815E-004 0.0  1.0276936E-002  8.7402580E-003 0.0  1.3911821E-002  7.2154713E-003 0.0  2.4637330E-002  9.6373306E-003 0.0  2.4636520E-002  3.6347951E-004 0.0  1.8252432E-002  3.0946764E-004 0.0  1.5185464E-002  1.2843195E-003 0.0  3.6734606E-004  9.6365875E-003 0.0  1.7500000E-003  9.7017962E-003 0.0  1.2753895E-002  3.0225893E-004 0.0  2.0493542E-002  9.2602710E-003 0.0  9.4373631E-003  9.2270876E-003 0.0  3.4318507E-003  7.7930991E-004 0.0  3.6114797E-004  3.5703127E-004 0.0  8.9959948E-004  7.8968302E-003 0.0  1.0397923E-002  6.7546269E-003 0.0  7.8540284E-003  1.6661334E-003 0.0  2.4269615E-002  1.5105710E-003 0.0  1.0659189E-002  9.5088117E-004 0.0  2.3251205E-002  7.3830906E-003 0.0  7.5809836E-003  3.5895361E-003 0.0  2.0845345E-002  7.0946999E-003 0.0  2.3037012E-002  4.2133949E-003 0.0  2.4246901E-002  6.0845142E-003 0.0  2.1551195E-002  8.9491803E-003 0.0  1.9378305E-002  9.1893796E-003 0.0  1.0862808E-002  9.2167925E-003 0.0  1.6402356E-002  8.8015418E-003 0.0  4.5064848E-003  8.2009137E-003 0.0  1.5302240E-002  1.7999154E-003 0.0  2.2064949E-002  9.3498299E-003 0.0  1.6000000E-002  7.1798454E-004 0.0  3.7013481E-003  1.7319119E-003 0.0  2.9871557E-003  6.9238697E-004 0.0  7.1590916E-003  3.2443241E-003 0.0  1.2637679E-002  2.1394667E-003 0.0  1.7038697E-002  1.2589168E-003 0.0  2.5425909E-002  7.8617639E-004 0.0  2.5405080E-002  3.7596510E-003 0.0  2.5450234E-002  6.1975320E-003 0.0  7.2500012E-003 -4.0410425E-004 0.0  9.7500009E-003 -4.1866906E-004 0.0  1.2251773E-002 -4.2838998E-004 0.0  1.4749825E-002 -3.9838737E-004 0.0  1.7250000E-002 -4.3301266E-004 0.0  1.9732854E-002 -4.2517464E-004 0.0  2.2250000E-002 -4.0887637E-004 0.0  2.5438021E-002  8.2427905E-003 0.0  2.5408048E-002  1.0247914E-002 0.0  2.4219101E-002 -4.2766273E-004 0.0  5.2500013E-003 -4.3301267E-004 0.0  3.9385824E-002  1.2735382E-002 0.0  3.8503923E-002 -1.2950291E-002 0.0  1.2132472E-003 -7.4589938E-003 0.0  3.2148569E-003 -4.1226689E-004 0.0  2.5420467E-002  1.1692622E-002 0.0  5.7808833E-002 -1.2927898E-003 0.0  2.5470796E-002  2.1543536E-003 0.0  3.2281257E-002  1.3300712E-002 0.0  7.0074053E-004 -3.9334168E-003 0.0  4.6784312E-002  1.2794929E-002 0.0  3.1250000E-002 -1.2834936E-002 0.0  4.6250000E-002 -1.2982496E-002 0.0  2.1235687E-002 -1.2910564E-002 0.0  8.8346314E-003 -1.2971459E-002 0.0  1.7877264E-003 -4.1675546E-004 0.0  2.9189169E-002  1.3895168E-002 0.0  5.7916916E-002  6.2185036E-003 0.0  2.5589315E-002  1.2869479E-002 0.0  5.3396443E-004 -2.3517018E-003 0.0  5.7679013E-002 -5.9768612E-003 0.0  1.3730249E-002 -1.3260553E-002 0.0  2.6300515E-002 -1.2961375E-002 0.0  5.1250000E-002 -1.2834936E-002 0.0  2.5418824E-002  9.2563672E-003 0.0  2.1208402E-002 -4.5316387E-004 0.0  2.3229820E-002 -4.0413737E-004 0.0  2.5451716E-002  7.2149061E-003 0.0  2.5426273E-002  4.7824383E-003 0.0  4.2374150E-003 -4.1149312E-004 0.0  1.8745717E-002 -4.1414309E-004 0.0  6.2500013E-003 -4.3483328E-004 0.0  8.2500011E-003 -4.1403004E-004 0.0  1.6250000E-002 -4.1237095E-004 0.0  1.0821741E-002 -4.6250748E-004 0.0  1.3743996E-002 -3.9793971E-004 0.0  5.1727525E-002  1.3015426E-002 0.0  4.4886073E-004 -1.1963993E-003 0.0  3.7500000E-003 -1.2834936E-002 0.0  5.7777595E-002  1.1246810E-002 0.0  5.6087033E-002 -1.2735828E-002 0.0  2.6627980E-002  1.4038683E-002 0.0  7.4940689E-004 -3.9741295E-004 0.0  2.7828339E-002  1.3836586E-002 0.0  2.8575553E-002  1.2838391E-002 0.0  2.9724859E-002  1.2812198E-002 0.0  2.9069095E-002  1.1895674E-002 0.0  2.8080982E-002  1.1908518E-002 0.0  2.8531701E-002  1.1090599E-002 0.0  2.9475082E-002  1.0979427E-002 0.0  2.8822279E-002  1.0173389E-002 0.0  2.9898466E-002  1.0089380E-002 0.0  2.9174255E-002  9.1766528E-003 0.0  3.0349707E-002  9.1404576E-003 0.0  2.9737538E-002  8.2726276E-003 0.0  3.0881897E-002  8.1517195E-003 0.0  3.0057345E-002  7.0885761E-003 0.0  3.1416783E-002  7.0474560E-003 0.0  3.0688863E-002  6.0020156E-003 0.0  3.2056063E-002  5.8782126E-003 0.0  3.1283821E-002  4.7500373E-003 0.0  3.2748049E-002  4.5874033E-003 0.0  3.1845245E-002  3.2735074E-003 0.0  3.3452091E-002  3.1729891E-003 0.0  3.2644502E-002  1.7193079E-003 0.0  3.4471962E-002  1.6891836E-003 0.0  3.3318354E-002  8.8130011E-005 0.0  3.5357974E-002 -1.8385038E-004 0.0  3.6619159E-002  1.6957223E-003 0.0  3.7710928E-002 -3.6437295E-004 0.0  3.9049419E-002  1.5755443E-003 0.0  4.0190949E-002 -5.1735773E-004 0.0  4.1538576E-002  1.4519539E-003 0.0  4.2681127E-002 -7.1926995E-004 0.0  4.4036011E-002  1.3680851E-003 0.0  4.5177010E-002 -8.4951042E-004 0.0  3.1577093E-002  4.3410442E-004 0.0  3.2192105E-002 -1.2161037E-003 0.0  3.0511095E-002 -1.0921896E-003 0.0  3.1193081E-002 -2.4236698E-003 0.0  2.9881614E-002 -2.4094415E-003 0.0  3.0363111E-002 -3.5174369E-003 0.0  2.9108229E-002 -3.4198050E-003 0.0  3.1597340E-002 -3.5999331E-003 0.0  2.9601319E-002 -4.6011029E-003 0.0  2.8292571E-002 -4.3222876E-003 0.0  3.2183587E-002  8.1547217E-003 0.0  4.6532869E-002  1.2497508E-003 0.0  3.0191887E-002  2.4977909E-004 0.0  2.7899198E-002 -3.1844417E-003 0.0  2.7117999E-002 -3.9523558E-003 0.0  2.9755844E-002  4.9050218E-003 0.0  2.7497095E-002 -5.1743607E-003 0.0  2.6380705E-002 -4.8883317E-003 0.0  2.6023974E-002 -3.8819566E-003 0.0  2.5341485E-002 -4.6344784E-003 0.0  2.5142396E-002 -3.6761556E-003 0.0  2.4362150E-002 -4.2203140E-003 0.0  2.4615116E-002 -5.3723341E-003 0.0  2.3587173E-002 -5.0577752E-003 0.0  2.3328505E-002 -4.0461993E-003 0.0  2.2587009E-002 -4.7377525E-003 0.0  2.2461226E-002 -3.7816436E-003 0.0  2.1631656E-002 -4.2578888E-003 0.0  2.1789379E-002 -5.3992748E-003 0.0  2.0786266E-002 -5.0378148E-003 0.0  2.3797568E-002 -6.2452798E-003 0.0  2.0614236E-002 -4.0025489E-003 0.0  1.9830267E-002 -4.6368592E-003 0.0  1.9922599E-002 -5.7599255E-003 0.0  1.8814733E-002 -5.1362317E-003 0.0  1.8941955E-002 -6.4724436E-003 0.0  1.7813111E-002 -5.9041806E-003 0.0  1.7624738E-002 -4.7709854E-003 0.0  1.6727265E-002 -5.3428259E-003 0.0  1.6636421E-002 -4.2984414E-003 0.0  1.5733270E-002 -4.8101093E-003 0.0  4.7673933E-002 -9.7370237E-004 0.0  2.5677141E-002 -3.0349906E-003 0.0  1.9710147E-002 -3.6271320E-003 0.0  2.8855547E-002  7.4860185E-003 0.0  1.5710381E-002 -6.0043956E-003 0.0  1.4751236E-002 -5.3493149E-003 0.0  1.7989055E-002 -7.4169165E-003 0.0  1.4858174E-002 -4.1332734E-003 0.0  1.3794312E-002 -4.7029425E-003 0.0  1.3728188E-002 -5.8850058E-003 0.0  1.2739930E-002 -5.1796559E-003 0.0  1.2596518E-002 -6.4459468E-003 0.0  1.1611125E-002 -5.6726311E-003 0.0  1.1766494E-002 -4.5784880E-003 0.0  1.0658377E-002 -4.9546070E-003 0.0  1.0472312E-002 -6.1060817E-003 0.0  9.5811128E-003 -5.3086811E-003 0.0  9.7798639E-003 -4.2246886E-003 0.0  8.7565904E-003 -4.5521674E-003 0.0  8.4835785E-003 -5.6506650E-003 0.0  7.6444925E-003 -4.7597349E-003 0.0  7.3287947E-003 -5.9985077E-003 0.0  6.5504477E-003 -5.0850095E-003 0.0  1.3918045E-002 -3.6849811E-003 0.0  6.8441315E-003 -4.0100645E-003 0.0  5.8562419E-003 -4.2684661E-003 0.0  4.1422261E-002 -2.6740871E-003 0.0  4.2894717E-002  3.5991766E-003 0.0  4.9029783E-002  1.1266636E-003 0.0  1.4688844E-002 -3.2074040E-003 0.0  8.9068669E-003 -3.5267053E-003 0.0  9.8694899E-003 -3.2841675E-003 0.0  6.1122832E-003 -6.2715072E-003 0.0  2.8462568E-002  9.5108147E-003 0.0  4.6317976E-002 -3.0739820E-003 0.0  8.2556654E-003 -6.6842467E-003 0.0  4.7888707E-002  3.3510562E-003 0.0  4.8814986E-002 -3.1979568E-003 0.0  2.6759443E-002 -6.0890840E-003 0.0  2.4951411E-002 -2.8359172E-003 0.0  6.0976481E-003 -3.2528312E-003 0.0  5.2226653E-003 -3.5567581E-003 0.0  1.3749522E-002 -7.2441089E-003 0.0  1.2351342E-002 -7.9246870E-003 0.0  4.9278996E-003 -4.4169835E-003 0.0  4.3486142E-003 -3.7027530E-003 0.0  2.0061222E-002 -7.0501058E-003 0.0  2.0427197E-002 -3.1090566E-003 0.0  3.8020137E-002  3.6004521E-003 0.0  1.9695071E-002 -2.7748693E-003 0.0  2.5389314E-002 -2.2919421E-003 0.0  2.7973567E-002 -6.4393398E-003 0.0  9.2307285E-003 -2.7176185E-003 0.0  1.3990097E-002 -2.8104943E-003 0.0  4.6721687E-003 -2.9174374E-003 0.0  3.8274338E-003 -2.9098853E-003 0.0  3.4766522E-003 -3.7877133E-003 0.0  2.7639239E-002  1.1143724E-002 0.0  9.9644788E-003 -2.4440657E-003 0.0  3.0206363E-003 -3.0865429E-003 0.0  2.0298952E-002 -2.3060511E-003 0.0  1.4661378E-002 -2.3346540E-003 0.0  5.0385629E-002  3.2272831E-003 0.0  3.3931270E-002  6.0846360E-003 0.0  4.9244555E-002  5.4516439E-003 0.0  3.1013031E-002  1.0068840E-002 0.0  4.7459124E-002 -5.2983294E-003 0.0  4.9956075E-002 -5.4223139E-003 0.0  6.9553663E-003 -3.0804944E-003 0.0  6.4457729E-003 -2.5138902E-003 0.0  7.1257576E-003 -2.3539139E-003 0.0  2.4725436E-002 -2.1267154E-003 0.0  3.2722436E-003 -2.3724922E-003 0.0  2.5750740E-003 -2.4655870E-003 0.0  1.9687745E-002 -1.9546236E-003 0.0  1.9062814E-002 -2.4285035E-003 0.0  3.6459623E-002 -2.4657058E-003 0.0  2.0999399E-002 -2.5784610E-003 0.0  2.5157059E-002 -1.6162319E-003 0.0  2.5796309E-002 -1.7597063E-003 0.0  2.7069092E-002 -7.5697690E-003 0.0  2.8659182E-002 -7.9366301E-003 0.0  1.5323280E-002 -2.7466221E-003 0.0  1.5337409E-002 -2.0453150E-003 0.0  1.5938157E-002 -2.3868387E-003 0.0  5.1311924E-002 -3.3219236E-003 0.0  9.4819714E-003 -1.9170989E-003 0.0  1.3995468E-002 -2.0647899E-003 0.0  1.3413569E-002 -2.3976280E-003 0.0  1.0575676E-002 -2.9047143E-003 0.0  1.0665897E-002 -2.1870583E-003 0.0  1.1227497E-002 -2.5997196E-003 0.0  1.1279612E-002 -1.9401027E-003 0.0  2.3104012E-002 -3.1307407E-003 0.0  2.7242677E-002  1.1850095E-002 0.0  2.6871923E-002  1.1162653E-002 0.0  5.1741478E-002  5.3276757E-003 0.0  5.2862357E-002  3.1064009E-003 0.0  2.5575073E-002 -1.1599878E-003 0.0  2.6175465E-002 -1.2646073E-003 0.0  2.5964207E-002 -7.0591175E-004 0.0  2.6552544E-002 -8.0148359E-004 0.0  2.6342744E-002 -2.3075188E-004 0.0  2.6937334E-002 -3.4009572E-004 0.0  2.6724351E-002  2.2800594E-004 0.0  2.7121787E-002 -9.5141288E-004 0.0  2.7350982E-002  1.2932045E-004 0.0  2.7120456E-002  7.5935592E-004 0.0  2.7799733E-002  6.4079007E-004 0.0  2.7545485E-002  1.2800905E-003 0.0  2.8038332E-002 -3.2855702E-005 0.0  2.6880850E-002  1.3889298E-003 0.0  2.7285594E-002  1.8730789E-003 0.0  2.7967689E-002  1.8257779E-003 0.0  2.7577108E-002  2.4850380E-003 0.0  2.8428729E-002  2.4079366E-003 0.0  2.8123269E-002  3.1142613E-003 0.0  2.7354544E-002  3.2063553E-003 0.0  2.7806056E-002  3.7920245E-003 0.0  2.7096843E-002  3.8539483E-003 0.0  2.7487291E-002  4.4270175E-003 0.0  2.6682565E-002  3.3324601E-003 0.0  2.8966066E-002  3.0624823E-003 0.0  2.7231634E-002  1.0534867E-002 0.0  2.6433796E-002 -1.8234698E-003 0.0  2.0873685E-002 -1.8844632E-003 0.0  2.1496052E-002 -2.0935306E-003 0.0  6.6395312E-003 -1.8733418E-003 0.0  6.0266622E-003 -1.9740051E-003 0.0  2.8892739E-003 -1.8268220E-003 0.0  2.2272359E-003 -1.8869637E-003 0.0  3.4744841E-003 -1.7596789E-003 0.0  2.6817339E-002  4.4823461E-003 0.0  2.7183030E-002  5.0517235E-003 0.0  2.7880568E-002  4.9944630E-003 0.0  2.7551430E-002  5.6140319E-003 0.0  2.6877946E-002  5.6557980E-003 0.0  2.7220136E-002  6.2116530E-003 0.0  7.2511227E-003 -1.7005952E-003 0.0  4.8600219E-002 -7.5227140E-003 0.0  4.6239472E-002 -7.3192802E-003 0.0  5.1097146E-002 -7.6467146E-003 0.0  8.7396768E-003 -2.1986626E-003 0.0  1.3472353E-002 -1.7196569E-003 0.0  1.2898429E-002 -1.9838481E-003 0.0  1.2812329E-002 -2.6267428E-003 0.0  2.6301684E-003 -3.8753378E-003 0.0  3.1579841E-003 -4.6609252E-003 0.0  1.9028087E-002 -1.7592032E-003 0.0  1.8454799E-002 -2.1330197E-003 0.0  1.8473395E-002 -2.8156665E-003 0.0  1.7755645E-002 -2.4671255E-003 0.0  1.7904846E-002 -1.7712593E-003 0.0  2.8278894E-002  5.5811797E-003 0.0  2.9300453E-002  2.2512082E-003 0.0  1.5918472E-002 -1.7316250E-003 0.0  8.9150351E-003 -1.5541264E-003 0.0  5.0600403E-002  7.5520732E-003 0.0  4.8103480E-002  7.6760727E-003 0.0  2.6636014E-002  1.9089470E-003 0.0  2.5404508E-003 -1.3174834E-003 0.0  2.1285028E-003 -4.7798625E-003 0.0  1.9122850E-003 -2.4980861E-003 0.0  5.3095534E-002  7.4292353E-003 0.0  1.6496128E-002 -2.0324477E-003 0.0  1.5949714E-003 -1.8932336E-003 0.0  2.7627232E-003 -5.6164653E-003 0.0  1.2978317E-002 -1.3621104E-003 0.0  2.6563859E-002  6.2220396E-003 0.0  2.6899766E-002  6.7734852E-003 0.0  2.6253710E-002  5.6796964E-003 0.0  2.7549263E-002  6.7705405E-003 0.0  2.7219447E-002  7.3402029E-003 0.0  2.6586512E-002  7.3346129E-003 0.0  2.6877391E-002  7.8977176E-003 0.0  2.7526198E-002  7.9245275E-003 0.0  2.7166614E-002  8.4741477E-003 0.0  1.5382563E-002 -1.4082550E-003 0.0  1.3980375E-002 -1.4674011E-003 0.0  2.4558689E-002 -1.4943622E-003 0.0  2.4099057E-002 -1.9479415E-003 0.0  2.3956057E-002 -1.3476436E-003 0.0  2.3498098E-002 -1.7243824E-003 0.0  2.6540026E-002  8.4386376E-003 0.0  2.6800586E-002  8.9951894E-003 0.0  2.6534822E-002  1.0569917E-002 0.0  1.3743386E-002 -8.8777979E-003 0.0  1.1950198E-002 -9.8741071E-003 0.0  2.6259401E-002  1.4878871E-003 0.0  1.0765466E-002 -1.5384246E-003 0.0  1.1350567E-002 -1.3532966E-003 0.0  1.6547395E-002 -2.6987118E-003 0.0  1.2429101E-002 -1.5722627E-003 0.0  7.7480109E-003 -2.7983310E-003 0.0  2.1359134E-002 -1.4874450E-003 0.0  2.1963357E-002 -1.6694272E-003 0.0  2.0775604E-002 -1.2799839E-003 0.0  1.6471829E-002 -1.4188968E-003 0.0  2.2103376E-002 -2.2887526E-003 0.0  6.8280313E-003 -1.2848363E-003 0.0  1.9428497E-002 -1.4225612E-003 0.0  9.4025358E-003 -1.3440318E-003 0.0  8.9709324E-003 -9.2725028E-004 0.0  2.9346468E-002 -7.9377022E-004 0.0  2.8607819E-002 -1.6354040E-003 0.0  2.8517586E-002  5.0781651E-004 0.0  3.0631818E-002  1.2104074E-003 0.0  2.7453479E-002 -9.2674579E-003 0.0  2.5630095E-002 -8.6072126E-003 0.0  1.7911283E-002 -3.2708189E-003 0.0  8.3148520E-003 -1.8207454E-003 0.0  1.7506788E-003 -5.5857880E-003 0.0  2.6514310E-002  1.1768147E-002 0.0  2.6826051E-002  1.2517645E-002 0.0  1.0518899E-002 -8.4713286E-003 0.0  2.9887417E-002  2.9852224E-003 0.0  4.9459328E-002  9.7764790E-003 0.0  2.6831817E-002  9.9944370E-003 0.0  2.6231804E-002  1.0026713E-002 0.0  1.8564595E-002 -3.5667633E-003 0.0  2.5763066E-002 -1.8603315E-004 0.0  2.9372329E-002 -9.6953293E-003 0.0  3.0683753E-002 -7.8450439E-003 0.0  1.1790127E-002 -2.3571695E-003 0.0  1.1793475E-002 -3.0045693E-003 0.0  3.7997488E-003 -5.5079797E-003 0.0  3.4266760E-003 -6.6392136E-003 0.0  1.5276701E-002 -7.7024666E-003 0.0  1.5570480E-002 -9.9430485E-003 0.0  2.6237245E-002  8.9793836E-003 0.0  2.2558683E-002 -1.8467063E-003 0.0  2.2403188E-002 -1.2197311E-003 0.0  2.3414660E-002 -1.1551078E-003 0.0  4.9446659E-002 -9.6098230E-003 0.0  5.1981859E-002 -1.0317920E-002 0.0  5.3594069E-002 -7.7707172E-003 0.0  1.8973967E-002 -1.1982856E-003 0.0  2.9557570E-002  6.0597737E-003 0.0  2.4835968E-002 -6.3582468E-003 0.0  2.6453969E-002 -3.1145783E-003 0.0  2.7388032E-002 -2.4031299E-003 0.0  1.6975952E-002 -1.7023839E-003 0.0  2.8657389E-002  4.9277886E-003 0.0  2.3912609E-002 -3.3795936E-003 0.0  1.0177855E-002 -1.7723077E-003 0.0  1.0372986E-002 -1.2098269E-003 0.0  8.0744012E-003 -3.9503454E-003 0.0  2.7521140E-002  9.9773007E-003 0.0  2.7508537E-002  8.9590200E-003 0.0  7.3938460E-003 -1.1516251E-003 0.0  5.4803499E-002 -1.0332481E-002 0.0  1.6982947E-002 -1.0218014E-003 0.0  2.8696324E-002  8.3286393E-003 0.0  5.3805739E-003 -2.7367266E-003 0.0  4.8993970E-003 -2.1916878E-003 0.0  4.2840313E-003 -2.2492719E-003 0.0  4.5512536E-003 -1.6500688E-003 0.0  5.1121880E-003 -1.5619355E-003 0.0  4.7634535E-003 -1.1108677E-003 0.0  4.2489624E-003 -1.2127061E-003 0.0  2.3478694E-002 -2.4089275E-003 0.0  4.6842130E-002  1.0160892E-002 0.0  4.5586511E-002  7.8434808E-003 0.0  4.4465482E-002  1.0024478E-002 0.0  4.3156011E-002  7.9568172E-003 0.0  4.1969166E-002  1.0010512E-002 0.0  4.0740306E-002  7.8428614E-003 0.0  2.6457462E-002  3.9322247E-003 0.0  2.6225797E-002  4.5426854E-003 0.0  2.6121647E-002  3.4357879E-003 0.0  2.6266222E-002  2.8933760E-003 0.0  2.6874456E-002  2.7629155E-003 0.0  2.5772416E-002  3.0345936E-003 0.0  2.6547148E-002  5.1011467E-003 0.0  2.6400352E-002  8.5776158E-004 0.0  2.5904337E-002  5.0794140E-003 0.0  1.2879795E-002 -4.0584772E-003 0.0  2.6226449E-002  1.1137707E-002 0.0  1.5945827E-002 -1.1666189E-003 0.0  1.5433368E-002 -8.3978544E-004 0.0  1.4938779E-002 -1.1273022E-003 0.0  1.4865410E-002 -1.6611092E-003 0.0  3.1533423E-003 -1.3100964E-003 0.0  1.5856369E-002 -3.8466641E-003 0.0  1.3490357E-002 -1.1508162E-003 0.0  1.3075863E-002 -8.2941654E-004 0.0  2.6081878E-002  2.6589937E-004 0.0  2.6046894E-002  2.0067308E-003 0.0  2.5731537E-002  1.6149361E-003 0.0  1.2491615E-002 -9.3777908E-004 0.0  1.8466007E-002 -1.4814414E-003 0.0  1.7941516E-002 -1.1783898E-003 0.0  6.2792669E-003 -1.3841831E-003 0.0  2.4993484E-002 -1.0532232E-003 0.0  2.5880301E-002  1.0553091E-002 0.0  8.4141234E-003 -1.2348629E-003 0.0  2.5552971E-002  1.1154282E-002 0.0  2.0303532E-002 -1.6387284E-003 0.0  2.0286928E-002 -1.0371932E-003 0.0  2.0746856E-002 -7.4384327E-004 0.0  1.0779552E-002 -3.9064181E-003 0.0  2.5716992E-002  5.6859185E-003 0.0  2.5414607E-002 -6.3773177E-004 0.0  8.5318149E-003 -2.8702569E-003 0.0  2.4461126E-002 -7.4624972E-003 0.0  2.3724374E-002 -9.1371561E-003 0.0  2.2750247E-002 -7.2563012E-003 0.0  2.1736733E-002 -9.0318591E-003 0.0  2.3788549E-002 -7.9539120E-004 0.0  2.7891340E-003 -8.0287360E-004 0.0  2.1351254E-003 -8.4734727E-004 0.0  1.8839574E-003 -1.3569850E-003 0.0  1.2997102E-003 -1.3514964E-003 0.0  2.1197760E-002 -3.3476154E-003 0.0  1.1912114E-002 -1.1839891E-003 0.0  9.8028257E-003 -1.0737613E-002 0.0  8.4492977E-003 -9.1943196E-003 0.0  4.3324408E-002  1.2248877E-002 0.0  3.1792673E-002 -1.0498225E-002 0.0  3.3223145E-002 -8.2633564E-003 0.0  3.4423509E-002 -1.0569921E-002 0.0  3.5739344E-002 -8.4814398E-003 0.0  3.4597169E-002 -6.0542718E-003 0.0  3.7199072E-002 -6.4647968E-003 0.0  3.8218076E-002 -8.6561339E-003 0.0  3.9563273E-002 -6.7027584E-003 0.0  4.0686571E-002 -8.8799200E-003 0.0  4.1754177E-002 -6.9522488E-003 0.0  4.3150851E-002 -9.1257275E-003 0.0  4.2057421E-002 -1.1003397E-002 0.0  3.8381312E-002 -4.4692575E-003 0.0  3.2115047E-002 -6.2953309E-003 0.0  3.4511241E-002  1.3270744E-002 0.0  3.3281853E-002  1.1427385E-002 0.0  3.5622659E-002  1.1307109E-002 0.0  3.4501023E-002  9.5182074E-003 0.0  3.6719320E-002  9.4136976E-003 0.0  3.1498346E-002  1.1806668E-002 0.0  3.5491275E-002  7.4694259E-003 0.0  3.8080912E-002  7.5750920E-003 0.0  9.4316011E-004 -1.8254316E-003 0.0  5.3461852E-003 -9.9233844E-004 0.0  1.8481052E-002 -8.6381165E-004 0.0  1.7963145E-002 -6.1890138E-004 0.0  2.4852071E-002 -4.6180692E-004 0.0  1.5244905E-003 -9.2693364E-003 0.0  3.9403618E-002  1.0150880E-002 0.0  3.9308204E-002  5.6704764E-003 0.0  2.1750950E-002 -1.1408881E-003 0.0  2.5843080E-002  1.1065747E-003 0.0  2.6295401E-002  7.9117153E-003 0.0  3.0163863E-002  1.1838881E-002 0.0  2.6234354E-002  6.7574808E-003 0.0  2.5994353E-002  7.3598829E-003 0.0  3.4054474E-002 -1.7208263E-003 0.0  2.9474010E-002  3.8728291E-003 0.0  1.8373022E-003 -1.1431879E-002 0.0  3.6874871E-003 -9.9336963E-003 0.0  5.5887933E-003 -1.1281758E-002 0.0  5.9188072E-003 -8.9269356E-003 0.0  1.0112593E-003 -4.8671444E-003 0.0  7.7404518E-003 -2.0967499E-003 0.0  1.1828763E-003 -2.6104293E-003 0.0  1.5972532E-003 -3.1098321E-003 0.0  2.5999441E-002  6.1777653E-003 0.0  4.7613811E-003 -6.3010615E-003 0.0  4.3478361E-003 -7.8736877E-003 0.0  2.7634295E-002  1.2715879E-002 0.0  5.8659417E-004 -3.1024232E-003 0.0  2.5932717E-002  8.4746467E-003 0.0  2.4445286E-002 -9.1870977E-004 0.0  3.7068584E-002 -1.0723876E-002 0.0  2.2720019E-002 -2.4729351E-003 0.0  3.0688719E-002  1.3835520E-002 0.0  4.3840294E-002 -2.8665613E-003 0.0  4.4304790E-002  5.7378565E-003 0.0  4.5071891E-002 -5.1063614E-003 0.0  5.0170852E-002 -1.0975929E-003 0.0  5.2659218E-002 -1.2259246E-003 0.0  5.3807422E-002 -3.4466554E-003 0.0  5.5162656E-002 -1.3028075E-003 0.0  5.6294637E-002 -3.5732390E-003 0.0  5.6416220E-002  1.0468809E-003 0.0  5.1513352E-002  9.9822676E-004 0.0  4.5400788E-002  3.4802678E-003 0.0  5.2452759E-002 -5.5464409E-003 0.0  5.4140108E-002  5.1997810E-003 0.0  4.6977337E-002 -9.2670575E-003 0.0  5.1956251E-002  9.6524794E-003 0.0  5.4247095E-002  9.4438263E-003 0.0  4.6752755E-002  5.5859539E-003 0.0  4.3676237E-002 -1.3004181E-002 0.0  1.5968138E-002 -1.2483549E-002 0.0  5.3711925E-002 -1.2800730E-002 0.0  5.7599690E-002 -1.0726567E-002 0.0  2.8752192E-002 -1.2902447E-002 0.0  1.1495593E-002 -1.2496660E-002 0.0  1.8713137E-002 -1.2808300E-002 0.0  1.9990050E-002 -1.0626985E-002 0.0  2.3792235E-002 -1.2958612E-002 0.0  5.7929429E-002  8.6811286E-003 0.0  5.7757126E-002  3.4342481E-003 0.0  4.8750000E-002 -1.2834936E-002 0.0  5.4978125E-002 -5.7057262E-003 0.0  5.5696538E-002  7.3975588E-003 0.0  2.6127575E-002  1.2354938E-002 0.0  2.6334972E-002  1.3106036E-002 0.0  1.0867928E-002 -1.0002565E-003 0.0  1.1420066E-002 -7.8804762E-004 0.0  2.6512717E-002  9.5016914E-003 0.0  2.5907041E-002  9.5018616E-003 0.0  2.5494512E-002  2.6295043E-004 0.0  1.2522568E-003 -4.3052634E-004 0.0  9.5071871E-004 -8.8906757E-004 0.0  2.2746636E-002 -4.1034064E-004 0.0  2.5426551E-002  8.7456340E-003 0.0  2.1754703E-002 -3.9599369E-004 0.0  2.5449943E-002  7.7195967E-003 0.0  2.5421560E-002  6.7276525E-003 0.0  2.5412887E-002  4.2570147E-003 0.0  2.5872811E-002  3.9904689E-003 0.0  3.7420463E-003 -4.1312518E-004 0.0  4.7353173E-003 -4.0419747E-004 0.0  2.0250000E-002 -4.3301267E-004 0.0  5.7243653E-003 -4.5616703E-004 0.0  5.9635324E-003 -9.2726991E-004 0.0  1.9246428E-002 -4.1100810E-004 0.0  6.7500012E-003 -4.2229331E-004 0.0  8.7451563E-003 -4.1927146E-004 0.0  7.7500011E-003 -4.0414796E-004 0.0  7.9583567E-003 -8.7958468E-004 0.0  1.5738895E-002 -3.9604475E-004 0.0  1.6747158E-002 -4.5733407E-004 0.0  9.2443487E-003 -4.3545065E-004 0.0  1.0261957E-002 -4.0943341E-004 0.0  1.4244768E-002 -4.2050157E-004 0.0  1.7584641E-002 -1.0669868E-002 0.0  2.5703894E-002  1.3625760E-002 0.0  2.7887737E-002  8.4404157E-003 0.0  5.4105422E-002  1.3085812E-002 0.0  4.9318724E-002  1.3038402E-002 0.0  2.2317118E-002 -2.9686348E-003 0.0  2.8616772E-002  3.7793901E-003 0.0  2.8034895E-002  1.0464810E-002 0.0  2.7905930E-002  7.3557838E-003 0.0  2.8339547E-002  6.7753308E-003 0.0  3.3672023E-002 -1.2864551E-002 0.0  5.6125162E-002 -8.1566156E-003 0.0  5.3987243E-002  9.4118813E-004 0.0  2.5406437E-002  9.7500001E-003 0.0  3.4519090E-002 -3.6851002E-003 0.0  5.5235196E-002  3.1214165E-003 0.0  1.6929138E-002 -8.6428771E-003 0.0  2.5390381E-002  5.2996286E-003 0.0  3.5560640E-002  3.3799597E-003 0.0  4.4988454E-002 -1.0778978E-002 0.0  1.7073385E-002 -2.3174537E-003 0.0  1.7536355E-002 -8.3656837E-004 0.0  1.9462221E-002 -9.1212476E-004 0.0  1.7203444E-002 -2.9796683E-003 0.0  1.3989227E-002 -8.9285946E-004 0.0  1.5515825E-003 -8.8202967E-004 0.0  6.5118057E-003 -8.8034694E-004 0.0  5.4797659E-003 -5.2601684E-003 0.0  1.6399627E-002 -8.6806718E-004 0.0  3.0514961E-002  3.7859347E-003 0.0  3.5000015E-003 -8.7424727E-004 0.0  1.3302074E-002 -3.1659755E-003 0.0  1.1734992E-002 -3.8614587E-004 0.0  2.6067392E-002 -2.4169073E-003 0.0  2.5259260E-002 -1.0750420E-002 0.0  2.9601732E-002  1.2900664E-003 0.0  2.7939381E-002  6.1860794E-003 0.0  1.5930327E-002 -3.0721019E-003 0.0  5.6372981E-002  1.3123089E-002 0.0  2.1228006E-002 -9.7423443E-004 0.0  5.6945783E-003 -1.4728760E-003 0.0  2.7002715E-003 -7.9220862E-003 0.0  1.1855119E-002 -1.7618732E-003 0.0  3.7136105E-002  1.3058454E-002 0.0  1.6367253E-003 -3.8755475E-003 0.0  3.0335023E-002 -6.1995746E-003 0.0  2.2468508E-002 -1.1012547E-002 0.0  2.8239665E-002  4.3759557E-003 0.0  3.6028006E-002 -1.2851440E-002 0.0  2.5886894E-002  2.5275781E-003 0.0  4.1746465E-004 -7.1382639E-004 0.0  3.2627447E-002  9.6245723E-003 0.0  1.1238455E-002 -3.2495098E-003 0.0  1.2758244E-002 -4.2127006E-004 0.0  1.9102115E-002 -3.2354674E-003 0.0  2.4192171E-002 -2.7099623E-003 0.0  7.8454588E-003 -1.4806939E-003 0.0  9.5000009E-003 -8.4751308E-004 0.0  2.8685118E-002 -1.5221786E-004 0.0  2.8237956E-002 -8.3292242E-004 0.0  2.7865377E-002 -1.6880074E-003 0.0  2.5503862E-002  1.2237418E-002 0.0  2.6690314E-002 -1.3273066E-003 0.0  2.0038419E-002 -8.5857922E-003 0.0  2.2938092E-002 -8.8861984E-004 0.0  1.6740942E-002 -6.8356104E-003 0.0  2.8078763E-002 -2.4005618E-003 0.0  2.5386326E-002  1.2929480E-003 0.0  1.5243601E-002 -3.9160780E-004 0.0  2.2871688E-003 -3.0927907E-003 0.0  2.1664579E-002 -2.7839580E-003 0.0  4.0635402E-003 -4.5490563E-003 0.0  2.8242179E-002  1.1772274E-003 0.0  5.6202169E-003 -7.3536280E-003 0.0  2.7100969E-002  1.3319337E-002 0.0  1.7392412E-002 -3.8306927E-003 0.0  2.2776295E-002 -5.7536433E-003 0.0  1.7444276E-002 -1.3999690E-003 0.0  2.7566351E-002 -5.1473887E-004 0.0  3.9630763E-002 -1.0914966E-002 0.0  1.9085650E-002 -4.1401288E-003 0.0  4.0380326E-002  3.4049491E-003 0.0  2.5665932E-002 -5.7209492E-003 0.0  7.2627069E-003 -7.4743166E-003 0.0  4.5540705E-004 -1.7372868E-003 0.0  1.1420541E-002 -6.9420254E-003 0.0  1.4573821E-002 -8.0958782E-004 0.0  4.1797392E-002  5.7020229E-003 0.0  2.2924204E-002 -1.4526821E-003 0.0  2.5370203E-002  1.0678725E-002 0.0  1.6594395E-002 -3.4543800E-003 0.0  4.2783188E-002 -4.9762495E-003 0.0  2.3269984E-003 -4.0507402E-004 0.0  7.0389478E-003 -8.1219005E-004 0.0  1.3250000E-002 -3.7355512E-004 0.0  1.2500106E-002 -3.2135503E-003 0.0  9.3682988E-003 -6.4852465E-003 0.0  9.0580271E-003 -7.6808051E-003 0.0  2.0954356E-002 -6.1895990E-003 0.0  2.5381941E-002  3.2478195E-003 0.0  2.8689472E-002  1.7230484E-003 0.0  1.4643205E-002 -6.4370584E-003 0.0  2.8793436E-002 -5.5195581E-003 0.0  1.1901579E-002 -3.7021129E-003 0.0  1.8337983E-002 -3.7937122E-004 0.0  2.7661985E-003 -3.2404290E-004 0.0  3.2764873E-002 -2.8926306E-003 0.0  2.5815567E-002  8.0000001E-003 0.0  3.0871409E-002  1.2718796E-002 0.0  2.1259172E-002 -7.4183057E-003 0.0  3.8980859E-002 -2.4160421E-003 0.0  3.1174165E-002 -4.8205882E-003 0.0  2.5418674E-002  2.7440573E-003 0.0  4.1115279E-002 -1.3063770E-002 0.0  3.6373926E-002  5.4683793E-003 0.0  5.8190555E-002 -8.4501306E-003 0.0  1.2360641E-002 -2.1645836E-003 0.0  3.0664856E-002  1.0921125E-002 0.0  2.7163801E-002  9.4838664E-003 0.0  2.3726700E-002 -3.7045155E-004 0.0  2.0976358E-003 -6.5431607E-003 0.0  3.1411134E-002  9.0280622E-003 0.0  2.2476845E-002 -7.5128212E-004 0.0  1.0050440E-002 -8.4357011E-004 0.0  2.5775896E-002  6.9167694E-003 0.0  2.6451373E-002  2.3950251E-003 0.0  2.5768379E-002  1.0011047E-002 0.0  3.6231253E-002 -4.6278264E-003 0.0  3.3671683E-002  7.7879812E-003 0.0  2.8867244E-002  1.0177603E-003 0.0  1.0167615E-002 -7.1370974E-003 0.0  2.8170000E-002  7.9487452E-003 0.0  2.7592747E-002 -1.1246338E-002 0.0  5.8357491E-002 -3.6918414E-003 0.0  1.3743007E-002 -1.1155953E-002 0.0  3.0303581E-002  2.1021256E-003 0.0  3.0876085E-002  2.8418994E-003 0.0  1.9092554E-002 -7.7125023E-003 0.0  2.3041284E-002 -2.0037887E-003 0.0  4.0081621E-003 -1.7234363E-003 0.0  3.7267095E-003 -1.2794736E-003 0.0  2.5950425E-002  1.1666509E-002 0.0  5.5017168E-003 -2.0754925E-003 0.0  1.4453963E-002 -1.2839409E-003 0.0  6.3099704E-003 -1.3261472E-002 0.0  7.5783041E-003 -1.1067193E-002 0.0  4.1494772E-002  1.3258160E-002 0.0  1.0500001E-002 -7.7694787E-004 0.0  1.1282400E-002 -3.2802186E-004 0.0  1.0121368E-003 -6.0879869E-003 0.0  3.9856692E-003 -8.1988332E-004 0.0  3.4413195E-002  4.5386735E-003 0.0  5.8396436E-002  1.1376678E-003 0.0  2.9285249E-002  3.9064252E-004 0.0  5.6212064E-002  5.0270778E-003 0.0  1.1962112E-002 -7.4487032E-004 0.0  5.5269452E-002  1.1367964E-002 0.0  4.4012875E-002 -7.0675483E-003 0.0  2.5684464E-002  1.4347272E-002 0.0  2.7134963E-002 -1.6979883E-003 0.0  2.5347856E-002 -2.0251156E-004 0.0  4.4749498E-003 -7.9653478E-004 0.0  3.7663350E-002  1.1280543E-002 0.0  2.8997485E-002  5.5224121E-003 0.0  2.8700471E-002  6.1558970E-003 0.0  2.5317431E-002  1.7500001E-003 0.0  2.5784476E-002  8.9915786E-003 0.0  8.2161292E-003 -2.3743962E-003 0.0  2.5769154E-002  4.4999995E-003 0.0  7.5412079E-003 -3.4909691E-003 0.0  4.0480845E-002 -4.6984406E-003 0.0  5.3090004E-002  1.1232760E-002 0.0  5.8169873E-002 -1.3169873E-002 0.0  5.0000014E-003 -7.5848950E-004 0.0  2.6739674E-002 -2.3999796E-003 0.0  2.5776639E-002  6.5464356E-003 0.0  2.0747670E-002 -3.1039551E-004 0.0  8.4729281E-004 -1.3462641E-003 0.0  4.5154523E-002  1.1784656E-002 0.0  5.0728568E-002  1.1227035E-002 0.0  1.8271878E-002 -4.1692535E-003 0.0  1.7636245E-002 -3.6733601E-004 0.0  1.2251336E-002 -2.6733231E-003 0.0  1.9000000E-002 -7.4991331E-004 0.0  5.8307723E-002  1.3307458E-002 0.0  2.5294683E-002  5.7500003E-003 0.0  1.4383896E-002 -1.7540558E-003 0.0  1.6174604E-003 -1.3382321E-002 0.0  3.2671073E-002  6.9796013E-003 0.0  1.9917844E-002 -8.2210353E-004 0.0  4.8370967E-002  1.1289486E-002 0.0  2.8826090E-002 -2.5645500E-003 0.0  3.5580160E-004 -3.4921912E-004 0.0  1.3509889E-002 -7.2891742E-004 0.0  8.4677140E-003 -7.7499987E-004 0.0  1.8501643E-002 -8.9754062E-003 0.0  2.5838661E-002  6.6593357E-004 0.0  3.2862767E-002 -4.6014543E-003 0.0  5.6184022E-002  9.6274575E-003 0.0  1.5024158E-002 -7.1273319E-004 0.0  3.1940347E-002  1.0743555E-002 0.0  2.7860724E-002  9.4432456E-003 0.0  1.7419771E-002 -1.9414678E-003 0.0  4.7620106E-002 -1.1311916E-002 0.0  1.9901126E-002 -1.3330743E-003 0.0  9.8734452E-003 -1.3599288E-003 0.0  2.7665639E-002 -1.0883631E-003 0.0  2.9257020E-002 -6.7275921E-003 0.0  2.1574657E-002 -7.7411298E-004 0.0  1.5953543E-002 -7.3657745E-004 0.0  7.5000012E-003 -7.2993440E-004 0.0  4.5073798E-002 -8.7117183E-003 0.0  2.2000000E-002 -7.2720474E-004 0.0  2.6997758E-002  2.2706031E-003 0.0  1.1161434E-003 -3.4179270E-003 0.0  3.0000000E-002 -1.1499522E-002 0.0  4.6064671E-003 -5.2070499E-003 0.0  2.1905890E-002 -6.4034248E-003 0.0  4.4795162E-002  1.3365692E-002 0.0  7.5260583E-003 -4.0527785E-003 0.0  2.3393732E-002 -7.6760884E-004 0.0  2.4551519E-002 -3.3403048E-003 0.0  2.9409300E-002 -1.6173804E-003 0.0  2.8989916E-002  4.3350506E-003 0.0  3.1416366E-002  1.9810291E-003 0.0  2.3671871E-002 -2.9073060E-003 0.0  3.7635316E-003 -2.1894187E-003 0.0  4.1021041E-002  1.1632642E-002 0.0  4.9902921E-002 -1.1456007E-002 0.0  2.1873766E-002 -3.4267535E-003 0.0  2.7176178E-002 -3.0341507E-003 0.0  2.9125003E-002  6.6953675E-003 0.0  8.1350841E-003 -3.2963986E-003 0.0  1.5317264E-002 -3.3901104E-003 0.0  2.8311011E-002  8.8952071E-003 0.0  2.5736943E-002 -6.9679598E-003 0.0  5.8969011E-003 -2.5157237E-003 0.0  2.5710779E-002  3.4936642E-003 0.0  2.8149385E-002  9.9179080E-003 0.0  2.7361671E-003  1.0410336E-002 0.0  6.2440213E-004  1.2507688E-002 0.0  4.4432282E-003  1.2592290E-002 0.0  7.9919477E-004  1.4217094E-002 0.0  1.7890826E-003  1.0424936E-002 0.0  3.7112191E-003  1.0424510E-002 0.0  4.2259697E-003  1.4236547E-002 0.0  3.9813912E-003  1.6534184E-002 0.0  3.9652207E-003  1.0923273E-001 0.0  3.8983138E-003  1.9124407E-002 0.0  3.9066935E-003  2.1368882E-002 0.0  3.9750463E-003  2.3936015E-002 0.0  3.8984760E-003  2.6557259E-002 0.0  3.9062978E-003  2.8800501E-002 0.0  3.9750109E-003  3.1365999E-002 0.0  4.0088191E-003  3.3799750E-002 0.0  3.9058942E-003  3.6232120E-002 0.0  3.9749636E-003  3.8795983E-002 0.0  4.0089929E-003  4.1231199E-002 0.0  3.9054827E-003  4.3663737E-002 0.0  3.9749046E-003  4.6225968E-002 0.0  4.0091588E-003  4.8662640E-002 0.0  3.9050632E-003  5.1095354E-002 0.0  3.9748337E-003  5.3655952E-002 0.0  4.0093168E-003  5.6094075E-002 0.0  3.9046358E-003  5.8526969E-002 0.0  3.9747510E-003  6.1085936E-002 0.0  4.0094669E-003  6.3525503E-002 0.0  4.3540783E-004  1.1282725E-002 0.0  3.9042004E-003  6.5958583E-002 0.0  4.0095624E-003  6.8479784E-002 0.0  3.9039058E-003  7.0912991E-002 0.0  3.9745870E-003  7.3469244E-002 0.0  3.9745503E-003  7.5945905E-002 0.0  4.0097426E-003  7.8388339E-002 0.0  3.9033058E-003  8.0821807E-002 0.0  3.9744322E-003  8.3375889E-002 0.0  3.9743902E-003  8.5852551E-002 0.0  3.9743469E-003  8.8329212E-002 0.0  4.0099474E-003  9.0774016E-002 0.0  4.0403929E-003  9.3202195E-002 0.0  3.9742091E-003  9.5759197E-002 0.0  3.9741605E-003  9.8235858E-002 0.0  4.0100945E-003  1.0068255E-001 0.0  4.0080131E-003  1.0313357E-001 0.0  3.9740070E-003  1.0566584E-001 0.0  3.7253616E-003  1.1159026E-001 0.0  1.0270388E-003  1.0705634E-001 0.0  1.0763403E-003  1.1325580E-001 0.0  4.4870281E-003  1.1287882E-002 0.0  1.0105522E-003  1.7754789E-002 0.0  1.0763403E-003  2.0244025E-002 0.0  1.0740428E-003  2.2722890E-002 0.0  1.0259823E-003  2.5203285E-002 0.0  1.0763403E-003  2.7685212E-002 0.0  1.0740428E-003  3.0164077E-002 0.0  1.0260197E-003  3.2644472E-002 0.0  1.0763403E-003  3.5126399E-002 0.0  1.0740428E-003  3.7605263E-002 0.0  1.0260689E-003  4.0085659E-002 0.0  1.0763403E-003  4.2567586E-002 0.0  1.0740428E-003  4.5046450E-002 0.0  1.0261299E-003  4.7526846E-002 0.0  1.0763403E-003  5.0008773E-002 0.0  1.0740428E-003  5.2487637E-002 0.0  1.0262028E-003  5.4968033E-002 0.0  1.0763403E-003  5.7449960E-002 0.0  1.0740428E-003  5.9928824E-002 0.0  1.0262874E-003  6.2409220E-002 0.0  1.0763403E-003  6.4891146E-002 0.0  1.0740428E-003  6.7370011E-002 0.0  1.0763403E-003  6.9851938E-002 0.0  1.0740428E-003  7.2330802E-002 0.0  1.0264547E-003  7.4811198E-002 0.0  1.0264921E-003  7.7291593E-002 0.0  1.0763403E-003  7.9773520E-002 0.0  1.0740428E-003  8.2252384E-002 0.0  1.0266122E-003  8.4732780E-002 0.0  1.0266548E-003  8.7213176E-002 0.0  1.0266988E-003  8.9693571E-002 0.0  1.0763403E-003  9.2175498E-002 0.0  1.0740428E-003  9.4654363E-002 0.0  1.0268385E-003  9.7134758E-002 0.0  1.0268878E-003  9.9615154E-002 0.0  1.0763403E-003  1.0209708E-001 0.0  1.0740428E-003  1.0457594E-001 0.0  1.0763403E-003  1.0953520E-001 0.0  2.9150966E-003  1.1517372E-001 0.0  1.1325996E-003  1.1695398E-001 0.0  2.2023745E-003  1.1876646E-001 0.0  7.2022947E-004  1.0426106E-002 0.0  1.0476139E-003  1.2082685E-001 0.0  1.6709604E-003  1.2197015E-001 0.0  8.5104132E-004  1.5240263E-002 0.0  1.7010263E-003  1.4661777E-002 0.0  1.7806695E-003  1.5763291E-002 0.0  1.5287008E-003  1.3576992E-002 0.0  2.4683463E-003  1.4050484E-002 0.0  2.3786024E-003  1.3162623E-002 0.0  3.1366571E-003  1.3479130E-002 0.0  3.0231053E-003  1.2676067E-002 0.0  2.3588437E-003  1.2385967E-002 0.0  2.9537200E-003  1.1961070E-002 0.0  2.3454897E-003  1.1692406E-002 0.0  1.7905171E-003  1.2038431E-002 0.0  1.7704840E-003  1.1426864E-002 0.0  2.8868549E-003  1.1352241E-002 0.0  3.4385390E-003  1.1578365E-002 0.0  1.2599393E-003  1.1723196E-002 0.0  1.2705290E-003  1.1144035E-002 0.0  3.4289519E-003  1.0948511E-002 0.0  2.2990741E-003  1.1080624E-002 0.0  3.9245615E-003  1.1191060E-002 0.0  3.9873078E-003  1.1765059E-002 0.0  4.3003626E-003  1.0768966E-002 0.0  1.7331224E-003  1.2724515E-002 0.0  2.6588567E-003  1.5043966E-002 0.0  3.8870031E-003  1.5264907E-002 0.0  6.7025482E-004  1.3308668E-002 0.0  4.3695265E-003  1.3353979E-002 0.0  4.8306273E-004  1.1847009E-002 0.0  1.0687485E-003  1.1942483E-001 0.0  1.0183551E-003  2.6443738E-002 0.0  2.1762876E-003  2.6930773E-002 0.0  2.1876471E-003  2.8411608E-002 0.0  3.2194091E-003  2.7678519E-002 0.0  1.0335534E-003  1.1449727E-001 0.0  2.1565746E-003  1.1387743E-001 0.0  2.1533818E-003  1.1262804E-001 0.0  1.0754063E-003  1.1077591E-001 0.0  2.1304648E-003  1.1015605E-001 0.0  2.0173460E-003  1.0894489E-001 0.0  1.0183988E-003  3.3884925E-002 0.0  2.1765230E-003  3.4370020E-002 0.0  2.1871940E-003  3.5850005E-002 0.0  3.1863937E-003  3.5191558E-002 0.0  1.0267333E-003  6.8610464E-002 0.0  2.1789620E-003  6.9086427E-002 0.0  2.1762462E-003  7.0538833E-002 0.0  3.1999895E-003  6.9892145E-002 0.0  1.0185274E-003  4.8767299E-002 0.0  2.1770404E-003  4.9248496E-002 0.0  2.1769105E-003  5.0701001E-002 0.0  3.1854274E-003  5.0068191E-002 0.0  1.0361817E-003  1.1573369E-001 0.0  2.1087977E-003  1.1619430E-001 0.0  1.0191910E-003  9.0934024E-002 0.0  2.0678074E-003  9.1606945E-002 0.0  2.0287259E-003  9.2885650E-002 0.0  3.1400622E-003  9.2333251E-002 0.0  1.0108662E-003  8.8453373E-002 0.0  2.0834774E-003  8.9019860E-002 0.0  1.0189499E-003  7.8532046E-002 0.0  2.1782604E-003  7.9005379E-002 0.0  2.1757616E-003  8.0457745E-002 0.0  3.1997446E-003  7.9811771E-002 0.0  1.0108091E-003  8.5972978E-002 0.0  2.0834258E-003  8.6541065E-002 0.0  1.0184562E-003  4.1326112E-002 0.0  2.1767739E-003  4.1809261E-002 0.0  2.1867523E-003  4.3288399E-002 0.0  3.1861974E-003  4.2630659E-002 0.0  1.0186123E-003  5.6208486E-002 0.0  2.1773224E-003  5.6687725E-002 0.0  2.1766112E-003  5.8140190E-002 0.0  3.2001691E-003  5.7492606E-002 0.0  1.0310684E-003  8.1023385E-002 0.0  1.0105982E-003  7.6051395E-002 0.0  2.0832352E-003  7.6625884E-002 0.0  1.0187111E-003  6.3649673E-002 0.0  2.1776197E-003  6.4126948E-002 0.0  2.1763200E-003  6.5579377E-002 0.0  3.2000294E-003  6.4932330E-002 0.0  1.0182986E-003  6.1169022E-002 0.0  2.0841340E-003  6.1753113E-002 0.0  1.0309047E-003  5.8700825E-002 0.0  1.0194115E-003  1.0085561E-001 0.0  2.0683844E-003  1.0152792E-001 0.0  2.0645504E-003  1.0278184E-001 0.0  3.1682013E-003  1.0220841E-001 0.0  1.0111120E-003  9.8374956E-002 0.0  2.0836992E-003  9.8935041E-002 0.0  1.0309462E-003  6.6141679E-002 0.0  1.0182038E-003  5.3727835E-002 0.0  2.0840375E-003  5.4316727E-002 0.0  1.0181228E-003  4.6286648E-002 0.0  2.1301096E-003  4.6897124E-002 0.0  9.9638294E-004  1.0830099E-001 0.0  1.0189233E-003  9.5894560E-002 0.0  2.0847665E-003  9.6456246E-002 0.0  1.0186657E-003  8.3492582E-002 0.0  2.0845061E-003  8.4062270E-002 0.0  1.0184873E-003  7.3571000E-002 0.0  2.0843254E-003  7.4147089E-002 0.0  1.0308763E-003  5.1259971E-002 0.0  1.0324500E-003  4.3823549E-002 0.0  1.0179624E-003  2.3963088E-002 0.0  2.1565746E-003  2.4583186E-002 0.0  1.0191561E-003  1.0581614E-001 0.0  2.0849883E-003  1.0637141E-001 0.0  1.0740428E-003  9.3414165E-002 0.0  1.0310004E-003  7.1102247E-002 0.0  1.0751015E-003  1.1201441E-001 0.0  1.0324688E-003  3.6382827E-002 0.0  1.0325013E-003  2.8942105E-002 0.0  1.0304010E-003  1.0334381E-001 0.0  1.0180021E-003  3.1404274E-002 0.0  2.1565746E-003  3.2024373E-002 0.0  1.0157579E-003  1.9001333E-002 0.0  2.1757012E-003  1.9491345E-002 0.0  2.1880592E-003  2.0973184E-002 0.0  3.2375064E-003  2.0249854E-002 0.0  1.0325386E-003  2.1501379E-002 0.0  1.0180555E-003  3.8845461E-002 0.0  2.1565746E-003  3.9465560E-002 0.0  3.9357708E-003  1.0812364E-001 0.0  3.9275741E-003  8.2137559E-002 0.0  2.8450424E-003  8.2756724E-002 0.0  3.9470273E-003  1.0441824E-001 0.0  2.8311714E-003  1.0507394E-001 0.0  3.9275741E-003  3.7557653E-002 0.0  2.8450424E-003  3.8176818E-002 0.0  3.9900445E-003  8.4614220E-002 0.0  2.8971332E-003  8.5269965E-002 0.0  3.9275741E-003  7.2230913E-002 0.0  2.8450424E-003  7.2850078E-002 0.0  3.9960744E-003  7.7178531E-002 0.0  2.8450424E-003  7.7803401E-002 0.0  3.9964578E-003  3.2597178E-002 0.0  2.8450424E-003  3.3223495E-002 0.0  3.9902519E-003  7.4707574E-002 0.0  2.8972676E-003  7.5358747E-002 0.0  3.9524576E-003  9.4507476E-002 0.0  2.8353559E-003  9.5157289E-002 0.0  3.9275741E-003  1.7744361E-002 0.0  2.9060855E-003  1.7354554E-002 0.0  2.8899464E-003  1.8438988E-002 0.0  3.9963341E-003  5.4887860E-002 0.0  2.8450424E-003  5.5513448E-002 0.0  3.9962627E-003  6.2318085E-002 0.0  2.8450424E-003  6.2943433E-002 0.0  3.9275741E-003  5.9847606E-002 0.0  2.8450424E-003  6.0466771E-002 0.0  3.9275741E-003  2.2697684E-002 0.0  2.8450424E-003  2.3316849E-002 0.0  3.9958712E-003  8.9562234E-002 0.0  3.0259352E-003  8.9975342E-002 0.0  3.9275741E-003  4.4987637E-002 0.0  2.8450424E-003  4.5606802E-002 0.0  3.9275741E-003  5.2417621E-002 0.0  2.8450424E-003  5.3036787E-002 0.0  3.9897460E-003  9.6997527E-002 0.0  2.8969400E-003  9.7658988E-002 0.0  3.9275741E-003  6.7277590E-002 0.0  2.8450424E-003  6.7896755E-002 0.0  3.9963904E-003  4.7457634E-002 0.0  2.8450424E-003  4.8083464E-002 0.0  3.9964317E-003  4.0027406E-002 0.0  2.8450424E-003  4.0653480E-002 0.0  3.9275741E-003  3.0127668E-002 0.0  2.8450424E-003  3.0746834E-002 0.0  3.9831009E-003  1.0690101E-001 0.0  2.9585811E-003  1.0736764E-001 0.0  3.9899883E-003  8.7090882E-002 0.0  2.8969355E-003  8.7747770E-002 0.0  3.9956783E-003  9.9469193E-002 0.0  3.0263185E-003  9.9888150E-002 0.0  3.9781086E-003  2.5198443E-002 0.0  2.8579695E-003  2.5788275E-002 0.0  1.2527259E-003  1.0557437E-002 0.0  3.2155568E-003  1.0440598E-002 0.0  2.2544800E-003  1.0417298E-002 0.0  2.9083275E-003  3.6870758E-002 0.0  2.8808204E-003  8.1489628E-002 0.0  2.9079707E-003  4.4302958E-002 0.0  2.8914199E-003  7.1569308E-002 0.0  2.8918033E-003  5.9183288E-002 0.0  2.9764253E-003  9.3686687E-002 0.0  2.8915677E-003  6.6614900E-002 0.0  2.8920427E-003  5.1751675E-002 0.0  2.9802826E-003  1.0359531E-001 0.0  2.9086900E-003  2.9438558E-002 0.0  2.9090539E-003  2.2006354E-002 0.0  2.1163426E-003  1.1139275E-001 0.0  1.1370364E-003  1.2311873E-001 0.0  3.2783699E-003  1.1284556E-001 0.0  1.1518060E-003  1.1817265E-001 0.0  1.0304840E-003  1.2451200E-001 0.0  3.3579181E-003  1.4324113E-002 0.0  3.5298537E-003  1.2187457E-002 0.0  3.7565333E-003  1.2893014E-002 0.0  2.5071133E-003  1.1745436E-001 0.0  4.0244986E-004  1.0765692E-002 0.0  4.5178849E-003  1.1925875E-002 0.0  9.1179838E-004  1.6476364E-002 0.0  3.3184385E-003  1.1400028E-001 0.0  1.2728392E-003  1.2332135E-002 0.0  9.1664087E-004  1.2573611E-001 0.0  2.0533560E-003  1.2000699E-001 0.0  3.8903844E-003  1.1038522E-001 0.0  1.6859861E-003  1.0915280E-002 0.0  2.8404222E-003  1.6169490E-002 0.0  2.8799778E-003  1.0843794E-002 0.0  4.1969472E-003  1.0378928E-002 0.0  8.3270523E-004  1.0934384E-002 0.0  7.9723119E-004  1.2695925E-001 0.0  1.8285273E-003  1.7056038E-002 0.0  1.8500408E-003  1.1509528E-001 0.0  2.0602684E-003  1.2103139E-001 0.0  2.9707537E-003  1.0959771E-001 0.0  1.9729548E-003  1.0409448E-001 0.0  1.9741128E-003  9.4178769E-002 0.0  2.9424433E-003  1.1083381E-001 0.0  4.1558147E-003  1.0191277E-001 0.0  1.9435879E-003  8.1758314E-002 0.0  1.9445356E-003  7.1839031E-002 0.0  4.1305295E-003  9.1990339E-002 0.0  1.9443927E-003  6.6880074E-002 0.0  1.9442300E-003  5.9441638E-002 0.0  1.9440989E-003  5.2003202E-002 0.0  4.1527038E-003  7.9613199E-002 0.0  1.8991245E-003  1.0769629E-001 0.0  1.9830413E-003  4.4622451E-002 0.0  1.7964627E-003  1.0518638E-001 0.0  1.9831204E-003  3.7185172E-002 0.0  3.1663697E-003  1.0627597E-001 0.0  1.9832165E-003  2.9747893E-002 0.0  1.9833186E-003  2.2310607E-002 0.0  4.1532191E-003  6.9704821E-002 0.0  1.9937739E-003  1.0030218E-001 0.0  1.8206712E-003  9.7711998E-002 0.0  4.1534419E-003  6.4750631E-002 0.0  3.1953593E-003  9.8837446E-002 0.0  1.7974402E-003  9.5268245E-002 0.0  3.1562035E-003  9.6405849E-002 0.0  4.1537435E-003  5.7319342E-002 0.0  1.9930095E-003  9.0382910E-002 0.0  1.8202719E-003  8.7795049E-002 0.0  4.1530964E-003  4.9888980E-002 0.0  1.8204973E-003  8.5315812E-002 0.0  3.1953132E-003  8.8926884E-002 0.0  4.1533467E-003  4.2457819E-002 0.0  1.7931690E-003  8.2864455E-002 0.0  3.1683746E-003  8.6500447E-002 0.0  3.1582317E-003  8.4015814E-002 0.0  4.1535174E-003  3.5026559E-002 0.0  1.8303960E-003  7.7851661E-002 0.0  4.2270552E-003  2.7651007E-002 0.0  1.8203762E-003  7.5398863E-002 0.0  4.2272740E-003  2.0221023E-002 0.0  1.7932867E-003  7.2947600E-002 0.0  3.1592340E-003  7.6582494E-002 0.0  3.1582949E-003  7.4106546E-002 0.0  1.8138346E-003  6.7968746E-002 0.0  1.8303589E-003  6.2976477E-002 0.0  1.7931496E-003  6.0551874E-002 0.0  3.1483156E-003  6.1705102E-002 0.0  1.8302435E-003  5.5538884E-002 0.0  1.7930851E-003  5.3114438E-002 0.0  1.8393699E-003  4.8104646E-002 0.0  3.1488117E-003  5.4275117E-002 0.0  1.8100718E-003  4.5691895E-002 0.0  1.8445832E-003  4.0668014E-002 0.0  1.8153671E-003  3.8255655E-002 0.0  3.1582979E-003  4.6854198E-002 0.0  1.8445117E-003  3.3229457E-002 0.0  1.8153757E-003  3.0817490E-002 0.0  3.1636109E-003  3.9423850E-002 0.0  1.8470338E-003  2.5789852E-002 0.0  1.8153881E-003  2.3379324E-002 0.0  1.9123122E-003  1.8280485E-002 0.0  3.1636256E-003  3.1991576E-002 0.0  3.1625483E-003  2.4564554E-002 0.0  8.9763867E-004  1.1453659E-002 0.0  1.1382545E-003  1.2878840E-002 0.0  3.0029608E-003  1.0847988E-001 0.0  3.0670002E-003  1.0115185E-001 0.0  3.6567295E-004  1.0366229E-002 0.0  4.6375950E-003  1.0362761E-002 0.0  3.0639348E-003  9.1219120E-002 0.0  4.6849971E-003  1.0789716E-002 0.0  3.1718960E-003  7.8881290E-002 0.0  3.1710364E-003  6.8966083E-002 0.0  3.1704286E-003  6.4008465E-002 0.0  3.1377373E-003  5.6557314E-002 0.0  3.1673793E-003  4.9137214E-002 0.0  3.1347961E-003  4.1684441E-002 0.0  3.1338997E-003  3.4247335E-002 0.0  3.0449506E-003  2.6751856E-002 0.0  3.0503670E-003  1.9326149E-002 0.0  3.0459815E-003  2.1159550E-002 0.0  2.4436417E-003  1.0704072E-002 0.0  6.9027568E-004  1.2810276E-001 0.0  3.0372738E-003  2.8597872E-002 0.0  3.8022990E-003  1.3706135E-002 0.0  4.0423936E-003  1.2257993E-002 0.0  3.9051794E-003  1.0797578E-002 0.0  3.0469523E-003  3.6036110E-002 0.0  5.3001200E-004  1.2938803E-001 0.0  3.0527682E-003  1.1633997E-001 0.0  3.0466008E-003  4.3471438E-002 0.0  2.8309883E-003  1.1196743E-001 0.0  2.0944529E-003  1.0708442E-002 0.0  3.0398610E-003  5.0904055E-002 0.0  3.0433048E-003  5.8335763E-002 0.0  3.0430294E-003  6.5771298E-002 0.0  3.0428903E-003  7.0728319E-002 0.0  7.3441911E-004  1.2195294E-001 0.0  9.1948594E-004  1.2018738E-002 0.0  3.0399081E-003  8.0645238E-002 0.0  8.3729567E-002 -1.7153267E-002 0.0  5.6250000E-002 -1.7165064E-002 0.0  6.8490068E-002 -2.2790464E-002 0.0  4.3750000E-002 -2.2834936E-002 0.0  2.5990068E-002 -2.2790464E-002 0.0  3.1250000E-002 -2.2664998E-002 0.0  5.1053013E-002 -2.2807208E-002 0.0  6.3750000E-002 -1.7165064E-002 0.0  3.8474218E-002 -1.7113088E-002 0.0  1.8750000E-002 -1.7165064E-002 0.0  7.3750000E-002 -1.7165064E-002 0.0  7.8750000E-002 -1.7165064E-002 0.0  6.2500000E-003 -2.2940864E-002 0.0  1.3490068E-002 -1.7209536E-002 0.0  2.1250000E-002 -2.2834936E-002 0.0  6.1250000E-002 -2.2834936E-002 0.0  4.6250000E-002 -1.7165064E-002 0.0  3.6250000E-002 -2.2834936E-002 0.0  8.1250000E-002 -2.2834936E-002 0.0  3.3946987E-002 -1.7192792E-002 0.0  2.8750000E-002 -1.7059136E-002 0.0  8.9469874E-003 -1.7192792E-002 0.0  2.3750000E-002 -1.7165064E-002 0.0  1.1250000E-002 -2.2834936E-002 0.0  7.6509932E-002 -2.2790464E-002 0.0  1.6525782E-002 -2.2886912E-002 0.0  5.6250000E-002 -2.2834936E-002 0.0  5.1446987E-002 -1.7192792E-002 0.0  6.8946987E-002 -1.7192792E-002 0.0  8.6012174E-002 -2.2886904E-002 0.0  2.5445084E-003 -1.8845920E-002 0.0  8.7601803E-002 -1.8975328E-002 0.0  8.1246595E-002 -1.7163097E-002 0.0  8.2496027E-002 -1.9221905E-002 0.0  8.4952405E-002 -1.9147555E-002 0.0  8.3674319E-002 -2.1338112E-002 0.0  7.9998770E-002 -1.9205835E-002 0.0  7.7554178E-002 -1.9288928E-002 0.0  7.8750000E-002 -2.1495191E-002 0.0  6.1250000E-002 -1.7165064E-002 0.0  6.2500000E-002 -1.9224199E-002 0.0  6.5000000E-002 -1.9312472E-002 0.0  6.0208333E-002 -1.9068992E-002 0.0  6.3750000E-002 -2.1495191E-002 0.0  6.6448874E-002 -2.1315472E-002 0.0  4.3750000E-002 -1.7165064E-002 0.0  4.5000000E-002 -1.9224199E-002 0.0  4.7500000E-002 -1.9312472E-002 0.0  4.2224218E-002 -1.9263018E-002 0.0  4.6250000E-002 -2.1495191E-002 0.0  4.8887971E-002 -2.1371609E-002 0.0  2.1250000E-002 -1.7165064E-002 0.0  2.0000000E-002 -1.9224199E-002 0.0  1.7613413E-002 -1.9246994E-002 0.0  1.8789778E-002 -2.1463922E-002 0.0  1.3795964E-002 -2.2949527E-002 0.0  1.2701678E-002 -2.0653838E-002 0.0  9.7688791E-003 -2.0623110E-002 0.0  1.1250000E-002 -1.8504809E-002 0.0  2.2500000E-002 -1.9206545E-002 0.0  2.5196987E-002 -1.9345245E-002 0.0  2.3750000E-002 -2.1495191E-002 0.0  7.1206678E-002 -2.2827524E-002 0.0  7.0045888E-002 -2.0701711E-002 0.0  7.2500428E-002 -2.0779872E-002 0.0  7.1250000E-002 -1.8504809E-002 0.0  3.8750000E-002 -2.2834936E-002 0.0  3.7386587E-002 -2.0735352E-002 0.0  3.5000000E-002 -2.0669873E-002 0.0  3.6250000E-002 -1.8504809E-002 0.0  3.9981401E-002 -2.0656267E-002 0.0  3.1250000E-002 -1.7165064E-002 0.0  2.9724218E-002 -1.9263018E-002 0.0  3.2297026E-002 -1.9073488E-002 0.0  5.8636587E-002 -2.2900415E-002 0.0  5.7337689E-002 -2.0851583E-002 0.0  5.4972948E-002 -2.0806086E-002 0.0  4.1158073E-002 -1.7039288E-002 0.0  3.3863413E-002 -2.2872092E-002 0.0  7.3750000E-002 -2.2834936E-002 0.0  7.4835060E-002 -2.0924275E-002 0.0  4.9891066E-002 -1.9218362E-002 0.0  3.7605934E-003 -2.2889504E-002 0.0  4.9519911E-003 -2.0734144E-002 0.0  2.8593265E-002 -2.2864680E-002 0.0  2.7429220E-002 -2.0726209E-002 0.0  5.3750000E-002 -2.2834936E-002 0.0  5.2587242E-002 -2.0749278E-002 0.0  5.3750000E-002 -1.8504809E-002 0.0  7.6372442E-002 -1.7092718E-002 0.0  5.8898135E-002 -1.7056062E-002 0.0  8.7114798E-003 -2.2950725E-002 0.0  4.1133487E-002 -2.2898148E-002 0.0  6.6282831E-002 -1.7166742E-002 0.0  4.8764676E-002 -1.7148115E-002 0.0  1.6250000E-002 -1.7165064E-002 0.0  1.5000000E-002 -1.9330127E-002 0.0  2.6282831E-002 -1.7044001E-002 0.0  6.7381608E-002 -1.9157984E-002 0.0  6.3056893E-003 -1.7052825E-002 0.0  7.4783787E-003 -1.9300186E-002 0.0  8.6158941E-002 -1.7017713E-002 0.0  2.1563690E-003 -2.1291097E-002 0.0  3.8658130E-003 -1.6904770E-002 0.0  8.7936259E-002 -2.1273071E-002 0.0  7.4321457E-003 -2.1309806E-002 0.0  6.5823157E-002 -2.3178605E-002 0.0  8.3750000E-002 -2.3470503E-002 0.0  6.1361122E-002 -2.0772187E-002 0.0  5.6141588E-002 -1.9220793E-002 0.0  2.7476651E-002 -1.8687522E-002 0.0  5.3750000E-002 -1.6529497E-002 0.0  1.1250000E-002 -1.6529497E-002 0.0  4.3808748E-002 -2.0776018E-002 0.0  4.6250000E-002 -2.3560126E-002 0.0  3.1201147E-002 -2.0740122E-002 0.0  3.9993253E-002 -1.8657865E-002 0.0  2.1257956E-002 -2.0844959E-002 0.0  6.3664631E-002 -2.3501746E-002 0.0  2.3750000E-002 -2.3470503E-002 0.0  8.1233823E-002 -2.0819196E-002 0.0  7.8750000E-002 -2.3470503E-002 0.0  3.6250000E-002 -1.6529497E-002 0.0  4.8323497E-002 -2.3205689E-002 0.0  7.1250000E-002 -1.6529497E-002 0.0  1.8750000E-002 -2.3470503E-002 0.0  1.4995296E-002 -2.1345799E-002 0.0  7.3645138E-002 -1.9227432E-002 0.0  5.0292761E-003 -1.8567569E-002 0.0  1.8301270E-003 -2.3169873E-002 0.0  1.7957965E-003 -1.6701563E-002 0.0  8.8169873E-002 -1.6830127E-002 0.0  8.8169873E-002 -2.3169873E-002 0.0  8.6022772E-002 -2.0832517E-002 0.0  5.8070049E-002 -1.9032696E-002 0.0  9.3950604E-003 -1.8901530E-002 0.0  2.5657333E-002 -2.1069652E-002 0.0  5.1827884E-002 -1.9063801E-002 0.0  4.2179571E-002 -2.1285678E-002 0.0  3.4353535E-002 -1.9002602E-002 0.0  5.9432219E-002 -2.0953738E-002 0.0  1.3180476E-002 -1.8937254E-002 0.0  7.6763549E-002 -2.0925893E-002 0.0  5.0712336E-002 -2.0867488E-002 0.0  3.3085431E-002 -2.0947669E-002 0.0  2.9639570E-002 -2.1251805E-002 0.0  6.8227047E-002 -2.0935173E-002 0.0  6.9335662E-002 -1.9043751E-002 0.0  3.8417092E-002 -1.9133476E-002 0.0  1.6584854E-002 -2.0854751E-002 0.0  7.5581625E-002 -1.9022355E-002 0.0  6.4444065E-003  1.0948030E-001 0.0  3.8619969E-003  1.2383173E-001 0.0  6.2915860E-003  9.5100994E-002 0.0  6.1931572E-003  8.2933628E-002 0.0  6.1931755E-003  7.1788652E-002 0.0  6.1563422E-003  6.1882006E-002 0.0  6.1563413E-003  5.1975360E-002 0.0  5.6389911E-002  1.7084286E-002 0.0  6.0239551E-003  4.2758642E-002 0.0  8.5699365E-003  1.4672973E-001 0.0  2.5455109E-002  1.5793030E-002 0.0  4.6779544E-003  1.1615520E-001 0.0  1.6264841E-002  1.0464689E-002 0.0  4.2769315E-002  1.7259049E-002 0.0  6.3917722E-003  3.4481998E-002 0.0  1.3747612E-002  1.0446720E-002 0.0  9.2732900E-002 -2.1018003E-002 0.0  2.1465989E-003  1.2943382E-001 0.0  6.6272635E-003  1.0337882E-001 0.0  6.2253371E-003  8.9075895E-002 0.0  6.2691991E-002  1.3399461E-002 0.0  6.2673343E-002  1.7566176E-002 0.0  2.4390441E-002  1.5954526E-002 0.0  2.5402417E-002  1.6997877E-002 0.0  6.1563434E-003  2.8447077E-002 0.0  6.0724259E-003  2.0221023E-002 0.0  1.1750000E-002  1.0405975E-002 0.0  1.8273240E-002  1.0460048E-002 0.0  2.8292478E-001  1.1708334E-001 0.0  3.2142531E-002  1.6561948E-002 0.0  4.6706167E-002 -2.7807716E-002 0.0  6.1627178E-002 -2.7807708E-002 0.0  7.6250000E-002 -2.7636725E-002 0.0  8.6289474E-002 -1.2192313E-002 0.0  1.7206951E-002  2.0517814E-001 0.0  2.8201418E-001  3.6768525E-002 0.0  3.6666667E-002 -2.7780463E-002 0.0  8.5391000E-002 -2.7406613E-002 0.0  2.5714286E-002 -2.7365530E-002 0.0  6.3491924E-003  7.7981176E-002 0.0  6.1932185E-003  4.7022038E-002 0.0  6.1931569E-003  5.6928683E-002 0.0  6.1931544E-003  6.6835329E-002 0.0  9.7709653E-003  1.0407199E-002 0.0  2.8434059E-001  2.1615606E-001 0.0  2.8083061E-001 -2.9359506E-002 0.0  1.5097246E-001  3.4637977E-001 0.0  7.5750000E-002 -1.2865416E-002 0.0  2.1303463E-002  1.0419759E-002 0.0  5.9811275E-003  1.6496182E-002 0.0  2.3702496E-002  1.7143937E-002 0.0  2.4444262E-002  1.8465360E-002 0.0  1.6959949E-001 -1.1874618E-001 0.0  6.6251494E-002  1.5648981E-002 0.0  6.7672309E-002  2.0131520E-002 0.0  8.2998820E-003  1.0426017E-002 0.0  1.9749706E-002  1.0383948E-002 0.0  1.6476175E-002  2.6036224E-001 0.0  2.2689977E-002  1.8601744E-002 0.0  2.3748163E-002  2.0384698E-002 0.0  2.4315919E-002  1.3678656E-002 0.0  6.2807687E-002  1.6271920E-003 0.0  2.8377177E-001  2.7549522E-001 0.0  6.9071013E-002 -2.7808316E-002 0.0  5.3750006E-002 -2.7170559E-002 0.0  1.8227676E-002 -2.8281836E-002 0.0  4.8688389E-002  1.7168418E-002 0.0  6.5436991E-003  2.3737925E-002 0.0  6.2759231E-003  9.9336072E-002 0.0  6.2741515E-003  3.8935056E-002 0.0  4.2460708E-003  1.2010107E-001 0.0  5.3674546E-003  1.1258637E-001 0.0  5.5070254E-003  1.3316373E-002 0.0  2.1566388E-002  2.0383490E-002 0.0  2.2755230E-002  2.2426132E-002 0.0  1.2543371E-002 -7.2536508E-002 0.0  7.3785246E-002  1.4934392E-002 0.0  7.2596686E-002  2.7707239E-002 0.0  9.0000000E-002  3.4767949E-001 0.0  1.0925110E-001 -1.1916891E-001 0.0  2.1000000E-001  3.4767949E-001 0.0  8.7607379E-002  2.0452844E-002 0.0  8.8785758E-002  3.8021507E-002 0.0  1.0474159E-001  2.7507857E-002 0.0  1.0588633E-001  4.7574001E-002 0.0  1.2303528E-001  3.7076950E-002 0.0  1.2403634E-001  5.7169385E-002 0.0  1.0709781E-001  6.7799721E-002 0.0  1.2477418E-001  7.7154973E-002 0.0  1.4171184E-001  6.6520666E-002 0.0  1.4245128E-001  8.6509186E-002 0.0  1.2551156E-001  9.7141323E-002 0.0  1.4318914E-001  1.0649594E-001 0.0  1.2624926E-001  1.1712800E-001 0.0  1.4402442E-001  1.2646312E-001 0.0  1.2700311E-001  1.3711120E-001 0.0  1.4485317E-001  1.4641302E-001 0.0  1.0931204E-001  1.2775945E-001 0.0  1.2775860E-001  1.5709098E-001 0.0  1.4540193E-001  1.6645527E-001 0.0  1.2846768E-001  1.7708558E-001 0.0  1.4628981E-001  1.8645715E-001 0.0  1.2922556E-001  1.9707593E-001 0.0  1.4705103E-001  2.0645582E-001 0.0  1.2997045E-001  2.1706503E-001 0.0  1.4764441E-001  2.2642895E-001 0.0  1.5939111E-001  7.5877143E-002 0.0  1.6357782E-001  1.7569271E-001 0.0  7.1989419E-002  4.5548449E-002 0.0  2.0516901E-002  1.8390750E-002 0.0  1.9338161E-002  2.0301628E-002 0.0  1.8499259E-002  1.8248068E-002 0.0  6.2807687E-002 -5.8728080E-003 0.0  2.2731185E-002  1.0477342E-002 0.0  1.3068006E-001  2.3704807E-001 0.0  1.1289485E-002 -2.7807705E-002 0.0  2.3000000E-001 -1.1767949E-001 0.0  6.7500003E-003  1.0433013E-002 0.0  1.4835806E-001  2.4640355E-001 0.0  1.6529331E-001  2.3578080E-001 0.0  1.7139720E-002  2.0158498E-002 0.0  1.6268122E-002  1.8199307E-002 0.0  2.1544823E-003  1.3480499E-001 0.0  1.2100415E-001  1.7233150E-002 0.0  7.0249569E-003 -4.7381158E-002 0.0  1.1300364E-001  2.2769308E-001 0.0  1.1373476E-001  2.4767836E-001 0.0  1.6603089E-001  2.5575773E-001 0.0  1.8297005E-001  2.4512573E-001 0.0  2.5803078E-002  2.2073809E-002 0.0  2.4041458E-002  2.5334910E-002 0.0  2.7691879E-002  2.4961974E-002 0.0  2.6160219E-002  2.8674492E-002 0.0  3.0345985E-002  2.8332395E-002 0.0  2.8347439E-002  3.4096518E-002 0.0  2.4565452E-002  1.1710190E-002 0.0  1.7367726E-002  1.6869307E-002 0.0  1.5608427E-002  1.6539313E-002 0.0  1.4480750E-002  1.7925024E-002 0.0  1.4037493E-002  1.6381410E-002 0.0  1.4819033E-002  1.5270431E-002 0.0  1.3508245E-002  1.4922671E-002 0.0  1.2695140E-002  1.6038284E-002 0.0  1.2268691E-002  1.4825064E-002 0.0  1.1664801E-002  1.6814779E-001 0.0  2.3756888E-002  1.5478317E-001 0.0  1.8370733E-001  2.6511003E-001 0.0  1.3987183E-001  2.6465217E-002 0.0  1.3855885E-001  7.2031022E-003 0.0  1.5688112E-001  1.5889318E-002 0.0  1.5603532E-001 -4.0945520E-003 0.0  1.7388192E-001  5.0921516E-003 0.0  1.7303466E-001 -1.4928617E-002 0.0  1.5477255E-001 -2.4453553E-002 0.0  1.9078768E-001 -5.6971718E-003 0.0  1.9167187E-001  1.4312751E-002 0.0  1.8993862E-001 -2.5684096E-002 0.0  1.6093869E-001  1.1583250E-001 0.0  1.1079112E-001  1.6773087E-001 0.0  1.4909095E-001  2.6638810E-001 0.0  2.8324173E-001  1.5552263E-001 0.0  7.1451672E-002 -1.1655357E-001 0.0  2.8267949E-001  7.5000000E-002 0.0  2.8381913E-001 -6.6361112E-002 0.0  5.5172470E-003  1.1904580E-002 0.0  2.1689264E-002  2.8736936E-002 0.0  1.4405249E-002  1.4168462E-002 0.0  1.5395344E-002  1.4284888E-002 0.0  2.0064725E-001  2.5447823E-001 0.0  1.9990968E-001  2.3449187E-001 0.0  1.4750000E-002  1.0433013E-002 0.0  1.2750000E-002  1.0419804E-002 0.0  1.7208113E-002  1.0438253E-002 0.0  1.0768594E-002  1.0432233E-002 0.0  1.4590747E-002  2.9707099E-001 0.0  1.1499262E-002  1.5694088E-002 0.0  1.1237177E-002  1.4560213E-002 0.0  9.6058320E-002  2.3832411E-001 0.0  9.6794995E-002  2.5831035E-001 0.0  2.8267949E-001  3.1500000E-001 0.0  2.9275827E-002  1.6220903E-002 0.0  1.1909933E-002  1.3809222E-002 0.0  1.0980215E-002  1.3447824E-002 0.0  1.0291531E-002  1.4223161E-002 0.0  1.0064296E-002  1.3302530E-002 0.0  9.3978686E-003  1.3914067E-002 0.0  9.5530277E-003  1.4842239E-002 0.0  2.0852845E-001  3.5531813E-003 0.0  2.0937570E-001  2.3525999E-002 0.0  1.1763390E-002  1.6918734E-002 0.0  9.2685763E-003  1.3058366E-002 0.0  2.0138477E-001  2.7446431E-001 0.0  1.5001711E-002  1.3411275E-002 0.0  1.5874204E-002  1.3475027E-002 0.0  2.3110820E-002  1.5891298E-002 0.0  2.1758714E-001  2.4384599E-001 0.0  2.1687775E-001  2.2390446E-001 0.0  8.6186620E-003  1.4523722E-002 0.0  2.8447281E-003  1.2684440E-001 0.0  4.4329285E-003  1.2922395E-001 0.0  1.8444482E-001  2.8509620E-001 0.0  6.8663210E-002 -1.2061544E-002 0.0  1.1685175E-002  1.2921120E-002 0.0  1.5487963E-002  1.2737920E-002 0.0  1.6291240E-002  1.2673636E-002 0.0  1.6699693E-002  1.3469935E-002 0.0  1.7100526E-002  1.2790516E-002 0.0  1.7499854E-002  1.3497480E-002 0.0  1.7900148E-002  1.2705844E-002 0.0  1.8299888E-002  1.3501461E-002 0.0  1.8715135E-002  1.2821081E-002 0.0  1.9104252E-002  1.3533818E-002 0.0  1.9540834E-002  1.2744389E-002 0.0  1.9912854E-002  1.3538951E-002 0.0  2.0332216E-002  1.2856380E-002 0.0  1.4722082E-002  1.2654985E-002 0.0  5.8670432E-003 -2.7065904E-002 0.0  1.9492253E-002  1.4224118E-002 0.0  6.2290275E-002  5.5920036E-003 0.0  9.2627982E-002 -1.6757873E-002 0.0  9.6751355E-002 -1.9064335E-002 0.0  9.2469355E-002 -1.2207789E-002 0.0  9.7678141E-002 -1.3524179E-002 0.0  1.0311257E-001 -1.9524769E-002 0.0  8.1041667E-002 -1.2089755E-002 0.0  8.4010046E-002 -9.3812069E-003 0.0  4.0416667E-002 -2.7471168E-002 0.0  4.3975370E-002 -3.0545661E-002 0.0  8.1731833E-002 -2.7676983E-002 0.0  8.4270444E-002 -3.1010238E-002 0.0  8.8987000E-002 -3.1727608E-002 0.0  8.5321878E-002 -3.6385103E-002 0.0  9.4388704E-002 -3.9320573E-002 0.0  8.4559891E-002 -4.9217956E-002 0.0  1.0401201E-001 -5.0735957E-002 0.0  3.0280612E-002 -2.7394168E-002 0.0  3.3912962E-002 -3.0461786E-002 0.0  3.7201588E-002  1.7584678E-002 0.0  6.2242978E-003  1.0641766E-001 0.0  7.8906501E-003  1.0822216E-001 0.0  5.0000000E-002  3.4767949E-001 0.0  6.4295295E-003  8.6001321E-002 0.0  7.8510236E-003  8.4911079E-002 0.0  6.4122086E-003  8.1031906E-002 0.0  7.8717855E-003  7.9416051E-002 0.0  6.4295809E-003  9.2101855E-002 0.0  7.8914990E-003  9.0869223E-002 0.0  6.3692563E-003  4.5120315E-002 0.0  8.0619547E-003  4.6340206E-002 0.0  6.4122124E-003  5.5026961E-002 0.0  7.7313092E-003  5.3751156E-002 0.0  6.4060043E-003  5.0073638E-002 0.0  6.4122084E-003  6.4933607E-002 0.0  8.0571918E-003  6.3230844E-002 0.0  6.3629820E-003  5.9980284E-002 0.0  7.3435174E-003  5.8557530E-002 0.0  6.4296318E-003  3.1423684E-002 0.0  7.8049288E-003  2.9975611E-002 0.0  6.3629832E-003  2.6545355E-002 0.0  7.6733339E-003  2.4915579E-002 0.0  6.3691239E-003  6.9886930E-002 0.0  7.7379152E-003  7.0531117E-002 0.0  6.0724259E-003  7.4707574E-002 0.0  9.5320929E-002  2.1833774E-001 0.0  7.8380123E-002  2.2896955E-001 0.0  7.7642359E-002  2.0898312E-001 0.0  2.0710615E-002  1.3558317E-002 0.0  2.1098533E-002  1.2873698E-002 0.0  2.2625590E-001  1.2800145E-002 0.0  2.2710580E-001  3.2780796E-002 0.0  2.2540565E-001 -7.1815177E-003 0.0  2.1024203E-001  4.3507276E-002 0.0  2.2795873E-001  5.2762394E-002 0.0  2.1108031E-001  6.3489677E-002 0.0  2.2880749E-001  7.2744338E-002 0.0  2.1192837E-001  8.3471678E-002 0.0  2.2965719E-001  9.2726272E-002 0.0  2.1277705E-001  1.0345366E-001 0.0  2.3050714E-001  1.1270820E-001 0.0  2.1360603E-001  1.2345964E-001 0.0  9.8697982E-003  1.2530285E-002 0.0  9.1462495E-003  1.2301996E-002 0.0  8.5657023E-003  1.2775007E-002 0.0  2.3135385E-001  1.3269413E-001 0.0  2.1447788E-001  1.4342065E-001 0.0  2.3181705E-001  1.5268983E-001 0.0  2.1523969E-001  1.6336627E-001 0.0  2.3246520E-001  1.7278261E-001 0.0  8.4654928E-003 -3.0775892E-002 0.0  3.5564968E-002  3.1761487E-002 0.0  3.1287022E-002  3.9814448E-002 0.0  8.7811280E-003  1.5554969E-002 0.0  1.2450776E-002  1.3127385E-002 0.0  1.2175993E-002  1.2354151E-002 0.0  1.1538670E-002  1.2222938E-002 0.0  2.3747125E-002  1.0512605E-002 0.0  1.9012095E-002  1.2151459E-002 0.0  2.0725166E-002  1.2235821E-002 0.0  2.1451965E-002  1.2236644E-002 0.0  2.1840318E-002  1.2851712E-002 0.0  2.2185417E-002  1.2205295E-002 0.0  2.5990529E-002  1.8599483E-002 0.0  1.6807433E-002  1.2115052E-002 0.0  8.4664676E-003  1.2065087E-002 0.0  7.9210180E-003  1.2490319E-002 0.0  7.8248244E-003  1.1828540E-002 0.0  7.2627452E-003  1.2236488E-002 0.0  7.3180519E-003  1.2859232E-002 0.0  2.0212232E-001  2.9445061E-001 0.0  2.1906226E-001  2.8381865E-001 0.0  1.8518238E-001  3.0508255E-001 0.0  9.1658680E-002 -6.7221204E-002 0.0  7.2608081E-002 -6.3673916E-002 0.0  1.1155229E-001 -7.0299462E-002 0.0  1.5157284E-002  1.2067805E-002 0.0  1.4507881E-002  1.1990544E-002 0.0  6.5926864E-002  3.6013780E-003 0.0  2.4965275E-001  3.4901350E-001 0.0  1.9949189E-001  2.1437075E-001 0.0  2.3453176E-001  2.3322141E-001 0.0  2.1979982E-001  3.0380502E-001 0.0  2.4313525E-001  2.0718058E-003 0.0  2.3599766E-001  2.9320046E-001 0.0  2.2562773E-002  1.2809703E-002 0.0  2.2904313E-002  1.2193247E-002 0.0  2.2234458E-002  1.3470893E-002 0.0  2.4228485E-001 -1.7910271E-002 0.0  6.0702321E-002  2.1961505E-001 0.0  5.9964653E-002  1.9962864E-001 0.0  6.1439875E-002  2.3960144E-001 0.0  8.9941633E-003  1.1622590E-002 0.0  1.2880940E-002  1.2489572E-002 0.0  2.3297666E-003  1.3084818E-001 0.0  1.2649471E-002  1.1846340E-002 0.0  2.1871003E-002  1.1592062E-002 0.0  2.8525542E-002 -1.1887551E-001 0.0  1.2350626E-001 -5.3869288E-002 0.0  1.3147185E-001 -7.2202708E-002 0.0  2.6976745E-001 -1.1945179E-001 0.0  6.2695514E-002 -1.1405220E-002 0.0  9.4882726E-002 -6.4743463E-003 0.0  5.7721056E-003  1.0507184E-002 0.0  4.3762312E-002  2.3024699E-001 0.0  3.9457642E-002  2.0016803E-002 0.0  7.2017135E-003  1.1592684E-002 0.0  1.0517280E-001 -8.0227647E-003 0.0  1.9758809E-001  1.5414733E-001 0.0  1.7816326E-002  1.4203754E-002 0.0  2.3382316E-001  2.1328116E-001 0.0  2.2990611E-002  4.0791638E-002 0.0  2.9049884E-002  5.1950240E-002 0.0  1.9333752E-001  5.4273443E-002 0.0  1.1707750E-001 -1.5041349E-002 0.0  1.9840871E-001  1.7408503E-001 0.0  1.9495671E-001  9.4279932E-002 0.0  1.5782052E-001  3.5812300E-002 0.0  2.2455483E-001 -2.7164843E-002 0.0  2.4143439E-001 -3.7892572E-002 0.0  2.2370439E-001 -4.7147057E-002 0.0  2.4058406E-001 -5.7874477E-002 0.0  2.2285404E-001 -6.7129020E-002 0.0  2.3973372E-001 -7.7856400E-002 0.0  2.0597436E-001 -5.6401650E-002 0.0  2.0512402E-001 -7.6383573E-002 0.0  1.8943384E-001 -6.5706824E-002 0.0  7.6904626E-002  1.8899669E-001 0.0  5.9902000E-002  1.7961734E-001 0.0  7.6279515E-002  1.6900614E-001 0.0  2.3513640E-001  2.7321863E-001 0.0  1.1447236E-001  2.6766476E-001 0.0  9.7532421E-002  2.7829672E-001 0.0  1.1520991E-001  2.8765116E-001 0.0  9.8269962E-002  2.9828311E-001 0.0  8.0592453E-002  2.8892866E-001 0.0  1.1594747E-001  3.0763755E-001 0.0  8.1330016E-002  3.0891506E-001 0.0  6.3652506E-002  2.9956062E-001 0.0  1.3288741E-001  2.9700560E-001 0.0  6.2914936E-002  2.7957422E-001 0.0  1.9001404E-002  1.6607355E-002 0.0  2.4565235E-001  6.2018448E-002 0.0  5.9510396E-002  1.5961818E-001 0.0  7.5618348E-002  1.4901693E-001 0.0  5.7751941E-002  1.3966946E-001 0.0  7.4723365E-002  1.2903634E-001 0.0  5.6031487E-002  1.1946214E-001 0.0  7.3795745E-002  1.0901409E-001 0.0  5.6074824E-002  9.9675852E-002 0.0  3.6023073E-002  1.0974059E-001 0.0  3.9689620E-002  9.1035291E-002 0.0  7.2470191E-002  8.8303405E-002 0.0  4.2492772E-002  4.1052051E-002 0.0  4.7561016E-002  5.9458190E-002 0.0  2.4720121E-001  1.0198873E-001 0.0  1.8194673E-002  2.2519326E-002 0.0  1.5665920E-002  2.2218558E-002 0.0  6.6804932E-003  1.1970728E-002 0.0  2.4888478E-001  1.4169449E-001 0.0  2.3749266E-001  3.1290134E-001 0.0  2.4583207E-002  1.0719985E-002 0.0  1.6476175E-002  3.3646243E-001 0.0  1.3289309E-002  1.1933529E-002 0.0  2.8792112E-002  2.2036993E-002 0.0  6.6129054E-003  1.1366130E-002 0.0  1.4314682E-001 -5.5983862E-002 0.0  1.5166545E-001 -7.3628026E-002 0.0  1.4040847E-001 -8.9891864E-002 0.0  1.8407776E-001 -8.7562762E-002 0.0  7.8228168E-002 -8.2335217E-002 0.0  5.8980368E-002 -7.7408669E-002 0.0  5.3540694E-002 -6.0756140E-002 0.0  4.3112405E-002  2.1322023E-002 0.0  1.3100624E-002  1.1380257E-002 0.0  1.4894951E-002  1.1463827E-002 0.0  1.5511215E-002  1.1527483E-002 0.0  1.4278968E-002  1.1451373E-002 0.0  8.6876287E-003  1.1084623E-001 0.0  1.1791119E-002  1.0859552E-001 0.0  1.1504150E-002  1.1504861E-001 0.0  2.3270145E-002  1.2779246E-002 0.0  1.2511358E-002  1.1273636E-002 0.0  1.3398535E-001  3.1631099E-001 0.0  1.3222248E-002  1.3218129E-002 0.0  7.7092791E-003  1.1234949E-002 0.0  9.0661096E-002  9.8154675E-002 0.0  1.5062498E-001  3.0624654E-001 0.0  7.7677241E-003  1.5174331E-002 0.0  7.9598369E-003  1.6357315E-002 0.0  9.3123561E-003  1.6814020E-002 0.0  7.7732904E-003  1.7824012E-002 0.0  9.6337890E-003  1.8466909E-002 0.0  1.1792358E-001  3.2930389E-001 0.0  6.1841751E-002  2.3174663E-002 0.0  5.3916087E-002  2.1708281E-002 0.0  5.7551238E-002  3.2807879E-002 0.0  2.0462486E-001 -9.6387005E-002 0.0  9.9411294E-002 -3.0029564E-002 0.0  3.5334329E-002  2.0838600E-002 0.0  2.5143539E-001  2.2143380E-001 0.0  2.5220008E-001  2.4237823E-001 0.0  2.4991338E-001  2.0015132E-001 0.0  2.0905045E-002  1.6573403E-002 0.0  1.6719373E-002  2.5083345E-002 0.0  2.3544485E-002  1.2136808E-002 0.0  2.3198138E-002  1.1604555E-002 0.0  4.5312437E-002  2.5020340E-001 0.0  2.5224010E-001  3.0022019E-001 0.0  6.4906237E-002  3.1866596E-001 0.0  4.8220793E-002  3.1227590E-001 0.0  2.7216756E-002  1.7659184E-001 0.0  6.5673720E-002 -2.5107398E-003 0.0  7.3669869E-002  7.2632027E-004 0.0  1.3995939E-002 -3.0458343E-002 0.0  4.9218777E-002 -3.2316667E-002 0.0  4.5242388E-002 -3.7538320E-002 0.0  5.5268638E-002 -3.8359397E-002 0.0  2.5831407E-001 -4.8619942E-002 0.0  1.4156326E-002  1.2482558E-002 0.0  1.9247498E-002  1.3784735E-001 0.0  2.5949761E-001 -7.6651344E-003 0.0  2.6167695E-001  1.0937376E-002 0.0  1.6133463E-001 -8.9406491E-002 0.0  1.5225662E-002  1.0903138E-002 0.0  1.0566880E-002  1.2667424E-002 0.0  1.0361550E-002  1.2002757E-002 0.0  1.6172588E-001 -5.6084666E-002 0.0  1.3556119E-002  2.4488943E-002 0.0  1.4948034E-002  2.8611260E-002 0.0  1.1665671E-002  2.1499116E-002 0.0  1.5846671E-002  1.1009460E-002 0.0  1.6079771E-002  1.1533785E-002 0.0  5.8706854E-003  1.2596109E-001 0.0  6.4781812E-003  1.2281311E-001 0.0  6.8976690E-003  1.1953061E-001 0.0  1.0697720E-002  1.2256148E-001 0.0  1.0963656E-002  1.2963929E-001 0.0  2.0261494E-002  1.2184034E-001 0.0  4.0884344E-002 -7.2545751E-002 0.0  4.5523803E-002 -9.0997117E-002 0.0  7.6131505E-003  1.4082309E-002 0.0  6.7614456E-003  1.4723298E-002 0.0  2.5491014E-001  3.1854622E-001 0.0  2.0092813E-002  1.2174571E-002 0.0  2.0390491E-002  1.1625851E-002 0.0  1.9586704E-002  1.1613348E-002 0.0  1.9996718E-002  1.1097584E-002 0.0  8.4654913E-003  1.0534328E-001 0.0  1.2862227E-002  1.0360444E-001 0.0  8.2902652E-003  1.0224955E-001 0.0  9.6372686E-003  9.8682681E-002 0.0  1.6627526E-002  9.7361870E-002 0.0  1.9465199E-002  1.0858935E-001 0.0  1.5963288E-002  1.5202334E-002 0.0  8.4578214E-003  2.2351996E-002 0.0  8.2709004E-003  8.7909202E-002 0.0  1.1878546E-002  8.5649239E-002 0.0  8.4551916E-003  9.3560105E-002 0.0  8.5251019E-003  3.2596253E-002 0.0  8.2309775E-003  3.5736312E-002 0.0  9.0294220E-003  3.9567703E-002 0.0  8.8316945E-003  7.6821309E-002 0.0  1.2231772E-002  7.9189595E-002 0.0  1.8316246E-002  8.2423848E-002 0.0  1.9785952E-002  7.4271934E-002 0.0  6.5788471E-002 -8.7500000E-003 0.0  7.0007545E-002 -7.4778115E-003 0.0  2.2018201E-001  3.2715231E-001 0.0  1.2123834E-002  9.1562117E-002 0.0  1.3692266E-001 -3.5820878E-002 0.0  2.3930812E-002  1.2578163E-002 0.0  4.9902418E-003  1.3268504E-001 0.0  6.5719771E-003  1.3789175E-001 0.0  2.1097713E-002  1.1651256E-002 0.0  2.0719794E-002  1.1106132E-002 0.0  2.1416976E-002  1.1183146E-002 0.0  2.2025598E-002  1.1077823E-002 0.0  2.2571388E-002  1.1657370E-002 0.0  2.0349556E-002  1.0721421E-002 0.0  9.7131719E-003  1.1744534E-002 0.0  1.0263191E-002  1.1383868E-002 0.0  1.0807013E-002  1.1542156E-002 0.0  9.4051061E-003  1.1265595E-002 0.0  8.9369877E-003  1.1003553E-002 0.0  1.6391862E-002  1.1053777E-002 0.0  7.0944612E-003  1.0937807E-002 0.0  7.5751682E-003  1.0645341E-002 0.0  9.7304188E-002 -8.5911332E-002 0.0  8.8715753E-002 -8.9769531E-003 0.0  8.5242292E-002 -2.4618721E-003 0.0  7.5780852E-002 -3.9000354E-002 0.0  8.3745274E-003  1.1358273E-002 0.0  2.2866109E-002  1.1073866E-002 0.0  2.3470589E-002  1.1060512E-002 0.0  1.8392649E-002  1.2138651E-002 0.0  1.8690099E-002  1.1585119E-002 0.0  1.8147721E-002  1.1543213E-002 0.0  1.7402264E-002  1.2105670E-002 0.0  1.7064710E-002  1.1550870E-002 0.0  1.8460840E-002  1.1054084E-002 0.0  1.7961727E-002  1.0954401E-002 0.0  1.8988299E-002  1.1035001E-002 0.0  1.2021691E-002  1.1736411E-002 0.0  1.1873105E-002  1.1155868E-002 0.0  1.4974795E-001 -1.0708965E-001 0.0  3.8537680E-002  2.4593622E-002 0.0  7.8531234E-003  1.9983801E-002 0.0  6.7539702E-003  1.3800999E-002 0.0  3.5413579E-002 -5.3744763E-002 0.0  9.9977841E-002  5.1198111E-003 0.0  4.5591646E-002  2.7719949E-002 0.0  1.1796545E-001 -3.8264991E-002 0.0  3.0946065E-003 -2.8819427E-002 0.0  1.1794012E-001 -8.9709483E-002 0.0  2.3786675E-002  1.1534177E-002 0.0  2.4058903E-002  1.1000026E-002 0.0  2.6735114E-002  2.4086285E-001 0.0  2.7982487E-001 -4.8467498E-004 0.0  2.0297472E-002  2.4893910E-002 0.0  8.6024995E-003  1.3608144E-002 0.0  6.9389619E-003  7.6298126E-002 0.0  1.8165394E-002  1.5627321E-002 0.0  3.7305412E-002  1.2957040E-001 0.0  8.8724469E-002  5.6968614E-002 0.0  6.8924656E-002  6.4927192E-002 0.0  2.6867961E-001  2.2864848E-001 0.0  2.6947069E-001  2.5022346E-001 0.0  1.2399279E-002  3.4153261E-002 0.0  1.4383092E-002  6.7277883E-002 0.0  5.4458621E-003  1.1310635E-002 0.0  1.5155500E-001  3.2554084E-001 0.0  6.0299453E-003  1.1531706E-002 0.0  6.1696631E-003  1.0954403E-002 0.0  6.0652390E-003  1.2114485E-002 0.0  6.5715783E-003  1.2576687E-002 0.0  1.5715248E-002  1.0493205E-002 0.0  5.8330495E-003  1.4127647E-002 0.0  8.3637894E-002 -1.0078669E-001 0.0  1.6765064E-002  1.0722189E-002 0.0  1.7163928E-002  1.1017531E-002 0.0  4.3749120E-002  1.8802740E-001 0.0  1.4079379E-002  1.3182755E-002 0.0  1.0644220E-002  1.0962657E-002 0.0  1.1198080E-002  1.1145559E-002 0.0  1.8063105E-001  1.6488272E-001 0.0  1.7986803E-001  1.4489031E-001 0.0  1.8156870E-001  1.8485414E-001 0.0  1.6436629E-001  1.9569930E-001 0.0  2.3269224E-001  1.9274517E-001 0.0  1.0125791E-002  1.0840212E-002 0.0  2.3807537E-002  1.4993930E-002 0.0  2.2795854E-002  1.4785134E-002 0.0  1.8654367E-001 -1.0562004E-001 0.0  1.9902352E-001  1.9417566E-001 0.0  2.3464768E-002  1.4067881E-002 0.0  1.6277496E-001  1.5562676E-001 0.0  8.1443893E-002  3.2999222E-001 0.0  1.3683530E-002  1.1420599E-002 0.0  1.3485669E-002  1.0937477E-002 0.0  1.8744476E-002  1.0648379E-002 0.0  2.8415121E-002  2.2177214E-001 0.0  1.5863269E-001  5.5865167E-002 0.0  1.7633141E-001  6.5245630E-002 0.0  6.4576117E-002 -9.6671059E-002 0.0  5.0058911E-002 -1.1213418E-001 0.0  1.7706909E-001  8.5232021E-002 0.0  8.9285311E-002  7.7323277E-002 0.0  1.9288246E-002  1.5578397E-002 0.0  2.0912097E-002  1.5096811E-002 0.0  1.4085142E-001  4.6484948E-002 0.0  1.7555254E-001  4.5133276E-002 0.0  1.7473331E-001  2.5081514E-002 0.0  1.3845562E-001 -1.3492093E-002 0.0  1.6014100E-001  9.5860896E-002 0.0  1.7798196E-001  1.0508827E-001 0.0  1.9582395E-001  1.1426266E-001 0.0  1.0765029E-001  8.7557928E-002 0.0  1.7152730E-001 -3.7690620E-002 0.0  1.9025191E-001 -4.6184362E-002 0.0  1.0850268E-001  1.0769115E-001 0.0  9.2406574E-002  1.3839050E-001 0.0  2.0767332E-001 -1.6432366E-002 0.0  2.4412084E-001  2.1988822E-002 0.0  2.6210172E-001  3.0979357E-002 0.0  2.4491753E-001  4.1969908E-002 0.0  2.6312826E-001  5.0132342E-002 0.0  2.8212358E-001  5.5571862E-002 0.0  1.1152844E-001  1.8771897E-001 0.0  1.1006307E-001  1.4774356E-001 0.0  2.6032261E-001 -2.7974787E-002 0.0  2.4646578E-001  8.2001928E-002 0.0  2.6426642E-001  9.1253463E-002 0.0  9.3865461E-002  1.7836369E-001 0.0  1.1227185E-001  2.0770698E-001 0.0  2.5746373E-001 -6.8601857E-002 0.0  2.5588461E-001 -8.7008824E-002 0.0  2.3966029E-001 -9.9421911E-002 0.0  9.9152488E-002  3.1813161E-001 0.0  1.6829453E-001  3.1556130E-001 0.0  1.6889991E-001  3.3494090E-001 0.0  1.6751822E-001  2.9569635E-001 0.0  2.0285988E-001  3.1443697E-001 0.0  2.4798619E-001  1.2193094E-001 0.0  2.6589663E-001  1.2976772E-001 0.0  2.4990462E-001 -1.1853437E-001 0.0  7.1051227E-002  3.4823823E-001 0.0  2.8107535E-001  3.3502725E-001 0.0  7.9117592E-002  2.4895592E-001 0.0  9.4588944E-002  1.9835120E-001 0.0  2.8366994E-001  2.9508254E-001 0.0  2.6787773E-001  2.8774578E-001 0.0  2.1818041E-001  2.6383768E-001 0.0  2.2199949E-001 -8.6857188E-002 0.0  2.8277320E-001  1.7508710E-001 0.0  2.6555165E-001  1.6722900E-001 0.0  2.6612142E-001  1.8756988E-001 0.0  1.8566116E-001  3.2451186E-001 0.0  1.8768111E-001  3.4564495E-001 0.0  1.1000000E-001  3.4767949E-001 0.0  1.2961061E-001  3.4769468E-001 0.0  2.0730979E-001 -1.1649433E-001 0.0  9.1566917E-002  1.1834104E-001 0.0  2.2981395E-001  3.4756917E-001 0.0  4.0084005E-002  2.0805657E-001 0.0  1.3048999E-001 -1.1790950E-001 0.0  2.8382787E-001 -4.7313917E-002 0.0  1.3215004E-001  2.7701935E-001 0.0  2.8438195E-001 -8.5580619E-002 0.0  2.8356902E-001  1.9563551E-001 0.0  1.3141334E-001  2.5703326E-001 0.0  6.2312856E-002  2.5958284E-001 0.0  4.6208002E-002  2.7018396E-001 0.0  1.8242380E-001  2.2500764E-001 0.0  7.9877542E-002  2.6894145E-001 0.0  1.4983981E-001  2.8634960E-001 0.0  1.6677066E-001  2.7573549E-001 0.0  4.6579464E-002  2.9172855E-001 0.0  2.8297483E-002  2.8085173E-001 0.0  2.3509632E-001  2.5317611E-001 0.0  2.5154645E-001  2.6161220E-001 0.0  9.3170681E-002  1.5837528E-001 0.0  2.0701624E-001 -3.6502396E-002 0.0  1.9414134E-001  7.4299185E-002 0.0  1.9673493E-001  1.3420404E-001 0.0  1.6452590E-001  2.1583671E-001 0.0  1.9251589E-001  3.4289590E-002 0.0  1.6205104E-001  1.3571615E-001 0.0  2.3234269E-002  1.0552857E-002 0.0  5.4806887E-002  7.9682705E-002 0.0  1.7889977E-001  1.2499899E-001 0.0  1.2827626E-002  1.4023389E-002 0.0  1.4272805E-002  1.0453090E-002 0.0  1.3247214E-002  1.0443514E-002 0.0  1.1250807E-002  1.0424332E-002 0.0  1.2250000E-002  1.0388752E-002 0.0  1.7750000E-002  1.0433013E-002 0.0  1.9176068E-002  1.0458330E-002 0.0  9.2429923E-003  1.0436940E-002 0.0  8.7547478E-003  1.0446208E-002 0.0  2.1753106E-002  1.0336660E-002 0.0  2.2168420E-002  1.0512693E-002 0.0  6.3010427E-003  1.0464056E-002 0.0  2.6342935E-001  7.0772550E-002 0.0  1.5828393E-002  1.2124706E-002 0.0  1.4017967E-002  1.0945208E-002 0.0  2.1568508E-001  1.8354955E-001 0.0  5.8952042E-003  1.5299462E-002 0.0  7.9410646E-002 -7.4497763E-003 0.0  3.8750000E-002 -3.1564092E-002 0.0  3.5280494E-002 -3.7426904E-002 0.0  2.6172641E-002 -3.7530440E-002 0.0  2.1626561E-001  2.0367112E-001 0.0  2.4519248E-002  1.2294689E-002 0.0  1.5841111E-002  3.1721382E-001 0.0  3.4667638E-002  3.2860609E-001 0.0  1.5056656E-002  1.9806740E-002 0.0  1.3172227E-002  1.9392874E-002 0.0  5.7062848E-003  1.2610150E-002 0.0  3.4377645E-002  1.7308729E-002 0.0  1.8190002E-001  2.0499070E-001 0.0  2.2248317E-002  1.7043466E-002 0.0  2.7860808E-002  1.6168434E-002 0.0  2.8561614E-002  1.7745871E-002 0.0  3.0372137E-002  1.7467175E-002 0.0  3.2113910E-002  1.8867148E-002 0.0  2.4573358E-002  1.1194252E-002 0.0  1.9523099E-002  1.0972980E-002 0.0  1.6339026E-002  1.4267877E-002 0.0  1.7189602E-002  1.4886499E-002 0.0  2.8306955E-001  9.5634266E-002 0.0  1.7100837E-001 -7.1265334E-002 0.0  2.1960608E-002  1.5595106E-002 0.0  6.2458664E-003  1.1122893E-001 0.0  2.8156762E-002 -8.2185332E-002 0.0  1.4605633E-002  1.0951590E-002 0.0  1.5238182E-002  1.0365871E-002 0.0  2.6522413E-001  1.0960974E-001 0.0  2.6932257E-001  3.5016430E-001 0.0  2.8144978E-001 -1.0486622E-001 0.0  1.4308264E-002 -1.0804557E-001 0.0  2.6621250E-002  1.5983130E-002 0.0  6.1469959E-003  1.7648541E-002 0.0  4.1527574E-002  1.4965278E-001 0.0  2.9195658E-002  3.4899980E-001 0.0  3.2118158E-002  2.2022510E-002 0.0  8.0611338E-003  1.0807535E-002 0.0  1.2975393E-002  1.0863638E-002 0.0  1.3515091E-002  1.8474991E-001 0.0  5.3870514E-003  1.0785266E-002 0.0  6.5579569E-002  9.7329352E-003 0.0  2.8320543E-001  1.3675157E-001 0.0  9.0792311E-002 -1.1840678E-001 0.0  1.0479543E-002  1.5257986E-002 0.0  7.8891291E-003  1.3224282E-002 0.0  5.6595266E-002  4.6723009E-002 0.0  2.1477725E-002  1.3553341E-002 0.0  8.2189203E-002  8.7781397E-003 0.0  2.4198331E-001  3.3196143E-001 0.0  2.4228913E-002  1.0418157E-002 0.0  2.0772518E-002  1.0431096E-002 0.0  1.3068184E-002  1.7544495E-002 0.0  2.2969476E-002  1.3417354E-002 0.0  1.0301595E-002  1.0440384E-002 0.0  7.5790688E-003  6.8481143E-002 0.0  1.2391465E-002  6.0766157E-002 0.0  2.1031320E-002  6.3046390E-002 0.0  3.4431263E-002  7.1947167E-002 0.0  1.7751476E-002  5.1900756E-002 0.0  9.4963780E-003  5.8215799E-002 0.0  8.6009415E-003  5.1024381E-002 0.0  7.9324655E-003  4.8470946E-002 0.0  1.1539667E-002  4.7106743E-002 0.0  8.3013128E-003  6.0438770E-002 0.0  8.7397488E-003  8.2188583E-002 0.0  7.9745995E-003  2.7651007E-002 0.0  8.2327549E-003  7.3469244E-002 0.0  9.2765974E-003  6.5788543E-002 0.0  8.0946862E-003  4.3659850E-002 0.0  8.1193655E-003  5.6169481E-002 0.0  1.0597350E-002  1.6346976E-002 0.0  2.4759703E-001  1.6202619E-001 0.0  4.2339753E-003 -3.3070602E-002 0.0  9.1944628E-003 -3.7578211E-002 0.0  1.1395231E-002  1.1645057E-002 0.0  9.7871999E-003  2.0218415E-002 0.0  2.6714299E-002  9.6821618E-002 0.0  1.8676021E-002  1.4198241E-002 0.0  2.0341748E-002  1.4267787E-002 0.0  2.1075489E-002  1.4143004E-002 0.0  2.4905682E-001  1.8041736E-001 0.0  2.1870756E-002  1.4380047E-002 0.0  1.3608549E-002  1.3903081E-002 0.0  2.8180686E-001  1.7811953E-002 0.0  2.2456982E-002  1.0866497E-002 0.0  1.7108900E-002  1.4065109E-002 0.0  2.9568912E-002  1.9377839E-002 0.0  6.9034116E-003  1.5858371E-002 0.0  1.5431202E-001 -4.1805880E-002 0.0  2.6734324E-001  2.0826584E-001 0.0  1.6572677E-002  1.1563526E-002 0.0  2.0127683E-001  3.3188511E-001 0.0  5.9504205E-002  1.8309830E-002 0.0  7.1878544E-003  1.0403110E-002 0.0  6.5494228E-002 -4.8433114E-002 0.0  6.5566772E-002 -3.6842445E-002 0.0  6.6144868E-003  1.0889733E-002 0.0  2.0085873E-002 -4.7098447E-002 0.0  2.0379145E-002 -3.3633340E-002 0.0  5.1438227E-002  3.2958741E-001 0.0  1.1879984E-001  1.5057138E-003 0.0  1.7596130E-002  1.1420423E-002 0.0  2.7013399E-002  1.7447700E-002 0.0  2.4527646E-002  1.2936222E-002 0.0  2.8482248E-001  2.3667133E-001 0.0  2.3697087E-002  1.3300443E-002 0.0  2.2000000E-001 -1.0396522E-001 0.0  2.6664468E-001  1.4838947E-001 0.0  2.7373083E-002  1.9753003E-002 0.0  2.8538524E-001  2.5588107E-001 0.0  1.3899161E-002  1.1962862E-002 0.0  1.0041321E-001 -1.0393152E-001 0.0  3.1366206E-002  3.0462451E-001 0.0  1.8002419E-002  3.2906823E-002 0.0  1.3507310E-002  1.2510629E-002 0.0  1.1511999E-002  1.0768103E-002 0.0  4.4509909E-002  1.6937673E-001 0.0  1.0958865E-002  1.2105984E-002 0.0  2.4093049E-002  1.1951197E-002 0.0  1.2445566E-002  1.0798983E-002 0.0  1.9000000E-001 -1.2180855E-001 0.0  2.4990999E-003  1.3816935E-001 0.0  2.5504099E-002  1.9952961E-002 0.0  1.1421216E-002  1.8819209E-002 0.0  2.0376358E-002  2.2201619E-002 0.0  2.6000000E-001 -1.0465301E-001 0.0  1.0000000E-001  3.3465785E-001 0.0  9.8501204E-003  7.0077420E-002 0.0  2.1104124E-002  1.0828857E-002 0.0  1.5617590E-002  4.1872683E-002 0.0  1.6975036E-001  3.5170958E-001 0.0  1.1875240E-002 -8.9871646E-002 0.0  8.3750000E-002 -1.2834936E-002 0.0  8.8994916E-002 -1.2675411E-002 0.0  7.3857143E-002 -1.2972314E-002 0.0  9.2308272E-002 -2.4051499E-002 0.0  9.2529647E-002 -2.6881477E-002 0.0  9.6208503E-002 -2.4128557E-002 0.0  7.1671316E-002 -1.1991273E-002 0.0  6.2139514E-002 -1.3762211E-003 0.0  6.2258335E-002 -8.7056056E-003 0.0  6.2006982E-002  8.8149878E-003 0.0  6.2055708E-002  1.0889477E-002 0.0  4.3750000E-002 -2.7165064E-002 0.0  6.5196324E-002 -2.7590828E-002 0.0  6.3565883E-002 -3.1139951E-002 0.0  5.8513065E-002 -3.1727563E-002 0.0  3.3750000E-002 -2.7165064E-002 0.0  6.5510377E-002 -1.2578061E-002 0.0  1.5853374E-002 -2.7176481E-002 0.0  5.8778049E-002 -2.7340067E-002 0.0  7.1564203E-002 -2.7152388E-002 0.0  6.7018615E-002 -3.1404246E-002 0.0  7.3654510E-002 -2.7139794E-002 0.0  7.2500000E-002 -3.0788559E-002 0.0  2.1761851E-002 -2.8344877E-002 0.0  1.3727760E-002 -2.7088506E-002 0.0  6.2135864E-002 -3.5371099E-003 0.0  5.6215192E-002 -2.7960143E-002 0.0  8.8843950E-002 -2.7192261E-002 0.0  8.7500000E-003 -2.7165064E-002 0.0  7.9096367E-002 -2.7203075E-002 0.0  5.0489283E-002 -2.7688230E-002 0.0  3.0399695E-002 -1.0067305E-001 0.0  1.1872881E-002  2.7941191E-001 0.0  2.5182441E-001  2.8066143E-001 0.0  3.0633586E-002  1.6050005E-002 0.0  1.0109679E-002  2.4965917E-002 0.0  1.3659885E-001  3.3293238E-001 0.0  5.3729093E-002  1.7351214E-002 0.0  4.6010416E-002  1.7757299E-002 0.0  3.9624469E-002  1.7027051E-002 0.0  2.6814815E-001  2.6797132E-001 0.0  6.2752957E-003  2.1790043E-002 0.0  1.0759677E-002  2.8920322E-002 0.0  1.2984714E-001 -1.0164940E-001 0.0  2.4317645E-002  1.4362477E-002 0.0  9.5448330E-003  1.0831655E-002 0.0  8.5163954E-003  1.0809502E-002 0.0  2.6980775E-001  3.0550303E-001 0.0  3.2605842E-002  2.6049284E-001 0.0  6.0724259E-003  8.4614220E-002 0.0  6.2634105E-003  1.0479896E-001 0.0  6.1979909E-003  1.0204852E-001 0.0  6.0925509E-003  1.0811114E-001 0.0  6.3076393E-003  1.8940460E-002 0.0  6.0987527E-003  9.0752924E-002 0.0  6.7373261E-003  9.7977727E-002 0.0  6.7335746E-003  1.0062364E-001 0.0  6.0724259E-003  6.8515921E-002 0.0  6.5367482E-003  4.1427633E-002 0.0  6.0975795E-003  4.3807484E-002 0.0  6.1160032E-003  2.5109510E-002 0.0  6.1851534E-003  8.7433636E-002 0.0  6.0063583E-003  5.8557657E-002 0.0  6.0691842E-003  5.3644791E-002 0.0  6.2934502E-003  9.6690427E-002 0.0  6.1063377E-003  4.8594376E-002 0.0  6.1251485E-003  6.3434331E-002 0.0  6.0781808E-003  3.0020342E-002 0.0  6.0996713E-003  7.3380791E-002 0.0  6.3680643E-003  3.9999804E-002 0.0  6.6011628E-003  3.7612283E-002 0.0  6.2352717E-003  9.3465605E-002 0.0  6.2447825E-003  3.6093847E-002 0.0  6.2693012E-003  3.2742119E-002 0.0  6.1266373E-003  7.9550186E-002 0.0  9.5298300E-003 -5.8073913E-002 0.0  1.1019456E-002  1.0760843E-002 0.0  3.6461639E-003  1.4191077E-001 0.0  1.2056391E-003  1.3237732E-001 0.0  2.4260276E-003  1.2839455E-001 0.0  5.4015751E-003  1.1435450E-001 0.0  6.7474791E-003  1.1595336E-001 0.0  4.9197378E-003  1.1766010E-001 0.0  4.5068132E-003  1.1898777E-001 0.0  3.3390115E-003  1.2520980E-001 0.0  4.2035849E-003  1.2165295E-001 0.0  2.7013306E-001  3.2353700E-001 0.0  6.2421018E-003  1.3230354E-002 0.0  1.0911560E-002  2.4124232E-001 0.0  2.8535898E-001  3.5035898E-001 0.0  2.8535898E-001 -1.2035898E-001 0.0  2.8354385E-002  1.9252077E-001 0.0  1.3823318E-002  2.1481246E-002 0.0  7.8872369E-003  1.0375779E-002 0.0  5.3415383E-003  1.0360864E-002 0.0  3.3685208E-002  2.5235078E-002 0.0  6.3402877E-002 -1.3402140E-002 0.0  1.7104222E-001 -1.0210551E-001 0.0  1.6644381E-002  1.5903047E-002 0.0  2.8750000E-002 -3.1440026E-002 0.0  1.5000000E-001 -1.2337842E-001 0.0  1.3154807E-002  2.2467010E-001 0.0  2.6940631E-001 -7.7906397E-002 0.0  6.9529325E-003  1.6836884E-002 0.0  1.4030136E-002  3.5125081E-001 0.0  9.7446809E-003  1.5763238E-002 0.0  2.3430655E-002  3.2865176E-002 0.0  1.7538341E-002  1.0780468E-002 0.0  2.4215232E-002  1.1427784E-002 0.0  9.0708114E-004  1.3092611E-001 0.0  1.1539619E-002  5.4536759E-002 0.0  2.5643399E-002 -6.5340561E-002 0.0  1.2219231E-002  7.3517897E-002 0.0  1.6307121E-002  1.1992915E-002 0.0  7.2110029E-003  1.1328421E-001 0.0  4.7948673E-002  2.0606579E-002 0.0  1.1145961E-002  1.2673058E-002 0.0  8.2952966E-003  9.6263321E-002 0.0  2.7022453E-001 -9.2003012E-002 0.0  2.4325418E-002 -3.1413047E-002 0.0  1.9386218E-002  9.0017188E-002 0.0  1.1179361E-001 -2.7336780E-002 0.0  1.1511785E-002  4.3064102E-002 0.0  2.6996492E-001 -5.8295416E-002 0.0  6.8400109E-003  1.3199590E-002 0.0  7.2828625E-003  1.3433282E-002 0.0  7.1679243E-003  1.5699554E-001 0.0  1.2796690E-001 -2.4090347E-002 0.0  5.7545283E-003  1.1012357E-002 0.0  1.2566761E-002 -1.2277395E-001 0.0  1.9165962E-002  1.1503713E-002 0.0  2.6033346E-001  3.3590173E-001 0.0  1.6791648E-002  1.1181578E-002 0.0  2.2667062E-002  1.4024262E-002 0.0  2.4656448E-002  1.0330023E-002 0.0  1.0522794E-001 -3.7069657E-002 0.0  2.1652459E-002  1.0756214E-002 0.0  1.7754632E-001 -5.5250906E-002 0.0  4.8118410E-002 -4.7247324E-002 0.0  1.7894217E-002  1.1990811E-002 0.0  7.9484834E-002 -3.1190377E-002 0.0  5.0991737E-002  1.7850821E-002 0.0  2.6968775E-001 -3.9921843E-002 0.0  2.7543691E-001 -1.5337315E-002 0.0  2.6387266E-002  8.4419508E-002 0.0  5.3909160E-002 -3.0870427E-002 0.0  6.4863470E-002  3.3407819E-001 0.0  2.0238947E-002  1.0324282E-002 0.0  1.1687547E-001 -1.0580590E-001 0.0  1.6748288E-002  1.0308931E-002 0.0  2.0008003E-002  1.6017654E-002 0.0  3.0526668E-002  2.4517790E-002 0.0  7.7940751E-002 -1.1997112E-002 0.0  7.4725232E-002 -9.2293975E-003 0.0  2.2365720E-002  1.1256647E-002 0.0  1.9004177E-002  1.4893620E-002 0.0  1.8237742E-002  1.4797916E-002 0.0  1.9862266E-002  1.4984810E-002 0.0  1.1872579E-002  9.5538119E-002 0.0  1.9998236E-002  1.0718938E-002 0.0  1.3986516E-003 -2.6615606E-002 0.0  1.9938590E-002  1.7274437E-002 0.0  1.8324957E-002  2.7921062E-002 0.0  9.8345145E-003  1.1199553E-002 0.0  1.1966134E-002  1.0703536E-002 0.0  1.8745902E-002  1.0279285E-002 0.0  1.9573128E-002  1.2027389E-002 0.0  2.9290109E-002 -4.4401054E-002 0.0  1.0545620E-002  1.7473169E-002 0.0  1.9990251E-002  1.1513298E-002 0.0  6.1719678E-002 -1.3461472E-002 0.0
        </DataArray>
      </Points>
      <Cells>
        <DataArray type="Int32" Name="connectivity" format="ascii">
 892 1114 934 1000 1088 550 889 931 589 589 1101 889 855 929 773 686 866 657 934 1114 852 855 1150 619 637 1060 938 834 1103 907 555 945 223 907 993 561 859 1088 1000 386 937 7 834 907 906 901 1157 914 835 1042 953 866 1022 969 806 1123 1086 655 897 693 580 983 849 1036 1135 594 921 998 551 723 885 872 975 1055 823 849 1074 580 867 1027 560 1086 1123 952 799 854 751 919 1012 812 590 1012 919 561 1070 907 658 909 710 572 911 910 778 1010 956 956 957 778 594 942 848 856 858 558 361 966 561 573 1086 952 781 860 791 365 968 364 683 920 703 768 899 898 953 1080 835 620 855 619 901 914 661 646 1055 975 861 862 765 875 876 570 691 861 765 911 924 829 946 1084 597 872 984 549 594 1135 942 768 898 679 383 947 583 1017 1053 824 894 962 832 724 885 723 823 1060 975 866 969 629 824 1061 1017 727 865 843 7 937 552 223 945 222 1017 1061 611 975 1060 637 699 934 901 601 1030 927 609 897 655 657 866 633 773 870 676 900 1117 614 570 881 875 947 1084 946 847 879 616 558 919 856 649 1053 1017 811 902 688 551 1113 921 699 901 672 676 870 863 938 1060 796 635 909 658 718 1171 857 768 943 899 601 927 602 588 1057 859 962 1116 832 893 995 845 883 884 776 740 911 829 625 920 683 362 966 361 572 924 911 676 863 861 921 1012 998 721 894 832 853 935 772 682 929 855 882 977 579 773 1008 870 593 1052 955 922 965 577 868 1027 867 555 1126 945 547 948 335 384 947 383 999 1088 827 827 1110 999 807 1011 873 1013 1097 932 859 1000 588 637 938 638 786 908 785 799 958 854 1038 1080 600 617 900 614 848 1007 594 931 1013 932 718 857 720 751 854 753 553 1064 964 860 1159 791 964 1016 553 903 904 716 673 903 716 583 947 926 811 1153 902 923 967 771 686 1022 866 669 861 691 943 1099 899 674 906 903 783 860 781 644 1092 960 645 662 644 650 665 646 773 1150 855 603 1038 600 652 666 649 679 898 675 777 883 776 958 1110 854 908 1154 785 659 669 653 655 667 654 966 1070 561 873 874 763 658 675 657 683 684 682 826 1171 718 609 655 654 728 865 727 619 659 653 893 1159 567 635 658 657 843 1003 974 596 968 365 364 968 577 212 1100 1064 910 1019 572 625 683 682 923 1152 967 625 682 623 335 948 334 926 949 583 645 663 662 650 668 665 896 1097 1013 885 1054 872 854 1110 827 652 670 666 635 657 633 850 870 810 663 680 662 853 1151 935 905 915 716 862 912 765 619 653 617 605 652 649 609 654 607 736 876 875 685 894 721 712 871 768 688 902 680 668 705 665 888 1037 552 701 898 798 1011 1131 873 819 918 789 672 901 660 631 650 646 670 694 666 968 1112 922 655 671 667 386 1048 937 659 676 669 943 986 582 621 645 644 726 873 763 658 679 675 944 1137 762 717 880 826 683 685 684 743 1170 928 676 861 669 641 651 647 872 1054 984 990 1105 1104 825 1013 931 760 882 830 750 867 799 685 721 684 776 885 724 715 902 821 890 892 699 736 875 734 401 599 400 574 1021 967 1009 1061 759 663 688 680 995 1145 845 871 943 768 560 1066 867 567 1159 916 647 656 648 674 903 664 922 1112 923 1074 1116 985 856 919 812 884 1068 992 865 1078 843 579 1115 882 874 1131 981 958 997 587 660 901 661 915 965 922 930 1096 744 912 1146 568 592 971 950 664 903 673 904 905 716 902 939 821 913 1072 643 960 1020 644 764 1005 880 687 890 699 669 691 690 847 1093 879 675 701 686 611 1061 1009 642 913 643 819 1102 918 667 707 696 897 1096 693 675 898 701 858 1024 558 982 1112 1035 623 855 620 918 1102 576 815 921 833 709 758 671 878 1109 877 712 768 679 818 1072 913 955 1091 593 616 879 618 704 894 685 714 766 698 970 971 569 576 1045 918 953 1042 575 941 1057 588 656 664 660 905 965 915 795 836 794 793 794 786 680 715 681 709 769 758 726 763 678 969 1022 762 680 902 715 923 1112 982 714 804 766 902 1153 939 705 764 717 764 880 717 629 920 626 651 1120 647 951 1123 601 705 717 706 877 1163 878 765 842 741 694 754 750 707 736 734 931 932 589 704 895 894 691 765 741 691 741 692 647 1120 851 754 867 750 701 760 702 613 897 610 967 1021 891 707 734 708 671 878 667 769 931 889 798 882 760 727 811 688 723 871 712 958 1066 997 549 1069 872 698 886 668 701 798 760 925 1085 869 694 750 695 677 678 670 656 674 664 769 888 758 697 698 668 639 909 636 998 1012 590 916 1159 860 630 866 629 656 660 648 876 1048 570 664 672 660 678 925 670 766 970 887 807 873 726 721 809 722 641 647 642 723 872 871 943 1069 986 605 649 606 673 687 672 892 934 699 727 843 811 873 1131 874 633 866 630 770 891 890 615 847 616 601 1123 1030 715 820 733 862 1146 912 721 832 809 791 845 780 693 709 671 748 812 749 715 821 820 797 844 731 602 927 605 793 795 794 1015 1133 604 664 673 672 1064 1100 963 711 770 687 757 827 822 717 826 718 734 737 735 734 875 737 757 822 772 760 830 761 887 1141 886 748 856 812 725 726 678 875 881 737 674 1026 906 700 714 698 567 1082 893 710 712 679 716 915 711 991 1076 554 791 893 845 754 868 867 765 912 842 762 1137 969 750 799 751 838 933 836 703 704 685 610 897 609 769 889 888 788 789 787 647 648 642 731 865 728 916 1165 567 682 855 623 640 956 639 909 1033 710 780 883 777 720 748 747 1076 1161 554 886 1164 668 906 907 904 766 887 886 741 896 742 863 864 862 689 727 688 925 1167 670 753 757 756 861 863 862 631 646 632 809 849 810 836 1073 837 805 807 726 785 787 783 795 838 836 675 686 657 738 911 740 550 1088 999 845 1145 1068 800 949 926 770 890 687 577 968 922 552 1050 888 669 690 653 915 922 771 920 1137 703 687 699 672 781 791 780 789 790 787 822 859 853 790 917 916 713 723 712 638 938 641 647 851 656 753 854 757 667 696 654 797 941 844 836 837 794 1003 1118 974 878 1163 667 608 1017 611 624 625 623 720 857 748 732 797 731 668 1164 705 771 967 770 815 833 817 670 1167 694 934 1157 901 740 829 828 680 681 662 921 1113 833 673 711 687 636 909 635 910 911 738 652 927 677 848 942 807 924 1091 829 884 885 776 667 1163 707 933 1105 556 831 1016 964 789 918 790 813 921 815 882 1115 830 939 940 821 705 706 665 836 1158 1073 660 661 648 825 931 769 737 910 738 800 819 789 950 971 804 1020 1029 627 621 644 622 779 780 777 788 800 789 928 959 743 787 860 783 643 956 640 721 722 684 626 920 625 903 906 904 634 635 633 955 1052 954 711 771 770 701 702 686 950 972 592 790 916 860 785 788 787 694 695 666 763 1085 925 691 692 690 956 1065 639 730 731 728 775 776 724 800 926 819 696 1015 654 962 1100 565 803 1015 696 599 953 400 707 708 696 714 928 808 848 1086 1007 898 1162 798 809 1074 849 614 1117 613 709 930 825 639 1065 909 845 1068 883 912 945 842 877 937 876 1104 1105 840 715 733 681 760 761 702 879 1031 645 673 716 711 822 1088 859 741 742 692 643 957 956 608 609 607 1014 1023 744 734 735 708 717 718 706 652 677 670 748 749 747 618 619 617 744 1096 1014 857 858 856 964 1064 963 955 1058 829 809 810 722 812 813 749 599 1080 953 992 1160 884 842 896 741 650 697 668 757 772 756 794 908 786 922 923 771 758 878 671 833 834 817 750 751 695 867 1066 799 629 969 920 830 831 761 822 853 772 766 886 698 788 801 800 607 1015 604 737 738 735 570 1119 881 973 1089 820 655 693 671 889 1037 888 801 949 800 963 1100 962 736 877 876 624 1020 627 843 1078 1003 659 773 676 991 1032 864 941 948 844 621 879 645 896 1013 742 812 1012 813 849 850 810 763 925 678 895 962 894 396 954 395 658 710 679 821 1051 820 881 910 737 711 915 771 628 1028 631 929 1008 773 880 1041 826 683 703 685 663 689 688 1098 1114 892 618 879 621 677 725 678 628 629 626 634 975 637 628 1125 1028 942 1011 807 641 642 640 714 808 804 605 927 652 709 825 769 844 865 731 656 851 674 613 1014 897 697 700 698 870 1008 810 992 1068 559 725 805 726 843 974 811 845 883 780 638 639 636 926 946 819 580 1074 985 839 840 838 804 970 766 907 1070 904 895 963 962 779 781 780 700 928 714 832 1116 1074 881 1019 910 790 918 917 612 613 610 805 848 807 693 930 709 1141 1164 886 653 900 617 808 950 804 641 938 651 841 852 840 792 793 786 926 947 946 602 603 600 622 623 620 744 1094 930 710 713 712 906 1026 834 615 1087 847 597 1001 946 730 732 731 790 860 787 775 777 776 689 728 727 665 1055 646 703 944 704 754 869 868 893 1082 995 713 724 723 944 1043 704 820 1089 733 632 633 630 757 854 827 684 929 682 700 959 928 615 616 614 605 606 604 602 605 604 829 1058 828 935 1063 772 748 857 856 604 1133 603 612 615 614 642 643 640 638 641 640 666 1053 649 624 626 625 838 1105 933 890 1034 892 608 610 609 971 1129 569 905 1070 966 568 1077 912 949 987 583 964 1043 831 340 1121 940 616 617 614 770 967 891 1007 1086 573 634 636 635 650 1028 697 905 966 965 631 632 630 895 964 963 606 607 604 571 1128 939 882 1044 977 618 620 619 804 971 970 940 1128 340 784 786 785 662 1092 644 918 1045 917 628 631 630 628 630 629 960 1029 1020 913 1067 818 928 1089 808 899 1162 898 850 1136 870 976 1034 891 598 1135 1036 556 1105 990 859 1057 853 842 1126 896 813 1012 921 601 602 600 891 1034 890 638 640 639 813 815 814 612 614 613 970 1124 887 830 1016 831 981 1046 874 602 604 603 863 1136 864 621 622 620 403 951 402 909 1065 1033 815 817 816 1003 1078 547 618 621 620 795 839 838 736 1163 877 738 740 739 833 1025 834 697 1028 846 584 1158 1108 548 1144 972 718 720 719 608 611 610 982 1152 923 1010 1065 956 663 1031 689 562 601 600 622 624 623 611 612 610 740 828 745 405 573 404 399 575 398 844 1130 865 759 1169 1009 1085 1168 1147 403 952 951 864 1136 1076 957 1156 778 837 908 794 720 747 746 751 753 752 808 973 950 402 562 401 654 1015 607 661 913 648 972 1075 548 784 785 783 556 1108 933 632 634 633 839 841 840 407 594 406 397 595 396 372 976 371 369 982 368 381 564 380 373 563 372 210 978 209 209 579 208 319 598 318 366 596 365 211 553 210 208 977 207 393 593 392 388 570 387 320 980 319 207 557 206 380 988 379 206 979 205 321 578 320 364 577 363 391 572 390 214 565 213 205 582 204 322 981 321 215 985 214 204 986 203 377 556 376 324 566 323 361 561 360 216 580 215 203 549 202 383 583 382 370 574 369 376 990 375 382 987 381 217 983 216 202 984 201 360 993 359 218 554 217 201 585 200 359 586 358 379 584 378 374 994 373 219 991 218 200 992 199 327 560 326 358 996 357 375 581 374 199 559 198 328 997 327 357 551 356 221 568 220 198 995 197 329 587 328 356 998 355 330 999 329 355 590 354 196 567 195 331 550 330 224 555 223 332 1000 331 353 558 352 333 588 332 226 589 225 193 576 192 351 591 350 192 1001 191 350 1002 349 191 597 190 7 552 228 336 547 335 349 546 348 337 1003 336 348 1004 347 347 1006 346 339 571 338 346 569 345 344 592 343 342 548 341 841 934 852 753 756 755 957 1072 1059 907 1103 993 612 1009 615 1005 1166 880 547 1130 948 871 1069 943 634 637 636 588 1081 941 606 608 607 400 953 399 864 1076 991 939 1128 940 616 618 617 798 1044 882 869 1167 925 398 961 397 637 638 636 595 954 396 648 913 642 646 975 632 611 1009 612 782 783 781 799 1066 958 406 1007 405 818 1039 793 895 1043 964 950 973 972 390 1019 389 846 959 700 689 1031 729 767 935 732 209 978 579 553 978 210 579 977 208 319 980 598 207 977 557 557 979 206 578 980 320 574 982 369 563 976 372 205 979 582 321 981 578 381 987 564 214 985 565 582 986 204 564 988 380 580 985 215 203 986 549 373 994 563 379 988 584 583 987 382 216 983 580 549 984 202 561 993 360 554 983 217 201 984 585 359 993 586 375 990 581 556 990 376 218 991 554 585 992 200 586 996 358 581 994 374 199 992 559 327 997 560 357 996 551 559 995 198 587 997 328 551 998 356 329 999 587 355 998 590 550 999 330 331 1000 550 588 1000 332 576 1001 192 591 1002 350 191 1001 597 349 1002 546 336 1003 547 546 1004 348 1004 1006 347 346 1006 569 883 1068 884 619 1150 659 914 1067 661 778 779 777 945 1077 222 792 818 793 1025 1103 834 937 1048 876 729 730 728 595 955 954 624 627 626 572 1019 390 371 1021 370 774 775 724 870 1136 863 1056 1097 555 562 951 601 919 1140 590 558 1140 919 228 1037 227 891 1021 976 937 1050 552 772 1063 756 976 1021 371 370 1021 574 784 792 786 872 1069 871 888 1109 758 352 1024 351 932 1056 589 649 1017 606 927 1122 677 558 1024 352 351 1024 591 813 814 749 924 1143 593 572 1143 924 742 1094 744 627 628 626 1108 1158 933 935 1151 732 560 1027 326 404 952 403 738 739 735 881 1119 1019 1104 1114 581 194 1045 193 761 762 702 722 929 684 219 1032 991 568 1032 220 643 1072 957 645 1031 663 1062 1107 989 851 1134 674 661 1067 913 631 1028 650 896 1126 1097 326 1027 325 742 744 692 194 1106 1045 564 989 988 578 1011 980 553 1016 978 546 1005 1004 733 743 681 394 1052 393 879 1093 1031 718 719 706 586 1025 996 644 1020 622 810 1008 722 405 1007 573 939 1153 571 220 1032 219 785 1154 788 324 1040 566 815 816 814 751 752 695 982 1035 368 562 599 401 582 1099 943 575 961 398 708 803 696 1057 1151 853 592 1129 971 562 600 599 397 961 595 212 1064 211 690 900 653 740 745 739 322 1046 981 566 1046 323 795 1039 839 399 953 575 884 1160 885 904 1070 905 570 1048 387 1037 1101 227 594 1007 406 801 1107 1062 1051 1075 820 779 782 781 224 1056 555 589 1056 225 754 1167 869 720 746 719 222 1077 221 725 806 805 730 767 732 704 1043 895 563 1034 976 775 778 777 1050 1109 888 753 755 752 689 729 728 974 1118 571 325 1040 324 829 1091 955 1027 1040 325 762 1111 944 816 1134 1120 747 796 746 713 774 724 407 1036 594 972 1144 592 865 1130 1078 552 1037 228 952 1123 951 368 1035 367 832 1074 809 17 1142 394 395 1142 17 756 759 755 213 1100 212 793 1039 795 674 1134 1026 697 846 700 828 1042 745 408 1036 407 747 1018 796 341 1121 340 782 784 783 333 1081 588 995 1082 197 196 1082 567 839 914 841 722 1008 929 959 960 743 323 1046 322 1085 1147 869 340 1128 339 749 1018 747 767 936 935 940 1051 821 362 1090 966 965 1090 577 834 1026 817 708 1047 803 226 1101 589 318 1148 15 387 1048 386 827 1088 822 632 975 634 567 1106 195 377 1108 556 584 1108 378 606 1017 608 600 1080 599 565 1116 962 774 1010 775 15 1148 408 944 1111 1043 852 1104 840 569 1124 970 932 1097 1056 193 1045 576 571 1153 974 337 1118 1003 571 1118 338 388 1119 570 16 1139 366 367 1139 16 839 1039 914 603 1132 1038 797 1057 941 190 1138 0 0 1138 385 569 1129 345 344 1129 592 591 1041 1002 987 1062 564 814 1018 749 702 1022 686 627 1125 628 948 1081 334 590 1140 354 353 1140 558 593 1143 392 391 1143 572 592 1144 343 342 1144 548 622 1020 624 874 1085 763 877 1050 937 225 1056 224 692 1023 690 801 1062 949 1019 1119 389 593 1091 924 735 1047 708 587 1110 958 775 1010 778 758 1109 878 1001 1102 946 745 802 739 796 1095 938 912 1077 945 745 835 802 393 1052 593 868 1040 1027 384 1084 947 977 1044 557 1045 1106 917 762 1022 702 984 1054 585 930 1094 825 690 1023 900 889 1101 1037 761 1111 762 706 1055 665 744 1023 692 695 1053 666 402 951 562 755 824 752 989 1073 988 746 823 719 797 1151 1057 1024 1127 591 949 1062 987 993 1103 586 833 1113 1025 917 1165 916 840 1105 838 363 1090 362 710 1033 713 1034 1098 892 581 1114 994 864 1146 862 595 1058 955 817 1134 816 603 1133 1132 1005 1083 1004 938 1095 651 211 1064 553 577 1090 363 730 1071 767 837 1073 989 835 1038 802 850 1161 1076 941 1081 948 739 1047 735 1006 1124 569 997 1066 560 573 952 404 846 1029 959 1016 1115 978 818 1067 1039 946 1102 819 1025 1113 996 852 1114 1104 933 1158 836 745 1042 835 729 1071 730 806 1122 1030 1014 1117 1023 578 1131 1011 986 1069 549 554 1161 983 1011 1135 980 983 1161 849 585 1160 992 830 1115 1016 563 1098 1034 849 1161 850 752 1053 695 546 1166 1005 615 1155 1087 806 1086 805 564 1062 989 869 1147 868 713 1033 774 719 1055 706 988 1073 584 966 1090 965 969 1137 920 334 1081 333 820 1075 973 197 1082 196 1035 1112 596 959 1029 960 548 1075 1051 221 1077 568 967 1152 574 778 1156 779 973 1075 972 743 1092 681 1044 1079 557 792 1072 818 858 1127 1024 961 1058 595 756 1063 759 885 1160 1054 808 1089 973 1030 1123 806 385 1084 384 837 1107 908 1031 1093 729 557 1079 979 694 1167 754 1014 1096 897 936 1063 935 989 1107 837 784 1059 792 816 1049 814 705 1164 764 954 1142 395 802 1047 739 764 1141 1005 707 1163 736 791 1159 893 1147 1168 566 227 1101 226 782 1059 784 568 1146 1032 1030 1122 927 942 1135 1011 928 1170 1089 1041 1127 826 1004 1083 1006 732 1151 797 195 1106 194 378 1108 377 681 1092 662 596 1112 968 1041 1166 1002 565 1100 213 825 1094 1013 831 1111 761 725 1122 806 960 1092 743 805 1086 848 824 1053 752 814 1049 1018 945 1126 842 1071 1087 767 1120 1134 851 823 1055 719 338 1118 337 389 1119 388 914 1157 841 994 1098 563 1059 1072 792 979 1099 582 576 1102 1001 693 1096 930 729 1093 1071 1058 1149 828 796 1060 746 798 1162 1044 990 1104 581 1079 1099 979 1013 1094 742 857 1171 858 948 1130 844 759 1061 755 1043 1111 831 1084 1138 597 394 1142 1052 1047 1132 803 1018 1095 796 1039 1067 914 548 1121 341 345 1129 344 996 1113 551 999 1110 587 1044 1162 1079 586 1103 1025 978 1115 579 354 1140 353 1009 1155 615 835 1080 1038 392 1143 391 985 1116 565 343 1144 342 746 1060 823 339 1128 571 755 1061 824 774 1065 1010 788 1154 801 803 1133 1015 764 1164 1141 677 1122 725 880 1166 1041 767 1087 936 1032 1146 864 597 1138 190 366 1139 596 598 1148 318 961 1149 1058 981 1131 578 1005 1141 1083 1033 1065 774 980 1135 598 974 1153 811 802 1132 1047 567 1165 1106 1040 1147 566 868 1147 1040 1127 1171 826 559 1145 995 899 1099 1079 703 1137 944 733 1170 743 574 1152 982 828 1149 1042 1049 1095 1018 782 1156 1059 659 1150 773 1023 1117 900 575 1149 961 1097 1126 555 816 1120 1049 566 1168 1046 1002 1166 546 1051 1121 548 1042 1149 575 591 1127 1041 1028 1125 846 940 1121 1051 841 1157 934 613 1117 1014 1038 1132 802 877 1109 1050 1035 1139 367 936 1169 1063 1063 1169 759 1026 1134 817 596 1139 1035 1052 1142 954 651 1095 1049 408 1148 1036 779 1156 782 1078 1130 547 994 1114 1098 1068 1145 559 847 1087 1071 1036 1148 598 1083 1124 1006 1083 1141 887 1054 1160 585 1059 1156 957 1049 1120 651 846 1125 1029 1071 1093 847 801 1154 1107 887 1124 1083 1076 1136 850 1029 1125 627 385 1138 1084 1073 1158 584 1046 1168 874 1107 1154 908 1132 1133 803 874 1168 1085 1087 1155 936 858 1171 1127 1079 1162 899 1106 1165 917 1089 1170 733 1155 1169 936 1009 1169 1155 1529 1803 1306 1179 1734 1553 1483 1672 1610 1305 1869 1746 1271 1866 1789 1575 1577 1570 1505 1797 1506 1192 1590 1589 1530 1872 1694 1616 1893 1710 1208 1695 1536 1698 1872 1489 1732 1794 1597 1746 1747 1305 1754 1803 1529 1643 1727 1726 1200 1763 1612 1308 1803 1754 1616 1710 1492 1562 1674 1395 1610 1672 1184 1577 1906 1570 1192 1903 1590 1813 1918 1511 1463 1782 1662 1536 1695 1552 1333 1602 1391 1602 1841 1790 1641 1648 1638 1562 1876 1674 1306 1839 1529 1568 1648 1641 1606 1608 1607 1213 1906 1577 1611 1768 1189 1606 1973 1540 1612 1763 1613 1325 1578 1310 1643 1726 1185 1662 1782 1194 1511 1918 1521 1694 1872 1206 1552 1695 1225 36 1696 35 1588 1713 1522 1546 1943 1388 1196 1748 1620 1434 1575 1570 1617 1698 1489 1655 1845 1719 1618 1821 1661 1696 1910 35 1360 1546 1388 184 1598 185 1710 1886 1219 1419 1573 1416 1709 1710 1219 1620 1748 1622 1597 1794 1512 1395 1963 1562 1225 1696 1552 1576 1588 1406 1365 1889 1852 1273 1505 1263 1362 1599 1376 1599 1942 1376 1325 1769 1578 1226 1739 1708 1261 1273 1263 1611 1843 1830 1693 1757 1631 1655 1719 1212 1319 1602 1333 1683 1705 1205 1226 1228 33 1649 1852 1350 1608 1609 1607 1631 1757 1630 1584 1768 1611 1797 1798 1506 1553 1759 1179 1641 1852 1649 1404 1588 1522 1388 1943 1503 1611 1830 1612 1187 1851 1817 1315 1841 1602 1817 1851 1631 1573 1951 1416 1703 1753 1684 1276 1901 1544 1613 1614 1467 1661 1883 1618 1385 1583 1363 1544 1961 1276 1206 1872 1698 1748 1786 1622 1694 1738 1530 1513 1887 1858 1579 1596 1487 1802 1860 1533 1569 1571 1423 1592 1593 1454 1243 1539 1276 1261 1263 1262 1622 1786 1673 1654 1666 1470 1184 1646 366 1715 1788 1222 1487 1596 1520 1643 1778 1727 1618 1835 1821 1261 1962 1508 1795 1943 1861 1409 1576 1406 1588 1934 1713 1397 1579 1487 1897 1944 1407 1432 1613 1467 1734 1766 1553 1312 1578 1315 1481 1672 1483 1241 1539 1243 1591 1791 1177 1333 1354 1332 1435 1575 1434 1229 1232 1231 1684 1890 1703 1232 1359 1233 1331 1355 1325 1584 1611 1462 1267 1274 1270 1309 1331 1325 1365 1852 1640 1661 1668 1659 1370 1371 1342 1279 1303 1281 1533 1826 1802 1601 1777 1210 1239 1554 1305 1583 1924 1363 366 1646 16 1310 1578 1312 1326 1342 1327 1522 1604 1402 1285 1395 1287 1292 1349 1304 1577 1755 1213 1319 1333 1332 1282 1545 1285 1241 1969 1539 1303 1352 1341 1421 1569 1423 1228 1669 1229 1586 1587 1469 1550 1972 1939 1319 1332 1320 1580 1581 1479 1551 1794 1732 1451 1592 1454 1249 1261 1251 1349 1362 1351 1331 1363 1355 1301 1585 1309 1789 1866 1637 1349 1351 1304 1288 1615 1292 1237 1554 1239 1303 1341 1281 1505 1891 1796 1740 1972 1550 1431 1584 1462 1326 1370 1342 1275 1541 1279 1329 1825 1819 1406 1588 1404 1554 1869 1305 1356 1557 1357 33 1228 32 1396 1397 1359 1829 1895 1678 1555 1556 1356 1333 1360 1354 1360 1388 1354 185 1598 1190 1363 1389 1355 1237 1972 1554 1396 1669 1515 1322 1326 1324 1372 1429 1371 1670 1952 1664 1263 1265 1264 1457 1580 1479 1536 1966 1208 1848 1908 1328 1370 1372 1371 1309 1325 1310 1632 1908 1848 1596 1864 1520 1445 1586 1469 1362 1376 1351 1316 1319 1318 1654 1913 1666 1315 1602 1316 1243 1276 1245 1352 1380 1373 1298 1300 1299 1232 1233 1231 1342 1555 1343 372 1850 1837 1352 1373 1341 1463 1662 1513 1282 1959 1545 1395 1743 1287 1510 1973 1606 1232 1669 1396 1758 1761 1453 1800 1897 1407 1504 1735 1730 1343 1356 1347 1376 1942 1502 1312 1315 1314 1492 1780 1616 1232 1396 1359 1632 1848 1378 1629 1895 1829 1193 1639 1635 1343 1555 1356 1273 1891 1505 1374 1431 1375 1591 1616 1494 1380 1595 1481 1397 1487 1425 1668 1779 1659 1475 1655 1654 1322 1957 1326 1275 1279 1278 1316 1602 1319 1557 1964 1357 1239 1305 1241 1228 1229 1201 1556 1558 1557 1514 1579 1397 1357 1374 1361 1226 1812 1228 1569 1722 1571 1190 1879 1799 1205 1871 1683 1646 1898 16 1279 1281 1280 1300 1585 1301 1421 1423 1419 1440 1501 1429 1645 1842 353 1372 1440 1429 1664 1952 1665 1671 1717 1182 1204 1664 1642 1660 1661 1659 1485 1671 1652 1576 1934 1588 1433 1584 1431 1379 1427 1362 32 1228 1201 1274 1275 1270 1183 1864 1596 1301 1309 1307 1235 1335 1237 1650 1946 1777 1660 1883 1661 1349 1615 1379 1204 1670 1664 1792 1818 1304 1603 1666 1174 1394 1491 1392 1292 1304 1293 1431 1462 1432 353 1919 1645 1223 1660 1659 1380 1481 1373 1651 1934 1576 1434 1569 1421 1376 1502 1450 1469 1591 1494 1559 1560 1558 1389 1480 1445 1457 1479 1385 1388 1458 1444 1506 1960 1505 1797 1944 1798 1384 1385 1363 1796 1797 1505 1705 1749 1205 1295 1298 1297 1402 1604 1400 1480 1586 1445 1249 1962 1261 1394 1492 1491 1397 1425 1359 1326 1327 1324 1711 1712 1531 1392 1546 1360 1378 1865 1632 1342 1343 1327 1374 1433 1431 1521 1818 1792 1641 1649 1568 1503 1504 1458 1434 1570 1569 1696 1749 1552 1652 1845 1655 1819 1825 1649 1502 1538 1450 1461 1490 1413 1491 1709 1547 1388 1503 1458 1470 1472 1438 1682 1683 1191 1285 1287 1286 1782 1807 1665 1556 1559 1558 1389 1445 1390 1428 1496 1427 1503 1943 1795 1396 1514 1397 1592 1644 1593 1602 1790 1391 1650 1777 1496 1288 1967 1615 1601 1725 1600 1675 1846 1193 1356 1357 1347 1613 1763 1614 1496 1498 1427 1587 1791 1591 1413 1576 1409 1556 1557 1356 1429 1594 1430 1760 1942 1927 1285 1545 1395 1499 1580 1457 1374 1375 1361 1487 1520 1519 1440 1551 1501 1485 1652 1476 1386 1457 1385 1438 1575 1435 1332 1548 1320 1461 1589 1490 1475 1654 1471 1799 1879 1707 1319 1320 1318 1400 1595 1380 1228 1812 1669 1210 1914 1601 1265 1267 1266 1391 1392 1360 1425 1745 1359 1195 1916 1563 1604 1898 1646 1261 1262 1251 1589 1590 1490 1538 1644 1592 1261 1508 1273 1381 1400 1380 1269 1840 1783 1549 1745 1425 1674 1743 1395 1431 1432 1375 1400 1604 1595 1491 1547 1546 1445 1469 1446 1288 1292 1290 1420 1421 1419 1669 1812 1515 1376 1450 1377 1466 1499 1457 1458 1597 1512 1798 1897 1542 1570 1722 1569 1274 1929 1804 1541 1771 1303 1263 1960 1265 1533 1650 1497 1184 1672 1646 1860 1950 1533 1499 1766 1580 1427 1599 1362 1483 1610 1534 1422 1434 1421 1335 1972 1237 1393 1394 1392 1539 1901 1276 1476 1652 1475 1429 1430 1371 1571 1574 1572 1671 1904 1717 1595 1672 1481 1589 1787 1192 1439 1470 1438 1533 1950 1650 1448 1807 1782 1300 1828 1585 1497 1650 1496 1498 1601 1600 1315 1316 1314 1563 1928 1195 1193 1846 1639 1486 1531 1485 1349 1379 1362 1559 1643 1560 1471 1654 1470 1227 1788 1715 1673 1786 1187 1229 1231 1230 1472 1603 1577 1320 1548 1322 1388 1444 1354 1657 1767 1276 1579 1598 1596 1532 1533 1497 1298 1918 1813 1279 1541 1303 1611 1612 1462 1571 1572 1423 1456 1838 1773 1282 1285 1284 1292 1615 1349 1543 1553 1499 1712 1904 1531 32 1201 31 34 1226 33 1275 1968 1541 1612 1830 1200 1472 1577 1575 1534 1826 1484 1363 1924 1389 1487 1519 1425 1607 1784 1772 1604 1646 1595 1642 1664 1467 1801 1847 1348 1462 1613 1432 30 1193 29 1414 1461 1413 1515 1812 1708 1798 1944 1897 1222 1915 1715 1478 1485 1476 1644 1645 1593 1334 1765 1667 30 1675 1193 1505 1960 1263 1418 1419 1416 1357 1964 1374 1187 1817 1673 1542 1804 1798 1772 1784 1701 1437 1438 1435 1560 1561 1558 1451 1454 1453 1177 1893 1591 1474 1475 1471 1404 1522 1402 1490 1651 1576 1594 1778 1430 1501 1594 1429 1352 1381 1380 1199 1698 1617 1596 1827 1183 1263 1264 1262 1708 1739 1203 1230 1675 1201 1520 1711 1519 1298 1813 1300 1379 1428 1427 1502 1760 1538 1838 1867 1773 1470 1666 1472 1331 1384 1363 1587 1591 1469 1389 1390 1355 1732 1948 1551 1394 1780 1492 1458 1512 1444 1309 1310 1307 1498 1600 1599 1727 1778 1594 1762 1881 1824 1423 1573 1419 1233 1745 1235 1191 1684 1682 1652 1655 1475 1644 1921 1215 1581 1582 1479 1481 1483 1482 1226 1896 1739 1491 1546 1392 1411 1413 1409 1428 1497 1496 1555 1880 1556 1849 1935 1268 1450 1592 1451 1504 1597 1458 1837 1850 1574 1730 1932 1504 1401 1402 1400 1490 1576 1413 1300 1301 1299 1498 1777 1601 1276 1767 1245 1229 1669 1232 1279 1280 1278 1453 1940 1758 1267 1929 1274 1598 1879 1190 1483 1534 1484 1769 1833 1578 1342 1974 1555 1225 1910 1696 1858 1887 1188 1384 1386 1385 1445 1446 1390 1653 1855 1639 1502 1942 1760 1782 1952 1194 1585 1971 1309 1298 1299 1297 1522 1898 1604 1472 1575 1438 1281 1959 1282 1538 1921 1644 1578 1841 1315 1376 1377 1351 1386 1466 1457 1659 1779 1647 1590 1651 1490 1201 1675 31 1615 1808 1379 1469 1494 1446 1333 1391 1360 1479 1583 1385 1267 1270 1269 1501 1764 1594 1702 1706 1202 1510 1772 1509 1184 1857 1610 1466 1543 1499 1174 1923 1603 1478 1486 1485 1531 1671 1485 1492 1709 1491 1712 1751 1209 1710 1893 1770 1371 1974 1342 1826 1876 1484 1579 1879 1598 1538 1592 1450 1354 1605 1332 1474 1476 1475 1594 1764 1727 1508 1773 1273 1655 1862 1654 1480 1881 1762 1223 1659 1658 1439 1471 1470 1432 1467 1464 1437 1439 1438 1370 1495 1372 1614 1642 1467 1359 1745 1233 1450 1451 1377 1580 1947 1581 1420 1422 1421 1305 1969 1241 1352 1771 1381 1357 1361 1358 1274 1968 1275 1422 1435 1434 1624 1633 1621 1391 1393 1392 1492 1710 1709 1292 1293 1290 1498 1599 1427 1381 1401 1400 1295 1918 1298 1390 1769 1355 1418 1420 1419 1495 1663 1372 1393 1525 1394 1245 1767 1247 1189 1843 1611 1671 1845 1652 1250 1756 1248 1233 1235 1234 1581 1947 1733 1343 1347 1346 1281 1282 1280 1453 1761 1511 1621 1633 1524 1481 1482 1373 1287 1288 1286 1411 1414 1413 1447 1769 1390 1822 1915 1222 1403 1404 1402 1472 1666 1603 1833 1920 1526 1265 1929 1267 1372 1663 1440 1285 1286 1284 1265 1266 1264 1683 1871 1191 1558 1877 1557 1608 1847 1609 1541 1912 1771 1656 1752 1378 1199 1883 1882 1367 1859 1789 1483 1484 1482 1480 1762 1586 1381 1771 1426 1486 1711 1531 1709 1885 1547 1320 1322 1321 1707 1708 1203 1229 1230 1201 1634 1781 28 1623 1673 1626 1350 1819 1649 1603 1755 1577 1412 1816 1797 1332 1970 1548 1260 1676 1336 1648 1900 1638 1676 1678 1336 1258 1676 1260 1329 1686 1677 1259 1686 1329 1368 1678 1442 1336 1678 1368 1338 1692 1686 1686 1692 1677 1330 1685 1364 1338 1686 1272 1364 1685 1399 1679 1685 1330 1387 1679 1339 1387 1680 1679 1339 1679 1302 1387 1681 1680 1680 1685 1679 1443 1687 1369 1681 1705 1683 1687 1705 1681 1681 1682 1680 1537 1687 1443 1369 1687 1387 1387 1687 1681 1681 1683 1682 1366 1692 1338 1441 1689 1535 1398 1688 1465 1459 1690 1518 1677 1692 1564 1564 1692 1460 442 1695 441 441 1695 1208 426 1694 1206 438 1693 437 441 1208 440 427 1694 426 431 1697 1207 1208 1704 440 44 1702 43 432 1697 431 436 1187 435 424 1199 423 45 1224 44 426 1206 425 428 1699 427 430 1701 429 431 1207 430 433 1196 432 439 1197 438 424 1698 1199 427 1699 1694 1207 1701 430 40 1191 39 43 1202 42 38 1205 37 1224 1702 44 422 1223 421 1197 1693 438 1565 1619 1567 1196 1697 432 439 1704 1197 1202 1703 42 425 1698 424 43 1702 1202 1206 1698 425 429 1198 428 429 1701 1198 443 1225 442 1198 1699 428 1567 1568 1566 42 1703 41 440 1704 439 1567 1648 1568 1225 1695 442 1565 1567 1566 1566 1677 1564 1565 1566 1564 1563 1565 1564 1536 1552 1537 1563 1564 1460 1518 1563 1460 1536 1537 1443 1465 1691 1690 1535 1536 1443 1459 1518 1460 1460 1692 1366 1465 1690 1459 1442 1689 1441 1459 1460 1366 1399 1688 1398 1398 1465 1459 1441 1535 1443 1364 1399 1398 1441 1443 1369 1368 1442 1441 1398 1459 1366 1364 1398 1366 1368 1441 1369 1369 1387 1339 1537 1705 1687 1364 1366 1338 1368 1369 1339 1336 1368 1339 1330 1364 1338 1330 1338 1272 1302 1679 1330 1336 1339 1302 1628 1631 1630 1302 1330 1272 1260 1336 1302 1628 1630 1629 1260 1302 1272 1272 1686 1259 1628 1629 1627 1260 1272 1259 1627 1632 1625 1626 1628 1627 1258 1260 1259 1259 1329 1257 1328 1676 1258 1626 1627 1625 1256 1328 1258 1258 1259 1257 1789 1859 1271 1623 1626 1625 1256 1258 1257 1623 1625 1624 1684 1750 1682 1309 1971 1331 1545 1963 1395 1215 1842 1644 1500 1532 1497 1766 1947 1580 1256 1257 1255 1623 1624 1621 1622 1673 1623 1322 1324 1323 1515 1707 1514 1688 1706 1465 1345 1823 1516 25 1884 1619 1646 1672 1595 1750 1753 1399 418 1188 417 1465 1706 1691 1612 1613 1462 1255 1350 1253 1254 1256 1255 1605 1970 1332 1622 1623 1621 1520 1712 1711 1274 1804 1542 1591 1893 1616 1725 1927 1600 1689 1941 1535 1765 1954 1667 1663 1794 1440 1252 1656 1378 433 1748 1196 1537 1749 1705 1685 1750 1399 1682 1750 1680 385 1751 0 1707 1879 1514 1496 1777 1498 1303 1771 1352 1941 1966 1535 1708 1812 1226 415 1194 414 1401 1403 1402 1574 1787 1572 367 1172 368 384 1209 385 383 1717 384 380 1212 381 318 1227 319 365 1184 366 319 1714 320 379 1720 380 320 1200 321 363 1211 364 16 1713 367 362 1716 363 361 1181 362 375 1213 376 323 1189 324 360 1718 361 382 1182 383 370 1192 371 381 1719 382 324 1723 325 359 1210 360 325 1214 326 378 1174 379 373 1173 374 326 1724 327 357 1725 358 374 1721 375 327 1185 328 356 1180 357 328 1726 329 355 1728 356 329 1216 330 354 1215 355 330 1729 331 331 1175 332 332 1731 333 351 1179 352 333 1217 334 350 1734 351 334 1730 335 349 1218 350 335 1735 336 348 1733 349 336 1176 337 337 1736 338 346 1178 347 338 1219 339 345 1737 346 344 1220 345 341 1177 342 1316 1318 1317 1783 1849 1269 1287 1967 1288 1512 1794 1663 1684 1753 1750 1276 1961 1657 1790 1841 1526 31 1675 30 1699 1738 1694 1642 1822 1204 1700 1784 1609 1275 1278 1277 419 1647 418 1235 1237 1236 420 1658 419 376 1755 377 413 1204 412 1235 1976 1335 1656 1844 1752 1432 1464 1375 1642 1915 1822 1619 1956 25 1553 1766 1499 434 1748 433 1252 1378 1254 1722 1975 1571 27 1186 26 21 1741 20 22 1221 21 24 1195 23 23 1742 22 1635 1637 1636 1552 1749 1537 1680 1750 1685 1254 1255 1253 1477 1478 1476 1593 1815 1454 1405 1406 1404 1355 1769 1325 411 1222 410 1855 1938 1639 1504 1795 1735 1696 1853 1749 1212 1862 1655 1418 1744 1420 1635 1789 1637 1713 1934 1172 1351 1792 1304 416 1662 415 1620 1622 1621 1535 1966 1536 367 1713 1172 384 1717 1209 1227 1714 319 320 1714 1200 1182 1717 383 363 1716 1211 1212 1719 381 1181 1716 362 380 1720 1212 361 1718 1181 1174 1720 379 382 1719 1182 1189 1723 324 1210 1718 360 325 1723 1214 375 1721 1213 1214 1724 326 1173 1721 374 327 1724 1185 1180 1725 357 1185 1726 328 356 1728 1180 329 1726 1216 1215 1728 355 1216 1729 330 331 1729 1175 1175 1731 332 333 1731 1217 351 1734 1179 1217 1730 334 1218 1734 350 1730 1735 335 349 1733 1218 336 1735 1176 1176 1736 337 338 1736 1219 346 1737 1178 1220 1737 345 1198 1700 1699 1473 1474 1471 1193 1635 1634 1572 1573 1423 414 1670 413 1213 1755 376 1433 1878 1584 1310 1312 1311 1531 1904 1671 1412 1797 1796 1747 1969 1305 1649 1825 1568 1399 1753 1688 1237 1239 1238 1233 1234 1231 184 1827 1598 1466 1758 1543 1187 1786 435 1211 1958 1857 1209 1904 1712 1516 1618 1617 1467 1664 1464 1526 1841 1833 1524 1945 1383 1620 1621 1524 1504 1932 1597 1239 1241 1240 1645 1759 1593 1451 1453 1452 1609 1847 1801 1253 1756 1250 1197 1757 1693 36 1853 1696 1396 1515 1514 1582 1583 1479 1436 1437 1435 1636 1781 1634 1357 1358 1347 1426 1912 1897 1312 1314 1313 1241 1243 1242 1617 1883 1199 1482 1793 1373 1454 1940 1453 1702 1936 1706 1605 1905 1495 1899 1911 1724 1631 1851 1693 1243 1245 1244 1186 1900 1648 1267 1269 1266 1503 1795 1504 29 1634 28 1644 1842 1645 1378 1848 1254 341 1770 1177 1221 1741 21 22 1742 1221 1195 1742 23 1245 1247 1246 1255 1819 1350 1408 1409 1406 1711 1856 1519 1428 1500 1497 1673 1817 1626 1651 1805 1172 1293 1818 1295 434 1786 1748 1444 1605 1354 1798 1804 1506 1633 1783 1524 1415 1416 1414 1772 1870 1509 1519 1549 1425 1637 1640 1638 340 1770 341 1247 1249 1248 1301 1307 1306 368 1805 369 1553 1815 1759 1542 1968 1274 1207 1772 1701 1700 1738 1699 1633 1935 1849 1805 1903 369 1227 1715 1714 1173 1722 1721 1728 1760 1180 1726 1727 1216 1731 1732 1217 1218 1766 1734 1628 1817 1631 1440 1794 1551 1329 1819 1257 1249 1251 1250 1403 1405 1404 1640 1641 1638 1343 1346 1327 1209 1751 385 1345 1516 1489 1516 1835 1618 1410 1411 1409 1177 1791 342 1677 1825 1329 1568 1825 1566 1220 1762 1737 1543 1815 1553 1585 1828 1775 1361 1448 1358 1676 1829 1678 1555 1974 1880 1417 1418 1416 1189 1768 1723 1882 1883 1660 187 1203 188 1382 1973 1510 1291 1814 1608 1658 1659 1647 1760 1921 1538 1326 1907 1370 1616 1780 1494 34 1896 1226 1661 1811 1668 1361 1807 1448 1745 1976 1235 1789 1938 1367 1598 1827 1596 185 1190 186 1478 1550 1486 1559 1778 1643 1500 1674 1532 1367 1938 1855 1416 1951 1414 1446 1447 1390 1780 1854 1494 1590 1805 1651 348 1806 1733 1178 1806 347 372 1837 373 1778 1880 1430 1256 1848 1328 1733 1806 1581 1929 1960 1506 1802 1826 1534 1223 1882 1660 1191 1890 1684 1293 1295 1294 1545 1959 1793 1373 1793 1341 1386 1493 1466 436 1851 1187 1693 1851 437 1474 1477 1476 1609 1801 1700 1663 1905 1512 353 1842 354 1741 1776 20 1570 1906 1722 1529 1839 1344 1439 1473 1471 342 1791 343 371 1850 372 1714 1763 1200 1216 1764 1729 1517 1657 1424 27 1781 1186 1639 1938 1635 1562 1793 1482 1191 1871 39 38 1871 1205 1551 1831 1501 20 1776 19 1657 1744 1424 1200 1830 321 1381 1426 1401 1295 1297 1296 435 1786 434 0 1183 183 344 1832 1220 422 1882 1223 1199 1882 423 1288 1290 1289 1703 1890 41 40 1890 1191 1275 1277 1270 28 1781 27 1194 1670 414 1451 1452 1377 186 1799 187 1320 1321 1318 1426 1897 1800 1824 1937 1178 1629 1908 1627 1422 1436 1435 418 1647 1188 1512 1905 1444 3 1910 443 35 1910 3 323 1843 1189 1488 1529 1344 1220 1931 1762 1563 1916 1565 1484 1562 1482 1252 1254 1253 1405 1408 1406 1619 1965 1567 188 1739 189 1700 1933 1738 189 1896 1 1324 1765 1334 413 1670 1204 0 1751 1183 1477 1740 1478 1525 1780 1394 1185 1911 1643 415 1662 1194 1393 1526 1525 1720 1862 1212 1857 1958 1610 1515 1708 1707 1188 1887 417 1637 1638 1636 1282 1284 1283 37 1853 36 365 1857 1184 1211 1857 364 1231 1653 1230 1757 1941 1689 1334 1821 1323 1411 1415 1414 1382 1510 1509 1235 1236 1234 1715 1763 1714 1727 1764 1216 1878 1888 1768 1473 1746 1474 410 1788 409 1268 1935 1844 347 1806 348 1586 1931 1587 352 1919 353 1793 1963 1545 1706 1936 1691 1478 1740 1550 26 1884 25 1247 1962 1249 1358 1809 1347 1759 1919 1179 1532 1826 1533 1640 1866 1365 1818 1918 1295 1222 1788 410 1523 1620 1524 1464 1807 1375 1633 1849 1783 1219 1886 339 1737 1824 1178 1548 1957 1322 1316 1317 1314 419 1658 1647 1852 1889 1756 1493 1758 1466 1403 1407 1405 1783 1945 1524 1408 1410 1409 1182 1845 1671 1620 1953 1196 1453 1511 1452 1322 1323 1321 370 1903 1192 1571 1975 1574 1624 1935 1633 1523 1524 1383 1474 1746 1477 1436 1455 1437 15 1930 318 1486 1856 1711 1541 1968 1912 359 1914 1210 1725 1914 358 1204 1822 412 2 1922 45 1 1896 34 378 1923 1174 1172 1805 368 1324 1334 1323 1614 1763 1715 1861 1943 1547 1645 1919 1759 1606 1607 1510 1781 1900 1186 1939 1972 1335 409 1930 15 1735 1795 1176 1773 1873 1456 1755 1923 377 19 1922 2 1716 1802 1211 1791 1832 343 1310 1311 1307 1415 1417 1416 1375 1807 1361 1572 1863 1573 1197 1941 1757 1198 1784 1700 1379 1808 1428 1408 1412 1410 421 1925 18 1844 1935 1752 1424 1744 1418 1291 1608 1606 1495 1905 1663 1221 1917 1909 1484 1876 1562 1304 1818 1293 1590 1903 1805 1625 1865 1624 1618 1883 1617 1664 1665 1464 1500 1743 1674 1877 1964 1557 412 1822 411 1635 1636 1634 1603 1923 1755 1237 1238 1236 1514 1879 1579 1468 1527 1449 1350 1756 1253 1740 1869 1554 1626 1817 1628 1712 1864 1751 340 1886 1770 1301 1306 1299 1417 1424 1418 1744 1785 1420 1410 1810 1411 1703 1892 1753 18 1925 420 1688 1892 1706 1437 1774 1439 1257 1819 1255 321 1830 322 1473 1747 1746 1447 1833 1769 1863 1951 1573 1384 1775 1386 1776 1894 1224 1706 1892 1202 1639 1846 1653 1239 1240 1238 343 1832 344 1560 1911 1899 183 1827 184 1528 1667 1527 1203 1799 1707 1566 1825 1677 411 1822 1222 24 1956 1195 1856 1939 1549 1511 1521 1452 1609 1784 1607 1762 1931 1586 1870 1953 1523 1436 1544 1455 1560 1899 1561 1448 1463 1449 1532 1876 1826 1293 1294 1290 1667 1811 1334 1323 1821 1337 1328 1829 1676 1448 1782 1463 1764 1831 1729 1327 1765 1324 1559 1880 1778 1643 1911 1560 1601 1914 1725 1738 1754 1530 1401 1800 1403 1312 1313 1311 1278 1340 1277 1455 1774 1437 1525 1854 1780 1288 1289 1286 1241 1242 1240 1221 1909 1741 1678 1895 1442 1610 1958 1534 1412 1796 1507 1214 1899 1724 1912 1968 1542 1787 1863 1572 1282 1283 1280 1420 1785 1422 1493 1761 1758 1412 1507 1410 1637 1866 1640 1262 1656 1251 1347 1809 1346 1377 1792 1351 1417 1456 1424 1446 1854 1447 1243 1244 1242 1793 1959 1341 1277 1840 1270 1495 1970 1605 1554 1972 1740 1180 1927 1725 1455 1902 1774 1729 1831 1175 1391 1790 1393 1701 1784 1198 373 1837 1173 1614 1915 1642 1816 1944 1797 322 1843 323 1584 1878 1768 1829 1908 1629 1830 1843 322 1801 1933 1700 1582 1937 1824 1447 1920 1833 1665 1807 1464 1587 1832 1791 1519 1856 1549 1517 1767 1657 1439 1774 1473 1762 1824 1737 1386 1775 1493 1665 1952 1782 1768 1888 1723 1463 1513 1468 1787 1850 1192 1722 1906 1721 1321 1834 1318 1461 1863 1589 1448 1449 1358 1245 1246 1244 1428 1808 1500 1647 1779 1188 1219 1885 1709 1550 1939 1856 1742 1928 1917 1770 1886 1710 1597 1932 1732 1884 1965 1619 1265 1960 1929 1509 1870 1523 1761 1813 1511 1205 1853 37 187 1799 1203 1314 1823 1313 1728 1921 1760 1648 1965 1186 1713 1898 1522 1516 1617 1489 1732 1932 1217 1426 1800 1401 1759 1815 1593 1218 1947 1766 1731 1948 1732 1295 1296 1294 1632 1865 1625 1411 1810 1415 1461 1951 1863 1234 1653 1231 1624 1865 1752 1247 1248 1246 1520 1864 1712 354 1842 1215 1252 1253 1250 1346 1765 1327 1581 1937 1582 1449 1809 1358 1193 1634 29 1190 1799 186 1667 1954 1527 1230 1846 1675 1254 1848 1256 364 1857 365 437 1851 436 417 1887 416 1341 1959 1281 1574 1850 1787 1192 1850 371 1422 1785 1436 1761 1828 1813 1456 1517 1424 1719 1845 1182 1348 1875 1801 1403 1800 1407 1249 1250 1248 1173 1975 1722 1270 1840 1269 16 1898 1713 1284 1291 1283 1297 1308 1296 1291 1540 1283 1749 1853 1205 1716 1860 1802 1452 1792 1377 1172 1934 1651 1290 1836 1289 1795 1861 1176 1183 1827 183 1530 1754 1529 1547 1943 1546 1556 1880 1559 1393 1790 1526 1266 1268 1264 1689 1949 1757 1561 1888 1878 1742 1917 1221 1527 1809 1449 1666 1913 1174 1389 1924 1480 1238 1367 1236 1251 1252 1250 1767 1874 1247 1463 1468 1449 1589 1863 1787 1640 1852 1641 1311 1839 1307 1894 1936 1224 1820 1973 1340 1318 1834 1317 1880 1974 1430 1774 1902 1747 1507 1810 1410 1442 1949 1689 1408 1816 1412 1307 1839 1306 1862 1913 1654 1773 1891 1273 1278 1820 1340 1296 1348 1294 1251 1656 1252 1468 1528 1527 1488 1530 1529 1494 1854 1446 39 1871 38 1181 1860 1716 1473 1774 1747 1317 1823 1314 1833 1841 1578 1323 1337 1321 1501 1831 1764 1754 1933 1308 416 1887 1662 1340 1353 1277 1561 1877 1558 1528 1779 1668 1500 1808 1743 1405 1816 1408 1840 1945 1783 1777 1946 1210 1813 1828 1300 1662 1887 1513 1313 1344 1311 1823 1868 1516 339 1886 340 1176 1861 1736 1242 1271 1240 1195 1956 1916 1294 1836 1290 1407 1816 1405 423 1882 422 1753 1892 1688 1562 1963 1793 1210 1946 1718 1549 1976 1745 1661 1821 1811 1607 1772 1510 1615 1967 1808 1436 1785 1544 1873 1962 1874 1521 1792 1452 1299 1803 1297 1280 1820 1278 41 1890 40 1508 1962 1873 1202 1892 1703 1528 1668 1667 1203 1739 188 1550 1856 1486 1313 1345 1344 1630 1895 1629 1286 1814 1284 1414 1951 1461 1340 1382 1353 1697 1870 1207 1297 1803 1308 1600 1942 1599 369 1903 370 1224 1936 1702 1291 1606 1540 1574 1975 1837 1927 1942 1600 1195 1928 1742 1815 1940 1454 1246 1365 1244 1374 1964 1433 1627 1908 1632 1223 1925 421 1353 1840 1277 1509 1523 1383 45 1922 1224 1831 1948 1175 1756 1889 1248 1691 1909 1690 1417 1838 1456 1752 1935 1624 1770 1893 1177 1723 1888 1214 1674 1876 1532 443 1910 1225 1382 1383 1353 1186 1884 26 1582 1881 1583 1477 1869 1740 358 1914 359 1697 1953 1870 1174 1913 1720 1909 1917 1690 1635 1938 1789 1345 1488 1344 1284 1814 1291 1350 1852 1756 1540 1973 1820 1736 1885 1219 1751 1864 1183 1653 1846 1230 1337 1834 1321 1565 1916 1619 1345 1489 1488 1690 1917 1518 1861 1885 1736 1382 1509 1383 1917 1928 1518 1746 1869 1477 1493 1828 1761 1902 1969 1747 1444 1905 1605 377 1923 378 1518 1928 1563 1897 1912 1542 1306 1803 1299 1717 1904 1209 1313 1823 1345 1721 1906 1213 1523 1953 1620 1741 1894 1776 1704 1941 1197 1528 1858 1779 1262 1844 1656 1540 1820 1283 1179 1919 352 1779 1858 1188 1704 1966 1941 318 1930 1227 1196 1953 1697 1752 1865 1378 1638 1900 1636 1567 1965 1648 1811 1821 1334 1208 1966 1704 1775 1828 1493 1181 1950 1860 1289 1814 1286 1264 1844 1262 1415 1838 1417 1283 1820 1280 1758 1940 1543 1207 1870 1772 1724 1911 1185 1551 1948 1831 1344 1839 1311 1348 1836 1294 1808 1967 1743 1269 1849 1266 1744 1961 1785 1384 1971 1775 1433 1964 1877 1508 1873 1773 1636 1900 1781 1715 1915 1614 1430 1974 1371 1832 1931 1220 1370 1907 1495 1796 1891 1507 1810 1838 1415 1215 1921 1728 1308 1933 1875 25 1956 24 1543 1940 1815 1771 1912 1426 1328 1908 1829 1456 1873 1517 1547 1885 1861 1178 1937 1806 1668 1811 1667 1217 1932 1730 1760 1927 1180 1236 1855 1234 1337 1835 1834 1757 1949 1630 1814 1955 1608 1733 1947 1218 1175 1948 1731 1785 1961 1544 1743 1967 1287 1718 1950 1181 1367 1855 1236 1407 1944 1816 1513 1858 1468 1517 1874 1767 1658 1925 1223 1544 1901 1455 1331 1971 1384 1867 1891 1773 1854 1920 1447 1224 1922 1776 1234 1855 1653 1526 1920 1525 1271 1859 1240 1326 1957 1907 1266 1849 1268 1776 1922 19 1268 1844 1264 1240 1859 1238 1824 1881 1582 1194 1952 1670 1739 1896 189 1873 1874 1517 1238 1859 1367 1809 1954 1346 1365 1926 1244 1468 1858 1528 1775 1971 1585 1521 1918 1818 1788 1930 409 1271 1926 1866 1507 1891 1867 420 1925 1658 1874 1962 1247 1244 1926 1242 1561 1878 1877 1877 1878 1433 1507 1867 1810 1227 1930 1788 1348 1847 1836 1296 1875 1348 1317 1868 1823 1888 1899 1214 1720 1913 1862 1587 1931 1832 1802 1958 1211 1804 1929 1506 1242 1926 1271 1834 1868 1317 1383 1945 1353 1308 1875 1296 1901 1902 1455 1488 1872 1530 1489 1872 1488 1810 1867 1838 1806 1937 1581 1738 1933 1754 1847 1955 1836 1836 1955 1289 1835 1868 1834 1657 1961 1744 1248 1889 1246 1340 1973 1382 1939 1976 1549 1346 1954 1765 1894 1909 1691 1741 1909 1894 1246 1889 1365 1534 1958 1802 1561 1899 1888 1837 1975 1173 1525 1920 1854 1527 1954 1809 1866 1926 1365 1946 1950 1718 1539 1902 1901 1916 1956 1619 1289 1955 1814 1881 1924 1583 1480 1924 1881 1630 1949 1895 1691 1936 1894 1895 1949 1442 1186 1965 1884 1907 1970 1495 1650 1950 1946 1353 1945 1840 1608 1955 1847 1539 1969 1902 1516 1868 1835 1875 1933 1801 1907 1957 1548 1548 1970 1907 1335 1976 1939 1821 1835 1337 2126 2254 2125 2017 2254 2126 2156 2257 2155 2021 2257 2156 2086 2281 2246 2065 2268 2263 2246 2281 2067 2105 2262 2104 2262 2272 2104 2246 2277 2086 2078 2092 2081 2093 2265 2094 1980 2095 2073 2095 2351 2073 2263 2268 2066 2212 2347 2283 2213 2347 2212 2087 2247 1982 2075 2092 2078 2278 2283 2072 2026 2090 2089 449 2261 448 2094 2278 2093 449 2384 2261 2089 2091 2026 2078 2079 2077 2075 2078 2077 1981 2277 2246 1982 2373 2087 2088 2368 2279 2073 2075 2074 2221 2304 2259 2221 2346 2304 2080 2088 2083 2075 2077 2076 2078 2080 2079 2237 2303 2258 2237 2343 2303 2088 2279 2083 2176 2300 2196 2196 2302 2176 2212 2283 2278 2080 2083 2079 2198 2301 2249 2198 2340 2301 2158 2307 2229 2229 2309 2158 2166 2310 2210 2210 2311 2166 2122 2268 2065 2225 2299 2251 2225 2338 2299 2073 2092 2075 2128 2314 2241 2241 2317 2128 2134 2316 2200 2227 2296 2256 2227 2335 2296 2200 2320 2134 1980 2073 2071 2168 2319 2194 2194 2321 2168 2082 2088 2080 2313 2356 2124 2219 2295 2253 2219 2332 2295 2130 2323 2204 2204 2358 2130 2306 2353 2154 2261 2384 2069 2223 2356 2313 2145 2325 2208 2208 2328 2145 2069 2384 2068 2170 2327 2202 2202 2329 2170 2243 2353 2306 2073 2351 2092 2277 2379 2088 2231 2294 2255 2231 2330 2294 2068 2285 2069 2114 2330 2231 2202 2292 2252 2202 2327 2292 2083 2087 2084 2081 2082 2080 2231 2359 2114 2147 2331 2217 2151 2332 2219 2219 2333 2151 2098 2263 2066 2194 2291 2250 2194 2319 2291 2122 2284 2064 2217 2360 2147 2082 2277 2088 2140 2334 2215 2075 2076 2074 2085 2086 2082 2161 2335 2227 2227 2337 2161 2026 2270 2090 2073 2074 2071 2118 2336 2233 2163 2338 2225 2215 2361 2140 2225 2341 2163 2210 2288 2254 2210 2310 2288 2136 2339 2235 2083 2084 2079 2191 2340 2198 2198 2344 2191 2064 2376 2122 2196 2287 2257 2196 2300 2287 2261 2264 448 2233 2362 2118 2110 2342 2206 2092 2273 2081 537 2095 1980 2322 2364 1992 2184 2343 2237 1989 2324 2102 2237 2348 2184 2112 2364 2322 2078 2081 2080 2102 2365 1989 2087 2089 2084 2318 2363 1995 2100 2345 2245 2174 2346 2221 2064 2284 2104 2104 2272 2064 2221 2349 2174 1986 2326 2188 2235 2363 2136 2315 2362 1998 2186 2347 2213 2138 2363 2318 2312 2361 2001 2081 2085 2082 2094 2265 1983 2188 2366 1986 2308 2360 2004 2084 2266 2079 2206 2364 2110 539 2097 1978 2305 2359 2007 2120 2362 2315 2066 2275 2098 537 1980 536 68 1983 67 2077 2267 2076 2090 2266 2084 2297 2358 2011 539 1978 538 66 1979 65 2245 2365 2100 2142 2361 2312 2293 2356 2016 541 2005 540 64 2026 63 2211 2213 2212 2298 2352 2108 70 1984 69 2245 2345 2174 69 2094 68 2290 2353 2020 2259 2304 2187 2174 2349 2245 67 2096 66 2149 2360 2308 2070 2271 535 2188 2326 1987 2213 2366 2186 2154 2156 2155 2136 2138 2137 2186 2188 2187 2118 2120 2119 2110 2112 2111 2124 2126 2125 2130 2132 2131 2140 2142 2141 2114 2116 2115 2147 2149 2148 2100 2102 2101 6 1985 144 2154 2155 2061 2100 2101 2031 2063 2108 2107 2124 2125 2057 2025 2105 2104 2110 2111 2034 2140 2141 2043 2118 2119 2040 2147 2148 2046 2114 2115 2048 2136 2137 2037 2130 2131 2052 2186 2187 2028 2206 2342 2184 522 2033 521 491 2178 490 484 2052 483 488 2050 487 452 2098 451 457 2025 456 464 2062 463 468 2060 467 492 2048 491 496 2046 495 495 2159 494 505 2160 504 479 2133 478 481 2167 480 534 2027 533 476 2056 475 524 2032 523 460 2063 459 462 2024 461 454 2065 453 478 2055 477 482 2053 481 493 2113 492 532 2028 531 451 2068 450 472 2058 471 474 2057 473 509 2117 508 526 2031 525 486 2051 485 490 2049 489 499 2150 498 500 2044 499 503 2139 502 489 2169 488 485 2129 484 511 2162 510 475 2123 474 498 2045 497 502 2043 501 504 2042 503 506 2041 505 508 2040 507 510 2039 509 512 2038 511 514 2037 513 515 2135 514 516 2036 515 518 2035 517 520 2034 519 521 2109 520 527 2099 526 528 2030 527 501 2152 500 473 2177 472 477 2127 476 530 2029 529 467 2153 466 469 2157 468 529 2173 528 471 2165 470 507 2171 506 466 2061 465 470 2059 469 480 2054 479 487 2144 486 494 2047 493 483 2143 482 497 2146 496 513 2172 512 531 2189 530 459 2106 458 463 2175 462 456 2103 455 519 2180 518 455 2121 454 461 2164 460 465 2182 464 523 2183 522 517 2190 516 458 2179 457 525 2181 524 533 2185 532 2258 2303 2101 2184 2348 2206 144 2192 143 119 2203 118 130 2016 129 116 2009 115 140 2021 139 112 2007 111 125 2199 124 114 2008 113 117 2207 116 122 2012 121 124 2013 123 128 2015 127 133 2209 132 138 2020 137 92 1996 91 100 2000 99 110 2006 109 123 2193 122 135 2228 134 87 2197 86 101 2214 100 72 1986 71 78 1989 77 115 2201 114 74 1987 73 76 1988 75 80 1990 79 86 1993 85 94 1997 93 96 1998 95 98 1999 97 102 2001 101 106 2003 105 107 2216 106 82 1991 81 84 1992 83 88 1994 87 90 1995 89 104 2002 103 105 2218 104 118 2010 117 120 2011 119 126 2014 125 134 2018 133 136 2019 135 142 2022 141 93 2224 92 132 2017 131 95 2232 94 71 2211 70 108 2004 107 111 2230 110 129 2222 128 99 2226 98 127 2240 126 83 2205 82 89 2234 88 141 2195 140 75 2220 74 137 2242 136 81 2236 80 143 2238 142 77 2244 76 2116 2359 2305 2102 2324 1990 2153 2154 2061 2157 2158 2060 2190 2191 2036 2123 2124 2057 2099 2100 2031 2144 2145 2051 2160 2161 2042 2146 2147 2046 2169 2170 2050 2109 2110 2034 2113 2114 2048 2150 2151 2045 2129 2130 2052 2162 2163 2039 2183 2184 2033 2139 2140 2043 2133 2134 2055 2117 2118 2040 2063 2107 2106 2135 2136 2037 2165 2166 2059 2127 2128 2056 2167 2168 2054 2025 2104 2103 2175 2176 2024 2173 2174 2030 2121 2122 2065 2185 2186 2028 2211 2212 1984 2192 2239 2238 1989 2245 2244 1986 2213 2211 1988 2221 2220 2020 2243 2242 1997 2225 2224 2010 2208 2207 2013 2194 2193 1995 2235 2234 2022 2196 2195 1998 2233 2232 2016 2223 2222 1994 2198 2197 2001 2215 2214 2003 2219 2218 2011 2204 2203 2000 2227 2226 2015 2241 2240 2007 2231 2230 2018 2210 2209 2009 2202 2201 2014 2200 2199 2004 2217 2216 2019 2229 2228 1991 2237 2236 1992 2206 2205 451 2098 2068 2029 2173 529 2027 2185 533 2103 2121 455 2028 2189 531 472 2177 2058 2033 2109 521 468 2157 2060 504 2160 2042 518 2180 2035 2039 2117 509 526 2099 2031 2055 2127 477 2047 2113 493 2030 2099 527 2048 2178 491 2038 2162 511 2036 2135 515 466 2153 2061 2053 2167 481 484 2129 2052 494 2159 2047 2052 2143 483 2050 2144 487 492 2113 2048 524 2181 2032 2049 2169 489 2054 2133 479 2044 2150 499 478 2133 2055 506 2171 2041 2056 2123 475 498 2150 2045 470 2165 2059 500 2152 2044 514 2135 2037 520 2109 2034 2062 2175 463 490 2178 2049 474 2123 2057 486 2144 2051 488 2169 2050 508 2117 2040 2059 2157 469 482 2143 2053 496 2146 2046 2042 2139 503 2045 2146 497 502 2139 2043 510 2162 2039 2060 2153 467 2041 2160 505 2037 2172 513 476 2127 2056 480 2167 2054 2043 2152 501 2046 2159 495 2051 2129 485 2063 2106 459 2024 2164 461 512 2172 2038 2106 2179 458 2040 2171 507 516 2190 2036 462 2175 2024 2058 2165 471 2025 2103 456 464 2182 2062 522 2183 2033 2057 2177 473 528 2173 2030 2034 2180 519 2061 2182 465 530 2189 2029 2032 2183 523 457 2179 2025 460 2164 2063 2035 2190 517 454 2121 2065 2031 2181 525 532 2185 2028 2025 2179 2105 2101 2181 2031 2187 2189 2028 2155 2182 2061 2063 2164 2108 2131 2143 2052 2111 2180 2034 2141 2152 2043 2115 2178 2048 2148 2159 2046 2137 2172 2037 2119 2171 2040 2125 2177 2057 2098 2275 2068 2192 2238 143 2235 2339 2191 1986 2211 71 82 2205 1991 1988 2220 75 1989 2244 77 1997 2224 93 140 2195 2021 86 2197 1993 2009 2201 115 2003 2218 105 2004 2216 107 2001 2214 101 110 2230 2006 2010 2207 117 118 2203 2010 2013 2193 123 2016 2222 129 106 2216 2003 2020 2242 137 2015 2240 127 132 2209 2017 104 2218 2002 2000 2226 99 1998 2232 95 100 2214 2000 114 2201 2008 1994 2197 87 122 2193 2012 116 2207 2009 98 2226 1999 124 2199 2013 134 2228 2018 1995 2234 89 2007 2230 111 2011 2203 119 128 2222 2015 80 2236 1990 2014 2199 125 2018 2209 133 92 2224 1996 94 2232 1997 126 2240 2014 2022 2195 141 88 2234 1994 2019 2228 135 1992 2205 83 136 2242 2019 1991 2236 81 74 2220 1987 142 2238 2022 76 2244 1988 2096 2267 1979 2191 2344 2235 2249 2301 2111 2198 2249 2197 2225 2251 2224 2194 2250 2193 2202 2252 2201 2210 2254 2209 2231 2255 2230 2219 2253 2218 2227 2256 2226 2237 2258 2236 2196 2257 2195 2221 2259 2220 2112 2322 1993 448 2264 447 393 2067 394 387 1982 388 392 2246 393 391 1981 392 388 2247 389 389 1977 390 390 2248 391 2107 2260 2106 2065 2263 453 452 2263 2098 1983 2096 67 2179 2260 2105 2106 2260 2179 2197 2249 1993 2209 2254 2017 2224 2251 1996 2230 2255 2006 2193 2250 2012 2218 2253 2002 2201 2252 2008 2226 2256 1999 2236 2258 1990 2195 2257 2021 2220 2259 1987 2233 2336 2163 1985 2192 144 453 2263 452 2079 2266 2077 2163 2341 2233 2251 2299 2137 2132 2358 2297 2138 2318 1996 2091 2357 2026 70 2211 1984 66 2096 1979 2215 2334 2161 1984 2278 2094 54 2066 55 60 2023 61 51 2069 52 50 2261 51 57 2064 58 59 2262 60 2161 2337 2215 2256 2296 2119 540 2097 539 2120 2315 1999 68 2094 1983 538 2095 537 393 2246 2067 1981 2246 392 1982 2247 388 391 2248 1981 389 2247 1977 1977 2248 390 2217 2331 2151 2151 2333 2217 536 2070 535 2253 2295 2141 2142 2312 2002 2072 2271 2070 2276 2289 2286 2126 2356 2293 1979 2270 65 2087 2279 2247 2255 2294 2148 2149 2308 2006 541 2269 2005 49 2264 50 2208 2325 2170 2170 2329 2208 2239 2352 2298 2252 2292 2115 2204 2323 2145 2116 2305 2008 2280 2373 1982 2145 2328 2204 2089 2090 2084 1984 2094 69 2187 2367 2259 2200 2316 2168 51 2261 2069 60 2262 2023 2156 2353 2290 2168 2321 2200 2250 2291 2131 2026 2357 63 2241 2314 2134 2132 2297 2012 2134 2320 2241 2223 2313 2128 1987 2367 2188 2128 2317 2223 534 2271 2027 50 2264 2261 2275 2285 2068 2229 2307 2166 2166 2311 2229 64 2270 2026 2247 2279 1977 2243 2306 2158 2087 2373 2089 2254 2288 2125 2101 2370 2258 2126 2293 2017 2158 2309 2243 61 2276 6 2239 2298 2176 65 2270 64 2176 2302 2239 2257 2287 2155 1990 2370 2102 2156 2290 2021 2066 2268 55 55 2268 56 2111 2374 2249 535 2271 534 2086 2277 2082 6 2276 1985 2067 2281 2269 542 2269 541 2093 2278 2072 2076 2265 2074 1993 2374 2112 2121 2284 2122 2104 2284 2103 1980 2071 2070 2137 2377 2251 2176 2298 2024 2175 2300 2176 2158 2306 2060 2153 2306 2154 2276 2286 1985 2166 2307 2059 2157 2307 2158 2165 2310 2166 2128 2313 2056 2123 2313 2124 2134 2314 2055 2127 2314 2128 2168 2316 2054 2133 2316 2134 2167 2319 2168 2129 2323 2130 2145 2323 2051 2170 2325 2050 2144 2325 2145 2169 2327 2170 2113 2330 2114 2151 2331 2045 2146 2331 2147 2150 2332 2151 2161 2334 2042 2139 2334 2140 2160 2335 2161 2117 2336 2118 2163 2336 2039 2162 2338 2163 2191 2339 2036 2135 2339 2136 2190 2340 2191 2109 2342 2110 2184 2342 2033 2183 2343 2184 2174 2345 2030 2099 2345 2100 2173 2346 2174 2185 2347 2186 2005 2097 540 2022 2302 2196 2239 2302 2238 2019 2309 2229 2243 2309 2242 2018 2311 2210 2229 2311 2228 2015 2317 2241 2223 2317 2222 2064 2272 58 59 2272 2262 2014 2320 2200 2241 2320 2240 2013 2321 2194 2200 2321 2199 2204 2328 2203 2010 2328 2208 2208 2329 2207 2009 2329 2202 2217 2333 2216 2003 2333 2219 2215 2337 2214 2000 2337 2227 1997 2341 2225 2233 2341 2232 1994 2344 2198 2235 2344 2234 1991 2348 2237 2206 2348 2205 1988 2349 2221 2245 2349 2244 138 2290 2020 2021 2290 139 1985 2352 2192 2017 2293 131 130 2293 2016 2012 2297 121 120 2297 2011 2008 2305 113 112 2305 2007 2006 2308 109 108 2308 2004 2002 2312 103 102 2312 2001 1999 2315 97 96 2315 1998 1996 2318 91 90 2318 1995 1993 2322 85 84 2322 1992 1990 2324 79 78 2324 1989 72 2326 1986 1987 2326 73 387 2280 1982 2074 2093 2071 2068 2384 450 17 2354 542 394 2354 17 54 2275 2066 1996 2377 2138 2155 2287 2182 2125 2288 2177 2131 2291 2143 2115 2292 2178 2148 2294 2159 2141 2295 2152 2119 2296 2171 2164 2298 2108 2137 2299 2172 2111 2301 2180 2101 2303 2181 2187 2304 2189 2119 2380 2256 444 2375 4 2081 2273 2085 2264 2274 447 62 2355 7 7 2355 386 2097 2385 1978 1978 2385 2273 49 2274 2264 2089 2373 2091 2083 2279 2087 2071 2093 2072 2091 2373 2280 1999 2380 2120 2141 2381 2253 2267 2371 2076 58 2272 59 2267 2372 1979 2005 2350 2097 2072 2283 2271 447 2274 446 2071 2072 2070 2002 2381 2142 2069 2285 52 2148 2382 2255 2266 2267 2077 1978 2095 538 53 2275 54 48 2274 49 2283 2347 2027 2096 2371 2267 57 2376 2064 2115 2383 2252 2006 2382 2149 2023 2276 61 2074 2265 2093 2008 2383 2116 2350 2385 2097 2286 2352 1985 2131 2386 2250 2266 2372 2267 2012 2386 2132 1980 2070 536 2268 2376 56 2212 2278 1984 386 2280 387 2269 2281 2005 5 2375 46 48 2282 2274 2085 2350 2086 2271 2283 2027 1979 2372 2270 2280 2355 2091 53 2285 2275 2122 2376 2268 2020 2353 2243 2273 2351 1978 2103 2284 2121 47 2282 48 2016 2356 2223 2274 2282 446 446 2282 445 2108 2286 2107 2286 2289 2107 2011 2358 2204 63 2357 62 2007 2359 2231 139 2290 138 131 2293 130 121 2297 120 2004 2360 2217 113 2305 112 109 2308 108 103 2312 102 97 2315 96 91 2318 90 85 2322 84 79 2324 78 73 2326 72 2182 2287 2062 2177 2288 2058 2001 2361 2215 2143 2291 2053 2287 2300 2062 2178 2292 2049 52 2285 53 2159 2294 2047 2288 2310 2058 2152 2295 2044 2171 2296 2041 2024 2298 2164 2172 2299 2038 2291 2319 2053 2062 2300 2175 2180 2301 2035 2181 2303 2032 2189 2304 2029 2060 2306 2153 2292 2327 2049 2059 2307 2157 2294 2330 2047 2058 2310 2165 2295 2332 2044 2056 2313 2123 2055 2314 2127 2296 2335 2041 2054 2316 2133 2299 2338 2038 2053 2319 2167 2301 2340 2035 2051 2323 2129 2303 2343 2032 2050 2325 2144 1998 2362 2233 2304 2346 2029 2049 2327 2169 2238 2302 2022 2107 2289 2260 2047 2330 2113 2045 2331 2146 2044 2332 2150 2242 2309 2019 2042 2334 2139 2228 2311 2018 2041 2335 2160 2039 2336 2117 2038 2338 2162 2036 2339 2135 2222 2317 2015 2035 2340 2190 2033 2342 2109 2240 2320 2014 2032 2343 2183 2030 2345 2099 2199 2321 2013 2029 2346 2173 2027 2347 2185 2203 2328 2010 2207 2329 2009 2076 2371 2265 2216 2333 2003 2214 2337 2000 2232 2341 1997 2234 2344 1994 2205 2348 1991 2244 2349 1988 1995 2363 2235 1992 2364 2206 2355 2357 2091 2154 2353 2156 444 2369 46 1989 2365 2245 2124 2356 2126 2192 2352 2239 2130 2358 2132 1986 2366 2213 2114 2359 2116 2147 2360 2149 2248 2379 1981 2140 2361 2142 2118 2362 2120 2136 2363 2138 2110 2364 2112 2100 2365 2102 2186 2366 2188 2023 2378 2289 46 2375 444 1983 2371 2096 2188 2367 2187 2102 2370 2101 445 2369 444 2270 2372 2090 2112 2374 2111 2138 2377 2137 2120 2380 2119 2067 2354 394 2142 2381 2141 2149 2382 2148 2116 2383 2115 47 2369 2282 2289 2378 2260 2132 2386 2131 2105 2378 2262 2259 2367 1987 450 2384 449 2258 2370 1990 2249 2374 1993 2251 2377 1996 2256 2380 1999 2253 2381 2002 2255 2382 2006 2252 2383 2008 2250 2386 2012 46 2369 47 2260 2378 2105 56 2376 57 2085 2385 2350 2282 2369 445 2090 2372 2266 1977 2368 2248 1981 2379 2277 2265 2371 1983 2023 2289 2276 2262 2378 2023 1978 2351 2095 542 2354 2269 2269 2354 2067 2279 2368 1977 2273 2385 2085 4 2375 5 2108 2352 2286 2086 2350 2281 2281 2350 2005 386 2355 2280 2368 2379 2248 2092 2351 2273 2088 2379 2368 62 2357 2355 2417 2489 2470 2470 2515 2417 2501 2510 2436 2430 2505 2493 2436 2510 2437 2430 2493 2431 2470 2489 2469 2421 2520 2418 2418 2488 2421 2422 2507 2405 2397 2511 2452 2445 2499 2408 2487 2492 2444 2405 2507 2425 2405 2494 2422 2452 2514 2397 2425 2508 2405 2475 2496 2388 2436 2500 2390 2402 2505 2430 2441 2512 2401 2430 2495 2402 2401 2504 2441 2388 2498 2475 2395 2509 2456 2456 2509 2406 2472 2497 2447 2411 2508 2425 2448 2504 2401 2390 2501 2436 2448 2506 2391 2435 2503 2457 2475 2498 2414 2401 2506 2448 2437 2510 2393 2459 2497 2472 2400 2499 2445 2431 2493 2389 2412 2512 2441 2422 2494 2416 2443 2513 2483 2452 2511 2415 2470 2492 2487 2487 2515 2470 2428 2485 2480 2398 2423 2419 426 2482 427 2411 2467 2466 2398 2419 310 2419 2423 2420 2400 2483 2482 316 2480 315 438 2403 439 2427 2428 2394 2432 2433 2403 2433 2434 2403 2458 2460 2406 2427 2430 2428 310 2419 309 2412 2442 150 2419 2420 2387 2420 2422 2421 2468 2481 2434 429 2438 2409 2428 2480 2394 2454 2455 2404 2431 2485 2428 174 2466 173 428 2438 429 2438 2446 2409 173 2466 2449 433 2458 2406 2443 2445 2444 2446 2448 2447 2397 2476 312 2395 2464 436 2403 2481 439 158 2465 157 309 2387 308 311 2476 2398 3 2426 317 157 2392 156 162 2390 161 165 2393 164 312 2476 311 2407 2458 432 436 2464 437 2398 2476 2424 2453 2454 2404 2461 2462 2413 2424 2425 2423 2436 2437 2434 2463 2474 2473 3 2477 2426 157 2465 2392 160 2479 2453 432 2458 433 437 2464 2432 2459 2460 2458 2404 2465 158 309 2419 2387 146 2469 145 147 2399 146 149 2410 148 159 2404 158 175 2411 174 177 2405 176 2400 2482 426 427 2482 2396 433 2406 434 2396 2440 2439 2398 2424 2423 2434 2481 2403 2463 2473 2413 2432 2435 2433 2437 2468 2434 2466 2467 2451 2390 2479 161 2413 2473 166 147 2478 2399 160 2453 159 159 2453 2404 169 2402 168 435 2395 436 437 2432 438 438 2432 2403 166 2473 165 168 2461 167 173 2449 172 182 2418 181 311 2398 310 313 2397 312 315 2415 314 2396 2438 428 439 2481 440 2473 2474 2393 2426 2427 2394 2430 2431 2428 2433 2436 2434 2453 2479 2457 2454 2456 2455 2463 2475 2474 317 2426 2394 423 2408 424 151 2412 150 172 2449 2389 425 2400 426 429 2409 430 2414 2481 2468 2411 2466 174 2471 2472 2391 2407 2459 2458 156 2471 155 2449 2450 2389 2446 2447 2409 2462 2463 2413 2440 2441 2439 2451 2452 2450 2410 2478 148 155 2391 154 315 2480 2415 155 2471 2391 165 2473 2393 167 2461 2413 2402 2461 168 430 2484 431 2396 2482 2440 443 2477 3 2392 2471 156 2443 2444 2410 148 2478 147 153 2401 152 427 2396 428 431 2407 432 431 2484 2407 2455 2465 2404 2447 2484 2409 2426 2429 2427 2482 2483 2440 2449 2451 2450 2453 2457 2454 2439 2446 2438 2399 2469 146 2409 2484 430 544 2417 543 442 2388 443 2426 2477 2429 2388 2477 443 2396 2439 2438 2399 2470 2469 161 2479 160 167 2413 166 440 2414 441 2394 2480 316 2442 2443 2410 2420 2421 2387 317 2394 316 440 2481 2414 2432 2464 2435 2444 2478 2410 149 2442 2410 2449 2466 2451 150 2442 149 172 2389 171 179 2416 178 2486 2487 2408 422 2486 423 423 2486 2408 2480 2485 2415 2417 2515 2490 2418 2520 2491 2408 2522 2445 2447 2523 2472 2457 2525 2435 2406 2526 2456 2414 2524 2475 2456 2535 2395 2472 2532 2459 2393 2530 2437 2441 2536 2412 2483 2528 2443 2415 2534 2452 2416 2520 2422 2444 2522 2487 2391 2523 2448 2389 2533 2431 2425 2529 2411 2445 2528 2400 421 2490 422 181 2491 180 545 2489 544 2421 2488 2387 308 2488 307 544 2489 2417 2387 2488 308 2418 2491 181 422 2490 2486 2446 2504 2448 2425 2507 2423 2420 2507 2422 2444 2492 2478 2408 2499 424 2427 2495 2430 2416 2494 178 313 2511 2397 2406 2509 434 153 2506 2401 177 2494 2405 2464 2503 2435 2401 2512 152 169 2505 2402 435 2509 2395 2463 2496 2475 2414 2498 441 2441 2504 2439 162 2501 2390 2451 2514 2452 175 2508 2411 2447 2497 2484 2405 2508 176 442 2498 2388 2393 2510 164 151 2512 2412 2433 2500 2436 2407 2497 2459 2391 2506 154 425 2499 2400 2442 2513 2443 2415 2511 314 2389 2493 171 2399 2492 2470 10 2518 182 307 2518 10 543 2517 18 8 2516 545 18 2517 421 180 2519 9 145 2516 8 9 2519 179 2457 2535 2454 2465 2531 2392 2390 2525 2479 2392 2532 2471 2402 2527 2461 2388 2521 2477 2397 2537 2476 2483 2536 2440 2486 2515 2487 2514 2537 2397 2392 2531 2502 2503 2535 2457 2502 2532 2392 2496 2521 2388 2495 2527 2402 2500 2525 2390 2513 2536 2483 2422 2520 2421 2468 2530 2524 2524 2530 2474 421 2517 2490 2491 2519 180 545 2516 2489 2488 2518 307 2423 2507 2420 2493 2505 170 2412 2513 2442 441 2498 442 171 2493 170 178 2494 177 2478 2492 2399 2462 2496 2463 2429 2495 2427 163 2501 162 164 2510 163 2435 2500 2433 2459 2502 2460 2395 2503 2464 163 2510 2501 170 2505 169 176 2508 175 434 2509 435 424 2499 425 2439 2504 2446 2484 2497 2407 152 2512 151 314 2511 313 154 2506 153 2467 2514 2451 182 2518 2418 2417 2517 543 2469 2516 145 179 2519 2416 2460 2526 2406 2431 2533 2485 2460 2531 2526 2474 2530 2393 2443 2528 2445 2448 2523 2447 2468 2524 2414 2487 2522 2408 2424 2529 2425 2533 2534 2485 2485 2534 2415 2400 2528 2483 2411 2529 2467 2455 2531 2465 2477 2521 2429 2472 2523 2391 2454 2535 2456 2445 2522 2444 2450 2533 2389 2452 2534 2450 2437 2530 2468 2475 2524 2474 2526 2531 2455 2476 2537 2424 2456 2526 2455 2471 2532 2472 2461 2527 2462 2479 2525 2457 2440 2536 2441 2450 2534 2533 2490 2517 2417 2416 2519 2491 2489 2516 2469 2418 2518 2488 2490 2515 2486 2462 2527 2521 2521 2527 2429 2424 2537 2529 2529 2537 2467 2491 2520 2416 2467 2537 2514 2502 2531 2460 2435 2525 2500 2395 2535 2503 2429 2527 2495 2459 2532 2502 2462 2521 2496 2412 2536 2513 3111 3465 3254 3118 3360 2995 2548 3277 2561 3076 3077 2565 3000 3271 2708 2708 3272 3000 3044 3199 2618 3119 3299 2711 3080 3320 3120 2976 3335 3102 2550 3061 3007 3325 3327 3145 3213 3358 3214 3259 3354 3348 2572 3469 3200 2989 3531 3244 3101 3225 2930 2572 3200 3137 3094 3521 265 2960 3360 3118 266 3094 265 3023 3055 3051 2621 3086 2661 286 3141 285 2554 2757 181 2599 2756 41 153 3401 2576 2569 3390 169 2576 2773 155 177 2766 2575 2574 2764 159 2568 3408 163 2833 3092 3070 2921 3099 2923 2999 3475 2945 2945 3267 2999 3348 3354 2839 2868 3059 3056 3126 3299 3119 2974 3382 2768 2799 3373 3312 2998 3329 3160 3007 3112 2550 3050 3052 2872 3077 3232 2565 3301 3313 2791 2988 3403 2650 2603 3395 2990 192 3224 193 2614 3286 2989 2929 3087 2972 3043 3531 2989 2868 3056 2819 3214 3358 2712 24 3416 2551 3023 3051 3021 2546 3436 3314 2615 2970 2592 3102 3335 2582 3129 3197 2973 2836 3050 2872 3022 3263 3023 3011 3463 2608 3014 3029 2926 3099 3279 2996 2871 3079 2958 2659 2674 2649 3079 3320 3080 2934 3108 2941 3277 3348 2561 2961 3068 2843 3051 3374 3052 2691 3149 3046 2607 3448 3037 3027 3434 2606 3278 3481 2967 3279 3362 2683 2872 3054 2838 2683 3362 2987 3051 3052 3050 3079 3080 2958 2679 2704 2678 2979 3257 2647 2921 3279 3099 2778 3280 3251 2651 3224 3069 3055 3296 3051 301 3319 300 3060 3235 3234 3251 3345 2778 3459 3460 2549 3228 3271 3241 3101 3143 2928 3071 3072 2834 3145 3327 3268 2591 3286 2614 2996 3279 2683 2677 2678 2675 3053 3514 3237 2879 3238 3109 2573 3162 3160 2930 3291 3101 3136 3233 3078 265 3521 2583 3160 3329 2573 127 3439 2557 97 2789 2544 132 3449 2540 105 2792 2543 122 2781 2541 78 2796 2562 113 2798 2542 2655 3339 3062 141 3428 2776 83 3451 2552 109 2790 2580 93 2785 2578 101 2787 2579 3129 3366 3197 2975 3261 3255 2659 2675 2674 2769 3067 2771 285 3141 2873 3225 3303 2930 3022 3508 3263 3070 3224 2833 2573 3163 3162 3018 3113 3084 74 3419 75 3086 3346 2661 250 3194 2618 2833 3295 3092 2674 2917 2649 2618 3337 3044 2872 3532 3054 2615 2972 2970 2828 2929 2888 2677 2679 2678 3098 3476 3265 3227 3328 2679 2610 3465 3113 3296 3374 3051 51 3463 2539 58 3458 2549 49 3462 2736 3233 3263 3078 2827 3473 3082 2845 3111 2844 2704 2730 2705 3087 3493 2971 2989 3244 3066 3234 3423 3060 2720 2740 2719 2748 3071 2834 2714 2719 2681 3017 3290 3096 2699 3141 286 3044 3294 3199 2647 3257 2596 2565 3136 3076 2831 3079 2871 3237 3514 3236 2989 3286 2854 2753 3118 2995 2934 3110 3108 3092 3295 2937 3010 3012 3009 2686 3346 3149 3281 3332 3261 2961 3282 3068 3266 3273 3168 2967 3431 3278 2819 3056 2818 3149 3505 3046 2708 3271 3228 3000 3112 3007 3163 3239 3162 3011 3459 2956 2714 2720 2719 2679 3328 2704 2566 3273 3266 3062 3342 2655 193 3224 2651 2833 3224 192 2700 3239 3163 3191 3326 3317 3113 3465 3084 2681 3227 2679 2674 3098 2917 3063 3471 3282 2730 2741 2731 3237 3330 3053 3109 3506 2879 2868 3068 3060 3349 3351 3047 3067 3340 2771 2797 3413 3311 3063 3339 224 3307 3308 3306 3116 3485 3347 3013 3049 3048 224 3471 3063 3254 3465 2610 3192 3326 3191 3000 3272 3112 2969 3196 3195 2619 3086 2621 2704 2705 2678 2753 2852 2741 251 3194 250 3263 3508 3078 3168 3239 2700 2586 3514 3374 3017 3096 2735 2923 3099 2926 2728 2818 2722 3082 3087 2827 2550 3115 3061 2740 2831 2830 2868 3060 3059 2700 3266 3168 2730 3118 2753 2835 3050 2836 2675 3476 2674 2843 3068 2841 2722 3001 2720 3149 3346 2890 61 3269 2609 2875 3090 2944 2545 3338 2971 3134 3241 2953 2928 3225 3101 2832 3079 2831 2728 2819 2818 3100 3143 3101 2844 3111 2934 3069 3330 2651 3080 3365 2958 2646 2972 2615 3083 3431 2967 3080 3542 3365 2730 2753 2741 3036 3104 3037 2730 2731 2705 2750 3020 2752 3020 3021 2835 3031 3321 3006 3052 3053 2872 3240 3491 2742 2741 3240 2742 2740 2832 2831 3046 3334 2691 2831 2871 2869 2853 2951 2852 2654 3181 3173 2960 3227 2830 2975 3255 2775 2818 3002 3001 3308 3488 3306 2840 3075 3074 2972 3087 2971 2667 3354 2940 2926 3099 3014 3071 3073 3072 3120 3361 3080 3135 3241 3134 2752 2835 2805 3056 3057 3002 2941 3062 2882 2742 2840 2744 2748 2834 2750 2744 3074 2746 3400 3518 2570 2746 3071 2748 3297 3369 2727 2878 3066 3065 2678 3030 2675 2935 3353 3317 2841 2868 2819 2818 3056 3002 3073 3076 3072 3012 3014 3013 3316 3546 2966 2927 3303 3225 2753 2853 2852 3001 3494 2720 3018 3243 3113 3063 3282 2961 2741 2742 2731 2940 3332 3281 3018 3084 3017 3074 3517 2746 3319 3344 2990 2885 3534 3265 3068 3424 3060 3069 3224 3070 2740 2830 2719 2680 2681 2679 2836 2872 2838 2838 3054 2862 2841 3068 2868 2871 2950 2939 3107 3176 2584 2676 2677 2675 2830 3227 2719 3021 3051 3050 2978 3335 2976 2862 2982 2981 3006 3369 3253 207 3112 208 3013 3014 2996 3054 3069 2982 2752 3020 2835 3200 3469 3117 2882 2961 2843 2713 2714 2681 3241 3271 2953 3108 3109 2941 2625 3100 2622 2835 2836 2805 2721 2722 2720 3347 3485 3077 2840 3074 2744 3282 3471 2593 2951 3000 2952 3128 3131 3127 3268 3327 3128 2720 3494 2740 2851 3090 2875 2853 2953 2951 3145 3268 2979 3116 3347 3075 2590 3475 3081 2550 3112 207 2831 2869 2830 3064 3090 2851 2882 3062 2961 2871 2958 2950 2951 3271 3000 3021 3050 2835 3094 3329 2998 2723 2728 2722 2937 3262 3092 2969 3414 3196 3126 3423 2581 3075 3347 3074 3062 3063 2961 3180 3273 2566 2746 3517 3071 2964 3017 2735 3216 3418 3411 2818 3001 2722 2958 3283 2950 2658 2659 2649 2862 3054 2982 2820 2841 2819 3008 3240 2952 3006 3470 3004 2648 2649 2647 2566 3287 3180 2616 3182 3133 2951 2952 2852 3073 3077 3076 2871 2939 2869 3114 3140 2699 3093 3479 3137 2742 3491 2840 2704 3118 2730 3154 3334 3003 2649 3539 2647 2732 3127 2560 3466 3479 3093 3069 3070 2982 117 3097 118 3194 3337 2618 3181 3371 3173 2842 2843 2841 3076 3078 3072 2598 3351 3349 3003 3515 3154 3140 3141 2699 2952 3240 2852 2986 3358 3213 2560 3127 1 2844 2882 2843 2583 3521 3166 3135 3229 2553 2595 3426 3214 3317 3353 3191 2625 3143 3100 3057 3058 3002 3255 3261 2567 2750 3544 3020 2934 2941 2882 2949 3082 2881 3000 3007 2952 3411 3418 3187 2732 3128 3127 3009 3462 2539 3102 3350 3103 145 3538 3089 2849 3064 2851 3265 3534 3098 2674 3476 3098 3059 3541 3056 3062 3339 3063 3060 3423 3059 3053 3532 2872 3350 3355 3103 3436 3447 3037 2728 3096 2820 2982 3091 2981 2667 2940 2669 3221 3256 3209 21 3519 22 3166 3520 2583 2971 3415 2545 3057 3119 3058 3214 3410 2595 3192 3335 2978 3024 3428 2556 3332 3354 3259 145 3089 2754 2978 3326 3192 3076 3136 3078 2827 3087 2929 3143 3153 2962 3004 3470 2933 266 3329 3094 2611 2647 2596 2639 3124 2641 3238 3342 3109 2981 3364 3047 2950 3134 2939 3374 3514 3052 3127 3422 1 310 3530 311 2836 2838 2837 3016 3141 3140 3276 3409 3377 2742 2744 2743 3121 3123 2645 2838 2862 2861 2862 2981 2957 2917 3539 2649 2598 3422 3131 3083 3419 2563 2950 3135 3134 2752 2805 2804 3032 3439 2779 2744 2746 2745 2750 2752 2751 3011 3461 3460 2748 2750 2749 2746 2748 2747 2588 2732 2560 3236 3514 2586 3070 3092 3091 2645 3132 3121 2728 2820 2819 3056 3541 3057 3081 3478 2590 2984 3425 3019 2650 3042 2988 2714 2721 2720 3064 3357 3090 3072 3508 2834 2622 3100 2620 3275 3371 2876 3047 3364 3249 2737 2870 2555 2632 3223 2634 3113 3243 68 2645 3124 2639 2719 3227 2681 3425 3464 3019 2888 3303 3302 2877 3474 3394 3126 3541 3423 2953 3356 3134 3022 3544 3508 2 3338 19 2941 3342 3062 2979 3268 3257 3123 3124 2645 3314 3436 3037 2928 3143 2962 2964 3018 3017 2625 3153 3143 66 3254 2610 3125 3248 3242 2945 3475 3129 3275 3496 3371 2852 3240 2741 3124 3256 3221 3377 3409 3270 269 3163 268 3081 3475 2999 2634 3223 3132 2677 2680 2679 3242 3248 3130 2634 3132 2637 3057 3126 3119 2655 3342 3238 3321 3369 3006 3023 3547 3022 2979 3528 3145 2956 3012 3011 3007 3061 3008 3084 3503 3017 3124 3221 2641 3119 3120 3058 2820 2842 2841 3021 3547 3023 3009 3013 2737 2637 3132 2645 3022 3547 3544 2892 3152 3151 2842 2844 2843 3176 3376 2584 3246 3516 2992 3131 3351 2598 3108 3506 3109 2844 2934 2882 2834 3544 2750 2878 3086 3066 3023 3537 3055 2721 2723 2722 2892 3151 3142 2958 3365 3283 66 2610 67 2723 3096 2728 3251 3280 2938 3142 3219 2892 2845 3502 3111 73 3419 74 2700 3163 269 268 3163 2573 2953 3271 2951 2695 3223 2632 3125 3242 2825 3139 3147 2889 118 3097 2577 3121 3132 3122 3139 3219 3142 2600 3418 3355 2553 3241 3135 3341 3400 3398 3209 3256 2856 2689 3148 2687 64 2702 65 3257 3268 2732 2815 3152 2892 2817 3152 2815 2710 3116 3115 3138 3146 2893 2889 3219 3139 3016 3140 2947 3147 3222 2889 2695 3226 3223 2753 2995 2853 3151 3226 2695 63 3106 64 2893 3147 3138 3148 3222 3147 2693 3148 2689 2687 3148 2893 3130 3248 2856 2893 3146 2685 3020 3547 3021 3002 3363 3001 2680 2713 2681 3138 3147 3139 2947 3140 2946 3017 3503 3290 2699 3288 3114 2561 3348 2839 2685 3146 2623 2757 2760 2759 2659 2676 2675 2817 3220 3152 2627 3146 3138 3112 3272 208 3132 3223 3122 2624 3146 2627 2629 3156 3153 2893 3148 3147 3153 3156 2962 2629 3153 2626 3142 3151 3150 2630 3150 2695 3150 3151 2695 2628 3150 2630 2688 3149 2691 2900 3218 3155 2644 3150 2628 2900 3155 2902 3154 3155 2694 2894 3218 2896 3155 3218 2694 2690 3154 2694 2635 3198 3156 2725 3158 2808 3158 3218 2894 3156 3198 2962 2896 3218 2900 2808 3158 2894 2692 3158 2725 2635 3156 2631 2635 3165 3157 3157 3198 2635 2633 3165 2635 3160 3162 3161 2807 3161 2810 2810 3161 2918 3159 3161 2807 2696 3217 3165 2998 3159 2859 2998 3160 3159 3165 3217 3157 2859 3159 2806 2696 3165 2636 3160 3161 3159 3161 3162 2918 3169 3185 2903 2920 3217 2905 2905 3169 2903 3164 3185 3169 3164 3169 2696 2905 3217 3169 2638 3164 2696 2994 3166 2895 2895 3166 2864 3157 3217 2920 2803 3185 2801 2801 3185 3170 2903 3185 2803 3170 3185 3164 2640 3170 3164 2814 3167 2931 3167 3168 2931 2812 3167 2814 2801 3170 2663 2663 3170 2642 2848 3177 2738 2899 3189 3173 2848 3193 3175 2913 3174 3133 3175 3177 2848 3175 3193 3176 2717 3186 281 2706 3188 2729 2846 3178 2848 3179 3180 2935 3215 3216 2906 2910 3174 2913 2729 3188 2847 2821 3179 2935 2963 3107 2959 2876 3181 296 2697 3212 3211 2912 3174 2910 2716 3184 2715 297 2876 296 253 3196 2584 2666 2684 2665 3203 3206 2697 2847 2858 2846 2969 3174 2912 2916 3208 3207 3190 3192 3191 3195 3196 254 253 2584 252 275 3205 3190 295 3181 2654 3177 3212 2738 256 3182 2616 2583 3202 264 2897 3171 2994 2963 3175 3107 2697 3206 2656 2847 3188 2906 3044 3178 2858 2865 3200 2866 2733 3188 2706 3175 3176 3107 2616 3195 255 262 3204 261 2643 2657 2656 2656 3206 2652 2734 2886 2857 2936 3044 2858 3190 3205 3192 254 3196 253 265 2583 264 268 2573 267 270 2700 269 2816 2821 2817 2858 3178 2846 3093 3137 2880 249 3199 248 2715 3184 2802 2847 2906 2860 2899 3171 2897 3188 3215 2906 3178 3193 2848 2910 2913 2911 2913 2985 2914 248 2855 247 283 3183 282 2643 2656 2652 2664 2907 2716 2666 2706 2684 2738 3212 2684 2865 2866 2803 2921 2923 2922 2729 2846 2738 2701 3204 262 296 3181 295 3190 3191 2698 2907 2908 2716 2816 3179 2821 2821 2823 2822 2823 2825 2824 3121 3122 2884 2899 3173 3172 2909 2915 2912 2959 2969 2912 2922 3157 2920 2924 3198 2922 3207 3208 2983 2618 3199 249 256 2616 255 276 3205 275 282 2717 281 2652 2664 2663 2899 3172 3171 2945 3129 2973 2778 3182 257 275 3190 274 281 3186 280 2654 3197 294 2664 2716 2715 2697 3211 3203 2802 2867 2865 2814 2931 2816 2880 3200 2865 2866 3200 3117 2867 2983 2880 2919 2920 2905 2916 3210 2911 2913 3133 2985 3207 3210 2916 2921 2922 2920 2923 2924 2922 2922 3198 3157 2925 2928 2924 3186 3187 2600 2665 3212 2697 2866 3117 2904 2909 2912 2910 2926 2927 2925 3211 3212 3177 2657 2666 2665 2707 2733 2706 2860 2984 2936 2886 3125 2978 2900 2902 2901 2915 2963 2959 2923 2925 2924 264 3202 263 272 2566 271 292 2590 291 2665 2697 2656 2729 2738 2684 2707 2734 2733 2802 3184 2867 2816 2817 2815 2904 2919 2905 2923 2926 2925 2928 2962 2924 2962 3198 2924 2963 3177 3175 255 3195 254 257 3182 256 258 2778 257 287 2699 286 294 3197 293 295 2654 294 2814 2816 2815 2931 3179 2816 2821 2822 2817 2824 2891 2884 2891 3123 3121 2891 3130 3123 2907 2909 2908 2916 3213 3208 2652 2663 2642 2715 2802 2801 2802 2865 2803 2823 2824 2822 2886 2978 2976 2896 2900 2898 2902 2945 2901 2913 2914 2911 3193 3194 3176 250 2618 249 263 2701 262 274 2698 273 277 2582 276 285 2873 284 2652 3206 2664 2657 2665 2656 2715 2801 2663 2706 2729 2684 2802 2803 2801 2866 2903 2803 2976 2977 2857 2860 2936 2858 2904 2905 2903 2907 3206 3203 2909 2910 2908 2911 3210 2908 2909 3203 2915 2919 2921 2920 2984 3019 2936 280 3186 2600 2707 2856 2734 248 3199 2855 274 3190 2698 2664 2715 2663 2821 2935 2823 2824 2884 2822 2891 3121 2884 2729 2847 2846 2847 2860 2858 3137 3200 2880 2945 2973 2901 2976 3102 2977 2733 3215 3188 2867 2880 2865 2983 3093 2880 2898 2899 2897 2898 3189 2899 2815 2892 2813 2866 2904 2903 2867 3207 2983 263 3202 2701 2857 3215 2733 3102 3103 2977 2734 2857 2733 2886 2976 2857 3184 3207 2867 2973 3189 2901 2910 2911 2908 2986 3213 2914 3213 3214 3208 2716 3210 3184 2896 2898 2897 289 2617 288 290 3201 289 280 2600 279 2643 2652 2642 2814 2815 2813 2900 2901 2898 2666 2707 2706 2846 2848 2738 2915 3211 2963 3184 3210 3207 2657 3209 2666 2684 3212 2665 2666 3209 2707 2977 3215 2857 2985 2986 2914 2582 3205 276 289 3201 2617 2664 3206 2907 2897 2994 2895 3103 3216 2977 2707 3209 2856 2908 3210 2716 2907 3203 2909 3203 3211 2915 2901 3189 2898 2915 2959 2912 2914 2916 2911 282 3183 2717 2914 3213 2916 2977 3216 3215 2963 3211 3177 2641 2643 2642 2896 2897 2895 2918 3167 2812 2642 3170 2640 2812 2814 2813 2812 2813 2811 2641 2642 2640 2894 2896 2895 2997 3094 2998 2810 2918 2812 2639 2641 2640 2810 2812 2811 2894 2895 2864 2864 3166 2997 2640 3164 2638 2997 2998 2859 2811 2889 2809 2808 2894 2864 2639 2640 2638 2810 2811 2809 2864 2997 2859 2637 2645 2639 2637 2639 2638 2808 2864 2859 2638 2696 2636 2807 2810 2809 3169 3217 2696 2637 2638 2636 2807 2809 2726 2806 3159 2807 2808 2859 2806 2725 2808 2806 2634 2637 2636 2806 2807 2726 2636 3165 2633 2634 2636 2633 2725 2806 2726 2633 2635 2631 2725 2726 2693 2632 2634 2633 2694 3158 2692 2630 2695 2632 3142 3150 2644 2692 2725 2693 2632 2633 2631 3139 3142 2644 2631 3156 2629 2691 3154 2690 2630 2632 2631 2690 2694 2692 2692 2693 2689 2694 3218 3158 2630 2631 2629 3138 3139 2644 2690 2692 2689 2688 2691 2690 2628 2630 2629 2627 3138 2644 2688 2690 2689 2688 2689 2687 2628 2629 2626 2627 2644 2628 2686 3149 2688 2944 3081 2999 2686 2688 2687 2627 2628 2626 2687 2893 2685 2944 2999 2943 2626 3153 2625 2624 2627 2626 2686 2687 2685 3015 3016 2947 2943 3003 2942 2875 2944 2943 2624 2626 2625 2661 2686 2685 2811 3219 2889 2892 3219 2813 3083 3321 3031 2948 3015 2947 2942 3046 2874 2946 3140 3114 2875 2943 2942 2813 3219 2811 2661 2685 2623 2624 2625 2622 2623 3146 2624 3106 3108 2702 2875 2942 2874 2946 3114 3064 2850 2948 2947 2840 3336 3075 2671 3473 2827 3122 3220 2884 2822 3220 2817 2621 2661 2623 2623 2624 2622 2641 3221 2643 2657 3221 3209 3093 3426 2595 2693 3222 3148 2726 3222 2693 2889 3222 2809 2946 3064 2849 2850 2947 2946 2851 2875 2874 2853 3356 2953 2884 3220 2822 2714 3289 2721 2643 3221 2657 3070 3091 2982 2539 3463 3010 2582 3350 3102 3173 3371 3172 2856 3256 3130 2925 3225 2928 2809 3222 2726 3357 3526 3090 3167 3239 3168 3162 3239 2918 3152 3226 3151 3122 3226 3220 3508 3544 2834 2621 2623 2622 3274 3509 3183 2825 3242 2824 2891 3242 3130 3220 3226 3152 3106 3506 3108 2927 3225 2925 3347 3517 3074 32 3258 33 2886 3248 3125 2856 3248 2734 3223 3226 3122 3141 3409 2873 300 3319 3318 3344 3401 2603 2647 3539 2979 2851 2874 2772 2850 2946 2849 3544 3547 3020 2918 3239 3167 2986 3345 3251 3060 3424 3235 3183 3509 3464 2824 3242 2891 2881 2975 2775 64 3106 2702 3413 3420 3311 2836 2837 2805 209 2708 210 210 3228 211 211 2553 212 206 2550 207 212 3229 213 213 2709 214 204 2710 205 203 3232 204 214 3231 215 215 2564 216 202 2565 203 216 3230 217 200 3233 201 217 2711 218 199 2594 200 219 2581 220 220 3234 221 221 3235 222 196 2586 197 222 2593 223 195 3236 196 194 3237 195 193 2651 194 225 2655 226 191 2833 192 226 3238 227 227 2879 228 3118 3328 2960 3011 3460 3459 68 3243 69 3100 3101 2646 3007 3008 2952 2566 3266 271 270 3266 2700 3130 3256 3123 2734 3248 2886 3081 3421 3201 3067 3341 3340 3173 3352 2654 2966 3546 2968 3123 3256 3124 2606 3433 3027 2698 3353 3287 3101 3291 2646 3077 3485 3232 2608 3461 3011 3037 3447 2607 2683 2987 2682 2547 3455 3049 2999 3267 2943 2621 2622 2620 2742 2743 2731 237 2572 236 3265 3331 2885 2677 3297 2680 65 3254 66 3016 3409 3141 3144 3528 2917 3168 3273 2931 3179 3273 3180 261 3275 260 247 3274 246 2929 2930 2888 3356 3360 2939 2838 2861 2837 2981 3047 2957 2862 2957 2861 2943 3267 3003 2705 3030 2678 2581 3299 3126 2708 3228 210 211 3228 2553 2553 3229 212 213 3229 2709 204 3232 2710 2709 3231 214 2565 3232 203 215 3231 2564 2564 3230 216 217 3230 2711 2594 3233 200 2581 3234 220 3234 3235 221 222 3235 2593 196 3236 2586 195 3237 3236 2651 3237 194 2655 3238 226 227 3238 2879 2547 3049 2996 67 3113 68 232 2712 231 234 2595 233 230 2938 229 231 3250 230 259 3280 258 208 3272 209 3264 3265 3030 3201 3478 3081 3369 3546 2727 271 3266 270 2832 3320 3079 3282 3424 3068 2902 3267 2945 3260 3412 2567 272 3287 2566 2698 3287 273 3098 3144 2917 2972 3291 2929 3015 3270 3016 287 3288 2699 2617 3288 288 2869 2960 2830 3029 3322 2926 3033 3310 3039 2705 3264 3030 2936 3294 3044 2849 2851 2772 2771 2850 2849 2595 3466 3093 2744 2745 2743 63 3285 3106 2746 2747 2745 2987 3362 3117 2735 3096 2723 2748 2749 2747 2750 2751 2749 2752 2804 2751 2874 3088 2772 2594 3263 3233 3459 3492 2956 3250 3251 2938 2721 3289 2724 238 3284 237 2584 3414 3107 2934 3111 3110 2933 3252 2658 190 3295 191 3355 3418 3103 189 2598 188 3135 3283 3229 2667 3368 3354 3253 3369 3297 2971 3519 3415 197 3296 198 75 3419 2605 2935 3317 2823 2985 3345 2986 3014 3099 2996 3228 3241 2553 3197 3352 2973 2791 3309 3301 2984 3411 3187 267 3329 266 186 2673 185 3296 3525 198 3287 3353 3180 3090 3421 2944 2661 3346 2686 2931 3273 3179 3182 3524 3133 2837 3292 2805 3187 3425 2984 3204 3275 261 2855 3274 247 2942 3334 3046 2590 3366 3129 3205 3335 3192 2646 3291 2972 3044 3337 3178 3193 3337 3194 3199 3294 2855 184 2937 183 230 3250 2938 2712 3250 231 3104 3375 3037 2563 3431 3083 2648 2658 2649 3251 3358 2986 2948 3085 3015 2540 3449 3034 2552 3451 3035 3125 3326 2978 3028 3029 3025 3075 3510 3116 2930 3303 2888 3096 3290 2820 2620 3100 2646 209 3272 2708 187 3249 186 2547 2996 2683 224 3339 225 2711 3299 218 219 3299 2581 2732 3268 3128 2919 3279 2921 277 3350 2582 2651 3330 3237 185 3262 184 258 3280 2778 2944 3421 3081 2668 3095 2612 3108 3110 2702 3030 3476 2675 2611 2648 2647 2600 3355 279 3261 3332 3260 2565 3543 3136 3528 3539 2917 3117 3362 2904 2724 2735 2723 3197 3366 293 292 3366 2590 2567 3261 3260 2588 3257 2732 2761 3383 2974 2991 3408 2568 2584 3376 252 2771 3340 2850 3216 3411 2906 2860 3411 2984 2712 3410 3214 3067 3400 3341 304 2613 303 62 3285 63 2550 3527 3115 3115 3527 2710 29 2567 30 2959 3414 2969 273 3287 272 2988 3043 2989 288 3288 287 3186 3425 3187 3109 3342 2941 3214 3426 3208 2983 3426 3093 3317 3326 2825 3294 3509 2855 2680 3297 2727 246 3467 12 12 3467 283 260 3468 13 13 3468 297 3429 3434 3026 2590 3478 291 290 3478 3201 2829 2964 2735 3166 3521 2997 3189 3352 3173 3154 3515 3155 2620 2646 2615 306 3276 305 3052 3514 3053 3373 3490 3312 2970 3338 2559 3134 3356 2939 2950 3283 3135 2842 2845 2844 3019 3294 2936 2890 3505 3149 3006 3413 3031 3229 3283 2709 2975 3473 3281 2691 3334 3154 3031 3419 3083 69 2587 70 3448 3450 3036 223 3471 224 2975 3281 3261 7 3472 62 228 3472 7 218 3299 219 2713 3289 2714 2619 2621 2620 2702 3254 65 3120 3320 3058 3196 3414 2584 2574 3245 2764 34 2548 1 3195 3372 2969 3136 3543 3233 31 2718 32 3048 3456 2870 2825 3326 3125 2658 3252 2659 3046 3088 2874 191 3295 2833 2731 3264 2705 2795 3420 3035 3131 3422 3127 2966 3483 3316 1 3422 189 3004 3420 3413 2869 3360 2960 3019 3509 3294 2990 3344 2603 2879 3506 3285 2586 3296 197 3267 3515 3003 202 3543 2565 3233 3543 201 11 3482 259 251 3376 3194 206 3527 2550 2710 3527 205 199 3525 2594 3359 3375 3104 3453 3489 3343 3055 3525 3296 2863 3292 2837 3180 3353 2935 2805 3292 2804 2711 3454 3119 2754 3089 2826 2902 3515 3267 229 3482 11 3086 3293 3066 2576 3477 2773 3525 3537 2594 237 3284 2572 3133 3372 2616 2737 3048 2870 2823 3317 2825 3013 3048 2737 0 3512 190 2919 3362 3279 3250 3358 3251 2960 3328 3227 2701 3480 3204 3015 3489 3270 3270 3489 2613 2770 2974 2768 33 3277 34 3381 3383 2554 3054 3532 3069 2861 2863 2837 3026 3027 3025 3042 3043 2988 3117 3469 2987 284 3507 14 3253 3297 2676 2778 3524 3182 3110 3254 2702 2601 3400 3397 3399 3400 2570 2701 3501 3480 3201 3526 2617 2721 2724 2723 2573 3329 267 3442 3495 3433 3105 3490 3373 2995 3360 3356 2617 3357 3288 3137 3479 2572 2676 3297 2677 3174 3372 3133 183 3512 0 3095 3370 2612 3085 3545 3343 2570 3518 3407 232 3410 2712 2595 3410 233 3073 3347 3077 3202 3501 2701 2596 3257 2588 2987 3284 2682 3003 3334 2942 2582 3335 3205 2743 3264 2731 184 3262 2937 2996 3049 3013 2673 3262 185 2949 3087 3082 2887 3484 2672 3178 3337 3193 3252 3253 2676 3065 3379 2759 3382 3405 2768 234 3466 2595 2747 2885 2745 28 3255 29 3202 3520 3501 2751 2755 2749 186 3249 2673 2551 3416 2949 2586 3374 3296 2820 3290 2842 3380 3531 3384 2854 3286 2756 3343 3489 3085 14 3507 306 3061 3336 3008 225 3339 2655 2762 3530 310 2610 3113 67 3115 3510 3061 69 3243 2587 2558 3388 3286 3010 3463 3011 3026 3434 3027 2583 3520 3202 3018 3333 3243 2969 3372 3174 3037 3448 3036 2949 3493 3087 3088 3513 2772 2995 3356 2853 3264 3331 3265 2724 2829 2735 3363 3494 3001 3091 3364 2981 3194 3376 3176 2594 3537 3263 2964 3333 3018 2973 3352 3189 2572 3479 236 3286 3387 2756 278 3350 277 3263 3537 3023 2557 3439 3032 2776 3428 3024 2605 3419 3031 2703 3095 2668 2957 3298 2861 3116 3510 3115 2929 3291 2930 3415 3519 21 3283 3365 2709 2680 2727 2713 2598 3349 188 3119 3454 3120 2993 3516 3340 278 3355 3350 3128 3511 3131 2771 2849 2772 2561 2839 2589 2829 2965 2964 188 3349 187 2654 3352 3197 2561 2588 2560 3235 3424 2593 3191 3353 2698 3098 3533 3144 2593 3424 3282 3258 3277 33 2619 3293 3086 2556 3429 3026 30 3412 31 2704 3328 3118 3036 3450 2552 3359 3484 2887 3320 3363 3058 279 3355 278 2736 3462 3009 3301 3488 3304 2548 2560 1 2589 2596 2588 2842 3290 2845 2758 2760 2757 3114 3357 3064 3391 3392 3341 2554 2758 2757 2829 2966 2965 2599 2854 2756 3401 3497 2576 2569 3391 3390 2766 2767 2575 3343 3344 3319 4 3487 245 3187 3418 2600 2839 3368 2589 3085 3516 3246 3047 3351 2957 3288 3357 3114 2883 3346 3086 2904 3362 2919 3039 3490 3041 293 3366 292 2932 2933 2658 2597 2667 2612 3008 3491 3240 2863 3327 3292 2740 3494 2832 3058 3363 3002 2840 3491 3336 2718 3258 32 2876 3371 3181 2597 2611 2596 2616 3372 3195 3133 3524 2985 2939 3360 2869 3249 3349 3047 2749 3323 2747 252 3376 251 2804 3324 2751 2987 3469 3284 259 3482 3280 2906 3411 2860 3129 3475 2590 3345 3524 2778 2709 3365 3231 3341 3392 2993 3105 3313 3301 2965 3333 2964 2745 3331 2743 2659 3252 2676 3107 3414 2959 2564 3361 3230 2966 2968 2967 3103 3418 3216 305 3377 304 3073 3517 3347 2669 3529 2671 2713 3316 3289 3274 3467 246 3275 3468 260 2979 3539 3528 3071 3517 3073 2881 3082 2975 2861 3298 2863 3306 3488 2788 187 3349 3249 2786 3314 3308 2717 3425 3186 3276 3377 305 3208 3426 2983 2710 3485 3116 2980 3004 2933 2567 3412 30 2873 3507 284 233 3410 232 190 3512 3295 2780 3310 3033 2966 2967 2965 2717 3464 3425 2554 3383 2758 2780 3032 2779 3290 3503 2845 3232 3485 2710 3324 3325 3145 2667 2669 2668 3183 3464 2717 2800 3097 117 239 2682 238 3304 3375 2887 3246 3545 3085 2597 3368 2667 2850 3340 2948 3421 3526 3201 2561 2589 2588 2767 3518 2769 283 3467 3183 297 3468 2876 3292 3325 2804 2932 3095 2980 2712 3358 3250 3340 3341 2993 2968 3321 3083 3270 3409 3016 3028 3536 3045 2605 3031 2797 2971 3338 2970 2581 3423 3234 2781 3310 2541 2790 3313 2580 2787 3315 2579 70 3278 71 2968 3369 3321 3012 3013 3009 3316 3483 3289 2619 2620 2615 2613 3377 3270 291 3478 290 2718 3260 3259 2683 3504 2547 3172 3480 3171 3078 3508 3072 3004 3413 3006 3082 3473 2975 2761 2883 2760 2932 3370 3095 2957 3351 3298 3262 3486 3092 2956 3492 2954 2832 3363 3320 3480 3501 3171 2800 3312 3097 2878 3065 2759 3423 3541 3059 3243 3333 2587 3285 3506 3106 2968 3083 2967 3292 3327 3325 2593 3471 223 2758 3383 2761 3092 3486 3091 3247 3344 3343 2747 3323 2885 2755 3323 2749 3171 3501 2994 235 3466 234 3308 3375 3304 2751 3324 2755 3361 3454 3230 2885 3331 2745 2873 3409 3276 3230 3454 2711 2589 2597 2596 3501 3520 2994 3258 3348 3277 3155 3515 2902 2670 2703 2668 6 3269 61 3069 3532 3330 3260 3332 3259 2648 2932 2658 2739 3384 3043 3145 3535 3324 2994 3520 3166 2743 3331 3264 2997 3521 3094 2927 3522 3303 2879 3472 228 2774 3477 3246 2926 3322 2927 2548 2561 2560 19 3338 2545 198 3525 199 2727 3316 2713 205 3527 206 236 3479 235 3035 3451 2794 3034 3449 2783 34 3277 2548 3280 3482 2938 201 3543 202 2718 3259 3258 3253 3470 3006 2876 3468 3275 3183 3467 3274 3259 3348 3258 3365 3542 3231 3354 3368 2839 2564 3542 3361 2829 3483 2966 3055 3537 3525 29 3255 2567 2768 3405 2575 2569 3396 3392 2599 3385 2988 2571 3379 3065 2990 3402 2653 3057 3541 3126 2589 3368 2597 3361 3542 3080 3042 3394 2739 31 3412 2718 3105 3373 3313 2804 3325 3324 3284 3469 2572 2669 2671 2670 2989 3293 2614 2597 2612 2611 3305 3488 3301 2933 3470 3252 3091 3486 3364 2828 2887 2672 2765 3245 2992 3066 3244 2763 2938 3482 229 235 3479 3466 2563 3419 73 3046 3505 3088 3204 3496 3275 2965 3481 3333 2539 3010 3009 9 3405 3382 2759 3379 10 2789 3306 2544 2792 3309 2543 2796 3311 2562 2798 2799 2542 2785 2786 2578 3364 3486 2673 3473 3529 3281 2974 3383 3382 2556 3026 3024 2682 3504 2683 2887 3375 3359 3035 3036 2552 3336 3491 3008 2772 3513 2770 3120 3454 3361 2667 2668 2612 2932 2980 2933 3249 3364 2673 3269 3492 2609 3041 3522 3040 3493 3519 2971 304 3377 2613 3458 3459 2549 27 2775 28 3231 3542 2564 3085 3489 3015 3066 3293 2989 2877 3394 3042 3301 3304 3302 3499 3505 2890 3295 3512 2937 62 3472 3285 3398 3400 2601 2855 3509 3274 2993 3523 2991 3304 3488 3308 189 3422 2598 3301 3309 3305 2761 2890 2883 3088 3505 3499 3265 3476 3030 2671 3529 3473 3344 3497 3401 2592 2970 2559 2739 3043 3042 2832 3494 3363 3336 3510 3075 2890 3346 2883 2771 2772 2770 2954 3269 2538 3285 3472 2879 2948 3516 3085 2940 3529 2669 303 3453 302 299 3089 298 2980 3005 3004 2682 3284 238 2613 3489 3453 3276 3507 2873 2669 2670 2668 2587 3278 70 2937 3512 183 2671 2827 2672 3032 3045 2784 3245 3246 2992 2777 3024 2955 3039 3310 2782 3333 3481 2587 2611 3370 2648 3528 3535 3145 3067 3518 3400 3385 3403 2988 3396 3404 3392 3395 3402 2990 2718 3412 3260 2775 3417 2881 3033 3498 3045 3298 3351 3131 45 2558 2 3033 3045 3032 3408 3523 2602 2602 3523 3404 2968 3546 3369 2863 3511 3327 2760 2878 2759 306 3507 3276 182 2757 10 9 3381 180 44 3388 45 43 3387 44 315 3394 316 311 2585 312 40 2599 41 35 2877 36 180 2554 181 307 2571 308 312 3380 313 39 3385 40 36 3386 37 308 3378 309 175 3407 176 168 2569 169 148 2653 149 151 2603 152 176 2766 177 314 2739 315 156 2773 157 160 2764 161 167 3396 168 37 2650 38 42 2756 43 309 2762 310 171 2601 172 10 3379 307 313 3384 314 152 3401 153 179 3405 9 147 3406 148 164 3408 165 38 3403 39 172 3397 173 149 3402 150 173 3399 174 154 2576 155 158 2574 159 146 2754 147 174 2570 175 162 2568 163 165 2602 166 178 2575 179 166 3404 167 170 3390 171 150 3395 151 161 3389 162 157 3393 158 3028 3322 3029 2967 3481 2965 3028 3498 3322 3098 3534 3533 3340 3516 2948 71 3431 72 3498 3522 3322 2673 3486 3262 3027 3028 3025 19 2545 20 26 3417 27 22 2604 23 23 3416 24 25 2551 26 20 3415 21 2940 3354 3332 2671 2672 2670 3289 3483 2724 3252 3470 3253 46 2555 5 3061 3510 3336 2551 2949 2881 2826 2990 2653 2765 2991 2568 2767 2768 2575 2599 2988 2854 2571 3065 2763 2569 3392 3391 2956 3014 3012 3390 3398 2601 2612 3370 2611 2881 3417 2551 2769 3518 3067 3244 3530 2762 2613 3453 303 144 2538 6 3131 3511 3298 3024 3026 3025 3027 3536 3028 3433 3495 3027 3034 3495 2540 131 3449 132 96 2789 97 104 2792 105 123 2541 124 77 2796 78 139 2556 140 88 3447 89 112 2798 113 115 3446 116 85 3450 86 142 2776 143 80 3445 81 120 3452 121 107 3444 108 134 3442 135 72 2563 73 128 2557 129 99 3441 100 126 3439 127 136 2606 137 91 3437 92 82 3451 83 110 2580 111 90 2546 91 137 3434 138 75 2605 76 125 2779 126 102 2579 103 98 2544 99 129 3432 130 133 2540 134 94 2578 95 106 2543 107 121 2781 122 79 2562 80 86 3448 87 114 2542 115 87 2607 88 140 3428 141 95 3443 96 130 2783 131 103 3440 104 124 3427 125 76 3438 77 138 3429 139 89 3436 90 111 3435 112 116 2800 117 84 2552 85 143 3430 144 81 2794 82 119 2577 120 108 2790 109 92 2785 93 135 3433 136 100 2787 101 3035 3420 3104 2827 2929 2828 2724 3483 2829 2761 3499 2890 298 3538 8 2974 3499 2761 2559 3338 2 2614 2619 2615 3031 3413 2797 56 3460 55 60 2609 59 48 2736 47 47 3457 46 51 2539 50 57 2549 56 53 3463 52 55 3461 54 59 3458 58 50 3462 49 54 2608 53 3298 3511 2863 3281 3529 2940 2577 3097 3038 3330 3532 3053 3375 3500 3037 2648 3370 2932 3039 3040 3033 2985 3524 3345 3303 3522 3041 2827 2828 2672 3039 3041 3040 3024 3025 2955 3392 3523 2993 3005 3420 3004 2795 3035 2794 2577 3038 2782 2557 3032 2784 2784 3034 2783 2826 3319 2990 316 3474 317 2776 3024 2777 3302 3303 3041 3246 3477 3247 2558 3286 2591 3371 3496 3172 2888 3304 2887 2763 3244 2762 2764 3245 2765 2774 3245 2574 2992 2993 2991 3005 3540 3359 3097 3312 3038 2736 3009 2737 2777 2954 2538 2773 3477 2774 2576 3497 3477 3464 3509 3019 2617 3526 3357 245 3456 244 3502 3503 3084 3005 3359 3104 2775 3255 28 300 3318 299 3111 3502 3465 2828 2888 2887 3 3548 35 317 3548 3 2757 2759 10 9 3382 3381 3359 3540 2703 3104 3420 3005 2991 3523 3408 3404 3523 3392 2660 3456 3048 2558 2559 2 2769 2770 2768 8 3538 145 3312 3446 2542 2800 3446 3312 2789 3443 3307 3307 3443 2578 2755 3533 3323 3089 3318 2826 3144 3535 3528 3324 3535 2755 3327 3511 3128 2755 3535 3533 2845 3503 3502 2956 3029 3014 3315 3488 3305 2540 3495 3442 3480 3496 3204 3172 3496 3480 2870 3487 5 2727 3546 3316 3090 3526 3421 3041 3490 3105 2955 3029 2956 2883 3086 2878 2672 3484 2670 3037 3500 3314 3089 3538 298 2587 3481 3278 3095 3540 2980 244 2660 243 3384 3531 3043 2769 2771 2770 3323 3534 2885 3302 3304 2888 2653 3406 2826 2763 3378 2571 3042 3386 2877 2650 3386 3042 2762 3378 2763 2826 3406 2754 2774 3393 2773 2765 3389 2764 2568 3389 2765 2574 3393 2774 2758 2761 2760 3465 3502 3084 240 3504 239 2614 3293 2619 3394 3474 316 2955 2956 2954 2591 2592 2559 3458 3492 3459 3318 3319 2826 2780 3033 3032 2609 3492 3458 3311 3420 2795 2614 2615 2592 3308 3500 3375 3322 3522 2927 2970 2972 2971 3278 3431 71 2703 3484 3359 2770 3513 2974 2555 2870 5 2662 3319 301 2760 2883 2878 2538 3269 6 2980 3540 3005 2591 2614 2592 2670 3484 2703 3314 3500 3308 2765 2992 2991 2767 2769 2768 2988 2989 2854 3065 3066 2763 3382 3383 3381 3312 3490 3038 2558 2591 2559 302 2662 301 2789 3307 3306 2541 3310 2780 2580 3313 3300 2579 3315 2793 2786 3307 2578 2782 3310 2781 2799 3312 2542 2791 3313 2790 2788 3315 2787 2538 3430 2777 2555 3457 2737 245 3487 3456 2788 3441 2544 2791 3444 2543 2781 3452 2782 3314 3437 2546 2795 3445 2562 2794 3445 2795 2782 3452 2577 2790 3444 2791 2784 3432 2557 2787 3441 2788 2785 3437 3314 2783 3432 2784 2792 3440 2793 2780 3427 2541 2796 3438 2797 2798 3435 3300 2793 3440 2579 2779 3427 2780 2797 3438 2605 3300 3435 2580 3045 3498 3028 2777 3430 2776 2774 3246 3245 2954 3492 3269 5 3487 4 3040 3498 3033 3034 3536 3495 2793 3309 2792 2797 3311 2796 2544 3306 2788 2798 3300 2799 2543 3309 2791 2562 3311 2795 2785 3314 2786 2737 3457 2736 3416 3493 2949 35 3548 2877 2703 3540 3095 3533 3535 3144 3341 3398 3391 3048 3049 2660 3011 3012 3010 3025 3029 2955 27 3417 2775 3533 3534 3323 2992 3516 2993 3035 3104 3036 243 3367 242 2604 3493 3416 3038 3039 2782 2784 3045 3034 2777 2955 2954 2662 3453 3343 3247 3545 3246 3343 3545 3247 180 3381 2554 3387 3388 44 2585 3380 312 2571 3378 308 40 3385 2599 2877 3386 36 37 3386 2650 2739 3394 315 2756 3387 43 307 3379 2571 309 3378 2762 39 3403 3385 3380 3384 313 148 3406 2653 176 3407 2766 168 3396 2569 314 3384 2739 2650 3403 38 2601 3397 172 2603 3401 152 165 3408 2602 171 3390 2601 3397 3399 173 2575 3405 179 2570 3407 175 2653 3402 149 167 3404 3396 151 3395 2603 2764 3389 161 2754 3406 147 2773 3393 157 150 3402 3395 162 3389 2568 158 3393 2574 174 3399 2570 2602 3404 166 3301 3302 3105 45 3388 2558 3105 3302 3041 3397 3400 3399 22 3519 2604 2662 3343 3319 239 3504 2682 2604 3416 23 2551 3417 26 2545 3415 20 2788 3488 3315 2786 3308 3307 3407 3518 2766 242 3455 241 3040 3522 3498 72 3431 2563 311 3530 2585 3391 3398 3390 2766 3518 2767 241 2547 240 2585 3531 3380 2546 3437 91 2606 3434 137 2779 3439 126 2544 3441 99 2557 3432 129 2540 3442 134 2543 3444 107 121 3452 2781 2562 3445 80 86 3450 3448 2542 3446 115 2607 3447 88 2556 3428 140 96 3443 2789 2783 3449 131 104 3440 2792 2541 3427 124 77 3438 2796 139 3429 2556 89 3447 3436 112 3435 2798 116 3446 2800 87 3448 2607 2552 3450 85 2776 3430 143 2578 3443 95 81 3445 2794 130 3432 2783 2579 3440 103 125 3427 2779 2605 3438 76 138 3434 3429 90 3436 2546 2577 3452 120 108 3444 2790 2580 3435 111 2794 3451 82 135 3442 3433 92 3437 2785 136 3433 2606 100 3441 2787 144 3430 2538 3313 3373 3300 2974 3513 3499 2736 3457 47 2549 3460 56 3460 3461 55 2609 3458 59 2539 3462 50 2608 3463 53 54 3461 2608 3247 3497 3344 46 3457 2555 299 3318 3089 3456 3487 2870 2604 3519 3493 3045 3536 3034 2877 3548 3474 3477 3497 3247 3495 3536 3027 3286 3388 3387 302 3453 2662 3038 3490 3039 244 3456 2660 3474 3548 317 3049 3367 2660 3530 3531 2585 3244 3531 3530 3499 3513 3088 3305 3309 2793 3300 3373 2799 2660 3367 243 2547 3504 240 2793 3315 3305 3367 3455 242 241 3455 2547 3049 3455 3367 24 2551 25 41 2756 42 49 2736 48 52 3463 51 58 2549 57 61 2609 60 78 2562 79 83 2552 84 93 2578 94 97 2544 98 101 2579 102 105 2543 106 109 2580 110 113 2542 114 118 2577 119 122 2541 123 127 2557 128 132 2540 133 141 2776 142 145 2754 146 153 2576 154 155 2773 156 159 2764 160 163 3408 164 169 3390 170 177 2575 178 181 2757 182 3111 3254 3110 19 2 20 19 21 20 22 21 23 22 24 23 25 24 26 25 27 26 28 27 29 28 30 29 31 30 32 31 33 32 34 33 1 34 35 3 36 35 37 36 38 37 39 38 40 39 41 40 42 41 43 42 44 43 45 44 2 45 4 5 5 46 46 47 47 48 48 49 49 50 50 51 51 52 52 53 53 54 54 55 55 56 56 57 57 58 58 59 59 60 60 61 61 6 62 7 63 62 64 63 65 64 66 65 67 66 68 67 69 68 70 69 71 70 72 71 73 72 74 73 75 74 76 75 77 76 78 77 79 78 80 79 81 80 82 81 83 82 84 83 85 84 86 85 87 86 88 87 89 88 90 89 91 90 92 91 93 92 94 93 95 94 96 95 97 96 98 97 99 98 100 99 101 100 102 101 103 102 104 103 105 104 106 105 107 106 108 107 109 108 110 109 111 110 112 111 113 112 114 113 115 114 116 115 117 116 118 117 119 118 120 119 121 120 122 121 123 122 124 123 125 124 126 125 127 126 128 127 129 128 130 129 131 130 132 131 133 132 134 133 135 134 136 135 137 136 138 137 139 138 140 139 141 140 142 141 143 142 144 143 6 144 145 8 146 145 147 146 148 147 149 148 150 149 151 150 152 151 153 152 154 153 155 154 156 155 157 156 158 157 159 158 160 159 161 160 162 161 163 162 164 163 165 164 166 165 167 166 168 167 169 168 170 169 171 170 172 171 173 172 174 173 175 174 176 175 177 176 178 177 179 178 9 179 180 9 181 180 182 181 10 182 0 183 183 184 184 185 185 186 186 187 187 188 188 189 189 1 190 0 191 190 192 191 193 192 194 193 195 194 196 195 197 196 198 197 199 198 200 199 201 200 202 201 203 202 204 203 205 204 206 205 207 206 208 207 209 208 210 209 211 210 212 211 213 212 214 213 215 214 216 215 217 216 218 217 219 218 220 219 221 220 222 221 223 222 224 223 225 224 226 225 227 226 228 227 7 228 11 229 229 230 230 231 231 232 232 233 233 234 234 235 235 236 236 237 237 238 238 239 239 240 240 241 241 242 242 243 243 244 244 245 245 4 12 246 246 247 247 248 248 249 249 250 250 251 251 252 252 253 253 254 254 255 255 256 256 257 257 258 258 259 259 11 13 260 260 261 261 262 262 263 263 264 264 265 265 266 266 267 267 268 268 269 269 270 270 271 271 272 272 273 273 274 274 275 275 276 276 277 277 278 278 279 279 280 280 281 281 282 282 283 283 12 14 284 284 285 285 286 286 287 287 288 288 289 289 290 290 291 291 292 292 293 293 294 294 295 295 296 296 297 297 13 8 298 298 299 299 300 300 301 301 302 302 303 303 304 304 305 305 306 306 14 307 10 308 307 309 308 310 309 311 310 312 311 313 312 314 313 315 314 316 315 317 316 3 317 318 15 319 318 320 319 321 320 322 321 323 322 324 323 325 324 326 325 327 326 328 327 329 328 330 329 331 330 332 331 333 332 334 333 335 334 336 335 337 336 338 337 339 338 340 339 341 340 342 341 343 342 344 343 345 344 346 345 347 346 348 347 349 348 350 349 351 350 352 351 353 352 354 353 355 354 356 355 357 356 358 357 359 358 360 359 361 360 362 361 363 362 364 363 365 364 366 365 16 366 367 16 368 367 369 368 370 369 371 370 372 371 373 372 374 373 375 374 376 375 377 376 378 377 379 378 380 379 381 380 382 381 383 382 384 383 385 384 0 385 386 7 387 386 388 387 389 388 390 389 391 390 392 391 393 392 394 393 17 394 17 395 395 396 396 397 397 398 398 399 399 400 400 401 401 402 402 403 403 404 404 405 405 406 406 407 407 408 408 15 15 409 409 410 410 411 411 412 412 413 413 414 414 415 415 416 416 417 417 418 418 419 419 420 420 18 421 18 422 421 423 422 424 423 425 424 426 425 427 426 428 427 429 428 430 429 431 430 432 431 433 432 434 433 435 434 436 435 437 436 438 437 439 438 440 439 441 440 442 441 443 442 3 443 4 444 444 445 445 446 446 447 447 448 448 449 449 450 450 451 451 452 452 453 453 454 454 455 455 456 456 457 457 458 458 459 459 460 460 461 461 462 462 463 463 464 464 465 465 466 466 467 467 468 468 469 469 470 470 471 471 472 472 473 473 474 474 475 475 476 476 477 477 478 478 479 479 480 480 481 481 482 482 483 483 484 484 485 485 486 486 487 487 488 488 489 489 490 490 491 491 492 492 493 493 494 494 495 495 496 496 497 497 498 498 499 499 500 500 501 501 502 502 503 503 504 504 505 505 506 506 507 507 508 508 509 509 510 510 511 511 512 512 513 513 514 514 515 515 516 516 517 517 518 518 519 519 520 520 521 521 522 522 523 523 524 524 525 525 526 526 527 527 528 528 529 529 530 530 531 531 532 532 533 533 534 534 535 535 536 536 537 537 538 538 539 539 540 540 541 541 542 542 17 18 543 543 544 544 545 545 8
        </DataArray>
        <DataArray type="Int32" Name="offsets" format="ascii">
 3 6 9 12 15 18 21 24 27 30 33 36 39 42 45 48 51 54 57 60 63 66 69 72 75 78 81 84 87 90 93 96 99 102 105 108 111 114 117 120 123 126 129 132 135 138 141 144 147 150 153 156 159 162 165 168 171 174 177 180 183 186 189 192 195 198 201 204 207 210 213 216 219 222 225 228 231 234 237 240 243 246 249 252 255 258 261 264 267 270 273 276 279 282 285 288 291 294 297 300 303 306 309 312 315 318 321 324 327 330 333 336 339 342 345 348 351 354 357 360 363 366 369 372 375 378 381 384 387 390 393 396 399 402 405 408 411 414 417 420 423 426 429 432 435 438 441 444 447 450 453 456 459 462 465 468 471 474 477 480 483 486 489 492 495 498 501 504 507 510 513 516 519 522 525 528 531 534 537 540 543 546 549 552 555 558 561 564 567 570 573 576 579 582 585 588 591 594 597 600 603 606 609 612 615 618 621 624 627 630 633 636 639 642 645 648 651 654 657 660 663 666 669 672 675 678 681 684 687 690 693 696 699 702 705 708 711 714 717 720 723 726 729 732 735 738 741 744 747 750 753 756 759 762 765 768 771 774 777 780 783 786 789 792 795 798 801 804 807 810 813 816 819 822 825 828 831 834 837 840 843 846 849 852 855 858 861 864 867 870 873 876 879 882 885 888 891 894 897 900 903 906 909 912 915 918 921 924 927 930 933 936 939 942 945 948 951 954 957 960 963 966 969 972 975 978 981 984 987 990 993 996 999 1002 1005 1008 1011 1014 1017 1020 1023 1026 1029 1032 1035 1038 1041 1044 1047 1050 1053 1056 1059 1062 1065 1068 1071 1074 1077 1080 1083 1086 1089 1092 1095 1098 1101 1104 1107 1110 1113 1116 1119 1122 1125 1128 1131 1134 1137 1140 1143 1146 1149 1152 1155 1158 1161 1164 1167 1170 1173 1176 1179 1182 1185 1188 1191 1194 1197 1200 1203 1206 1209 1212 1215 1218 1221 1224 1227 1230 1233 1236 1239 1242 1245 1248 1251 1254 1257 1260 1263 1266 1269 1272 1275 1278 1281 1284 1287 1290 1293 1296 1299 1302 1305 1308 1311 1314 1317 1320 1323 1326 1329 1332 1335 1338 1341 1344 1347 1350 1353 1356 1359 1362 1365 1368 1371 1374 1377 1380 1383 1386 1389 1392 1395 1398 1401 1404 1407 1410 1413 1416 1419 1422 1425 1428 1431 1434 1437 1440 1443 1446 1449 1452 1455 1458 1461 1464 1467 1470 1473 1476 1479 1482 1485 1488 1491 1494 1497 1500 1503 1506 1509 1512 1515 1518 1521 1524 1527 1530 1533 1536 1539 1542 1545 1548 1551 1554 1557 1560 1563 1566 1569 1572 1575 1578 1581 1584 1587 1590 1593 1596 1599 1602 1605 1608 1611 1614 1617 1620 1623 1626 1629 1632 1635 1638 1641 1644 1647 1650 1653 1656 1659 1662 1665 1668 1671 1674 1677 1680 1683 1686 1689 1692 1695 1698 1701 1704 1707 1710 1713 1716 1719 1722 1725 1728 1731 1734 1737 1740 1743 1746 1749 1752 1755 1758 1761 1764 1767 1770 1773 1776 1779 1782 1785 1788 1791 1794 1797 1800 1803 1806 1809 1812 1815 1818 1821 1824 1827 1830 1833 1836 1839 1842 1845 1848 1851 1854 1857 1860 1863 1866 1869 1872 1875 1878 1881 1884 1887 1890 1893 1896 1899 1902 1905 1908 1911 1914 1917 1920 1923 1926 1929 1932 1935 1938 1941 1944 1947 1950 1953 1956 1959 1962 1965 1968 1971 1974 1977 1980 1983 1986 1989 1992 1995 1998 2001 2004 2007 2010 2013 2016 2019 2022 2025 2028 2031 2034 2037 2040 2043 2046 2049 2052 2055 2058 2061 2064 2067 2070 2073 2076 2079 2082 2085 2088 2091 2094 2097 2100 2103 2106 2109 2112 2115 2118 2121 2124 2127 2130 2133 2136 2139 2142 2145 2148 2151 2154 2157 2160 2163 2166 2169 2172 2175 2178 2181 2184 2187 2190 2193 2196 2199 2202 2205 2208 2211 2214 2217 2220 2223 2226 2229 2232 2235 2238 2241 2244 2247 2250 2253 2256 2259 2262 2265 2268 2271 2274 2277 2280 2283 2286 2289 2292 2295 2298 2301 2304 2307 2310 2313 2316 2319 2322 2325 2328 2331 2334 2337 2340 2343 2346 2349 2352 2355 2358 2361 2364 2367 2370 2373 2376 2379 2382 2385 2388 2391 2394 2397 2400 2403 2406 2409 2412 2415 2418 2421 2424 2427 2430 2433 2436 2439 2442 2445 2448 2451 2454 2457 2460 2463 2466 2469 2472 2475 2478 2481 2484 2487 2490 2493 2496 2499 2502 2505 2508 2511 2514 2517 2520 2523 2526 2529 2532 2535 2538 2541 2544 2547 2550 2553 2556 2559 2562 2565 2568 2571 2574 2577 2580 2583 2586 2589 2592 2595 2598 2601 2604 2607 2610 2613 2616 2619 2622 2625 2628 2631 2634 2637 2640 2643 2646 2649 2652 2655 2658 2661 2664 2667 2670 2673 2676 2679 2682 2685 2688 2691 2694 2697 2700 2703 2706 2709 2712 2715 2718 2721 2724 2727 2730 2733 2736 2739 2742 2745 2748 2751 2754 2757 2760 2763 2766 2769 2772 2775 2778 2781 2784 2787 2790 2793 2796 2799 2802 2805 2808 2811 2814 2817 2820 2823 2826 2829 2832 2835 2838 2841 2844 2847 2850 2853 2856 2859 2862 2865 2868 2871 2874 2877 2880 2883 2886 2889 2892 2895 2898 2901 2904 2907 2910 2913 2916 2919 2922 2925 2928 2931 2934 2937 2940 2943 2946 2949 2952 2955 2958 2961 2964 2967 2970 2973 2976 2979 2982 2985 2988 2991 2994 2997 3000 3003 3006 3009 3012 3015 3018 3021 3024 3027 3030 3033 3036 3039 3042 3045 3048 3051 3054 3057 3060 3063 3066 3069 3072 3075 3078 3081 3084 3087 3090 3093 3096 3099 3102 3105 3108 3111 3114 3117 3120 3123 3126 3129 3132 3135 3138 3141 3144 3147 3150 3153 3156 3159 3162 3165 3168 3171 3174 3177 3180 3183 3186 3189 3192 3195 3198 3201 3204 3207 3210 3213 3216 3219 3222 3225 3228 3231 3234 3237 3240 3243 3246 3249 3252 3255 3258 3261 3264 3267 3270 3273 3276 3279 3282 3285 3288 3291 3294 3297 3300 3303 3306 3309 3312 3315 3318 3321 3324 3327 3330 3333 3336 3339 3342 3345 3348 3351 3354 3357 3360 3363 3366 3369 3372 3375 3378 3381 3384 3387 3390 3393 3396 3399 3402 3405 3408 3411 3414 3417 3420 3423 3426 3429 3432 3435 3438 3441 3444 3447 3450 3453 3456 3459 3462 3465 3468 3471 3474 3477 3480 3483 3486 3489 3492 3495 3498 3501 3504 3507 3510 3513 3516 3519 3522 3525 3528 3531 3534 3537 3540 3543 3546 3549 3552 3555 3558 3561 3564 3567 3570 3573 3576 3579 3582 3585 3588 3591 3594 3597 3600 3603 3606 3609 3612 3615 3618 3621 3624 3627 3630 3633 3636 3639 3642 3645 3648 3651 3654 3657 3660 3663 3666 3669 3672 3675 3678 3681 3684 3687 3690 3693 3696 3699 3702 3705 3708 3711 3714 3717 3720 3723 3726 3729 3732 3735 3738 3741 3744 3747 3750 3753 3756 3759 3762 3765 3768 3771 3774 3777 3780 3783 3786 3789 3792 3795 3798 3801 3804 3807 3810 3813 3816 3819 3822 3825 3828 3831 3834 3837 3840 3843 3846 3849 3852 3855 3858 3861 3864 3867 3870 3873 3876 3879 3882 3885 3888 3891 3894 3897 3900 3903 3906 3909 3912 3915 3918 3921 3924 3927 3930 3933 3936 3939 3942 3945 3948 3951 3954 3957 3960 3963 3966 3969 3972 3975 3978 3981 3984 3987 3990 3993 3996 3999 4002 4005 4008 4011 4014 4017 4020 4023 4026 4029 4032 4035 4038 4041 4044 4047 4050 4053 4056 4059 4062 4065 4068 4071 4074 4077 4080 4083 4086 4089 4092 4095 4098 4101 4104 4107 4110 4113 4116 4119 4122 4125 4128 4131 4134 4137 4140 4143 4146 4149 4152 4155 4158 4161 4164 4167 4170 4173 4176 4179 4182 4185 4188 4191 4194 4197 4200 4203 4206 4209 4212 4215 4218 4221 4224 4227 4230 4233 4236 4239 4242 4245 4248 4251 4254 4257 4260 4263 4266 4269 4272 4275 4278 4281 4284 4287 4290 4293 4296 4299 4302 4305 4308 4311 4314 4317 4320 4323 4326 4329 4332 4335 4338 4341 4344 4347 4350 4353 4356 4359 4362 4365 4368 4371 4374 4377 4380 4383 4386 4389 4392 4395 4398 4401 4404 4407 4410 4413 4416 4419 4422 4425 4428 4431 4434 4437 4440 4443 4446 4449 4452 4455 4458 4461 4464 4467 4470 4473 4476 4479 4482 4485 4488 4491 4494 4497 4500 4503 4506 4509 4512 4515 4518 4521 4524 4527 4530 4533 4536 4539 4542 4545 4548 4551 4554 4557 4560 4563 4566 4569 4572 4575 4578 4581 4584 4587 4590 4593 4596 4599 4602 4605 4608 4611 4614 4617 4620 4623 4626 4629 4632 4635 4638 4641 4644 4647 4650 4653 4656 4659 4662 4665 4668 4671 4674 4677 4680 4683 4686 4689 4692 4695 4698 4701 4704 4707 4710 4713 4716 4719 4722 4725 4728 4731 4734 4737 4740 4743 4746 4749 4752 4755 4758 4761 4764 4767 4770 4773 4776 4779 4782 4785 4788 4791 4794 4797 4800 4803 4806 4809 4812 4815 4818 4821 4824 4827 4830 4833 4836 4839 4842 4845 4848 4851 4854 4857 4860 4863 4866 4869 4872 4875 4878 4881 4884 4887 4890 4893 4896 4899 4902 4905 4908 4911 4914 4917 4920 4923 4926 4929 4932 4935 4938 4941 4944 4947 4950 4953 4956 4959 4962 4965 4968 4971 4974 4977 4980 4983 4986 4989 4992 4995 4998 5001 5004 5007 5010 5013 5016 5019 5022 5025 5028 5031 5034 5037 5040 5043 5046 5049 5052 5055 5058 5061 5064 5067 5070 5073 5076 5079 5082 5085 5088 5091 5094 5097 5100 5103 5106 5109 5112 5115 5118 5121 5124 5127 5130 5133 5136 5139 5142 5145 5148 5151 5154 5157 5160 5163 5166 5169 5172 5175 5178 5181 5184 5187 5190 5193 5196 5199 5202 5205 5208 5211 5214 5217 5220 5223 5226 5229 5232 5235 5238 5241 5244 5247 5250 5253 5256 5259 5262 5265 5268 5271 5274 5277 5280 5283 5286 5289 5292 5295 5298 5301 5304 5307 5310 5313 5316 5319 5322 5325 5328 5331 5334 5337 5340 5343 5346 5349 5352 5355 5358 5361 5364 5367 5370 5373 5376 5379 5382 5385 5388 5391 5394 5397 5400 5403 5406 5409 5412 5415 5418 5421 5424 5427 5430 5433 5436 5439 5442 5445 5448 5451 5454 5457 5460 5463 5466 5469 5472 5475 5478 5481 5484 5487 5490 5493 5496 5499 5502 5505 5508 5511 5514 5517 5520 5523 5526 5529 5532 5535 5538 5541 5544 5547 5550 5553 5556 5559 5562 5565 5568 5571 5574 5577 5580 5583 5586 5589 5592 5595 5598 5601 5604 5607 5610 5613 5616 5619 5622 5625 5628 5631 5634 5637 5640 5643 5646 5649 5652 5655 5658 5661 5664 5667 5670 5673 5676 5679 5682 5685 5688 5691 5694 5697 5700 5703 5706 5709 5712 5715 5718 5721 5724 5727 5730 5733 5736 5739 5742 5745 5748 5751 5754 5757 5760 5763 5766 5769 5772 5775 5778 5781 5784 5787 5790 5793 5796 5799 5802 5805 5808 5811 5814 5817 5820 5823 5826 5829 5832 5835 5838 5841 5844 5847 5850 5853 5856 5859 5862 5865 5868 5871 5874 5877 5880 5883 5886 5889 5892 5895 5898 5901 5904 5907 5910 5913 5916 5919 5922 5925 5928 5931 5934 5937 5940 5943 5946 5949 5952 5955 5958 5961 5964 5967 5970 5973 5976 5979 5982 5985 5988 5991 5994 5997 6000 6003 6006 6009 6012 6015 6018 6021 6024 6027 6030 6033 6036 6039 6042 6045 6048 6051 6054 6057 6060 6063 6066 6069 6072 6075 6078 6081 6084 6087 6090 6093 6096 6099 6102 6105 6108 6111 6114 6117 6120 6123 6126 6129 6132 6135 6138 6141 6144 6147 6150 6153 6156 6159 6162 6165 6168 6171 6174 6177 6180 6183 6186 6189 6192 6195 6198 6201 6204 6207 6210 6213 6216 6219 6222 6225 6228 6231 6234 6237 6240 6243 6246 6249 6252 6255 6258 6261 6264 6267 6270 6273 6276 6279 6282 6285 6288 6291 6294 6297 6300 6303 6306 6309 6312 6315 6318 6321 6324 6327 6330 6333 6336 6339 6342 6345 6348 6351 6354 6357 6360 6363 6366 6369 6372 6375 6378 6381 6384 6387 6390 6393 6396 6399 6402 6405 6408 6411 6414 6417 6420 6423 6426 6429 6432 6435 6438 6441 6444 6447 6450 6453 6456 6459 6462 6465 6468 6471 6474 6477 6480 6483 6486 6489 6492 6495 6498 6501 6504 6507 6510 6513 6516 6519 6522 6525 6528 6531 6534 6537 6540 6543 6546 6549 6552 6555 6558 6561 6564 6567 6570 6573 6576 6579 6582 6585 6588 6591 6594 6597 6600 6603 6606 6609 6612 6615 6618 6621 6624 6627 6630 6633 6636 6639 6642 6645 6648 6651 6654 6657 6660 6663 6666 6669 6672 6675 6678 6681 6684 6687 6690 6693 6696 6699 6702 6705 6708 6711 6714 6717 6720 6723 6726 6729 6732 6735 6738 6741 6744 6747 6750 6753 6756 6759 6762 6765 6768 6771 6774 6777 6780 6783 6786 6789 6792 6795 6798 6801 6804 6807 6810 6813 6816 6819 6822 6825 6828 6831 6834 6837 6840 6843 6846 6849 6852 6855 6858 6861 6864 6867 6870 6873 6876 6879 6882 6885 6888 6891 6894 6897 6900 6903 6906 6909 6912 6915 6918 6921 6924 6927 6930 6933 6936 6939 6942 6945 6948 6951 6954 6957 6960 6963 6966 6969 6972 6975 6978 6981 6984 6987 6990 6993 6996 6999 7002 7005 7008 7011 7014 7017 7020 7023 7026 7029 7032 7035 7038 7041 7044 7047 7050 7053 7056 7059 7062 7065 7068 7071 7074 7077 7080 7083 7086 7089 7092 7095 7098 7101 7104 7107 7110 7113 7116 7119 7122 7125 7128 7131 7134 7137 7140 7143 7146 7149 7152 7155 7158 7161 7164 7167 7170 7173 7176 7179 7182 7185 7188 7191 7194 7197 7200 7203 7206 7209 7212 7215 7218 7221 7224 7227 7230 7233 7236 7239 7242 7245 7248 7251 7254 7257 7260 7263 7266 7269 7272 7275 7278 7281 7284 7287 7290 7293 7296 7299 7302 7305 7308 7311 7314 7317 7320 7323 7326 7329 7332 7335 7338 7341 7344 7347 7350 7353 7356 7359 7362 7365 7368 7371 7374 7377 7380 7383 7386 7389 7392 7395 7398 7401 7404 7407 7410 7413 7416 7419 7422 7425 7428 7431 7434 7437 7440 7443 7446 7449 7452 7455 7458 7461 7464 7467 7470 7473 7476 7479 7482 7485 7488 7491 7494 7497 7500 7503 7506 7509 7512 7515 7518 7521 7524 7527 7530 7533 7536 7539 7542 7545 7548 7551 7554 7557 7560 7563 7566 7569 7572 7575 7578 7581 7584 7587 7590 7593 7596 7599 7602 7605 7608 7611 7614 7617 7620 7623 7626 7629 7632 7635 7638 7641 7644 7647 7650 7653 7656 7659 7662 7665 7668 7671 7674 7677 7680 7683 7686 7689 7692 7695 7698 7701 7704 7707 7710 7713 7716 7719 7722 7725 7728 7731 7734 7737 7740 7743 7746 7749 7752 7755 7758 7761 7764 7767 7770 7773 7776 7779 7782 7785 7788 7791 7794 7797 7800 7803 7806 7809 7812 7815 7818 7821 7824 7827 7830 7833 7836 7839 7842 7845 7848 7851 7854 7857 7860 7863 7866 7869 7872 7875 7878 7881 7884 7887 7890 7893 7896 7899 7902 7905 7908 7911 7914 7917 7920 7923 7926 7929 7932 7935 7938 7941 7944 7947 7950 7953 7956 7959 7962 7965 7968 7971 7974 7977 7980 7983 7986 7989 7992 7995 7998 8001 8004 8007 8010 8013 8016 8019 8022 8025 8028 8031 8034 8037 8040 8043 8046 8049 8052 8055 8058 8061 8064 8067 8070 8073 8076 8079 8082 8085 8088 8091 8094 8097 8100 8103 8106 8109 8112 8115 8118 8121 8124 8127 8130 8133 8136 8139 8142 8145 8148 8151 8154 8157 8160 8163 8166 8169 8172 8175 8178 8181 8184 8187 8190 8193 8196 8199 8202 8205 8208 8211 8214 8217 8220 8223 8226 8229 8232 8235 8238 8241 8244 8247 8250 8253 8256 8259 8262 8265 8268 8271 8274 8277 8280 8283 8286 8289 8292 8295 8298 8301 8304 8307 8310 8313 8316 8319 8322 8325 8328 8331 8334 8337 8340 8343 8346 8349 8352 8355 8358 8361 8364 8367 8370 8373 8376 8379 8382 8385 8388 8391 8394 8397 8400 8403 8406 8409 8412 8415 8418 8421 8424 8427 8430 8433 8436 8439 8442 8445 8448 8451 8454 8457 8460 8463 8466 8469 8472 8475 8478 8481 8484 8487 8490 8493 8496 8499 8502 8505 8508 8511 8514 8517 8520 8523 8526 8529 8532 8535 8538 8541 8544 8547 8550 8553 8556 8559 8562 8565 8568 8571 8574 8577 8580 8583 8586 8589 8592 8595 8598 8601 8604 8607 8610 8613 8616 8619 8622 8625 8628 8631 8634 8637 8640 8643 8646 8649 8652 8655 8658 8661 8664 8667 8670 8673 8676 8679 8682 8685 8688 8691 8694 8697 8700 8703 8706 8709 8712 8715 8718 8721 8724 8727 8730 8733 8736 8739 8742 8745 8748 8751 8754 8757 8760 8763 8766 8769 8772 8775 8778 8781 8784 8787 8790 8793 8796 8799 8802 8805 8808 8811 8814 8817 8820 8823 8826 8829 8832 8835 8838 8841 8844 8847 8850 8853 8856 8859 8862 8865 8868 8871 8874 8877 8880 8883 8886 8889 8892 8895 8898 8901 8904 8907 8910 8913 8916 8919 8922 8925 8928 8931 8934 8937 8940 8943 8946 8949 8952 8955 8958 8961 8964 8967 8970 8973 8976 8979 8982 8985 8988 8991 8994 8997 9000 9003 9006 9009 9012 9015 9018 9021 9024 9027 9030 9033 9036 9039 9042 9045 9048 9051 9054 9057 9060 9063 9066 9069 9072 9075 9078 9081 9084 9087 9090 9093 9096 9099 9102 9105 9108 9111 9114 9117 9120 9123 9126 9129 9132 9135 9138 9141 9144 9147 9150 9153 9156 9159 9162 9165 9168 9171 9174 9177 9180 9183 9186 9189 9192 9195 9198 9201 9204 9207 9210 9213 9216 9219 9222 9225 9228 9231 9234 9237 9240 9243 9246 9249 9252 9255 9258 9261 9264 9267 9270 9273 9276 9279 9282 9285 9288 9291 9294 9297 9300 9303 9306 9309 9312 9315 9318 9321 9324 9327 9330 9333 9336 9339 9342 9345 9348 9351 9354 9357 9360 9363 9366 9369 9372 9375 9378 9381 9384 9387 9390 9393 9396 9399 9402 9405 9408 9411 9414 9417 9420 9423 9426 9429 9432 9435 9438 9441 9444 9447 9450 9453 9456 9459 9462 9465 9468 9471 9474 9477 9480 9483 9486 9489 9492 9495 9498 9501 9504 9507 9510 9513 9516 9519 9522 9525 9528 9531 9534 9537 9540 9543 9546 9549 9552 9555 9558 9561 9564 9567 9570 9573 9576 9579 9582 9585 9588 9591 9594 9597 9600 9603 9606 9609 9612 9615 9618 9621 9624 9627 9630 9633 9636 9639 9642 9645 9648 9651 9654 9657 9660 9663 9666 9669 9672 9675 9678 9681 9684 9687 9690 9693 9696 9699 9702 9705 9708 9711 9714 9717 9720 9723 9726 9729 9732 9735 9738 9741 9744 9747 9750 9753 9756 9759 9762 9765 9768 9771 9774 9777 9780 9783 9786 9789 9792 9795 9798 9801 9804 9807 9810 9813 9816 9819 9822 9825 9828 9831 9834 9837 9840 9843 9846 9849 9852 9855 9858 9861 9864 9867 9870 9873 9876 9879 9882 9885 9888 9891 9894 9897 9900 9903 9906 9909 9912 9915 9918 9921 9924 9927 9930 9933 9936 9939 9942 9945 9948 9951 9954 9957 9960 9963 9966 9969 9972 9975 9978 9981 9984 9987 9990 9993 9996 9999 10002 10005 10008 10011 10014 10017 10020 10023 10026 10029 10032 10035 10038 10041 10044 10047 10050 10053 10056 10059 10062 10065 10068 10071 10074 10077 10080 10083 10086 10089 10092 10095 10098 10101 10104 10107 10110 10113 10116 10119 10122 10125 10128 10131 10134 10137 10140 10143 10146 10149 10152 10155 10158 10161 10164 10167 10170 10173 10176 10179 10182 10185 10188 10191 10194 10197 10200 10203 10206 10209 10212 10215 10218 10221 10224 10227 10230 10233 10236 10239 10242 10245 10248 10251 10254 10257 10260 10263 10266 10269 10272 10275 10278 10281 10284 10287 10290 10293 10296 10299 10302 10305 10308 10311 10314 10317 10320 10323 10326 10329 10332 10335 10338 10341 10344 10347 10350 10353 10356 10359 10362 10365 10368 10371 10374 10377 10380 10383 10386 10389 10392 10395 10398 10401 10404 10407 10410 10413 10416 10419 10422 10425 10428 10431 10434 10437 10440 10443 10446 10449 10452 10455 10458 10461 10464 10467 10470 10473 10476 10479 10482 10485 10488 10491 10494 10497 10500 10503 10506 10509 10512 10515 10518 10521 10524 10527 10530 10533 10536 10539 10542 10545 10548 10551 10554 10557 10560 10563 10566 10569 10572 10575 10578 10581 10584 10587 10590 10593 10596 10599 10602 10605 10608 10611 10614 10617 10620 10623 10626 10629 10632 10635 10638 10641 10644 10647 10650 10653 10656 10659 10662 10665 10668 10671 10674 10677 10680 10683 10686 10689 10692 10695 10698 10701 10704 10707 10710 10713 10716 10719 10722 10725 10728 10731 10734 10737 10740 10743 10746 10749 10752 10755 10758 10761 10764 10767 10770 10773 10776 10779 10782 10785 10788 10791 10794 10797 10800 10803 10806 10809 10812 10815 10818 10821 10824 10827 10830 10833 10836 10839 10842 10845 10848 10851 10854 10857 10860 10863 10866 10869 10872 10875 10878 10881 10884 10887 10890 10893 10896 10899 10902 10905 10908 10911 10914 10917 10920 10923 10926 10929 10932 10935 10938 10941 10944 10947 10950 10953 10956 10959 10962 10965 10968 10971 10974 10977 10980 10983 10986 10989 10992 10995 10998 11001 11004 11007 11010 11013 11016 11019 11022 11025 11028 11031 11034 11037 11040 11043 11046 11049 11052 11055 11058 11061 11064 11067 11070 11073 11076 11079 11082 11085 11088 11091 11094 11097 11100 11103 11106 11109 11112 11115 11118 11121 11124 11127 11130 11133 11136 11139 11142 11145 11148 11151 11154 11157 11160 11163 11166 11169 11172 11175 11178 11181 11184 11187 11190 11193 11196 11199 11202 11205 11208 11211 11214 11217 11220 11223 11226 11229 11232 11235 11238 11241 11244 11247 11250 11253 11256 11259 11262 11265 11268 11271 11274 11277 11280 11283 11286 11289 11292 11295 11298 11301 11304 11307 11310 11313 11316 11319 11322 11325 11328 11331 11334 11337 11340 11343 11346 11349 11352 11355 11358 11361 11364 11367 11370 11373 11376 11379 11382 11385 11388 11391 11394 11397 11400 11403 11406 11409 11412 11415 11418 11421 11424 11427 11430 11433 11436 11439 11442 11445 11448 11451 11454 11457 11460 11463 11466 11469 11472 11475 11478 11481 11484 11487 11490 11493 11496 11499 11502 11505 11508 11511 11514 11517 11520 11523 11526 11529 11532 11535 11538 11541 11544 11547 11550 11553 11556 11559 11562 11565 11568 11571 11574 11577 11580 11583 11586 11589 11592 11595 11598 11601 11604 11607 11610 11613 11616 11619 11622 11625 11628 11631 11634 11637 11640 11643 11646 11649 11652 11655 11658 11661 11664 11667 11670 11673 11676 11679 11682 11685 11688 11691 11694 11697 11700 11703 11706 11709 11712 11715 11718 11721 11724 11727 11730 11733 11736 11739 11742 11745 11748 11751 11754 11757 11760 11763 11766 11769 11772 11775 11778 11781 11784 11787 11790 11793 11796 11799 11802 11805 11808 11811 11814 11817 11820 11823 11826 11829 11832 11835 11838 11841 11844 11847 11850 11853 11856 11859 11862 11865 11868 11871 11874 11877 11880 11883 11886 11889 11892 11895 11898 11901 11904 11907 11910 11913 11916 11919 11922 11925 11928 11931 11934 11937 11940 11943 11946 11949 11952 11955 11958 11961 11964 11967 11970 11973 11976 11979 11982 11985 11988 11991 11994 11997 12000 12003 12006 12009 12012 12015 12018 12021 12024 12027 12030 12033 12036 12039 12042 12045 12048 12051 12054 12057 12060 12063 12066 12069 12072 12075 12078 12081 12084 12087 12090 12093 12096 12099 12102 12105 12108 12111 12114 12117 12120 12123 12126 12129 12132 12135 12138 12141 12144 12147 12150 12153 12156 12159 12162 12165 12168 12171 12174 12177 12180 12183 12186 12189 12192 12195 12198 12201 12204 12207 12210 12213 12216 12219 12222 12225 12228 12231 12234 12237 12240 12243 12246 12249 12252 12255 12258 12261 12264 12267 12270 12273 12276 12279 12282 12285 12288 12291 12294 12297 12300 12303 12306 12309 12312 12315 12318 12321 12324 12327 12330 12333 12336 12339 12342 12345 12348 12351 12354 12357 12360 12363 12366 12369 12372 12375 12378 12381 12384 12387 12390 12393 12396 12399 12402 12405 12408 12411 12414 12417 12420 12423 12426 12429 12432 12435 12438 12441 12444 12447 12450 12453 12456 12459 12462 12465 12468 12471 12474 12477 12480 12483 12486 12489 12492 12495 12498 12501 12504 12507 12510 12513 12516 12519 12522 12525 12528 12531 12534 12537 12540 12543 12546 12549 12552 12555 12558 12561 12564 12567 12570 12573 12576 12579 12582 12585 12588 12591 12594 12597 12600 12603 12606 12609 12612 12615 12618 12621 12624 12627 12630 12633 12636 12639 12642 12645 12648 12651 12654 12657 12660 12663 12666 12669 12672 12675 12678 12681 12684 12687 12690 12693 12696 12699 12702 12705 12708 12711 12714 12717 12720 12723 12726 12729 12732 12735 12738 12741 12744 12747 12750 12753 12756 12759 12762 12765 12768 12771 12774 12777 12780 12783 12786 12789 12792 12795 12798 12801 12804 12807 12810 12813 12816 12819 12822 12825 12828 12831 12834 12837 12840 12843 12846 12849 12852 12855 12858 12861 12864 12867 12870 12873 12876 12879 12882 12885 12888 12891 12894 12897 12900 12903 12906 12909 12912 12915 12918 12921 12924 12927 12930 12933 12936 12939 12942 12945 12948 12951 12954 12957 12960 12963 12966 12969 12972 12975 12978 12981 12984 12987 12990 12993 12996 12999 13002 13005 13008 13011 13014 13017 13020 13023 13026 13029 13032 13035 13038 13041 13044 13047 13050 13053 13056 13059 13062 13065 13068 13071 13074 13077 13080 13083 13086 13089 13092 13095 13098 13101 13104 13107 13110 13113 13116 13119 13122 13125 13128 13131 13134 13137 13140 13143 13146 13149 13152 13155 13158 13161 13164 13167 13170 13173 13176 13179 13182 13185 13188 13191 13194 13197 13200 13203 13206 13209 13212 13215 13218 13221 13224 13227 13230 13233 13236 13239 13242 13245 13248 13251 13254 13257 13260 13263 13266 13269 13272 13275 13278 13281 13284 13287 13290 13293 13296 13299 13302 13305 13308 13311 13314 13317 13320 13323 13326 13329 13332 13335 13338 13341 13344 13347 13350 13353 13356 13359 13362 13365 13368 13371 13374 13377 13380 13383 13386 13389 13392 13395 13398 13401 13404 13407 13410 13413 13416 13419 13422 13425 13428 13431 13434 13437 13440 13443 13446 13449 13452 13455 13458 13461 13464 13467 13470 13473 13476 13479 13482 13485 13488 13491 13494 13497 13500 13503 13506 13509 13512 13515 13518 13521 13524 13527 13530 13533 13536 13539 13542 13545 13548 13551 13554 13557 13560 13563 13566 13569 13572 13575 13578 13581 13584 13587 13590 13593 13596 13599 13602 13605 13608 13611 13614 13617 13620 13623 13626 13629 13632 13635 13638 13641 13644 13647 13650 13653 13656 13659 13662 13665 13668 13671 13674 13677 13680 13683 13686 13689 13692 13695 13698 13701 13704 13707 13710 13713 13716 13719 13722 13725 13728 13731 13734 13737 13740 13743 13746 13749 13752 13755 13758 13761 13764 13767 13770 13773 13776 13779 13782 13785 13788 13791 13794 13797 13800 13803 13806 13809 13812 13815 13818 13821 13824 13827 13830 13833 13836 13839 13842 13845 13848 13851 13854 13857 13860 13863 13866 13869 13872 13875 13878 13881 13884 13887 13890 13893 13896 13899 13902 13905 13908 13911 13914 13917 13920 13923 13926 13929 13932 13935 13938 13941 13944 13947 13950 13953 13956 13959 13962 13965 13968 13971 13974 13977 13980 13983 13986 13989 13992 13995 13998 14001 14004 14007 14010 14013 14016 14019 14022 14025 14028 14031 14034 14037 14040 14043 14046 14049 14052 14055 14058 14061 14064 14067 14070 14073 14076 14079 14082 14085 14088 14091 14094 14097 14100 14103 14106 14109 14112 14115 14118 14121 14124 14127 14130 14133 14136 14139 14142 14145 14148 14151 14154 14157 14160 14163 14166 14169 14172 14175 14178 14181 14184 14187 14190 14193 14196 14199 14202 14205 14208 14211 14214 14217 14220 14223 14226 14229 14232 14235 14238 14241 14244 14247 14250 14253 14256 14259 14262 14265 14268 14271 14274 14277 14280 14283 14286 14289 14292 14295 14298 14301 14304 14307 14310 14313 14316 14319 14322 14325 14328 14331 14334 14337 14340 14343 14346 14349 14352 14355 14358 14361 14364 14367 14370 14373 14376 14379 14382 14385 14388 14391 14394 14397 14400 14403 14406 14409 14412 14415 14418 14421 14424 14427 14430 14433 14436 14439 14442 14445 14448 14451 14454 14457 14460 14463 14466 14469 14472 14475 14478 14481 14484 14487 14490 14493 14496 14499 14502 14505 14508 14511 14514 14517 14520 14523 14526 14529 14532 14535 14538 14541 14544 14547 14550 14553 14556 14559 14562 14565 14568 14571 14574 14577 14580 14583 14586 14589 14592 14595 14598 14601 14604 14607 14610 14613 14616 14619 14622 14625 14628 14631 14634 14637 14640 14643 14646 14649 14652 14655 14658 14661 14664 14667 14670 14673 14676 14679 14682 14685 14688 14691 14694 14697 14700 14703 14706 14709 14712 14715 14718 14721 14724 14727 14730 14733 14736 14739 14742 14745 14748 14751 14754 14757 14760 14763 14766 14769 14772 14775 14778 14781 14784 14787 14790 14793 14796 14799 14802 14805 14808 14811 14814 14817 14820 14823 14826 14829 14832 14835 14838 14841 14844 14847 14850 14853 14856 14859 14862 14865 14868 14871 14874 14877 14880 14883 14886 14889 14892 14895 14898 14901 14904 14907 14910 14913 14916 14919 14922 14925 14928 14931 14934 14937 14940 14943 14946 14949 14952 14955 14958 14961 14964 14967 14970 14973 14976 14979 14982 14985 14988 14991 14994 14997 15000 15003 15006 15009 15012 15015 15018 15021 15024 15027 15030 15033 15036 15039 15042 15045 15048 15051 15054 15057 15060 15063 15066 15069 15072 15075 15078 15081 15084 15087 15090 15093 15096 15099 15102 15105 15108 15111 15114 15117 15120 15123 15126 15129 15132 15135 15138 15141 15144 15147 15150 15153 15156 15159 15162 15165 15168 15171 15174 15177 15180 15183 15186 15189 15192 15195 15198 15201 15204 15207 15210 15213 15216 15219 15222 15225 15228 15231 15234 15237 15240 15243 15246 15249 15252 15255 15258 15261 15264 15267 15270 15273 15276 15279 15282 15285 15288 15291 15294 15297 15300 15303 15306 15309 15312 15315 15318 15321 15324 15327 15330 15333 15336 15339 15342 15345 15348 15351 15354 15357 15360 15363 15366 15369 15372 15375 15378 15381 15384 15387 15390 15393 15396 15399 15402 15405 15408 15411 15414 15417 15420 15423 15426 15429 15432 15435 15438 15441 15444 15447 15450 15453 15456 15459 15462 15465 15468 15471 15474 15477 15480 15483 15486 15489 15492 15495 15498 15501 15504 15507 15510 15513 15516 15519 15522 15525 15528 15531 15534 15537 15540 15543 15546 15549 15552 15555 15558 15561 15564 15567 15570 15573 15576 15579 15582 15585 15588 15591 15594 15597 15600 15603 15606 15609 15612 15615 15618 15621 15624 15627 15630 15633 15636 15639 15642 15645 15648 15651 15654 15657 15660 15663 15666 15669 15672 15675 15678 15681 15684 15687 15690 15693 15696 15699 15702 15705 15708 15711 15714 15717 15720 15723 15726 15729 15732 15735 15738 15741 15744 15747 15750 15753 15756 15759 15762 15765 15768 15771 15774 15777 15780 15783 15786 15789 15792 15795 15798 15801 15804 15807 15810 15813 15816 15819 15822 15825 15828 15831 15834 15837 15840 15843 15846 15849 15852 15855 15858 15861 15864 15867 15870 15873 15876 15879 15882 15885 15888 15891 15894 15897 15900 15903 15906 15909 15912 15915 15918 15921 15924 15927 15930 15933 15936 15939 15942 15945 15948 15951 15954 15957 15960 15963 15966 15969 15972 15975 15978 15981 15984 15987 15990 15993 15996 15999 16002 16005 16008 16011 16014 16017 16020 16023 16026 16029 16032 16035 16038 16041 16044 16047 16050 16053 16056 16059 16062 16065 16068 16071 16074 16077 16080 16083 16086 16089 16092 16095 16098 16101 16104 16107 16110 16113 16116 16119 16122 16125 16128 16131 16134 16137 16140 16143 16146 16149 16152 16155 16158 16161 16164 16167 16170 16173 16176 16179 16182 16185 16188 16191 16194 16197 16200 16203 16206 16209 16212 16215 16218 16221 16224 16227 16230 16233 16236 16239 16242 16245 16248 16251 16254 16257 16260 16263 16266 16269 16272 16275 16278 16281 16284 16287 16290 16293 16296 16299 16302 16305 16308 16311 16314 16317 16320 16323 16326 16329 16332 16335 16338 16341 16344 16347 16350 16353 16356 16359 16362 16365 16368 16371 16374 16377 16380 16383 16386 16389 16392 16395 16398 16401 16404 16407 16410 16413 16416 16419 16422 16425 16428 16431 16434 16437 16440 16443 16446 16449 16452 16455 16458 16461 16464 16467 16470 16473 16476 16479 16482 16485 16488 16491 16494 16497 16500 16503 16506 16509 16512 16515 16518 16521 16524 16527 16530 16533 16536 16539 16542 16545 16548 16551 16554 16557 16560 16563 16566 16569 16572 16575 16578 16581 16584 16587 16590 16593 16596 16599 16602 16605 16608 16611 16614 16617 16620 16623 16626 16629 16632 16635 16638 16641 16644 16647 16650 16653 16656 16659 16662 16665 16668 16671 16674 16677 16680 16683 16686 16689 16692 16695 16698 16701 16704 16707 16710 16713 16716 16719 16722 16725 16728 16731 16734 16737 16740 16743 16746 16749 16752 16755 16758 16761 16764 16767 16770 16773 16776 16779 16782 16785 16788 16791 16794 16797 16800 16803 16806 16809 16812 16815 16818 16821 16824 16827 16830 16833 16836 16839 16842 16845 16848 16851 16854 16857 16860 16863 16866 16869 16872 16875 16878 16881 16884 16887 16890 16893 16896 16899 16902 16905 16908 16911 16914 16917 16920 16923 16926 16929 16932 16935 16938 16941 16944 16947 16950 16953 16956 16959 16962 16965 16968 16971 16974 16977 16980 16983 16986 16989 16992 16995 16998 17001 17004 17007 17010 17013 17016 17019 17022 17025 17028 17031 17034 17037 17040 17043 17046 17049 17052 17055 17058 17061 17064 17067 17070 17073 17076 17079 17082 17085 17088 17091 17094 17097 17100 17103 17106 17109 17112 17115 17118 17121 17124 17127 17130 17133 17136 17139 17142 17145 17148 17151 17154 17157 17160 17163 17166 17169 17172 17175 17178 17181 17184 17187 17190 17193 17196 17199 17202 17205 17208 17211 17214 17217 17220 17223 17226 17229 17232 17235 17238 17241 17244 17247 17250 17253 17256 17259 17262 17265 17268 17271 17274 17277 17280 17283 17286 17289 17292 17295 17298 17301 17304 17307 17310 17313 17316 17319 17322 17325 17328 17331 17334 17337 17340 17343 17346 17349 17352 17355 17358 17361 17364 17367 17370 17373 17376 17379 17382 17385 17388 17391 17394 17397 17400 17403 17406 17409 17412 17415 17418 17421 17424 17427 17430 17433 17436 17439 17442 17445 17448 17451 17454 17457 17460 17463 17466 17469 17472 17475 17478 17481 17484 17487 17490 17493 17496 17499 17502 17505 17508 17511 17514 17517 17520 17523 17526 17529 17532 17535 17538 17541 17544 17547 17550 17553 17556 17559 17562 17565 17568 17571 17574 17577 17580 17583 17586 17589 17592 17595 17598 17601 17604 17607 17610 17613 17616 17619 17622 17625 17628 17631 17634 17637 17640 17643 17646 17649 17652 17655 17658 17661 17664 17667 17670 17673 17676 17679 17682 17685 17688 17691 17694 17697 17700 17703 17706 17709 17712 17715 17718 17721 17724 17727 17730 17733 17736 17739 17742 17745 17748 17751 17754 17757 17760 17763 17766 17769 17772 17775 17778 17781 17784 17787 17790 17793 17796 17799 17802 17805 17808 17811 17814 17817 17820 17823 17826 17829 17832 17835 17838 17841 17844 17847 17850 17853 17856 17859 17862 17865 17868 17871 17874 17877 17880 17883 17886 17889 17892 17895 17898 17901 17904 17907 17910 17913 17916 17919 17922 17925 17928 17931 17934 17937 17940 17943 17946 17949 17952 17955 17958 17961 17964 17967 17970 17973 17976 17979 17982 17985 17988 17991 17994 17997 18000 18003 18006 18009 18012 18015 18018 18021 18024 18027 18030 18033 18036 18039 18042 18045 18048 18051 18054 18057 18060 18063 18066 18069 18072 18075 18078 18081 18084 18087 18090 18093 18096 18099 18102 18105 18108 18111 18114 18117 18120 18123 18126 18129 18132 18135 18138 18141 18144 18147 18150 18153 18156 18159 18162 18165 18168 18171 18174 18177 18180 18183 18186 18189 18192 18195 18198 18201 18204 18207 18210 18213 18216 18219 18222 18225 18228 18231 18234 18237 18240 18243 18246 18249 18252 18255 18258 18261 18264 18267 18270 18273 18276 18279 18282 18285 18288 18291 18294 18297 18300 18303 18306 18309 18312 18315 18318 18321 18324 18327 18330 18333 18336 18339 18342 18345 18348 18351 18354 18357 18360 18363 18366 18369 18372 18375 18378 18381 18384 18387 18390 18393 18396 18399 18402 18405 18408 18411 18414 18417 18420 18423 18426 18429 18432 18435 18438 18441 18444 18447 18450 18453 18456 18459 18462 18465 18468 18471 18474 18477 18480 18483 18486 18489 18492 18495 18498 18501 18504 18507 18510 18513 18516 18519 18522 18525 18528 18531 18534 18537 18540 18543 18546 18549 18552 18555 18558 18561 18564 18567 18570 18573 18576 18579 18582 18585 18588 18591 18594 18597 18600 18603 18606 18609 18612 18615 18618 18621 18624 18627 18630 18633 18636 18639 18642 18645 18648 18651 18654 18657 18660 18663 18666 18669 18672 18675 18678 18681 18684 18687 18690 18693 18696 18699 18702 18705 18708 18711 18714 18717 18720 18723 18726 18729 18732 18735 18738 18741 18744 18747 18750 18753 18756 18759 18762 18765 18768 18771 18774 18777 18780 18783 18786 18789 18792 18795 18798 18801 18804 18807 18810 18813 18816 18819 18822 18825 18828 18831 18834 18837 18840 18843 18846 18849 18852 18855 18858 18861 18864 18867 18870 18873 18876 18879 18882 18885 18888 18891 18894 18897 18900 18903 18906 18909 18912 18915 18918 18921 18924 18927 18930 18933 18936 18939 18942 18945 18948 18951 18954 18957 18960 18963 18966 18969 18972 18975 18978 18981 18984 18987 18990 18993 18996 18999 19002 19005 19008 19011 19014 19017 19020 19023 19026 19029 19032 19035 19038 19041 19044 19047 19050 19053 19056 19059 19062 19065 19068 19071 19074 19077 19080 19083 19086 19089 19092 19095 19098 19101 19104 19107 19110 19113 19116 19119 19122 19125 19128 19131 19134 19137 19140 19143 19146 19149 19152 19155 19158 19161 19164 19167 19170 19173 19176 19179 19182 19185 19188 19191 19194 19197 19200 19203 19206 19209 19212 19215 19218 19221 19224 19227 19230 19233 19236 19239 19242 19245 19248 19251 19254 19257 19260 19263 19266 19269 19272 19275 19278 19281 19284 19287 19290 19293 19296 19299 19302 19305 19308 19311 19314 19317 19320 19323 19326 19329 19332 19335 19338 19341 19344 19347 19350 19353 19356 19359 19362 19365 19368 19371 19374 19377 19380 19383 19386 19389 19392 19395 19398 19401 19404 19407 19410 19413 19416 19419 19422 19425 19428 19431 19434 19437 19440 19443 19446 19449 19452 19455 19458 19461 19464 19467 19470 19473 19476 19479 19482 19485 19488 19491 19494 19497 19500 19503 19506 19509 19512 19515 19518 19521 19524 19527 19530 19533 19536 19539 19542 19545 19548 19551 19554 19557 19560 19563 19566 19569 19572 19575 19578 19581 19584 19587 19590 19593 19596 19599 19602 19605 19608 19611 19614 19617 19620 19623 19626 19629 19632 19635 19638 19641 19644 19647 19650 19653 19656 19659 19662 19665 19668 19671 19674 19677 19680 19683 19686 19689 19692 19695 19698 19701 19704 19707 19710 19713 19716 19719 19722 19725 19728 19731 19734 19737 19740 19743 19746 19749 19752 19755 19758 19761 19764 19767 19770 19773 19776 19779 19782 19785 19788 19791 19794 19797 19800 19803 19806 19809 19812 19815 19818 19821 19824 19827 19830 19833 19836 19839 19842 19845 19848 19851 19854 19857 19860 19863 19866 19869 19872 19875 19878 19881 19884 19887 19890 19893 19896 19899 19902 19905 19908 19911 19914 19917 19920 19923 19926 19929 19932 19935 19938 19941 19944 19947 19950 19953 19956 19959 19962 19965 19968 19971 19974 19977 19980 19983 19986 19989 19992 19995 19998 20001 20004 20007 20010 20013 20016 20019 20022 20025 20028 20031 20034 20037 20040 20043 20046 20049 20052 20055 20058 20061 20064 20067 20070 20073 20076 20079 20082 20085 20088 20091 20094 20097 20100 20103 20106 20109 20112 20115 20118 20121 20124 20127 20130 20133 20136 20139 20142 20145 20148 20151 20154 20157 20160 20163 20166 20169 20172 20175 20178 20181 20184 20187 20190 20193 20196 20199 20202 20205 20208 20211 20214 20217 20220 20223 20226 20229 20232 20235 20238 20241 20244 20247 20250 20253 20256 20259 20262 20265 20268 20271 20274 20277 20280 20283 20286 20289 20292 20295 20298 20301 20304 20307 20310 20313 20316 20319 20322 20325 20328 20331 20334 20337 20340 20343 20346 20349 20352 20355 20358 20361 20364 20367 20370 20373 20376 20379 20382 20385 20388 20391 20394 20397 20400 20403 20406 20409 20412 20415 20418 20421 20424 20427 20430 20433 20436 20439 20442 20445 20448 20451 20454 20457 20460 20463 20466 20469 20472 20475 20478 20481 20484 20487 20490 20493 20496 20499 20502 20505 20508 20511 20514 20517 20520 20523 20526 20529 20532 20535 20538 20541 20544 20547 20550 20553 20556 20559 20562 20565 20568 20571 20574 20577 20580 20583 20586 20589 20592 20595 20598 20601 20604 20607 20610 20613 20616 20619 20622 20625 20628 20631 20634 20637 20640 20643 20645 20647 20649 20651 20653 20655 20657 20659 20661 20663 20665 20667 20669 20671 20673 20675 20677 20679 20681 20683 20685 20687 20689 20691 20693 20695 20697 20699 20701 20703 20705 20707 20709 20711 20713 20715 20717 20719 20721 20723 20725 20727 20729 20731 20733 20735 20737 20739 20741 20743 20745 20747 20749 20751 20753 20755 20757 20759 20761 20763 20765 20767 20769 20771 20773 20775 20777 20779 20781 20783 20785 20787 20789 20791 20793 20795 20797 20799 20801 20803 20805 20807 20809 20811 20813 20815 20817 20819 20821 20823 20825 20827 20829 20831 20833 20835 20837 20839 20841 20843 20845 20847 20849 20851 20853 20855 20857 20859 20861 20863 20865 20867 20869 20871 20873 20875 20877 20879 20881 20883 20885 20887 20889 20891 20893 20895 20897 20899 20901 20903 20905 20907 20909 20911 20913 20915 20917 20919 20921 20923 20925 20927 20929 20931 20933 20935 20937 20939 20941 20943 20945 20947 20949 20951 20953 20955 20957 20959 20961 20963 20965 20967 20969 20971 20973 20975 20977 20979 20981 20983 20985 20987 20989 20991 20993 20995 20997 20999 21001 21003 21005 21007 21009 21011 21013 21015 21017 21019 21021 21023 21025 21027 21029 21031 21033 21035 21037 21039 21041 21043 21045 21047 21049 21051 21053 21055 21057 21059 21061 21063 21065 21067 21069 21071 21073 21075 21077 21079 21081 21083 21085 21087 21089 21091 21093 21095 21097 21099 21101 21103 21105 21107 21109 21111 21113 21115 21117 21119 21121 21123 21125 21127 21129 21131 21133 21135 21137 21139 21141 21143 21145 21147 21149 21151 21153 21155 21157 21159 21161 21163 21165 21167 21169 21171 21173 21175 21177 21179 21181 21183 21185 21187 21189 21191 21193 21195 21197 21199 21201 21203 21205 21207 21209 21211 21213 21215 21217 21219 21221 21223 21225 21227 21229 21231 21233 21235 21237 21239 21241 21243 21245 21247 21249 21251 21253 21255 21257 21259 21261 21263 21265 21267 21269 21271 21273 21275 21277 21279 21281 21283 21285 21287 21289 21291 21293 21295 21297 21299 21301 21303 21305 21307 21309 21311 21313 21315 21317 21319 21321 21323 21325 21327 21329 21331 21333 21335 21337 21339 21341 21343 21345 21347 21349 21351 21353 21355 21357 21359 21361 21363 21365 21367 21369 21371 21373 21375 21377 21379 21381 21383 21385 21387 21389 21391 21393 21395 21397 21399 21401 21403 21405 21407 21409 21411 21413 21415 21417 21419 21421 21423 21425 21427 21429 21431 21433 21435 21437 21439 21441 21443 21445 21447 21449 21451 21453 21455 21457 21459 21461 21463 21465 21467 21469 21471 21473 21475 21477 21479 21481 21483 21485 21487 21489 21491 21493 21495 21497 21499 21501 21503 21505 21507 21509 21511 21513 21515 21517 21519 21521 21523 21525 21527 21529 21531 21533 21535 21537 21539 21541 21543 21545 21547 21549 21551 21553 21555 21557 21559 21561 21563 21565 21567 21569 21571 21573 21575 21577 21579 21581 21583 21585 21587 21589 21591 21593 21595 21597 21599 21601 21603 21605 21607 21609 21611 21613 21615 21617 21619 21621 21623 21625 21627 21629 21631 21633 21635 21637 21639 21641 21643 21645 21647 21649 21651 21653 21655 21657 21659 21661 21663 21665 21667 21669 21671 21673 21675 21677 21679 21681 21683 21685 21687 21689 21691 21693 21695 21697 21699 21701 21703 21705 21707 21709 21711 21713 21715 21717 21719 21721 21723 21725 21727 21729 21731 21733 21735 21737 21739 21741 21743
        </DataArray>
        <DataArray type="Int32" Name="types" FORMAT="ascii">
 5 5 5 5 5 5 5 5 5 5 5 5 5 5 5 5 5 5 5 5 5 5 5 5 5 5 5 5 5 5 5 5 5 5 5 5 5 5 5 5 5 5 5 5 5 5 5 5 5 5 5 5 5 5 5 5 5 5 5 5 5 5 5 5 5 5 5 5 5 5 5 5 5 5 5 5 5 5 5 5 5 5 5 5 5 5 5 5 5 5 5 5 5 5 5 5 5 5 5 5 5 5 5 5 5 5 5 5 5 5 5 5 5 5 5 5 5 5 5 5 5 5 5 5 5 5 5 5 5 5 5 5 5 5 5 5 5 5 5 5 5 5 5 5 5 5 5 5 5 5 5 5 5 5 5 5 5 5 5 5 5 5 5 5 5 5 5 5 5 5 5 5 5 5 5 5 5 5 5 5 5 5 5 5 5 5 5 5 5 5 5 5 5 5 5 5 5 5 5 5 5 5 5 5 5 5 5 5 5 5 5 5 5 5 5 5 5 5 5 5 5 5 5 5 5 5 5 5 5 5 5 5 5 5 5 5 5 5 5 5 5 5 5 5 5 5 5 5 5 5 5 5 5 5 5 5 5 5 5 5 5 5 5 5 5 5 5 5 5 5 5 5 5 5 5 5 5 5 5 5 5 5 5 5 5 5 5 5 5 5 5 5 5 5 5 5 5 5 5 5 5 5 5 5 5 5 5 5 5 5 5 5 5 5 5 5 5 5 5 5 5 5 5 5 5 5 5 5 5 5 5 5 5 5 5 5 5 5 5 5 5 5 5 5 5 5 5 5 5 5 5 5 5 5 5 5 5 5 5 5 5 5 5 5 5 5 5 5 5 5 5 5 5 5 5 5 5 5 5 5 5 5 5 5 5 5 5 5 5 5 5 5 5 5 5 5 5 5 5 5 5 5 5 5 5 5 5 5 5 5 5 5 5 5 5 5 5 5 5 5 5 5 5 5 5 5 5 5 5 5 5 5 5 5 5 5 5 5 5 5 5 5 5 5 5 5 5 5 5 5 5 5 5 5 5 5 5 5 5 5 5 5 5 5 5 5 5 5 5 5 5 5 5 5 5 5 5 5 5 5 5 5 5 5 5 5 5 5 5 5 5 5 5 5 5 5 5 5 5 5 5 5 5 5 5 5 5 5 5 5 5 5 5 5 5 5 5 5 5 5 5 5 5 5 5 5 5 5 5 5 5 5 5 5 5 5 5 5 5 5 5 5 5 5 5 5 5 5 5 5 5 5 5 5 5 5 5 5 5 5 5 5 5 5 5 5 5 5 5 5 5 5 5 5 5 5 5 5 5 5 5 5 5 5 5 5 5 5 5 5 5 5 5 5 5 5 5 5 5 5 5 5 5 5 5 5 5 5 5 5 5 5 5 5 5 5 5 5 5 5 5 5 5 5 5 5 5 5 5 5 5 5 5 5 5 5 5 5 5 5 5 5 5 5 5 5 5 5 5 5 5 5 5 5 5 5 5 5 5 5 5 5 5 5 5 5 5 5 5 5 5 5 5 5 5 5 5 5 5 5 5 5 5 5 5 5 5 5 5 5 5 5 5 5 5 5 5 5 5 5 5 5 5 5 5 5 5 5 5 5 5 5 5 5 5 5 5 5 5 5 5 5 5 5 5 5 5 5 5 5 5 5 5 5 5 5 5 5 5 5 5 5 5 5 5 5 5 5 5 5 5 5 5 5 5 5 5 5 5 5 5 5 5 5 5 5 5 5 5 5 5 5 5 5 5 5 5 5 5 5 5 5 5 5 5 5 5 5 5 5 5 5 5 5 5 5 5 5 5 5 5 5 5 5 5 5 5 5 5 5 5 5 5 5 5 5 5 5 5 5 5 5 5 5 5 5 5 5 5 5 5 5 5 5 5 5 5 5 5 5 5 5 5 5 5 5 5 5 5 5 5 5 5 5 5 5 5 5 5 5 5 5 5 5 5 5 5 5 5 5 5 5 5 5 5 5 5 5 5 5 5 5 5 5 5 5 5 5 5 5 5 5 5 5 5 5 5 5 5 5 5 5 5 5 5 5 5 5 5 5 5 5 5 5 5 5 5 5 5 5 5 5 5 5 5 5 5 5 5 5 5 5 5 5 5 5 5 5 5 5 5 5 5 5 5 5 5 5 5 5 5 5 5 5 5 5 5 5 5 5 5 5 5 5 5 5 5 5 5 5 5 5 5 5 5 5 5 5 5 5 5 5 5 5 5 5 5 5 5 5 5 5 5 5 5 5 5 5 5 5 5 5 5 5 5 5 5 5 5 5 5 5 5 5 5 5 5 5 5 5 5 5 5 5 5 5 5 5 5 5 5 5 5 5 5 5 5 5 5 5 5 5 5 5 5 5 5 5 5 5 5 5 5 5 5 5 5 5 5 5 5 5 5 5 5 5 5 5 5 5 5 5 5 5 5 5 5 5 5 5 5 5 5 5 5 5 5 5 5 5 5 5 5 5 5 5 5 5 5 5 5 5 5 5 5 5 5 5 5 5 5 5 5 5 5 5 5 5 5 5 5 5 5 5 5 5 5 5 5 5 5 5 5 5 5 5 5 5 5 5 5 5 5 5 5 5 5 5 5 5 5 5 5 5 5 5 5 5 5 5 5 5 5 5 5 5 5 5 5 5 5 5 5 5 5 5 5 5 5 5 5 5 5 5 5 5 5 5 5 5 5 5 5 5 5 5 5 5 5 5 5 5 5 5 5 5 5 5 5 5 5 5 5 5 5 5 5 5 5 5 5 5 5 5 5 5 5 5 5 5 5 5 5 5 5 5 5 5 5 5 5 5 5 5 5 5 5 5 5 5 5 5 5 5 5 5 5 5 5 5 5 5 5 5 5 5 5 5 5 5 5 5 5 5 5 5 5 5 5 5 5 5 5 5 5 5 5 5 5 5 5 5 5 5 5 5 5 5 5 5 5 5 5 5 5 5 5 5 5 5 5 5 5 5 5 5 5 5 5 5 5 5 5 5 5 5 5 5 5 5 5 5 5 5 5 5 5 5 5 5 5 5 5 5 5 5 5 5 5 5 5 5 5 5 5 5 5 5 5 5 5 5 5 5 5 5 5 5 5 5 5 5 5 5 5 5 5 5 5 5 5 5 5 5 5 5 5 5 5 5 5 5 5 5 5 5 5 5 5 5 5 5 5 5 5 5 5 5 5 5 5 5 5 5 5 5 5 5 5 5 5 5 5 5 5 5 5 5 5 5 5 5 5 5 5 5 5 5 5 5 5 5 5 5 5 5 5 5 5 5 5 5 5 5 5 5 5 5 5 5 5 5 5 5 5 5 5 5 5 5 5 5 5 5 5 5 5 5 5 5 5 5 5 5 5 5 5 5 5 5 5 5 5 5 5 5 5 5 5 5 5 5 5 5 5 5 5 5 5 5 5 5 5 5 5 5 5 5 5 5 5 5 5 5 5 5 5 5 5 5 5 5 5 5 5 5 5 5 5 5 5 5 5 5 5 5 5 5 5 5 5 5 5 5 5 5 5 5 5 5 5 5 5 5 5 5 5 5 5 5 5 5 5 5 5 5 5 5 5 5 5 5 5 5 5 5 5 5 5 5 5 5 5 5 5 5 5 5 5 5 5 5 5 5 5 5 5 5 5 5 5 5 5 5 5 5 5 5 5 5 5 5 5 5 5 5 5 5 5 5 5 5 5 5 5 5 5 5 5 5 5 5 5 5 5 5 5 5 5 5 5 5 5 5 5 5 5 5 5 5 5 5 5 5 5 5 5 5 5 5 5 5 5 5 5 5 5 5 5 5 5 5 5 5 5 5 5 5 5 5 5 5 5 5 5 5 5 5 5 5 5 5 5 5 5 5 5 5 5 5 5 5 5 5 5 5 5 5 5 5 5 5 5 5 5 5 5 5 5 5 5 5 5 5 5 5 5 5 5 5 5 5 5 5 5 5 5 5 5 5 5 5 5 5 5 5 5 5 5 5 5 5 5 5 5 5 5 5 5 5 5 5 5 5 5 5 5 5 5 5 5 5 5 5 5 5 5 5 5 5 5 5 5 5 5 5 5 5 5 5 5 5 5 5 5 5 5 5 5 5 5 5 5 5 5 5 5 5 5 5 5 5 5 5 5 5 5 5 5 5 5 5 5 5 5 5 5 5 5 5 5 5 5 5 5 5 5 5 5 5 5 5 5 5 5 5 5 5 5 5 5 5 5 5 5 5 5 5 5 5 5 5 5 5 5 5 5 5 5 5 5 5 5 5 5 5 5 5 5 5 5 5 5 5 5 5 5 5 5 5 5 5 5 5 5 5 5 5 5 5 5 5 5 5 5 5 5 5 5 5 5 5 5 5 5 5 5 5 5 5 5 5 5 5 5 5 5 5 5 5 5 5 5 5 5 5 5 5 5 5 5 5 5 5 5 5 5 5 5 5 5 5 5 5 5 5 5 5 5 5 5 5 5 5 5 5 5 5 5 5 5 5 5 5 5 5 5 5 5 5 5 5 5 5 5 5 5 5 5 5 5 5 5 5 5 5 5 5 5 5 5 5 5 5 5 5 5 5 5 5 5 5 5 5 5 5 5 5 5 5 5 5 5 5 5 5 5 5 5 5 5 5 5 5 5 5 5 5 5 5 5 5 5 5 5 5 5 5 5 5 5 5 5 5 5 5 5 5 5 5 5 5 5 5 5 5 5 5 5 5 5 5 5 5 5 5 5 5 5 5 5 5 5 5 5 5 5 5 5 5 5 5 5 5 5 5 5 5 5 5 5 5 5 5 5 5 5 5 5 5 5 5 5 5 5 5 5 5 5 5 5 5 5 5 5 5 5 5 5 5 5 5 5 5 5 5 5 5 5 5 5 5 5 5 5 5 5 5 5 5 5 5 5 5 5 5 5 5 5 5 5 5 5 5 5 5 5 5 5 5 5 5 5 5 5 5 5 5 5 5 5 5 5 5 5 5 5 5 5 5 5 5 5 5 5 5 5 5 5 5 5 5 5 5 5 5 5 5 5 5 5 5 5 5 5 5 5 5 5 5 5 5 5 5 5 5 5 5 5 5 5 5 5 5 5 5 5 5 5 5 5 5 5 5 5 5 5 5 5 5 5 5 5 5 5 5 5 5 5 5 5 5 5 5 5 5 5 5 5 5 5 5 5 5 5 5 5 5 5 5 5 5 5 5 5 5 5 5 5 5 5 5 5 5 5 5 5 5 5 5 5 5 5 5 5 5 5 5 5 5 5 5 5 5 5 5 5 5 5 5 5 5 5 5 5 5 5 5 5 5 5 5 5 5 5 5 5 5 5 5 5 5 5 5 5 5 5 5 5 5 5 5 5 5 5 5 5 5 5 5 5 5 5 5 5 5 5 5 5 5 5 5 5 5 5 5 5 5 5 5 5 5 5 5 5 5 5 5 5 5 5 5 5 5 5 5 5 5 5 5 5 5 5 5 5 5 5 5 5 5 5 5 5 5 5 5 5 5 5 5 5 5 5 5 5 5 5 5 5 5 5 5 5 5 5 5 5 5 5 5 5 5 5 5 5 5 5 5 5 5 5 5 5 5 5 5 5 5 5 5 5 5 5 5 5 5 5 5 5 5 5 5 5 5 5 5 5 5 5 5 5 5 5 5 5 5 5 5 5 5 5 5 5 5 5 5 5 5 5 5 5 5 5 5 5 5 5 5 5 5 5 5 5 5 5 5 5 5 5 5 5 5 5 5 5 5 5 5 5 5 5 5 5 5 5 5 5 5 5 5 5 5 5 5 5 5 5 5 5 5 5 5 5 5 5 5 5 5 5 5 5 5 5 5 5 5 5 5 5 5 5 5 5 5 5 5 5 5 5 5 5 5 5 5 5 5 5 5 5 5 5 5 5 5 5 5 5 5 5 5 5 5 5 5 5 5 5 5 5 5 5 5 5 5 5 5 5 5 5 5 5 5 5 5 5 5 5 5 5 5 5 5 5 5 5 5 5 5 5 5 5 5 5 5 5 5 5 5 5 5 5 5 5 5 5 5 5 5 5 5 5 5 5 5 5 5 5 5 5 5 5 5 5 5 5 5 5 5 5 5 5 5 5 5 5 5 5 5 5 5 5 5 5 5 5 5 5 5 5 5 5 5 5 5 5 5 5 5 5 5 5 5 5 5 5 5 5 5 5 5 5 5 5 5 5 5 5 5 5 5 5 5 5 5 5 5 5 5 5 5 5 5 5 5 5 5 5 5 5 5 5 5 5 5 5 5 5 5 5 5 5 5 5 5 5 5 5 5 5 5 5 5 5 5 5 5 5 5 5 5 5 5 5 5 5 5 5 5 5 5 5 5 5 5 5 5 5 5 5 5 5 5 5 5 5 5 5 5 5 5 5 5 5 5 5 5 5 5 5 5 5 5 5 5 5 5 5 5 5 5 5 5 5 5 5 5 5 5 5 5 5 5 5 5 5 5 5 5 5 5 5 5 5 5 5 5 5 5 5 5 5 5 5 5 5 5 5 5 5 5 5 5 5 5 5 5 5 5 5 5 5 5 5 5 5 5 5 5 5 5 5 5 5 5 5 5 5 5 5 5 5 5 5 5 5 5 5 5 5 5 5 5 5 5 5 5 5 5 5 5 5 5 5 5 5 5 5 5 5 5 5 5 5 5 5 5 5 5 5 5 5 5 5 5 5 5 5 5 5 5 5 5 5 5 5 5 5 5 5 5 5 5 5 5 5 5 5 5 5 5 5 5 5 5 5 5 5 5 5 5 5 5 5 5 5 5 5 5 5 5 5 5 5 5 5 5 5 5 5 5 5 5 5 5 5 5 5 5 5 5 5 5 5 5 5 5 5 5 5 5 5 5 5 5 5 5 5 5 5 5 5 5 5 5 5 5 5 5 5 5 5 5 5 5 5 5 5 5 5 5 5 5 5 5 5 5 5 5 5 5 5 5 5 5 5 5 5 5 5 5 5 5 5 5 5 5 5 5 5 5 5 5 5 5 5 5 5 5 5 5 5 5 5 5 5 5 5 5 5 5 5 5 5 5 5 5 5 5 5 5 5 5 5 5 5 5 5 5 5 5 5 5 5 5 5 5 5 5 5 5 5 5 5 5 5 5 5 5 5 5 5 5 5 5 5 5 5 5 5 5 5 5 5 5 5 5 5 5 5 5 5 5 5 5 5 5 5 5 5 5 5 5 5 5 5 5 5 5 5 5 5 5 5 5 5 5 5 5 5 5 5 5 5 5 5 5 5 5 5 5 5 5 5 5 5 5 5 5 5 5 5 5 5 5 5 5 5 5 5 5 5 5 5 5 5 5 5 5 5 5 5 5 5 5 5 5 5 5 5 5 5 5 5 5 5 5 5 5 5 5 5 5 5 5 5 5 5 5 5 5 5 5 5 5 5 5 5 5 5 5 5 5 5 5 5 5 5 5 5 5 5 5 5 5 5 5 5 5 5 5 5 5 5 5 5 5 5 5 5 5 5 5 5 5 5 5 5 5 5 5 5 5 5 5 5 5 5 5 5 5 5 5 5 5 5 5 5 5 5 5 5 5 5 5 5 5 5 5 5 5 5 5 5 5 5 5 5 5 5 5 5 5 5 5 5 5 5 5 5 5 5 5 5 5 5 5 5 5 5 5 5 5 5 5 5 5 5 5 5 5 5 5 5 5 5 5 5 5 5 5 5 5 5 5 5 5 5 5 5 5 5 5 5 5 5 5 5 5 5 5 5 5 5 5 5 5 5 5 5 5 5 5 5 5 5 5 5 5 5 5 5 5 5 5 5 5 5 5 5 5 5 5 5 5 5 5 5 5 5 5 5 5 5 5 5 5 5 5 5 5 5 5 5 5 5 5 5 5 5 5 5 5 5 5 5 5 5 5 5 5 5 5 5 5 5 5 5 5 5 5 5 5 5 5 5 5 5 5 5 5 5 5 5 5 5 5 5 5 5 5 5 5 5 5 5 5 5 5 5 5 5 5 5 5 5 5 5 5 5 5 5 5 5 5 5 5 5 5 5 5 5 5 5 5 5 5 5 5 5 5 5 5 5 5 5 5 5 5 5 5 5 5 5 5 5 5 5 5 5 5 5 5 5 5 5 5 5 5 5 5 5 5 5 5 5 5 5 5 5 5 5 5 5 5 5 5 5 5 5 5 5 5 5 5 5 5 5 5 5 5 5 5 5 5 5 5 5 5 5 5 5 5 5 5 5 5 5 5 5 5 5 5 5 5 5 5 5 5 5 5 5 5 5 5 5 5 5 5 5 5 5 5 5 5 5 5 5 5 5 5 5 5 5 5 5 5 5 5 5 5 5 5 5 5 5 5 5 5 5 5 5 5 5 5 5 5 5 5 5 5 5 5 5 5 5 5 5 5 5 5 5 5 5 5 5 5 5 5 5 5 5 5 5 5 5 5 5 5 5 5 5 5 5 5 5 5 5 5 5 5 5 5 5 5 5 5 5 5 5 5 5 5 5 5 5 5 5 5 5 5 5 5 5 5 5 5 5 5 5 5 5 5 5 5 5 5 5 5 5 5 5 5 5 5 5 5 5 5 5 5 5 5 5 5 5 5 5 5 5 5 5 5 5 5 5 5 5 5 5 5 5 5 5 5 5 5 5 5 5 5 5 5 5 5 5 5 5 5 5 5 5 5 5 5 5 5 5 5 5 5 5 5 5 5 5 5 5 5 5 5 5 5 5 5 5 5 5 5 5 5 5 5 5 5 5 5 5 5 5 5 5 5 5 5 5 5 5 5 5 5 5 5 5 5 5 5 5 5 5 5 5 5 5 5 5 5 5 5 5 5 5 5 5 5 5 5 5 5 5 5 5 5 5 5 5 5 5 5 5 5 5 5 5 5 5 5 5 5 5 5 5 5 5 5 5 5 5 5 5 5 5 5 5 5 5 5 5 5 5 5 5 5 5 5 5 5 5 5 5 5 5 5 5 5 5 5 5 5 5 5 5 5 5 5 5 5 5 5 5 5 5 5 5 5 5 5 5 5 5 5 5 5 5 5 5 5 5 5 5 5 5 5 5 5 5 5 5 5 5 5 5 5 5 5 5 5 5 5 5 5 5 5 5 5 5 5 5 5 5 5 5 5 5 5 5 5 5 5 5 5 5 5 5 5 5 5 5 5 5 5 5 5 5 5 5 5 5 5 5 5 5 5 5 5 5 5 5 5 5 5 5 5 5 5 5 5 5 5 5 5 5 5 5 5 5 5 5 5 5 5 5 5 5 5 5 5 5 5 5 5 5 5 5 5 5 5 5 5 5 5 5 5 5 5 5 5 5 5 5 5 5 5 5 5 5 5 5 5 5 5 5 5 5 5 5 5 5 5 5 5 5 5 5 5 5 5 5 5 5 5 5 5 5 5 5 5 5 5 5 5 5 5 5 5 5 5 5 5 5 5 5 5 5 5 5 5 5 5 5 5 5 5 5 5 5 5 5 5 5 5 5 5 5 5 5 5 5 5 5 5 5 5 5 5 5 5 5 5 5 5 5 5 5 5 5 5 5 5 5 5 5 5 5 5 5 5 5 5 5 5 5 5 5 5 5 5 5 5 5 5 5 5 5 5 5 5 5 5 5 5 5 5 5 5 5 5 5 5 5 5 5 5 5 5 5 5 5 5 5 5 5 5 5 5 5 5 5 5 5 5 5 5 5 5 5 5 5 5 5 5 5 5 5 5 5 5 5 5 5 5 5 5 5 5 5 5 5 5 5 5 5 5 5 5 5 5 5 5 5 5 5 5 5 5 5 5 5 5 5 5 5 5 5 5 5 5 5 5 5 5 5 5 5 5 5 5 5 5 5 5 5 5 5 5 5 5 5 5 5 5 5 5 5 5 5 5 5 5 5 5 5 5 5 5 5 5 5 5 5 5 5 5 5 5 5 5 5 5 5 5 5 5 5 5 5 5 5 5 5 5 5 5 5 5 5 5 5 5 5 5 5 5 5 5 5 5 5 5 5 5 5 5 5 5 5 5 5 5 5 5 5 5 5 5 5 5 5 5 5 5 5 5 5 5 5 5 5 5 5 5 5 5 5 5 5 5 5 5 5 5 5 5 5 5 5 5 5 5 5 5 5 5 5 5 5 5 5 5 5 5 5 5 5 5 5 5 5 5 5 5 5 5 5 5 5 5 5 5 5 5 5 5 5 5 5 5 5 5 5 5 5 5 5 5 5 5 5 5 5 5 5 5 5 5 5 5 5 5 5 5 5 5 5 5 5 5 5 5 5 5 5 5 5 5 5 5 5 5 5 5 5 5 5 5 5 5 5 5 5 5 5 5 5 5 5 5 5 5 5 5 5 5 5 5 5 5 5 5 5 5 5 5 5 5 5 5 5 5 5 5 5 5 5 5 5 5 5 5 5 5 5 5 5 5 5 5 5 5 5 5 5 5 5 5 5 5 5 5 5 5 5 5 5 5 5 5 5 5 5 5 5 5 5 5 5 5 5 5 5 5 5 5 5 5 5 5 5 5 5 5 5 5 5 5 5 5 5 5 5 5 5 5 5 5 5 5 5 5 5 5 5 5 5 5 5 5 5 5 5 5 5 5 5 5 5 5 5 5 5 5 5 5 5 5 5 5 5 5 5 5 5 5 5 5 5 5 5 5 5 5 5 5 5 5 5 5 5 5 5 5 5 5 5 5 5 5 5 5 5 5 5 5 5 5 5 5 5 5 5 5 5 5 5 5 5 5 5 5 5 5 5 5 5 5 5 5 5 5 5 5 5 5 5 5 5 5 5 5 5 5 5 5 5 5 5 5 5 5 5 5 5 5 5 5 5 5 5 5 5 5 5 5 5 5 5 5 5 5 5 5 5 5 5 5 5 5 5 5 5 5 5 5 5 5 5 5 5 5 5 5 5 5 5 5 5 5 5 5 5 5 5 5 5 5 5 5 5 5 5 5 5 5 5 5 5 5 5 5 5 5 5 5 5 5 5 5 5 5 5 5 5 5 5 5 5 5 5 5 5 5 5 5 5 5 5 5 5 5 5 5 5 5 5 5 5 5 5 5 5 5 5 5 5 5 5 5 5 5 5 5 5 5 5 5 5 5 5 5 5 5 5 5 5 5 5 5 5 5 5 5 5 5 5 5 5 5 5 5 5 5 5 5 5 5 5 5 5 5 5 5 5 5 5 5 5 5 5 5 5 5 5 5 5 5 5 5 5 5 5 5 5 5 5 5 5 5 5 5 5 5 5 5 5 5 5 5 5 5 5 5 5 5 5 5 5 5 5 5 5 5 5 5 5 5 5 5 5 5 5 5 5 5 5 5 5 5 5 5 5 5 5 5 5 5 5 5 5 5 5 5 5 5 5 5 5 5 5 5 5 5 5 5 5 5 5 5 5 5 5 5 5 5 5 5 5 5 5 5 5 5 5 5 5 5 5 5 5 5 5 5 5 5 5 5 5 5 5 5 5 5 5 5 5 5 5 5 5 5 5 5 5 5 5 5 5 5 5 5 5 5 5 5 5 5 5 5 5 5 5 5 5 5 5 5 5 5 5 5 5 5 5 5 5 5 5 5 5 5 5 5 5 5 5 5 5 5 5 5 5 5 5 5 5 5 5 5 5 5 5 5 5 5 5 5 5 5 5 5 5 5 5 5 5 5 5 5 5 5 5 5 5 5 5 5 5 5 5 5 5 5 5 5 5 5 5 5 5 5 5 5 5 5 5 5 5 5 5 5 5 5 5 5 5 5 5 5 5 5 5 5 5 5 5 5 5 5 5 5 5 5 5 5 5 5 5 5 5 5 5 5 5 5 5 5 5 5 5 5 5 5 5 5 5 5 5 5 5 5 5 5 5 5 5 5 5 5 5 5 5 5 5 5 5 5 5 5 5 5 5 5 5 5 5 5 5 5 5 5 5 5 5 5 5 5 5 5 5 5 5 5 5 5 5 5 5 5 5 5 5 5 5 5 5 5 5 5 5 5 5 5 5 5 5 5 5 5 5 5 5 5 5 5 5 5 5 5 5 5 5 5 5 5 5 5 5 5 5 5 5 5 5 5 5 5 5 5 5 5 5 5 5 5 5 5 5 5 5 5 5 5 5 5 5 5 5 5 5 5 5 5 5 5 5 5 5 5 5 5 5 5 5 5 5 5 5 5 5 5 5 5 5 5 5 5 5 5 5 5 5 5 5 5 5 5 5 5 5 5 5 5 5 5 5 5 5 5 5 5 5 5 5 5 5 5 5 5 5 5 5 5 5 5 5 5 5 5 5 5 5 5 5 5 5 5 5 5 5 5 5 5 5 5 5 5 5 5 5 5 5 5 5 5 5 5 5 5 5 5 5 5 5 5 5 5 5 5 5 5 5 5 5 5 5 5 5 5 5 5 5 5 5 5 5 5 5 5 5 5 5 5 5 5 5 5 5 5 5 5 5 5 5 5 5 5 5 5 5 5 5 5 5 5 5 5 5 5 5 5 5 5 5 5 5 5 5 5 5 5 5 5 5 5 5 5 5 5 5 5 5 5 5 5 5 5 5 5 5 5 5 5 5 5 5 5 5 5 5 5 5 5 5 5 5 5 5 5 5 5 5 5 5 5 5 5 5 5 5 5 5 5 5 5 5 5 5 5 5 5 5 5 5 5 5 5 5 5 5 5 5 5 5 5 5 5 5 5 5 5 5 5 5 5 5 5 5 5 5 5 5 5 5 5 5 5 5 5 5 5 5 5 5 5 5 5 5 5 5 5 5 5 5 5 5 5 5 5 5 5 5 5 5 5 5 5 5 5 5 5 5 5 5 5 5 5 5 5 5 5 5 5 5 5 5 5 5 5 5 5 5 5 5 5 5 5 5 5 5 5 5 5 5 5 5 5 5 5 5 5 5 5 5 5 5 5 5 5 5 5 5 5 5 5 5 5 5 5 5 5 5 5 5 5 5 5 5 5 5 5 5 5 5 5 5 5 5 5 5 5 5 5 5 5 5 5 5 5 5 5 5 5 5 5 5 5 5 5 5 5 5 5 5 5 5 5 5 5 5 5 5 5 5 5 5 5 5 5 5 5 5 5 5 5 5 5 5 5 5 5 5 5 5 5 5 5 5 5 5 5 5 5 5 5 5 5 5 5 5 5 5 5 5 5 5 5 5 5 5 5 5 5 5 5 5 5 5 5 5 5 5 5 5 5 5 5 5 5 5 5 5 5 5 5 5 5 5 5 5 5 5 5 5 5 5 5 5 5 5 5 5 5 5 5 5 5 5 5 5 5 5 5 5 5 5 5 5 5 5 5 5 5 5 5 5 5 5 5 5 5 5 5 5 5 5 5 5 5 5 5 5 5 5 5 5 5 5 5 5 5 5 5 5 5 5 5 5 5 5 5 5 5 5 5 5 5 5 5 5 5 5 5 5 5 5 5 5 5 5 5 5 5 5 5 5 5 5 5 5 5 5 5 5 5 5 5 5 5 5 5 5 5 5 5 5 5 5 5 5 5 5 5 5 5 5 5 5 5 5 5 5 5 5 5 5 5 5 5 5 5 5 5 5 5 5 5 5 5 5 5 5 5 5 5 5 5 5 5 5 5 5 5 5 5 5 5 5 5 5 5 5 5 5 5 5 5 5 5 5 5 5 5 5 5 5 5 5 5 5 5 5 5 5 5 5 5 5 5 5 5 5 5 5 5 5 5 5 5 5 5 5 5 5 5 5 5 5 5 5 5 5 5 5 5 5 5 5 5 5 5 5 5 5 5 5 5 5 5 5 5 5 5 5 5 5 5 5 5 5 5 5 5 5 5 5 5 5 5 5 5 5 5 5 5 5 5 5 5 5 5 5 5 5 5 5 5 5 5 5 5 5 5 5 5 5 5 5 5 5 5 5 5 5 5 5 5 5 5 5 5 5 5 5 5 5 5 5 5 5 5 5 5 5 5 5 5 5 5 5 5 5 5 5 5 5 5 5 5 5 5 5 5 5 5 5 5 5 5 5 5 5 5 5 5 5 5 5 5 5 5 5 5 5 5 5 5 5 5 5 5 5 5 5 5 5 5 5 5 5 5 5 5 5 5 5 5 5 5 5 5 5 5 5 5 5 5 5 5 5 5 5 5 5 5 5 5 5 5 5 5 5 5 5 5 5 5 5 5 5 5 5 5 5 5 5 5 5 5 5 5 5 5 5 5 5 5 5 5 5 5 5 5 5 5 5 5 5 5 5 5 5 5 5 5 5 5 5 5 5 5 5 5 5 5 5 5 5 5 5 5 5 5 5 5 5 5 5 5 5 5 5 5 5 5 5 5 5 5 5 5 5 5 5 5 5 5 5 5 5 5 5 5 5 5 5 5 5 5 5 5 5 5 5 5 5 5 5 5 5 5 5 5 5 5 5 5 5 5 5 5 5 5 5 5 5 5 5 5 5 5 5 5 5 5 5 5 5 5 5 5 5 5 5 5 5 5 5 5 5 5 5 5 5 5 5 5 5 5 5 5 5 5 5 5 5 5 5 5 5 5 5 5 5 5 5 5 5 5 5 5 5 5 5 5 5 5 5 5 5 5 5 5 5 5 5 5 5 5 5 5 5 5 5 5 5 5 5 5 5 5 5 5 5 5 5 5 5 5 5 5 5 5 5 5 5 5 5 5 5 5 5 5 5 5 5 5 5 5 5 5 5 5 5 5 5 5 5 5 5 5 5 5 5 5 5 5 5 5 5 5 5 5 5 5 5 5 5 5 5 5 5 5 5 5 5 5 5 5 5 5 5 5 5 5 5 5 5 5 5 5 5 5 5 5 5 5 5 5 5 5 5 5 5 5 5 5 5 5 5 5 5 5 5 5 5 5 5 5 5 5 5 5 5 5 5 5 5 5 5 5 5 5 5 5 5 5 5 5 5 5 5 5 5 5 5 5 5 5 5 5 5 5 5 5 5 5 5 5 5 5 5 5 5 5 5 5 5 5 5 5 5 5 5 5 5 5 5 5 5 5 5 5 5 5 5 5 5 5 5 5 5 5 5 5 5 5 5 5 5 5 5 5 5 5 5 5 5 5 5 5 5 5 5 5 5 5 5 5 5 5 5 5 5 5 5 5 5 5 5 5 5 5 5 5 5 5 5 5 5 5 5 5 5 5 5 5 5 5 5 5 5 5 5 5 5 5 5 5 5 5 5 5 5 5 5 5 5 5 5 5 5 5 5 5 5 5 5 5 5 5 5 5 5 5 5 5 5 5 5 5 5 5 5 5 5 5 5 5 5 5 5 5 5 5 5 5 5 5 5 5 5 5 5 5 5 5 5 5 5 5 5 5 5 5 5 5 5 5 5 5 5 5 5 5 5 5 5 5 5 5 5 5 5 5 5 5 5 5 5 5 5 5 5 5 5 5 5 5 5 5 5 5 5 5 5 5 5 5 5 5 5 5 5 5 5 5 5 5 5 5 5 5 5 5 5 5 5 5 5 5 5 5 5 5 5 5 5 5 5 5 5 5 5 5 5 5 5 5 5 5 5 5 5 5 5 5 5 5 5 5 5 5 5 5 5 5 5 5 5 5 5 5 5 3 3 3 3 3 3 3 3 3 3 3 3 3 3 3 3 3 3 3 3 3 3 3 3 3 3 3 3 3 3 3 3 3 3 3 3 3 3 3 3 3 3 3 3 3 3 3 3 3 3 3 3 3 3 3 3 3 3 3 3 3 3 3 3 3 3 3 3 3 3 3 3 3 3 3 3 3 3 3 3 3 3 3 3 3 3 3 3 3 3 3 3 3 3 3 3 3 3 3 3 3 3 3 3 3 3 3 3 3 3 3 3 3 3 3 3 3 3 3 3 3 3 3 3 3 3 3 3 3 3 3 3 3 3 3 3 3 3 3 3 3 3 3 3 3 3 3 3 3 3 3 3 3 3 3 3 3 3 3 3 3 3 3 3 3 3 3 3 3 3 3 3 3 3 3 3 3 3 3 3 3 3 3 3 3 3 3 3 3 3 3 3 3 3 3 3 3 3 3 3 3 3 3 3 3 3 3 3 3 3 3 3 3 3 3 3 3 3 3 3 3 3 3 3 3 3 3 3 3 3 3 3 3 3 3 3 3 3 3 3 3 3 3 3 3 3 3 3 3 3 3 3 3 3 3 3 3 3 3 3 3 3 3 3 3 3 3 3 3 3 3 3 3 3 3 3 3 3 3 3 3 3 3 3 3 3 3 3 3 3 3 3 3 3 3 3 3 3 3 3 3 3 3 3 3 3 3 3 3 3 3 3 3 3 3 3 3 3 3 3 3 3 3 3 3 3 3 3 3 3 3 3 3 3 3 3 3 3 3 3 3 3 3 3 3 3 3 3 3 3 3 3 3 3 3 3 3 3 3 3 3 3 3 3 3 3 3 3 3 3 3 3 3 3 3 3 3 3 3 3 3 3 3 3 3 3 3 3 3 3 3 3 3 3 3 3 3 3 3 3 3 3 3 3 3 3 3 3 3 3 3 3 3 3 3 3 3 3 3 3 3 3 3 3 3 3 3 3 3 3 3 3 3 3 3 3 3 3 3 3 3 3 3 3 3 3 3 3 3 3 3 3 3 3 3 3 3 3 3 3 3 3 3 3 3 3 3 3 3 3 3 3 3 3 3 3 3 3 3 3 3 3 3 3 3 3 3 3 3 3 3 3 3 3 3 3 3 3 3 3 3 3 3 3 3 3 3 3 3 3 3 3 3 3 3 3 3 3 3 3 3 3 3 3 3 3 3 3 3 3 3 3 3 3 3 3 3 3 3 3 3 3 3 3 3 3 3 3 3 3
        </DataArray>
      </Cells>
    </Piece>
  </UnstructuredGrid>
</VTKFile>
