<?xml version="1.0"?>
<VTKFile type="UnstructuredGrid" version="0.1" byte_order="LittleEndian">
  <UnstructuredGrid>
    <Piece NumberOfPoints="3701" NumberOfCells="7795">
      <PointData>
        <DataArray type="Float64" Name="potential re" NumberOfComponents="1" format="ascii">
 -2.8008948E-006 -1.1148220E-006  1.4781271E-005  6.4236953E-005 -3.3614435E-010  4.6000601E-008  9.1901362E-008 -6.7567253E-008  2.6031603E-008  8.0018902E-005  6.1586665E-005  8.0743297E-005  1.0354038E-004  1.0293690E-004  7.8769064E-005  2.8622434E-027  6.4499137E-028  6.4496984E-028  2.8274208E-027 -9.7330567E-011 -1.3626580E-006  4.4379145E-011 -1.6997256E-008  1.2390862E-005  1.0093837E-005  8.0326661E-006  6.2073542E-006  4.5962031E-006  3.2208059E-006  2.0526496E-006  1.1198652E-006  3.6257914E-007 -2.1732587E-007 -6.4753634E-007 -9.0337417E-007 -1.0448327E-006 -1.1213483E-006 -1.1531718E-006 -1.1498002E-006  5.5380862E-005  4.7626819E-005  4.0875692E-005  3.5074832E-005  3.0146867E-005  2.6080903E-005  2.2741482E-005  2.0038228E-005  1.7965492E-005  1.6417040E-005  1.5395551E-005  5.4276003E-008  6.1904238E-008  6.7762321E-008  7.2987330E-008  7.5647027E-008  7.7290364E-008  7.7727101E-008  7.8120750E-008  7.6440451E-008  7.5070018E-008  7.4815955E-008  7.3621927E-008  7.4702913E-008  7.5195091E-008  7.5194551E-008  8.1073523E-008 -7.2486326E-008 -7.9332507E-008 -8.8087618E-008 -9.8659920E-008 -1.1092175E-007 -1.2526866E-007 -1.4094730E-007 -1.5777686E-007 -1.7146320E-007 -1.8180794E-007 -1.8665841E-007 -1.9030175E-007 -1.9352297E-007 -1.8830829E-007 -1.8475366E-007 -1.8052528E-007 -1.7093120E-007 -1.6365897E-007 -1.5508659E-007 -1.4507465E-007 -1.3410993E-007 -1.2317869E-007 -1.1404616E-007 -1.0113832E-007 -9.1667062E-008 -7.9885824E-008 -6.9630937E-008 -5.8039219E-008 -4.7799332E-008 -3.9938747E-008 -3.1614569E-008 -2.1780632E-008 -1.5693448E-008 -5.4293212E-009  2.4353017E-009  9.4902271E-009  1.2271243E-008  2.1317534E-008  2.8112570E-008  3.4828637E-008  3.7766680E-008  4.4173327E-008  4.7925900E-008  5.3043180E-008  5.4695132E-008  5.9978183E-008  6.3614888E-008  6.6700734E-008  6.5955111E-008  7.0703243E-008  7.3524294E-008  7.5600591E-008  7.4049245E-008  7.7481170E-008  7.8975924E-008  7.9752408E-008  8.0883984E-008  7.9974705E-008  8.2260190E-008  8.3097928E-008  8.3244343E-008  8.1769545E-008  8.3522878E-008  8.3908104E-008  8.3892390E-008  8.3650873E-008  8.2000516E-008  8.3131564E-008  8.2902975E-008  8.2509434E-008  8.1714533E-008  8.0026504E-008  8.1037843E-008  8.1369955E-008  8.1670264E-008  8.1362612E-008  8.0227652E-008  7.9525626E-008  7.8438340E-008  7.8019056E-008  7.7249397E-008  7.9583851E-008  8.3285819E-008  5.8887683E-006  1.2032183E-005  1.8093597E-005  2.4258285E-005  3.0560290E-005  3.6841927E-005  4.3073295E-005  4.9388652E-005  5.5324826E-005  6.1141853E-005  6.6325016E-005  7.1247444E-005  7.5764460E-005  7.9895493E-005  8.3633521E-005  8.7140072E-005  9.0331525E-005  9.3240759E-005  9.5898743E-005  9.8300697E-005  1.0041186E-004  1.0225398E-004  1.0379962E-004  1.0496222E-004  1.0573425E-004  1.0606072E-004  1.0587235E-004  1.0511609E-004  1.0385262E-004  1.0206363E-004  9.9688011E-005  9.6705700E-005  9.3210971E-005  8.9100241E-005  8.4760758E-005  7.5027950E-005  7.0276385E-005  6.5808037E-005  9.3628005E-005  1.0425543E-004  1.1281426E-004  1.2004229E-004  1.2628937E-004  1.3184752E-004  1.3663740E-004  1.4090415E-004  1.4454531E-004  1.4768094E-004  1.5032570E-004  1.5252342E-004  1.5420330E-004  1.5544391E-004  1.5625453E-004  1.5654087E-004  1.5633808E-004  1.5559049E-004  1.5428700E-004  1.5241599E-004  1.4984236E-004  1.4657941E-004  1.4256941E-004  1.3759171E-004  1.3151826E-004  1.2402679E-004  1.1491164E-004  1.0602745E-004  1.1440142E-004  1.2357983E-004  1.3078687E-004  1.3675644E-004  1.4159999E-004  1.4559743E-004  1.4868391E-004  1.5103425E-004  1.5276319E-004  1.5387538E-004  1.5443197E-004  1.5443638E-004  1.5394662E-004  1.5297465E-004  1.5159637E-004  1.4978141E-004  1.4748079E-004  1.4476338E-004  1.4161341E-004  1.3795624E-004  1.3377968E-004  1.2902973E-004  1.2357775E-004  1.1742129E-004  1.1029781E-004  1.0187482E-004  9.1458342E-005  8.2750288E-005  6.3763439E-005  6.5754715E-005  6.7541231E-005  6.9001310E-005  7.0095724E-005  7.0819182E-005  7.1097485E-005  7.0846608E-005  7.0082809E-005  6.8764170E-005  6.6851653E-005 -2.6105217E-006 -2.4302440E-006 -2.2519236E-006 -2.0670647E-006 -1.8703746E-006 -1.6533736E-006 -1.4056969E-006 -2.8146427E-006 -2.7670617E-006 -2.6731431E-006 -2.5454300E-006 -2.3929035E-006 -2.2288072E-006 -2.0536421E-006 -1.8802661E-006 -1.7091482E-006 -1.5447876E-006 -1.3891280E-006 -1.2449399E-006 -1.1114733E-006 -9.9067842E-007 -8.8128097E-007 -7.8328485E-007 -6.9630952E-007 -6.1979276E-007 -5.5238392E-007 -4.9344401E-007 -4.4205256E-007 -3.9736518E-007 -3.5843028E-007 -3.2447651E-007 -2.9498792E-007 -2.6913410E-007 -2.4639222E-007 -2.2619144E-007 -2.0811407E-007 -1.9182357E-007 -1.7694115E-007 -1.6314071E-007 -1.5024930E-007 -1.3806483E-007 -1.2629703E-007 -1.1479058E-007 -1.0342903E-007 -9.1969285E-008 -8.0149134E-008 -7.5852902E-008 -9.6671359E-008 -1.2253406E-007  2.4258035E-008  4.5022678E-007 -3.1593300E-008 -1.1869170E-007 -2.5852580E-007 -3.8082647E-007  1.5829896E-027  1.1944493E-027  9.7857038E-028  8.4715480E-028  7.6863732E-028  6.8373346E-028  6.5684938E-028  6.0539185E-028  5.7421129E-028  5.4511621E-028  5.2031227E-028  4.9638418E-028  4.7775664E-028  4.5284270E-028  4.3470107E-028  4.3921559E-028  4.3843499E-028  4.3479189E-028  4.3580421E-028  4.4006344E-028  4.2785159E-028  4.2850636E-028  4.4394448E-028  4.4560407E-028  4.4574629E-028  4.4587659E-028  4.4603681E-028  4.4610972E-028  4.4637638E-028  4.4632272E-028  4.4632799E-028  4.4619216E-028  4.4632003E-028  4.4626194E-028  4.4623940E-028  4.4629235E-028  4.4625115E-028  4.3613066E-028  4.4870001E-028  4.7497635E-028  4.9012569E-028  5.1789073E-028  5.4379429E-028  5.7405326E-028  6.0997278E-028  6.5212452E-028  6.8513877E-028  7.5754937E-028  8.5540062E-028  9.9043247E-028  1.2048310E-027  1.5869399E-027 -9.1724761E-010  9.2074119E-011  2.6849408E-010  6.2958496E-010 -2.6171357E-010  2.9891440E-009 -4.5006811E-010 -3.0962445E-009 -9.2799423E-010  1.1686748E-009  4.7759050E-009 -1.5908971E-009  2.3241914E-009  5.4256398E-010  4.0244998E-010  1.5870366E-010 -1.1483158E-011 -7.7105069E-009 -1.5194609E-008 -2.2566005E-008 -2.9995388E-008 -3.7113322E-008 -4.4560567E-008 -5.1865585E-008 -5.9645368E-008 -6.7586671E-008 -7.5655408E-008 -8.3741888E-008 -9.2232542E-008 -1.0093705E-007 -1.0995042E-007 -1.2046937E-007 -1.3093517E-007 -1.4161289E-007 -1.5465322E-007 -1.6778520E-007 -1.8214207E-007 -1.9812989E-007 -2.1672794E-007 -2.3965445E-007 -2.6086061E-007 -2.8732559E-007 -3.1802380E-007 -3.5352585E-007 -3.9337570E-007 -4.3998778E-007 -4.9141841E-007 -5.5066579E-007 -6.1723009E-007 -6.9241245E-007 -7.7646125E-007 -8.7054349E-007 -9.7224065E-007 -1.0798714E-006 -1.1995470E-006 -1.3234423E-006 -1.4494477E-006 -1.5747822E-006 -1.6978032E-006 -1.8115203E-006 -1.9070972E-006 -1.9698086E-006 -1.9926792E-006 -1.9656034E-006 -1.8630091E-006 -1.6644772E-006 -1.9804548E-006 -2.4642671E-006 -2.8267190E-006 -3.0905087E-006 -3.2797113E-006 -3.4079300E-006 -3.4886641E-006 -3.5354016E-006 -3.5555123E-006 -3.5556569E-006 -3.5412297E-006 -3.5165840E-006 -3.4839988E-006 -3.4425353E-006 -3.3911570E-006 -3.3267618E-006 -3.2437542E-006 -3.1347099E-006 -2.9901318E-006 -5.4706314E-008 -4.2401847E-008 -3.1472448E-008 -2.2178632E-008 -1.4834706E-008 -9.2766908E-009 -5.3391411E-009 -2.7602973E-009 -1.1140731E-009  6.5796055E-011  4.6281526E-011  4.8864457E-011  7.7226481E-011  3.4647176E-010  2.3732507E-010  4.1413796E-010 -1.1060066E-010 -6.7536232E-011 -9.7164156E-011 -8.7852508E-011 -2.2442255E-010  1.3971218E-010  3.0765873E-010 -6.4609784E-010 -4.1764156E-012  3.3270034E-010  8.4046820E-011 -6.2381658E-011 -1.2167515E-009 -4.9186687E-009 -2.4302683E-009 -7.3578753E-009 -1.3905531E-008 -1.7491894E-008  2.5205968E-008  2.9454713E-006  5.8892304E-006  8.8269077E-006  1.1765432E-005  1.4646839E-005  1.7573895E-005  2.0365491E-005  2.3148753E-005  2.5869496E-005  2.8513095E-005  3.1078234E-005  3.3565674E-005  3.5973808E-005  3.8338068E-005  4.0658369E-005  4.2996123E-005  4.5359528E-005  4.7779448E-005  5.0282141E-005  5.2876506E-005  5.5569598E-005  5.8387821E-005  6.1297423E-005 -1.2979192E-009 -6.6284862E-010 -1.3167222E-009 -2.0580834E-009 -2.7967082E-009 -2.4086112E-009 -1.3730335E-009 -2.5401496E-009 -2.3328865E-009 -2.3444887E-009 -1.8124563E-009 -1.2518269E-009 -1.0190059E-009 -8.3231073E-010 -6.0904523E-010 -4.3597884E-010 -2.7473107E-010 -1.7552608E-010 -1.5787179E-010 -1.7951387E-010 -1.7776271E-010 -1.6082869E-010 -1.6280257E-010 -1.2279417E-010 -1.2146738E-010 -1.2671511E-010 -1.2826033E-010 -1.4188307E-010 -1.5082148E-010 -1.3205296E-010 -1.1186697E-010 -6.6520308E-011 -6.2925713E-011 -6.6910550E-011 -6.5736927E-011 -5.4384412E-011 -4.9528891E-011 -5.3132725E-011 -4.3968485E-011  1.3509299E-011  1.4572817E-011  3.2350219E-011  4.2574725E-011  5.9229719E-011  7.0683667E-011  8.2922617E-011  1.0298555E-010  1.7701858E-010  1.8140885E-010  1.9095179E-010  2.1960448E-010  3.0016940E-010  3.0837070E-010  3.1974784E-010  3.4591362E-010  3.8877822E-010  4.3448244E-010  5.3753194E-010  5.5807841E-010  5.6535417E-010  6.0498026E-010  6.8218309E-010  7.5044859E-010  8.6990467E-010  8.9864497E-010  8.9324503E-010  9.4707735E-010  1.0538822E-009  1.1440424E-009  1.2809663E-009  1.3148051E-009  1.2833677E-009  1.3469946E-009  1.4852415E-009  1.6004335E-009  1.7323162E-009  1.7682118E-009  1.6863302E-009  1.7377802E-009  1.8789124E-009  2.0011764E-009  2.0718236E-009  2.0604506E-009  1.8941582E-009  1.9006803E-009  1.9782735E-009  2.0518130E-009  1.9841198E-009  1.9017118E-009  1.5767858E-009  1.2897354E-009  8.3945607E-010  6.3039144E-010  4.6413855E-010  2.2700500E-010  1.5206716E-010  6.8037238E-011  5.3593321E-011  2.1054238E-011 -2.4543958E-008  4.1648587E-009  6.3920958E-008 -8.2400800E-007 -3.1163773E-007 -4.7778149E-007 -1.0424651E-006 -1.9999529E-007 -1.7799179E-006 -7.0566077E-008 -3.9592764E-007 -2.0460664E-007 -1.2760845E-007 -3.6476082E-006 -6.3539278E-007 -1.2508623E-006 -1.6690941E-006 -1.5571167E-007 -2.3666027E-006 -2.6221130E-008 -3.6692613E-006 -3.4759567E-006 -2.9159856E-007 -9.9417992E-008 -2.2450080E-006 -1.6209434E-007 -6.5363738E-007 -3.6780924E-008 -3.9497005E-007 -1.4029928E-008 -2.4411049E-008 -3.2879693E-006 -5.8889625E-009 -2.7790290E-006 -2.6032441E-006 -5.5844144E-008 -4.9932773E-007 -2.4123211E-007 -3.7005344E-006 -8.1334067E-007 -3.3397302E-006 -3.5699314E-006 -1.3208068E-006 -2.0687351E-006 -1.8671498E-007 -2.7259460E-007 -1.0239674E-007 -1.4373229E-006 -9.9761957E-007 -5.4725905E-007 -5.6276766E-009 -2.9610161E-008 -2.9307378E-009 -2.3937732E-006 -2.9890187E-006 -2.3148324E-008 -1.7296694E-008 -4.5157794E-008 -6.5988915E-008 -8.8368561E-008 -6.1308769E-008 -9.6609696E-008 -1.3949195E-007 -1.5206226E-007 -1.1158613E-007 -1.6198299E-007 -1.1783072E-007 -1.6668964E-007 -2.2493964E-007 -2.2830572E-007 -1.6393333E-007 -2.1002477E-007 -3.0911919E-007 -2.9709941E-007 -2.1157413E-007 -2.8583318E-007 -2.0092401E-007 -2.6966292E-007 -3.7874225E-007 -3.5881167E-007 -2.6005033E-007 -3.4597967E-007 -2.5994981E-007 -3.4609367E-007 -4.5711733E-007 -4.9130502E-007 -3.6682220E-007 -5.0949253E-007 -6.6969136E-007 -7.0904580E-007 -5.8062853E-007 -8.0994943E-007 -7.1297651E-007 -9.8455302E-007 -1.1385205E-006 -1.3707979E-006 -1.2397902E-006 -1.6648927E-006 -1.8429798E-006 -2.1694819E-006 -2.0232431E-006 -4.9848321E-007 -4.9364949E-007 -8.9559967E-007 -2.3409808E-006 -2.6879480E-006 -1.9955652E-007 -8.4086602E-007 -1.9871670E-006 -1.7427519E-007 -1.6201215E-007 -8.2738235E-008 -8.8968194E-008 -2.8236121E-006 -5.3771739E-007 -6.8100119E-007 -1.6145465E-007 -3.1469113E-006 -3.0446730E-006 -5.8463750E-007 -5.6848760E-007 -3.1989760E-006 -1.0242984E-006 -2.2271534E-007 -6.4923554E-008 -9.7325137E-007 -1.4258343E-007 -1.9409739E-007 -7.5071662E-008 -3.4699131E-006 -3.4450033E-006 -2.8767871E-006 -5.5647370E-007 -1.5135444E-007 -1.5040130E-007 -1.5610549E-007 -6.9725028E-007 -6.2660604E-007 -6.5762683E-007 -2.0861721E-007 -2.2435606E-007 -1.9999111E-007 -2.2581092E-007 -4.4766505E-007 -3.6558988E-006 -5.8787253E-007 -5.4925263E-007 -1.3611754E-007 -1.2965397E-007 -1.2022718E-007 -9.1121269E-008 -2.3095818E-007 -2.6291334E-007 -5.9464511E-008 -8.2180409E-007 -8.9991479E-007 -3.6762652E-006 -7.9901563E-007 -4.8391411E-007 -3.9753415E-007 -2.4753266E-007 -2.6099417E-007 -1.1020086E-006 -1.1931245E-006 -4.9917328E-008 -4.3092892E-008 -8.3291981E-008 -8.3210070E-007 -3.5489479E-006 -8.6227993E-007 -1.0066426E-006 -8.4380457E-007 -6.6364673E-007 -3.3112979E-006 -1.2001721E-006 -1.3462905E-006 -1.3065017E-006 -1.4888363E-006 -2.1407251E-007 -1.8971254E-007 -1.0453098E-006 -1.2104655E-006 -1.2200609E-007 -1.2085751E-007 -5.4223437E-007 -5.1928378E-007 -5.0021673E-007 -4.8380683E-007 -4.7869900E-007 -4.5782112E-007 -7.0826239E-007 -3.8640265E-008 -3.1577568E-008 -4.6018406E-008 -2.9253279E-008 -2.2837597E-008 -2.5541433E-008 -1.7170873E-008 -1.2100289E-007 -1.1007262E-007 -6.9101865E-007 -1.0966636E-007 -1.9828342E-008 -1.4345595E-006 -1.6506172E-006 -1.6371214E-006 -1.8329893E-006 -2.5320824E-007 -2.9226757E-007 -2.9194316E-007 -3.2847718E-007 -2.1522045E-007 -3.1724068E-007 -3.5846786E-007 -3.5159969E-007 -7.2422682E-008 -3.3690139E-007 -4.4155398E-007 -3.6970747E-007 -3.2185813E-007 -1.4282449E-007 -1.0851122E-006 -1.3437180E-007 -8.9746198E-007 -4.4036841E-007 -7.5135020E-007 -8.3095668E-008 -3.6841398E-006 -3.4930900E-006 -3.8870862E-007 -1.6634504E-007 -1.1853170E-006 -1.4078069E-006 -1.4373402E-006 -1.6567000E-006 -1.6808182E-006 -1.9235071E-006 -1.9045445E-006 -2.1913950E-006 -2.2391360E-006 -2.5152269E-006 -2.5830155E-006 -2.8995140E-006 -2.9537697E-006 -2.7719019E-006 -3.0610514E-006 -2.9488855E-006 -2.6753650E-006 -2.1276836E-006 -2.6727204E-006 -3.0492409E-006 -3.2676791E-006 -3.3645634E-006 -1.6155226E-006 -4.3316359E-007 -5.2593669E-007 -2.6442210E-007 -3.1897266E-006 -3.2795891E-006 -3.0438681E-008 -5.1416527E-008 -8.1017447E-007 -9.1189041E-008 -9.1845775E-008 -8.5783846E-008 -7.8357413E-007 -2.0835164E-007 -1.8492855E-007 -5.4476490E-007 -1.7293386E-006 -1.9583607E-006 -2.0434796E-006 -2.1978869E-006 -2.2817071E-006 -2.4541718E-006 -2.7894989E-006 -3.0713836E-006 -6.7513646E-007 -6.0436742E-007 -3.5794744E-007 -1.2282135E-006 -2.7413562E-007 -9.2311276E-008 -1.2455936E-006 -3.0902315E-007 -1.2384212E-008 -1.0438450E-008 -4.1219879E-007 -3.5069857E-007 -2.3853876E-007 -2.2885284E-006 -2.5750110E-006 -2.2854373E-008 -3.5066946E-006 -3.4074685E-006 -3.5725169E-006 -3.4717444E-006 -3.6559399E-006 -3.5853476E-006 -1.2954577E-007 -4.8094955E-007 -4.2247353E-007 -1.8857713E-006 -6.9877406E-007 -3.8554872E-007 -5.9424648E-008 -2.0607955E-007 -1.8300444E-007 -2.5790406E-006 -3.7059339E-006 -3.9998625E-007 -3.0655605E-007 -2.0069930E-007 -1.5166593E-006 -1.4687939E-006 -1.3445218E-006 -3.3867677E-007 -2.4222206E-006 -1.4129356E-007 -1.4959557E-007 -1.5539477E-007 -1.6787560E-007 -4.8222631E-007 -4.1750605E-007 -2.1241922E-007 -1.7204956E-007 -1.8349666E-007 -1.6463408E-007 -9.1255257E-007 -1.0795540E-006 -1.0545923E-007 -1.1241348E-007 -3.6902047E-008 -4.6157403E-008 -5.5364653E-008 -6.3157787E-008 -3.9895873E-007 -1.1190102E-006 -2.8204513E-008 -4.9055966E-007 -1.6593914E-006 -1.4756560E-006 -1.2689505E-006 -9.7682171E-007 -9.0885275E-007 -7.3885881E-008 -8.7936167E-008 -3.7620345E-006 -3.7035445E-006 -3.7742588E-006 -2.0684436E-006 -2.4743233E-007 -2.8832851E-007 -1.1710073E-007 -1.1812483E-007 -6.0021871E-007 -6.8959264E-007 -1.6051914E-007 -3.4232288E-006 -6.0161633E-007 -3.1710764E-006 -3.0221611E-006 -3.0429763E-006 -2.8875903E-006 -2.6827294E-006 -3.1877275E-006 -9.1068794E-007 -2.1257747E-008 -1.5902908E-008 -1.4617942E-007 -2.5838589E-006 -3.3361355E-006 -3.3146664E-006 -2.4148142E-006 -2.5669404E-006 -2.8285263E-006 -1.5247384E-006 -2.7169170E-007 -2.0070613E-006 -3.1237668E-006 -3.2409599E-006 -1.0331677E-008 -1.7688509E-007 -3.2467736E-006 -1.1954692E-007 -7.7423624E-007 -1.8276047E-007 -9.6819625E-008 -9.5405625E-008 -1.0638511E-007 -3.6227565E-006 -3.6782861E-006 -4.2394964E-007 -3.9366110E-007 -5.7352681E-008 -1.5788257E-006 -5.1347999E-007 -4.7452323E-007 -3.5781213E-007 -5.8121795E-008 -8.2198735E-007 -2.8296041E-007 -1.3938890E-007 -3.1158769E-006 -3.2420202E-006 -3.1271822E-007 -3.3439713E-006 -7.1047322E-007 -3.1281284E-008 -3.0226474E-008 -1.2072750E-008 -1.9992480E-009 -5.3742006E-009 -1.5685773E-006 -1.9611603E-006 -2.4322074E-007 -6.9789024E-007 -5.9276715E-007 -4.0444154E-009 -2.7948170E-007 -3.1622091E-007 -3.4138136E-007 -2.9240462E-006 -2.5862121E-006 -3.5381656E-006 -2.5618346E-006 -3.1870265E-007 -8.1626275E-007 -6.9886726E-007 -6.0176373E-007 -7.0374166E-007 -4.4697953E-007 -1.0128946E-006 -3.6086496E-006 -5.6193898E-007 -4.4488594E-007 -7.1848122E-007 -3.9485439E-008 -7.0722261E-008 -3.0275643E-006 -2.2082629E-007 -1.1767671E-006 -2.6520619E-007 -9.1890873E-007 -3.4161290E-006 -3.5268386E-006 -3.4771205E-006 -3.6807390E-006 -1.8873925E-007 -1.4899944E-006 -2.2307277E-006 -3.6960105E-006 -1.8671575E-006 -1.9116369E-006 -1.6914984E-007 -1.6363041E-006 -2.2110218E-007 -2.3891459E-007 -2.9088803E-006 -8.9817084E-007 -3.4715709E-007 -7.5764362E-007 -9.7348514E-007 -6.9161171E-007 -2.8206234E-008 -1.7452194E-007 -2.9915886E-007 -1.4175254E-006 -6.9422839E-008 -1.7504494E-006 -1.0426283E-007 -1.2634579E-007 -7.6747374E-008 -3.9687805E-007 -2.2392447E-007 -1.8424627E-006 -2.1016729E-008 -4.6798273E-007 -3.4805647E-006 -3.6896922E-007 -1.3029100E-007 -1.1041202E-006 -2.2721600E-006 -2.7110403E-006 -1.3719628E-007 -6.7283287E-007 -5.8198563E-007 -8.8425268E-008 -5.0311630E-007 -1.7481274E-007 -1.0004127E-006 -3.7612839E-006 -2.5639518E-006 -1.7324032E-008 -8.2164609E-008 -3.8706477E-008 -3.1875078E-006 -1.1626196E-007 -1.0964570E-006 -1.3503441E-008 -3.0282096E-007 -5.7356009E-007 -2.6103705E-006 -8.5156404E-008 -3.6622582E-008 -4.7400957E-008 -2.0508153E-006 -6.4053692E-008 -5.5716068E-007 -2.9690837E-009 -2.5207077E-007 -1.2429088E-006 -1.1226403E-006 -1.1578031E-007 -3.8370425E-007 -6.9582468E-009 -2.2942817E-006 -1.3234939E-006 -2.8228274E-007 -3.4159014E-006 -3.8095620E-007 -3.5676635E-007 -1.1936386E-006 -2.1539631E-007 -3.0055275E-006 -1.6336534E-006 -9.5261521E-007 -2.7834680E-006 -4.5079694E-007 -2.3767395E-006 -3.5325263E-006 -2.3131203E-007 -6.1661704E-007 -1.8359730E-007 -1.5207965E-007 -4.2799194E-007 -6.5792360E-007 -2.6418232E-008 -2.5334889E-007 -2.0307423E-006 -8.7283222E-007 -3.1120522E-006 -1.5058290E-007 -5.8453213E-008 -3.9167203E-007 -2.9718164E-007 -7.4434303E-007 -2.4604498E-006 -7.8487240E-009 -6.0940137E-007 -4.4569361E-007 -1.0068392E-007 -1.7999335E-006 -1.0659897E-007 -1.1650198E-007 -3.7611795E-006 -7.3846157E-007 -3.2010282E-007 -9.4100625E-008 -2.9599163E-006 -2.4001035E-006 -3.7271605E-006 -3.6763339E-006 -2.4106254E-006 -3.3407579E-006 -3.6075367E-006 -6.4928768E-008 -2.5993443E-007 -3.2138352E-007 -2.8864358E-006 -2.0761002E-006 -3.7697207E-006 -4.4737424E-007 -2.6407164E-007 -1.5441942E-007 -3.1994023E-007 -2.7679159E-008 -2.2797253E-006 -4.1523213E-007 -1.1508105E-007 -6.1511007E-008 -8.1038285E-007 -5.7676710E-007 -1.2569974E-007 -1.2021892E-006 -3.8126129E-007 -5.3761768E-007 -3.8888582E-007 -8.3425771E-008 -4.5011726E-008 -6.2249648E-008 -2.5586302E-006 -4.1038228E-008 -1.7001544E-007 -2.7954512E-007 -2.9784017E-006 -2.1040540E-006 -1.2627376E-006 -9.9465025E-007 -1.2738178E-009 -8.6188757E-009 -4.5129907E-007 -1.7731763E-006 -1.6003965E-007 -1.4476360E-007 -1.0743273E-008 -8.5117362E-009 -1.7921335E-007 -4.2963605E-007 -3.2977116E-006 -5.1213726E-007 -3.1652293E-006 -3.4798702E-007 -1.9995151E-006 -3.5151907E-006 -3.5813502E-006 -2.2398808E-006 -1.3664945E-006 -1.9932473E-007 -6.0640053E-007 -5.4477048E-008 -1.0452273E-006 -2.4040865E-006 -9.9128809E-007 -2.0502572E-007 -1.1922808E-007 -3.5419034E-007 -7.3366301E-007 -1.3410348E-006 -1.8914113E-006 -3.2874513E-006 -3.3733576E-006  2.1958738E-008  1.2619014E-008 -3.8478673E-008 -2.0229334E-007 -4.7238143E-007 -9.3318087E-007 -1.3589167E-006 -3.1901332E-006 -2.6751762E-006 -1.1096232E-006  2.7477285E-008 -3.1669308E-007  3.3436459E-005  5.0344930E-007  1.5514030E-008 -2.1890904E-006  2.4101694E-005 -2.7785542E-006 -1.4854385E-006  1.3027136E-007  2.9898946E-006  2.7256967E-005  4.0474126E-005  1.9259093E-005  8.2709003E-006  8.5579359E-009 -1.4995692E-006  1.5605103E-005 -1.8254361E-006  5.4154579E-008  3.3055808E-005  1.3237976E-005  2.3636157E-005  4.5151841E-005 -2.9839227E-006 -1.1744122E-006 -1.3581677E-006 -3.3100807E-006 -3.3756738E-006  1.9350490E-008 -7.4866156E-007  3.1492283E-008  2.2622892E-008 -3.4895811E-007  1.6853863E-008 -1.2889634E-007  6.6113639E-006  1.9416520E-008  3.4561769E-006  1.2887003E-005  5.0690041E-005 -1.4896275E-006  2.6461784E-009 -1.5604784E-006 -1.8647741E-006 -1.8267243E-006 -2.1111527E-006 -2.1410064E-006 -2.3265847E-006 -2.3024050E-006 -2.4916178E-006 -2.4298683E-006 -2.5972334E-006 -2.4945307E-006 -2.5942485E-006 -2.4693441E-006 -2.5187100E-006 -2.3340596E-006 -2.2722108E-006 -2.0323555E-006 -1.8316690E-006 -1.5145535E-006 -1.0875999E-006 -6.9729514E-007  7.6430378E-008  5.3053800E-007  1.6509695E-006  2.4922274E-006  1.1029126E-006  3.4826490E-006  2.0310955E-006  4.7131644E-006  3.2426333E-006  6.3028512E-006  4.7393346E-006  8.1502692E-006  8.7368586E-007  2.7430588E-006  2.1238992E-006  3.9525015E-006  3.5306738E-006  5.2189530E-006  4.6714925E-006  5.7571065E-006  6.6476633E-006  5.7576312E-006 -2.3173554E-006  6.6452962E-006  6.8437325E-007  3.9423720E-006  4.8004737E-006 -2.1614429E-006  6.8576123E-006  6.0090677E-006  4.3456529E-006  5.2743230E-006  3.7740926E-006  4.3530292E-006  6.2114781E-006  5.4052496E-006  3.8320697E-006  4.6636645E-006  3.2723907E-006  3.7762638E-006  5.4380946E-006  4.6871695E-006  7.3670251E-006  3.2694904E-006  3.9693211E-006  5.4841860E-006  4.4134007E-006  6.2019765E-006  5.1497969E-006  3.7614196E-006  4.2352706E-006  3.1025617E-006  3.4818720E-006  1.0388239E-005  3.0161448E-006  2.6912672E-006 -2.6944504E-006  4.7262893E-006  3.8224046E-006  7.1906008E-006  2.7052964E-006  3.0404871E-006  4.0893994E-006  3.2291529E-006  4.2769303E-006  3.3508229E-006  2.5655360E-006  2.6005509E-006  3.3554955E-006  2.5755741E-006  1.9640170E-006  1.9493088E-006  2.4853681E-006  1.8093624E-006  2.3299885E-006  1.6909754E-006  2.2085929E-006  1.3134549E-006  1.2195202E-006  8.4078579E-006  2.2189778E-006  8.9840517E-006  1.8918806E-006  1.4394850E-006  1.4439168E-006  2.0573423E-006 -2.6140200E-006  1.2561751E-005  3.0113360E-006  5.8198402E-006  1.5123608E-005  8.1604956E-006  2.5179335E-006  9.1062542E-007  8.7260908E-007  5.4369481E-006  5.5772487E-006  1.0721185E-006  7.6440549E-007  7.3875521E-006  2.1180421E-006  1.8603886E-007  1.6789626E-006  1.8997840E-006  9.2626126E-006  1.0745125E-006  1.5299919E-006  6.1553894E-007  5.0360489E-007  6.2929399E-007 -2.3476636E-006  1.0031716E-006  4.2716425E-007  1.1385447E-006  1.1938358E-006  8.2671666E-006 -1.7939568E-006  5.6064381E-006 -2.3432749E-006  1.8043648E-005  2.0910214E-005  9.6937185E-007  7.0275336E-007  7.1237423E-007  1.4665256E-006  3.3596284E-007  2.7730848E-007  7.4268168E-007  1.2823118E-006  5.7202714E-006  1.4920012E-006  9.1003598E-007  1.3302163E-006  1.1075333E-005  1.2556536E-005  1.5465050E-006  9.7417854E-007  1.2563752E-006  1.8136377E-005  7.0461407E-007  9.7852053E-007  1.1975693E-006  1.3116300E-006  9.1676697E-007  1.1929956E-006  8.1174227E-007  2.4840292E-006 -2.1711604E-006 -2.3628189E-006  8.1511421E-006  1.1174230E-005  4.6986099E-007  8.4792264E-007  7.9291068E-008  4.5662914E-007 -2.7480274E-007  1.2029146E-007 -5.4895361E-007  8.6053923E-007 -1.6699136E-007 -8.3241984E-007 -4.3968013E-007 -1.0519882E-006  2.5988731E-007 -1.4396441E-006 -1.5695567E-006 -1.2604705E-006 -1.8007580E-006 -1.4484067E-006 -1.9110264E-006 -2.2246176E-006 -2.2860096E-006 -2.5500417E-006 -2.5766064E-006 -2.5488375E-006 -1.6310617E-006 -2.5071464E-006  1.6456013E-006  6.2641135E-007  8.9678351E-007  5.0127376E-007  4.8854327E-007  2.1524975E-007  1.7288624E-007  2.4717632E-007 -2.8080571E-006 -2.7981305E-006 -2.5972189E-006 -2.7857466E-006 -2.9607583E-006 -2.9208141E-006  4.8037789E-007  2.4661366E-005  2.1820523E-005  2.7786652E-005  7.8564731E-007  7.3290363E-007  8.9812295E-007  1.3239612E-006  4.8895559E-007  7.3423923E-007  5.6480556E-007  9.8231901E-007  1.6957662E-006  1.3312770E-006  6.4844425E-007 -2.6154137E-006 -1.0918599E-006  7.1058730E-007  5.0711604E-007  5.9323578E-006  3.7568960E-006 -1.9082419E-006  1.2428222E-007  5.0922839E-007  2.0895641E-007  8.5420441E-006  9.4647133E-007  1.2452949E-007  8.0743081E-007  4.9974163E-007 -3.0755372E-006 -3.0086390E-006 -3.1363370E-006 -2.8803931E-006 -2.9419279E-006 -3.0580954E-006 -2.9699339E-006 -2.8699453E-006 -2.8729588E-006  4.7688603E-007  5.5993434E-007  5.4260236E-007  1.0459685E-006  1.6544792E-007  5.9923217E-007 -2.9646961E-006 -2.8477804E-006 -2.5289905E-006  7.2478328E-006  7.3887625E-006 -1.8542581E-006  5.7099934E-007  4.8431429E-007  1.5411023E-006  6.2782623E-007  9.5300858E-007  1.2006799E-007  3.5924030E-007 -1.0706228E-007  4.2689531E-007  1.1905326E-006  3.1282943E-007  1.7591024E-007  4.3138398E-007  2.3570102E-007  1.4626024E-006  2.1712018E-006 -5.8031003E-008 -5.2770494E-009  1.4909380E-005  1.2515808E-005  2.1552021E-006  5.9171225E-007  5.0671054E-007 -2.1952494E-006 -1.9763320E-006  5.2501458E-006 -1.3530252E-006  4.5034752E-006 -2.6521431E-006 -2.6871033E-006  2.5231986E-006 -6.3434077E-007  1.7002543E-005  1.3272728E-005  1.0860158E-006  1.4932097E-006  1.0852402E-006  1.2413141E-006  6.5273358E-006  9.6119596E-006 -2.9225973E-006  6.3652742E-007 -2.3302419E-007 -2.2467396E-007  3.1704530E-005  3.6881397E-005  3.1316604E-005 -1.0673604E-008 -2.4595212E-006  7.9312595E-006  3.3744976E-006  2.7201535E-006  6.3868366E-007 -2.3919466E-006  3.0133613E-006  6.6993955E-007  3.9149903E-007  1.5133962E-006 -2.6084631E-006 -2.7741894E-006  2.8724395E-007  4.0631385E-005  5.1348920E-008 -2.7027816E-006  6.5347249E-007  4.5558692E-007  4.1226893E-007  2.9708802E-007  3.1010207E-007  1.8246527E-007  1.8462854E-007  1.5510976E-006  2.5730978E-006  1.9745540E-006  1.1907424E-006  6.1622742E-007  2.3383171E-008 -4.0319530E-007 -2.8217406E-006 -3.0344222E-006 -2.8448428E-006 -2.5897376E-006 -2.2349114E-006 -2.9137066E-006 -2.9978271E-006 -1.2901491E-006 -3.2116949E-006  2.3664013E-006 -2.3783473E-006  2.5905577E-007  4.9813551E-008  2.9036591E-007  6.8328850E-007  1.5296813E-007  2.5643558E-006  3.5887956E-007  1.6827204E-007 -9.3243051E-007 -2.3064650E-006 -2.2896307E-006  2.4697406E-007  3.2484783E-007  8.7376488E-008  3.2085175E-007  9.0179738E-008 -2.5580584E-006  3.5218376E-007 -2.3702730E-006  3.5146610E-007 -3.4483507E-007 -7.4938686E-007  1.9386662E-006 -3.2998895E-006 -2.7107406E-007  1.0731369E-006  9.7529145E-006  1.2636946E-005  8.6878237E-006  1.1439139E-005 -6.7665594E-007  6.5757636E-008  5.4819346E-008  9.5797992E-008  6.5410913E-008  2.4924566E-006  3.9427123E-007  6.8851665E-006  4.7599834E-006  1.0008486E-006  2.0496479E-005  1.5520632E-005  2.2435587E-005  1.7431503E-005  1.1227075E-005  1.3402913E-005  1.9393166E-005  1.5268122E-005  2.1679636E-005  1.7283456E-005  2.4251651E-005  2.9373927E-005  9.9076284E-006  1.0662583E-005 -1.2059397E-006 -1.9027870E-006 -1.5785235E-006 -2.0073064E-006 -1.6113459E-006 -1.9812227E-006 -1.7838242E-006 -1.2178390E-006  6.9395955E-008  1.7292423E-007 -2.7641163E-007 -4.2476280E-007 -7.8905403E-007  8.5877063E-007 -8.9091218E-007 -3.7658546E-007 -3.3954953E-007 -1.8445279E-006 -3.0679219E-006 -2.0685813E-006 -3.1547401E-006 -3.1766548E-006  3.9025756E-006 -1.8604388E-006  1.4248012E-006  2.3231330E-006  4.2551706E-006  3.2022648E-006  2.4890761E-007  6.6564373E-007  1.3663152E-007  2.2623660E-007 -3.2197638E-006  1.6182754E-006  1.9752609E-006 -1.9182609E-006  8.3534273E-008 -3.0577416E-006 -3.0516464E-007  2.4697011E-005  1.5103103E-006 -1.4312945E-006  1.0275529E-005  1.8476919E-006  1.5513756E-005  1.3071657E-005  1.6238692E-005  2.1634963E-005  1.9860040E-005  2.5631197E-005  1.8427960E-005  1.1787036E-005  3.8219345E-006  2.4215072E-005  1.1061590E-005  2.8078711E-005  6.7216012E-006  9.1513312E-006  3.5123217E-006  3.8118311E-005  1.3902699E-005  4.7904937E-005  4.5945639E-005  2.5470063E-005  1.0126796E-005  1.6885792E-005  1.3460159E-005  2.1546402E-005  1.4096587E-005  1.7809821E-005  4.2435977E-005  2.8114186E-005  1.1700706E-005 -2.0106963E-006 -1.7837168E-006  2.9055792E-007  1.7675869E-007 -2.7852277E-006 -2.8510858E-006 -1.3078882E-006  6.7621357E-009  2.6100288E-008 -1.3728115E-006 -3.1018696E-006 -1.3283371E-006 -3.2591279E-006 -3.3546009E-006 -3.3453637E-006 -3.0910516E-006  1.7859695E-008  1.9367616E-008 -1.0281335E-006  3.5993591E-008  1.7199102E-007 -8.5126531E-007  2.8339084E-008  2.1643426E-008  2.0384641E-008  1.9977127E-007 -3.0037191E-007 -3.8007251E-007  2.5030437E-008  1.6829192E-009 -1.4829017E-007  1.2002401E-005 -1.5923806E-006 -2.7866960E-006  8.7440707E-006  4.7502527E-006  2.1287453E-006 -2.0402189E-006 -2.4818989E-006 -2.8286349E-006 -2.7412849E-006  2.9230394E-005  3.6055523E-005  1.4992402E-005 -2.8429754E-006  6.8854253E-006  1.4306070E-005  8.4697509E-006 -3.4040725E-006 -3.5054234E-007  3.1111152E-005  1.1925424E-006 -1.7110474E-007 -3.7176829E-007  1.8272908E-006  1.7411920E-007  4.2315687E-008  1.7095222E-007  1.4794253E-006 -1.3984402E-008 -1.5974046E-006  9.4636610E-008  1.7449972E-006 -4.4406750E-008  2.2923531E-006  1.7078410E-005 -3.5256153E-007 -2.7668602E-006  1.8561361E-006  1.1023923E-005 -5.2187508E-007  3.1831191E-007  1.2278477E-006  7.2963370E-007 -7.7822979E-007  3.0473184E-007  9.7459540E-006  1.5877460E-005 -2.3461316E-006  3.1055136E-005 -2.6595950E-006  7.6209639E-009 -2.2408449E-006  1.5900030E-006 -6.2440656E-008  2.1838214E-006  2.1338088E-006  4.2872820E-007  2.0682985E-007  6.0543308E-007  1.1432637E-006  1.9870341E-006 -2.0198844E-006  1.1296200E-006  9.8298079E-006 -6.6668330E-007  5.9978965E-006  2.9489026E-006 -2.3381097E-006 -2.5227274E-007  3.2430025E-007  1.8055044E-006  9.1855805E-007 -7.0129827E-007  2.3344380E-006 -1.7295918E-006  2.7041099E-006  6.2451076E-006  3.3717842E-007  5.6279557E-007  2.7166876E-005  3.2412397E-006  1.1598463E-006  7.1334810E-006  3.0729849E-006  3.1325043E-008  4.3184408E-006  8.8164744E-008  5.8031637E-007  1.2988496E-007 -2.5265941E-006  2.2557596E-006  1.3514883E-005  9.6956342E-009  1.5911462E-007 -1.1444021E-007  1.7031266E-006  3.2701661E-006  3.9670054E-006  6.3813605E-006 -3.2069581E-006 -9.3616316E-007  4.8945709E-006  7.9189627E-006  1.9705719E-006 -7.0394329E-007  1.5067471E-009  5.0834829E-006 -3.1478783E-006 -1.7810261E-006  8.4036442E-006  6.7328540E-006  7.5752663E-006 -3.0471314E-006  3.6082900E-005 -1.1422706E-006  4.0216819E-005  9.9527941E-007 -2.2356725E-006 -2.7274396E-006 -1.3359302E-006  7.4143342E-007 -2.3961075E-006 -8.8175417E-007  2.0893981E-007 -3.2545121E-006 -2.2728709E-006 -2.7263452E-006  9.2276179E-006 -2.1110126E-006 -3.6216900E-007  4.0180506E-006 -2.7809926E-006  1.9881824E-005  2.9393601E-005  1.0145365E-005 -7.2991076E-007 -1.0442288E-006  8.0421218E-006  9.1302262E-007  2.7691613E-007  1.7479602E-007 -2.2168325E-006  4.7687967E-007  4.2127739E-007  6.1310840E-006  5.5764016E-006  6.1357702E-007  1.7710385E-007 -6.1633771E-008  3.2325314E-007  9.6791926E-008 -1.1744777E-006  2.1611590E-005  2.9232218E-007  1.4018745E-005  1.4611597E-007  9.9361349E-006  1.9275081E-005 -1.3569088E-006  1.7413823E-006 -8.6160803E-007  1.0311744E-007 -1.1507783E-006 -2.4566898E-006 -2.6186014E-006 -2.6896659E-006 -2.9864732E-006  8.2026906E-007 -3.2112586E-006  1.2190250E-006  1.1479409E-005  7.6834399E-006  5.5114421E-005  1.0514806E-007  2.4963902E-006 -3.2714277E-006 -1.2668897E-006  4.2229069E-008  1.8222917E-006  5.5458928E-006  3.1704216E-006 -5.8926972E-007  1.3174402E-006 -4.6617928E-007  1.3164033E-005 -3.4332885E-006  7.5754519E-007  1.5988451E-006 -2.1531853E-006 -5.3557829E-007  3.7395048E-006  3.4033785E-006  3.3074686E-010  9.0286685E-008  1.6584130E-007  9.7257045E-006 -1.4714573E-006  7.8090803E-006  1.1406116E-005 -9.3937638E-009 -2.1594154E-006 -2.6737657E-006  8.3443055E-007  3.5527567E-005  3.2175846E-008  4.5322752E-007  1.2222147E-006  1.0337734E-005 -8.0886353E-007 -7.1316625E-008  1.3726472E-007  2.4676250E-005 -9.0288401E-007 -1.9338786E-006  1.7720623E-007  2.2241702E-005  1.2292202E-006  7.0020511E-006  2.1113601E-006  1.4619002E-006 -7.9202917E-007  3.1226072E-006  2.4085109E-006 -2.1426148E-006 -3.8620445E-007  2.2909356E-006  3.5045241E-007 -6.6396996E-008  3.8488479E-005  2.6874285E-006  3.5004202E-006 -2.6091543E-006  1.2185660E-006  2.0977857E-006 -2.7000146E-006  9.3578204E-006  6.4572150E-007 -3.0714914E-006 -2.5755800E-006 -1.7055954E-008 -2.0336600E-009 -9.1490625E-008 -6.8823171E-009 -5.9413289E-009 -3.6711767E-008 -1.1674213E-007 -1.4795993E-007 -1.3333404E-008 -1.7905833E-007 -2.0039669E-007 -2.1541021E-007 -2.2155927E-007 -2.2215581E-007 -2.1727968E-007 -2.0977008E-007 -2.0351864E-007 -1.8951306E-007 -1.7573592E-007 -1.7001022E-007 -1.5370951E-007 -1.3975256E-007 -1.3666836E-007 -1.2000621E-007 -1.0726961E-007 -1.0657632E-007 -9.2064178E-008 -8.1383703E-008 -2.9747204E-010 -8.3615177E-008 -6.7492388E-008 -7.0680920E-008 -5.8606630E-008 -5.3526569E-008 -4.6469696E-008 -5.0385528E-008 -4.1044615E-008 -3.7028332E-008 -3.4067453E-008 -2.8520197E-008 -2.3758242E-008 -2.6089868E-008 -2.3140133E-008 -1.8929458E-008 -1.7785145E-008 -1.8679649E-008 -5.8129097E-009 -2.3972445E-008 -2.4150253E-008 -6.8757055E-008 -2.0866915E-008 -2.9320566E-008 -3.6572946E-008 -3.9239092E-008 -4.5124326E-008 -4.9092531E-008 -4.8526521E-008 -5.2636046E-008 -5.4226838E-008 -5.1663541E-008 -5.4139289E-008 -5.3932162E-008 -5.0559269E-008 -5.2230114E-008 -5.1187606E-008 -4.7623053E-008 -4.8788813E-008 -4.7354292E-008 -4.3948562E-008 -4.4847892E-008 -4.3314991E-008 -4.2028258E-008 -4.0284152E-008 -3.7061275E-008 -3.5807278E-008 -3.6253175E-008 -3.4657070E-008 -3.1909908E-008 -3.0695457E-008 -2.9744878E-008 -2.9713568E-008 -2.8382559E-008 -2.6304430E-008 -2.5662766E-008 -2.5722969E-008 -2.4824409E-008 -2.5170394E-008 -4.5253048E-009 -1.7311560E-008  1.0213943E-008 -9.0040566E-010  1.6126886E-009  2.5674116E-008 -1.0277454E-008 -2.4713932E-008 -3.3991549E-008 -1.4438881E-008 -4.1864019E-008 -3.0088448E-008 -5.8835302E-008 -4.3148679E-008 -2.2111777E-008 -3.1977603E-008 -1.6120688E-008 -9.9428933E-009 -6.8936536E-009 -2.4134857E-008 -4.0667499E-008 -3.6785097E-009 -2.5232868E-009 -3.3305830E-008 -1.1863943E-008 -4.9898304E-008 -6.0756252E-008 -5.5623166E-008 -1.3176966E-008 -6.0285169E-008 -1.2367296E-007 -3.6038847E-009 -1.0426609E-007 -7.9057233E-010 -5.9162194E-009 -4.0873354E-008 -1.0943708E-007 -1.1386300E-007 -1.8562236E-007 -2.1326944E-008 -3.2569689E-008 -3.6788586E-008 -2.5056432E-008 -4.2346818E-008 -4.2264992E-008 -4.9027091E-008 -1.2129865E-007 -1.2192277E-007 -1.8417703E-007 -4.0781747E-008 -8.2584863E-008 -7.9656720E-008 -9.4494309E-008 -4.9856142E-008 -1.1081392E-007 -1.0792697E-007 -1.4609627E-007 -1.8689826E-008 -1.5863925E-008 -2.8886595E-008 -5.3352847E-008 -5.1570229E-008 -5.7788936E-008 -2.9703920E-008 -5.6780292E-008 -3.4960369E-008 -6.9451750E-008 -6.6841007E-008 -7.5384604E-008 -3.0855478E-008 -5.9115666E-008 -5.1313965E-008 -1.1935376E-007 -1.1765577E-007 -1.6753727E-007 -4.6774978E-008 -1.0015972E-007 -9.6978487E-008 -1.2434394E-007 -3.4078372E-008 -3.5873095E-008 -7.0160813E-008 -4.3076852E-008 -8.9470023E-008 -8.6547337E-008 -1.0566815E-007 -4.4215238E-008 -8.9291894E-008 -4.6038153E-008 -2.4979564E-008 -4.5450752E-008 -4.4606468E-008 -4.6937144E-008 -2.5532224E-008 -4.8057776E-008 -4.2270794E-008 -4.7797762E-008 -9.9293738E-008 -5.0487134E-008 -1.1100643E-007 -2.3411782E-008 -2.6585662E-008 -4.9745050E-008 -3.2343409E-008 -6.1686315E-008 -3.7540005E-008 -7.3080876E-008 -4.9451575E-008 -5.1644818E-008 -3.6346552E-008 -1.0010520E-007 -2.3583691E-008 -4.3847230E-008 -2.9087746E-008 -3.9512548E-008 -2.4757150E-008 -5.0984854E-008 -4.4775528E-008 -2.4352204E-008 -4.6961724E-008 -1.1742119E-007 -2.4117192E-008 -7.5447298E-008 -8.5321976E-008 -1.4832497E-007 -3.1186938E-008 -5.1086416E-008 -1.1934823E-007 -1.8645649E-008 -4.6310758E-008 -7.4951997E-008 -2.1238719E-008 -4.9688629E-008 -1.9666605E-007 -1.6471280E-007 -3.7686908E-008 -7.1125290E-008 -6.5401792E-008 -9.1311506E-008 -4.9896746E-008 -8.3428194E-008 -2.1381667E-007 -1.6868249E-007 -5.4657096E-008 -8.6896623E-008 -2.9121017E-008 -5.8446661E-008 -1.6307802E-007 -9.9512157E-008 -1.1008369E-007 -1.1324177E-007 -1.2834670E-007 -8.6700121E-008 -1.1173974E-007 -9.9536263E-008 -1.1607927E-007 -2.0879074E-007 -1.4377142E-007 -3.0646778E-008 -6.3311226E-008 -1.6188393E-007 -1.5057025E-007 -1.2893378E-007 -1.3333087E-007 -2.3505772E-008 -5.5783231E-008 -7.8015270E-008 -1.0148374E-007 -1.4676273E-007 -1.4602660E-007 -1.8273172E-007 -1.6175783E-007 -2.1978432E-007 -1.6631714E-007 -1.6975319E-008 -4.7787641E-008 -3.4268430E-008 -6.7818026E-008 -2.0225600E-008 -5.1872025E-008 -2.1896664E-007 -1.5644493E-007 -2.3335771E-009 -2.5677552E-008 -1.0495157E-008 -1.6974080E-007 -7.6458786E-008 -1.5576275E-007 -9.3629139E-008 -1.1928768E-007 -5.8327092E-008 -1.0365826E-007 -1.3748883E-007 -4.8546562E-008 -1.6909392E-007 -1.4049508E-007 -3.9652352E-008  1.6920227E-008 -1.6370835E-008 -1.2417924E-008  2.3984149E-008 -8.1424032E-008 -5.2479654E-008 -7.2817066E-008  5.8267466E-009 -2.1661650E-010 -8.0857484E-008 -1.4750111E-008  3.2943135E-009 -5.8068252E-009  2.6567477E-008  1.8714735E-008 -9.6983639E-009 -4.9037914E-009 -8.2371943E-008 -2.0608089E-008 -4.8888659E-008 -8.3889468E-010  2.7152159E-008 -4.4004799E-008 -2.4996109E-008  3.2309905E-008 -4.4108496E-008 -4.2779294E-008 -4.9649726E-008 -3.9281857E-008 -7.8232044E-009 -6.1007281E-008 -7.2118467E-008 -1.7814835E-008 -7.8241606E-008 -8.6976937E-008 -9.6073012E-008 -3.0711314E-008 -4.1246272E-008 -1.0580959E-007 -3.9085667E-008 -1.0968271E-007 -4.4307137E-008 -1.0310788E-007 -8.0236550E-008 -5.0070077E-008 -4.5632417E-008 -4.3616829E-008 -6.3218551E-008 -4.9507609E-008 -4.4862944E-008 -5.2324152E-008 -8.8775505E-008 -5.3594977E-008 -5.1467305E-008 -1.2110219E-007 -5.3640355E-008 -6.1426058E-008 -1.5926235E-007 -5.5361781E-008 -6.4707754E-008 -6.8481569E-008 -1.9861100E-007 -6.1430960E-008 -2.1886577E-007 -6.3295600E-008 -1.9824358E-007 -6.5230797E-008 -8.0949243E-008 -8.5333477E-008 -7.1671953E-008 -7.7780162E-008 -7.8636175E-008 -1.1278988E-007 -8.6111808E-008 -8.6714199E-008 -9.4423234E-008 -1.3255484E-007 -9.4632547E-008 -1.0015483E-007 -9.8744420E-008 -1.5441141E-007 -9.8751911E-008 -9.3844848E-008 -1.7486915E-007 -8.5510608E-008 -7.5418983E-008 -5.5135523E-008 -1.8518665E-007 -1.7150403E-007 -1.4314034E-009 -6.5362365E-009 -4.6215305E-008 -5.0312119E-008 -4.0023018E-010 -6.0886907E-008 -6.1109158E-008 -6.7196000E-008 -7.7408807E-008 -9.6831835E-008 -1.0816783E-007 -1.2741417E-007 -1.4902924E-007 -1.6952566E-007 -1.8387656E-007 -1.7099514E-007 -1.2823755E-007 -1.4334874E-007 -1.3041499E-008  2.6642105E-008 -1.7446938E-007 -8.9620678E-008 -7.1426700E-008 -4.4674640E-008 -1.7485813E-007  2.2569644E-008  2.1210800E-008 -1.5901726E-007 -3.4229277E-008 -8.7102381E-009 -1.3898454E-007 -1.1893902E-007 -1.0189891E-007 -9.1440112E-008  4.6868887E-009 -2.5903302E-009 -7.3464800E-008  7.1356676E-005  6.8900308E-005  9.6981098E-005  8.1721954E-005  7.5330080E-005  5.6012574E-005  6.4725491E-005  5.0526261E-005  8.9002877E-005  7.7099258E-005  7.5026445E-005  3.0146126E-005  1.3431606E-005  3.5337408E-005  2.4495332E-005  9.6090042E-005  5.8720276E-005  7.2267490E-005  8.8440327E-005  4.5992886E-005  3.9914291E-005  1.2233397E-005  2.0197699E-005  9.3117517E-005  9.3287987E-005  6.4147061E-005  7.7395548E-005  4.6514277E-005  8.2084677E-005  3.1931019E-006  7.1303218E-005  7.3371896E-005  7.7364986E-005  7.4653356E-005  8.1393216E-005  7.9536487E-005  8.1572830E-005  8.7101755E-005  7.3557996E-005  8.2194518E-005  8.3647328E-005  8.0135688E-005  9.1538412E-005  9.1428446E-005  5.6174602E-005  6.6668268E-005  6.9645875E-005  6.3889054E-005  7.8276217E-005  8.0381535E-005  9.6409734E-005  8.9114876E-005  8.8772661E-005  8.1619840E-005  7.5640043E-005  6.4709198E-005  6.1380644E-005  5.3922023E-005  6.7520479E-005  4.0852144E-005  3.3103592E-005  2.7821356E-005  2.6208039E-005  3.0667000E-005  4.2910798E-005  4.8982998E-005  4.5404969E-005  5.5513844E-005  5.1470986E-005  9.5091398E-005  8.5416759E-005  8.3359715E-005  5.2971006E-005  1.8889929E-005  1.8910948E-005  1.3971125E-005  9.4642462E-006  1.0037331E-005  8.0582159E-006  6.9097745E-005  1.6087850E-005  2.1512853E-005  3.3622296E-005  3.8149941E-005  4.1712865E-005  4.6934006E-005  2.9982989E-005  9.5221123E-005  8.8181737E-005  7.1617869E-005  9.1417189E-005  8.1030847E-005  7.2197864E-005  7.6042023E-005  7.1056027E-005  7.8934586E-005  7.6586532E-005  6.1207044E-005  8.3711136E-005  3.6742402E-005  3.7783729E-005  6.8851974E-005  7.5611922E-005  4.4073664E-006  5.5842813E-006  9.8612987E-005  8.6926993E-005  8.7661670E-005  2.5489084E-005  7.7492614E-005  6.3615179E-005  6.2929458E-005  7.2390196E-005  8.7818384E-005  5.6458725E-005  5.8783718E-005  9.9631541E-005  8.2780823E-005  4.9132228E-005  9.3227714E-005  4.5771523E-005  8.8280329E-005  7.5518001E-005  2.1985295E-005  2.4540072E-005  1.6371559E-005  5.3257011E-005  8.3350106E-005  8.5514458E-006  6.5857337E-006  3.9672655E-006  6.6526042E-005  7.9377463E-005  2.4798242E-006  7.7216667E-005  3.4881889E-005  7.8345561E-005  7.2819238E-005  7.2871499E-005  5.3724431E-005  8.7287794E-005  2.3943880E-005  8.6978345E-005  7.9844017E-005  6.0000253E-005  9.0112780E-005  8.3499066E-005  5.9067734E-005  4.1644265E-005  8.1911734E-005  1.4258768E-005  1.2500755E-004  1.4022858E-004  1.1335960E-004  1.2801208E-004  1.5684359E-004  1.5034063E-004  1.6049695E-004  1.3912790E-004  1.4754162E-004  1.6182144E-004  1.5635695E-004  1.6105444E-004  1.5999286E-004  1.5397330E-004  1.4369957E-004  1.3400686E-004  1.4581983E-004  1.6169755E-004  1.0354406E-004  1.6144227E-004  1.2128692E-004  1.5396485E-004  1.3341143E-004  1.5894611E-004  1.5102917E-004  1.5842738E-004  9.2689016E-005  1.1470163E-004  1.1356153E-004  9.0524902E-005  2.5585758E-007  1.7625182E-007  2.6133890E-007  2.8056360E-007  3.0144510E-007  2.9489232E-007  2.6121318E-007  1.1473433E-005  1.6854408E-007  3.3699095E-007 -8.7795473E-007  1.5944116E-007 -6.7246432E-007  2.9805514E-006  1.2789370E-007 -3.9177813E-007  7.2097558E-005  1.0118911E-007  9.4213599E-005  2.7785708E-007  2.6951386E-007  1.8101478E-005  1.6493212E-005 -8.0775251E-007 -5.1557919E-007 -6.1890578E-009 -1.2952672E-007 -2.6703669E-007 -1.0479289E-006  5.3073377E-007 -1.7821568E-007  5.9553434E-005  2.3865286E-007  9.6699639E-007  2.9617179E-007  2.3857893E-007  2.9762900E-007  3.0465398E-007 -1.9102511E-007  1.6961094E-007  9.0006419E-007  7.7160611E-008  6.5289083E-005  1.3736986E-004  1.4614590E-004  1.4130798E-004  1.1615404E-004  1.2374874E-004  1.0056931E-004 -1.8909822E-006 -1.4606548E-007 -4.7797191E-007 -1.3814513E-007  1.9941792E-005  1.8654679E-005 -1.5030624E-007 -1.4300121E-006  3.0979662E-006  1.2693071E-007 -1.3953611E-007  2.7808857E-007 -1.4721209E-006  2.8417024E-005  7.2386409E-008  6.3078933E-005  5.6509040E-005  5.5280331E-005  4.7999998E-005  4.7473766E-005  3.6428863E-005  3.3028985E-005  2.5236301E-005  5.9729616E-006 -5.1817568E-008  2.4926178E-007  1.7170267E-007  1.7268280E-007  1.7278310E-007 -1.2236867E-007  2.2835565E-005  1.7799661E-005  1.9272732E-007  6.2378718E-007  6.7062896E-008  1.5957369E-005  1.2964974E-005  1.3577811E-005  1.0223009E-005  1.0230501E-005  7.9446488E-006  7.7109037E-006  6.1376155E-006  5.8393867E-006  4.7314144E-006  7.0358329E-006  4.4298517E-006  3.6433487E-006  3.3703607E-006  2.8041540E-006  2.5709131E-006  2.1572617E-006  1.9640517E-006  1.6577966E-006  1.5003746E-006  1.2709233E-006  1.1437643E-006  9.6992801E-007  5.8336116E-008 -1.7916911E-007  1.2951235E-007 -1.7582115E-007  1.0075416E-005  3.1042452E-005  4.1644641E-005  2.9737868E-006  8.6742215E-007  6.0995623E-006 -2.2859115E-006  2.2722987E-006  1.1421165E-006 -1.1373358E-007  9.8903597E-007  1.1453831E-005  1.3230442E-005  7.3422479E-007  9.7288709E-006  7.9479269E-007  8.2728347E-008 -1.4060147E-007  9.9862521E-008  7.4521942E-007  6.8690734E-005  2.7208768E-005  9.5164540E-006  1.0379660E-005  7.9373287E-007  1.2367967E-006  1.6073217E-006  2.0041113E-006  2.6215543E-006  2.9785318E-006  4.1724591E-006  4.1277050E-006  5.9921758E-007  8.2006845E-007 -2.1212816E-006  6.2718059E-007 -3.2499480E-007 -2.8678806E-007  6.1347127E-007 -1.3281183E-007 -2.3898942E-007 -3.4970690E-007 -3.0271596E-007 -2.1502822E-007 -2.5330870E-007  2.2206929E-005  6.3967227E-006  4.4441955E-006  8.5077035E-006  5.3734932E-006  3.3639375E-007  7.4094659E-007  3.7544196E-006  1.7147187E-006  1.3573266E-006  3.2469559E-007  7.5734410E-007  7.0577706E-007 -1.0341721E-007  1.4564167E-006 -3.9057239E-007 -4.5256036E-007  4.6962018E-007 -4.8236026E-007 -3.2137399E-007 -8.2918697E-007 -2.2578282E-007  5.9604754E-008 -1.9641263E-007 -2.2475711E-007  5.5397541E-007  2.7223947E-008  1.3397621E-005 -6.1143967E-007 -2.6863666E-007 -2.3808668E-007 -2.0304184E-007 -2.0864804E-007 -1.8417019E-007 -1.7456061E-007  7.5099014E-006  7.7910421E-006  6.8571931E-006  1.0600699E-005 -1.5048199E-007 -1.8741337E-007  7.5497912E-006  6.3779107E-005  4.4288075E-007  6.4882636E-007  8.6360930E-007  4.8123956E-007 -4.7039477E-007 -5.4338425E-007 -7.7949162E-007 -1.6231786E-007  4.4459284E-005  4.7312298E-007  6.2547785E-007  3.5060086E-007  1.3204359E-007  2.1488739E-007  6.2144810E-005  5.3631397E-006  4.8696621E-006 -2.7423739E-007 -5.4338837E-007 -6.3146236E-007 -6.2529394E-007 -7.2128764E-007 -7.1067949E-007 -8.3510956E-007 -8.0559982E-007 -9.4143240E-007 -9.0274913E-007 -1.0793561E-006 -1.0080798E-006 -1.1870862E-006 -4.7511178E-007  1.5435202E-005 -8.4552476E-007  1.4334376E-004  1.3328343E-004  7.8673180E-005  1.4242899E-004  2.3113418E-005  2.9794658E-005  6.2113941E-005  5.5562262E-005  1.1231292E-004  1.0567958E-004  1.0331305E-004  9.0720373E-005  9.8606350E-005  8.1500039E-005  8.8613463E-005  6.2032662E-005  5.6528356E-005  6.2304717E-005  1.3124508E-004  1.3153989E-004  1.2426634E-004  9.9632609E-006  1.2523808E-006  2.2852803E-007  3.9554261E-007  4.0362799E-005  3.9503684E-008  3.0659681E-007  5.0162895E-007  3.1696660E-007  5.2746392E-007  2.8694050E-007  4.7181403E-007  2.5442211E-007  5.4249263E-007  3.2455723E-007  5.4425111E-007  2.9817209E-007  3.3464694E-007  7.4226803E-007  3.3545136E-007  7.5561027E-007  7.9289604E-008  2.1090958E-007 -1.6160816E-008  5.6219628E-008  3.3993439E-007  7.3810413E-007  3.4070751E-007 -1.1088085E-006 -1.3037602E-006  4.4880156E-007  5.8851772E-007  9.4350425E-005  1.4118764E-004  7.6073186E-005  7.1902968E-005  1.1894470E-004  1.4187074E-004  1.3409311E-004  7.9665699E-005  1.0018909E-004  1.3282680E-004  1.0576233E-004  9.2079483E-005  1.0642880E-004 -2.0701598E-007 -1.8539602E-007 -1.7041651E-007  6.4934725E-007  8.6149816E-007  2.4575813E-005  1.9092134E-005  5.5941540E-006  5.1624979E-006  2.4402645E-005 -1.5129720E-007 -3.0882296E-007 -3.0382221E-007 -2.7268508E-007 -2.4857543E-006  7.8011959E-006  5.1663400E-006 -1.0688173E-006 -1.3709327E-006 -1.5039124E-006 -1.4207892E-006 -1.6403089E-006 -4.7607069E-008 -7.2383713E-007 -1.6684919E-007 -1.5540336E-007 -1.5025296E-007 -1.4034904E-007 -1.4444313E-007 -5.3053035E-007 -4.6967168E-007  6.0312629E-007  3.5315608E-008  6.0035025E-006  4.2635585E-006 -1.5343694E-006 -1.7581769E-006 -1.3195302E-006  3.7973790E-006  3.3345744E-006  4.3314546E-006  3.6955134E-006  4.5369996E-007  3.2336031E-006  3.3948592E-006  4.6046673E-006  3.1865882E-006  2.3026221E-006  3.9446209E-006  2.6997877E-006 -1.7898069E-007 -3.4281121E-007  7.9764594E-007  1.1396747E-006  1.0541716E-006  1.1082605E-007 -3.3236980E-007 -1.7440423E-006  1.5082576E-006  5.0240066E-005  3.7937686E-007  5.5598601E-005 -9.2066261E-008  2.8281835E-006  1.4353648E-005  1.2912544E-005 -1.3467895E-007  1.9254339E-005  1.6966841E-005 -6.7133873E-007  2.4005030E-006  5.0914525E-006  3.6265864E-006  2.8540220E-006  2.4250961E-006  3.0093302E-006  2.0147424E-006  2.4583410E-006  1.6511203E-006  1.9820172E-006  1.3304233E-006  1.5797623E-006  1.0629908E-006  1.2484960E-006  8.3904628E-007  2.1918179E-006  3.4315166E-006  9.7970209E-007  6.6006753E-007  1.3552536E-006  3.9376437E-006  2.5508019E-006  8.4226705E-006  8.1629712E-007  3.9263746E-007  2.9699403E-007  4.1830762E-005  5.8703898E-005 -4.3458976E-007  3.7087906E-005  6.8916849E-005  4.0258998E-007  2.7944805E-007  1.1274411E-004  1.1516208E-004  1.3441436E-004  1.1455890E-004  1.0150573E-004  1.2508610E-004  1.3612384E-004  1.0588531E-004  1.1239642E-004  1.1001673E-004  1.0065956E-004  1.3013955E-004  7.2295117E-006 -1.2681265E-007 -2.4895310E-006  2.3079307E-008 -3.7358786E-007  1.1126497E-006  1.4039453E-006 -1.1994100E-007  4.9397458E-007  4.5710010E-006 -3.5965372E-007 -5.1049463E-007 -5.7708952E-007 -4.5182738E-007  4.6708160E-007  7.1605693E-007  7.1236410E-007  1.2140315E-006  1.2333029E-006  5.5091809E-006  4.4443032E-006 -1.6342817E-006 -3.2135483E-007  2.6126972E-006  2.9967663E-005  7.8588990E-005 -3.5027803E-007  2.2854821E-007 -1.4340091E-007  6.9853821E-006  1.5111604E-006  1.9844389E-006 -1.4639765E-007 -1.3493568E-007 -1.2808093E-007 -1.1201221E-007 -7.7061322E-008  1.4304260E-005  1.0056433E-005  6.2148759E-005  1.9587668E-006  2.7836607E-006 -5.3037212E-007  6.1943282E-007 -1.8647732E-006 -1.9876457E-006  7.3480824E-005  5.7966453E-005  3.8653215E-007  8.8249607E-007  6.3196260E-005  3.8427874E-005  3.9026677E-005  1.2577438E-004  1.0260834E-004  1.2613090E-004  1.1107551E-004  3.6248398E-005  2.0092539E-006  1.4754795E-006 -4.3204949E-007  2.7127756E-006  7.9542622E-007 -5.4348030E-007 -2.3050484E-007 -2.2413102E-007  2.2986660E-006  3.8692192E-007  7.9464221E-007  1.0462823E-007 -6.1964071E-007 -6.4613139E-007  2.9194485E-007  3.2584534E-007  3.3292337E-007  6.0315857E-007  5.3824797E-007  2.8490316E-006  1.0288202E-005 -1.4993948E-007 -1.4120870E-007 -1.2635363E-006 -1.4168373E-006 -1.2458948E-006 -1.4085458E-006  4.5783993E-007  4.5196918E-007  6.1197586E-007  2.0370986E-005 -4.2220276E-007  2.5261175E-008  5.3652675E-007  1.0060548E-006  5.2124175E-007  3.7005107E-007  4.0744143E-007  6.0424407E-007  6.2999414E-007  9.5157235E-007  1.8061049E-006  2.7479614E-007  3.3654516E-007  2.1205830E-007  2.4398624E-007  1.5021546E-007  1.6677743E-007  2.5166006E-007  1.6861033E-007  2.3872778E-007  1.0358615E-007  1.6984668E-006  5.1572985E-005  5.2289840E-005  5.7010697E-005  4.1712217E-005  8.9217174E-007 -1.7714240E-006  2.2708430E-007  2.8911902E-007 -1.5656076E-006 -1.5873451E-006 -1.7438808E-006 -1.9174987E-006 -1.8628558E-006 -1.5554544E-006 -2.0119996E-007 -2.1803485E-007 -2.3971740E-007 -1.8882285E-007 -1.7301557E-007 -6.9469958E-007 -1.2660588E-007 -1.3494869E-007  1.1771496E-005  9.6468084E-006  1.3708368E-005  5.1399266E-005  1.3969080E-006 -1.6068476E-007  1.1980763E-006 -2.1054051E-006 -2.2220716E-006 -9.6318458E-007 -1.0675412E-006 -9.6854860E-007 -8.0910071E-007 -7.8513756E-007 -1.0616321E-006 -9.6473541E-007 -1.1771546E-006 -2.9676487E-007 -2.8502883E-007  3.8350511E-006 -6.4690036E-008 -1.3926833E-007  2.5290824E-005  7.8659944E-007  6.5666962E-006  8.4235440E-006  2.5755147E-005  2.5634395E-005  1.6874801E-005  1.0611799E-005  8.3694221E-006  9.7555155E-005  5.8723230E-005  3.8536624E-005  3.6500729E-005  2.1425561E-005  2.1226987E-005 -2.0968900E-006 -2.3286761E-006  8.3609701E-007 -1.6882139E-007  1.2742181E-006 -5.2600270E-007  1.0330105E-006  1.0534444E-005  1.8728185E-005  8.5037544E-007  3.9053758E-007 -9.4023452E-008  2.0781829E-006  2.0058388E-005  4.5200012E-005 -1.0933601E-007 -1.0608570E-007 -1.1635220E-007 -1.2952952E-007  1.9239999E-006 -5.9616798E-007 -1.3361594E-007  7.6782990E-006 -7.5246064E-007 -8.1670577E-007 -4.0840954E-007 -2.2842496E-007 -2.5297107E-007 -2.0813381E-007 -1.0534164E-006 -1.0415296E-006  2.1310874E-007 -1.2861896E-006 -4.0221745E-007 -3.8210772E-007 -1.1481871E-006  8.6824626E-007  1.4339359E-006  6.3850215E-007  9.7496185E-007  4.2860984E-007  6.1606422E-007  1.2275571E-006  5.1108992E-007  6.6467552E-006  7.6299757E-007  5.7315447E-006  1.0558949E-006  1.3913794E-006  1.7873140E-006  1.7077047E-007  2.1998808E-007  7.6764779E-006  4.6233626E-006 -6.1166125E-007 -8.2330813E-007  1.4910310E-006  1.8752439E-005  9.5032466E-006  3.3762611E-006  4.7997966E-006  3.6828434E-006  2.9129710E-006  2.7558552E-006  4.0038873E-006  2.6682280E-006  2.4419032E-006  1.5125213E-006  8.3011887E-006  5.6408975E-006  5.2575577E-006  1.4367743E-005  5.2260689E-006  3.7448520E-006  6.5057280E-006  3.2740112E-006  3.9439843E-006  6.7006443E-006  1.6546309E-006  4.2157558E-006  2.2555343E-006  2.5013779E-006  1.3039321E-006  1.0421812E-006  5.1269679E-007  2.4904793E-007  3.3657858E-007  2.4567580E-007  2.5067014E-007  1.7067010E-007  1.6885011E-007  2.3772102E-007  1.1031194E-007  1.0586002E-007  1.3486329E-007  2.0721868E-007  1.2813249E-007  1.6049103E-007  2.7265101E-007  2.2500043E-007  3.4026215E-007  2.7598711E-007  1.7348997E-007  2.1052392E-007  1.2020513E-007  4.0113698E-007  3.9754202E-007  4.7960730E-007  5.4768837E-007  4.5047732E-007  6.7474456E-007  5.2921778E-008  2.0227712E-008  5.2500764E-008  1.5835267E-007  3.1487442E-007  3.4229654E-007  1.0862985E-006  1.8892277E-006  8.0149477E-007  5.3156740E-008  1.9819436E-006  4.8521744E-007  8.2464314E-007  6.5115727E-007  1.1430486E-006  3.5613055E-007  1.0741542E-006  3.4778590E-007  3.1924663E-007  1.4333860E-006  1.7594065E-006  2.9261017E-006  1.7297414E-006 -2.3734643E-006  2.2873535E-006 -3.0584832E-007 -4.3669592E-007 -3.5444864E-007 -2.4500728E-007 -2.9191809E-007 -9.3519674E-007 -1.2678737E-006 -1.7568371E-007 -1.6229541E-007 -2.0505066E-006 -2.1211388E-006 -1.0384301E-007  2.9836340E-007 -6.0156624E-007 -4.2469946E-007 -1.4241175E-007  1.2658503E-007  5.2744348E-005  4.0679437E-005  1.1129337E-004  8.0646509E-005  7.1602212E-005  1.2663349E-004  1.1226016E-004  1.1442978E-004  8.8964856E-005  9.9008940E-008 -1.9222744E-006  8.2731818E-008  3.8055778E-008  3.0513482E-008 -9.3534071E-009 -1.1592456E-007  1.6210349E-006  4.6326047E-005  7.6231650E-008  4.9596705E-007 -4.7658616E-007 -7.1433827E-007 -1.3647930E-007 -6.0132098E-008  6.6289176E-007 -2.3050059E-006 -1.3093270E-006 -5.2933281E-007 -5.4196699E-007  9.7110422E-008  1.4037968E-006  2.1931175E-006 -7.9075567E-007  1.8455370E-006  2.4636543E-007  1.4946617E-007 -4.7845827E-007  1.4478202E-005  2.1090574E-005  1.2551551E-007  2.6769522E-007  5.5177336E-008  1.1831180E-006  1.2919951E-006  1.0270628E-005 -5.3382670E-007  2.2025875E-008  3.7327529E-007 -8.1408491E-007 -1.4220794E-007  2.2157007E-006  8.7373994E-008  2.7207657E-008  1.6230435E-006 -1.4822774E-007 -3.4504691E-007  6.3050756E-005  2.9626282E-007  1.0296978E-004  7.2177016E-006 -8.5957273E-008  2.3636021E-005  2.9771257E-005 -1.8534974E-007 -1.5585056E-007 -1.2084117E-006  6.3184793E-006 -2.5899503E-006 -1.7261213E-006 -1.3620477E-007 -1.4185384E-006  9.4860488E-006  7.0465816E-008 -2.0892613E-007  9.9959002E-006  6.4762339E-007  5.7652903E-007  1.9721403E-006  5.9789917E-007  6.1620376E-007  1.6449600E-007  6.1745024E-007  4.4361310E-007  6.1381991E-007  7.2288815E-007  7.6876217E-005 -1.5455142E-007  1.5919418E-006  1.4266132E-005 -2.6557429E-007 -8.4119189E-009  3.3234646E-006 -7.6110172E-007 -9.3069855E-007 -1.0339601E-006 -1.0617230E-006 -3.5241373E-007  1.0106892E-006 -2.0847703E-006  3.7282096E-005 -6.1621308E-007  4.7542854E-007  1.4507290E-005  1.9069509E-005 -1.3963228E-007  6.1604829E-005  9.0021582E-005  8.1423958E-005  8.8645549E-005  1.0862014E-004  1.1951166E-006  7.7022180E-005 -7.1226501E-007  1.3900034E-005 -1.2342752E-007  6.3503748E-007 -1.1533096E-007 -8.7731258E-007 -3.3198765E-007 -1.7191412E-006  2.5558259E-006 -1.5279002E-006  1.7483793E-006  1.0339101E-007  6.1899522E-008  3.6658568E-007  8.1338748E-006 -4.1860949E-007  2.6251794E-005  6.3491697E-006  6.5470801E-008  4.3748293E-006  1.4484455E-006 -3.8346534E-007  1.0314466E-004 -2.6252444E-007 -2.4736096E-007 -1.9916753E-006 -3.1121781E-007  1.0991790E-007  2.7549067E-007  1.8490138E-005  8.3289453E-007 -5.1999949E-008  4.5138270E-007  3.9864374E-005 -1.7430910E-006  8.8952927E-005  1.4697839E-004  6.8607488E-005  1.4327966E-004  1.2870175E-004  1.2789920E-004  6.2047340E-005  5.8469045E-005  6.5671228E-005  6.3063025E-005  3.1909229E-005  4.7553400E-005  9.5599425E-005  2.0012383E-005  1.8762347E-005  1.0442768E-004  1.1432587E-004  8.8107896E-005  6.1672947E-005  1.1647019E-004  3.7536457E-005  3.5790301E-005  1.1603871E-004  9.2465073E-005  8.8367758E-005  1.3648362E-004  1.3699408E-004  1.4367621E-004  1.3886128E-004  1.4397647E-004  1.1974688E-004  1.3550848E-004  1.4133206E-004  1.2542537E-004  1.0899052E-004  1.1570367E-004  2.2673141E-005 -5.6007345E-007  6.8701741E-006  2.1715347E-007  2.2757811E-006  1.2085097E-004  1.0153032E-004  1.2565916E-004  1.3150634E-004  1.0570584E-004  9.4316308E-006  4.7025663E-006  1.7124909E-006  6.3972715E-005 -9.8940711E-008  4.5629445E-007 -1.2680737E-006 -1.8911213E-007  4.1960918E-007  2.2326894E-005  6.8139113E-007 -1.5981612E-007  1.4277041E-006  2.5325489E-005  2.5586757E-007  2.3302703E-007  2.3057636E-007  2.1233423E-007 -1.2950172E-007  2.4476815E-007  3.0700857E-007  2.9780327E-007  2.9974563E-007  2.3240217E-007  1.8580114E-007 -6.7661944E-008  2.6612880E-007  2.8506146E-007  2.4904987E-007  2.5563326E-007  2.4016906E-007  2.8488839E-007  6.7378617E-009  2.7521253E-007  1.9571283E-007  2.0697821E-007  2.5653620E-007  2.9799662E-007  1.2442889E-007  7.7991738E-008  2.6966923E-007 -2.4079540E-007  1.5319949E-007  1.0420036E-006  5.6856950E-008  1.8733973E-007  1.1354729E-007  1.9979926E-007  3.2918915E-007  1.9566650E-007  1.7604000E-007  1.5267090E-007  1.8087813E-007  1.5378025E-006  4.5721611E-005  2.3108829E-007 -1.2980510E-007  1.0696190E-007  8.2719223E-009  1.5308340E-007  1.6091504E-007  1.4695435E-007  5.9755523E-007 -1.3959581E-007 -7.9960185E-008  2.7291320E-006  6.2393858E-005  5.2709287E-007  3.6068900E-005 -3.9775986E-007  8.0700082E-007  8.9601009E-008  5.6850527E-008 -1.3395059E-007  9.1068457E-009 -1.5889747E-007  1.2983906E-007  2.0693693E-006 -8.8837451E-007 -2.1859783E-006  4.2681317E-008  1.8807104E-006  1.7392245E-007 -6.6336128E-007  3.6887678E-007  6.5953341E-006 -2.5303487E-007  1.2271830E-007  4.8777929E-007  6.1673926E-008  1.6920649E-005  5.0340894E-008 -1.3787435E-007 -1.4541741E-007  2.4113502E-007 -9.7355554E-008  2.5573828E-006  7.0483087E-007 -1.1708881E-006 -7.5296082E-007  1.2909888E-004  1.2721807E-004  1.2305299E-004  8.6981926E-005  1.0312656E-004  1.2209263E-004  1.1507192E-004 -1.2256404E-006 -2.6585042E-006  8.2885559E-006 -1.9099474E-006  4.0535223E-007  5.7485756E-005 -8.9327770E-007  1.3422053E-005  7.8426517E-005  7.6461312E-006  5.6541983E-007  1.2239713E-004 -1.5808734E-006 -7.4606463E-007  2.1119617E-005 -5.8555172E-007  1.9540220E-006  6.2874940E-005  5.6956875E-005 -1.9424140E-006 -6.9370176E-007 -6.3952587E-007 -7.5638484E-007  9.0458294E-007 -1.4602480E-006  3.5047218E-006 -3.6419292E-007  1.0306159E-006 -2.0189582E-007  8.0416273E-005 -2.8348828E-007  4.5185787E-006 -1.1665278E-006 -1.1875005E-006 -1.1299995E-007 -1.3467215E-006  6.0832671E-005
        </DataArray>
        <DataArray type="Float64" Name="potential im" NumberOfComponents="1" format="ascii">
 -3.8580802E-006 -5.3148570E-006 -1.6382907E-005 -2.5173489E-005 -6.4805806E-010 -2.3825434E-008 -1.6482393E-007  2.1713252E-008  3.3924487E-009 -8.3892262E-006 -9.1489375E-006 -6.6005717E-006 -6.7767283E-006 -7.3386801E-006 -7.8123251E-006 -9.2005649E-027 -2.0732325E-027 -2.0732293E-027 -9.0883400E-027 -4.0185687E-011 -8.5696907E-006  3.1520677E-012 -5.0870589E-009 -1.6979607E-005 -1.7302464E-005 -1.7322492E-005 -1.7088952E-005 -1.6624208E-005 -1.5974399E-005 -1.5167846E-005 -1.4201508E-005 -1.3090838E-005 -1.1869491E-005 -1.0548184E-005 -9.3449354E-006 -8.3258084E-006 -7.4463997E-006 -6.6673246E-006 -5.9633701E-006 -2.6957962E-005 -2.7686944E-005 -2.7684246E-005 -2.7146894E-005 -2.6234990E-005 -2.5044557E-005 -2.3731569E-005 -2.2364329E-005 -2.0919545E-005 -1.9454234E-005 -1.7935167E-005 -3.3570729E-008 -4.3087362E-008 -5.3779627E-008 -6.3964021E-008 -7.4520022E-008 -8.4046353E-008 -9.3514532E-008 -1.0164349E-007 -1.0964024E-007 -1.1639802E-007 -1.2243399E-007 -1.2848178E-007 -1.3447277E-007 -1.4065751E-007 -1.4777318E-007 -1.5588710E-007  5.8909258E-009 -1.1597695E-008 -3.0492789E-008 -5.1681658E-008 -7.5441554E-008 -1.0109786E-007 -1.3117301E-007 -1.6407846E-007 -1.9856890E-007 -2.3054418E-007 -2.6163813E-007 -2.8823911E-007 -3.0974583E-007 -3.3544283E-007 -3.5407928E-007 -3.6944421E-007 -3.8501310E-007 -3.9467430E-007 -4.0543391E-007 -4.1420394E-007 -4.2073277E-007 -4.2632975E-007 -4.2745640E-007 -4.3193794E-007 -4.3397448E-007 -4.3358633E-007 -4.3203068E-007 -4.3051532E-007 -4.2668849E-007 -4.2217593E-007 -4.1921524E-007 -4.1554418E-007 -4.0903979E-007 -4.0530292E-007 -4.0037218E-007 -3.9481149E-007 -3.8712684E-007 -3.8227871E-007 -3.7690352E-007 -3.7092765E-007 -3.6275855E-007 -3.5735448E-007 -3.5210194E-007 -3.4616446E-007 -3.3870209E-007 -3.3338552E-007 -3.2789148E-007 -3.2224576E-007 -3.1533588E-007 -3.0970488E-007 -3.0385249E-007 -2.9799481E-007 -2.9119309E-007 -2.8536358E-007 -2.7962215E-007 -2.7363476E-007 -2.6799557E-007 -2.6168079E-007 -2.5648126E-007 -2.5179384E-007 -2.4713597E-007 -2.4140282E-007 -2.3645029E-007 -2.3171428E-007 -2.2672454E-007 -2.2175918E-007 -2.1652537E-007 -2.1177777E-007 -2.0719267E-007 -2.0271259E-007 -1.9881359E-007 -1.9466716E-007 -1.9099025E-007 -1.8767400E-007 -1.8410092E-007 -1.8058795E-007 -1.7671496E-007 -1.7341868E-007 -1.7045423E-007 -1.6784931E-007 -1.6567951E-007 -1.6459241E-007 -1.6463310E-007 -1.3915584E-006 -2.7521562E-006 -4.1289853E-006 -5.4988731E-006 -6.8544046E-006 -8.2070493E-006 -9.5479080E-006 -1.0847783E-005 -1.2138716E-005 -1.3346637E-005 -1.4541132E-005 -1.5646750E-005 -1.6656669E-005 -1.7572355E-005 -1.8359155E-005 -1.8991262E-005 -1.9488676E-005 -1.9796367E-005 -1.9915261E-005 -1.9832034E-005 -1.9534773E-005 -1.9052916E-005 -1.8388572E-005 -1.7584438E-005 -1.6679026E-005 -1.5748367E-005 -1.4809661E-005 -1.3897856E-005 -1.3030648E-005 -1.2208125E-005 -1.1442207E-005 -1.0734316E-005 -1.0079559E-005 -9.4753709E-006 -8.9083107E-006 -8.6152709E-006 -8.8199283E-006 -9.0004772E-006 -7.3087287E-006 -7.9869402E-006 -8.6123227E-006 -9.1791514E-006 -9.6974527E-006 -1.0156113E-005 -1.0546538E-005 -1.0871880E-005 -1.1118476E-005 -1.1290351E-005 -1.1385336E-005 -1.1409956E-005 -1.1356945E-005 -1.1238441E-005 -1.1068823E-005 -1.0840325E-005 -1.0565992E-005 -1.0258639E-005 -9.9238097E-006 -9.5777534E-006 -9.2156890E-006 -8.8480718E-006 -8.4873214E-006 -8.1267558E-006 -7.7703446E-006 -7.4240222E-006 -7.0955894E-006 -7.0575141E-006 -7.7198040E-006 -8.1216500E-006 -8.5480529E-006 -8.9868176E-006 -9.4508466E-006 -9.9191559E-006 -1.0398504E-005 -1.0890061E-005 -1.1370406E-005 -1.1836276E-005 -1.2283268E-005 -1.2681386E-005 -1.3016520E-005 -1.3299501E-005 -1.3501572E-005 -1.3607867E-005 -1.3610235E-005 -1.3519437E-005 -1.3330624E-005 -1.3035291E-005 -1.2645480E-005 -1.2167872E-005 -1.1606613E-005 -1.0960947E-005 -1.0262790E-005 -9.4993639E-006 -8.6827945E-006 -7.1888799E-006 -9.7876060E-006 -1.0492105E-005 -1.1269197E-005 -1.2135247E-005 -1.3104903E-005 -1.4189314E-005 -1.5413058E-005 -1.6820277E-005 -1.8436544E-005 -2.0311745E-005 -2.2504942E-005 -4.0697890E-006 -4.2692239E-006 -4.4563100E-006 -4.6394242E-006 -4.8166735E-006 -4.9887732E-006 -5.1570235E-006 -3.2802933E-006 -2.7611184E-006 -2.3021767E-006 -1.9010010E-006 -1.5547567E-006 -1.2582221E-006 -1.0106093E-006 -8.0496590E-007 -6.3560927E-007 -4.9825787E-007 -3.9048034E-007 -3.0387213E-007 -2.3925285E-007 -1.8954946E-007 -1.5351395E-007 -1.2739823E-007 -1.0998311E-007 -9.7758381E-008 -9.0002345E-008 -8.6220701E-008 -8.3823753E-008 -8.2981285E-008 -8.2621800E-008 -8.2393138E-008 -8.1756570E-008 -8.0522205E-008 -7.8754859E-008 -7.6252278E-008 -7.2475873E-008 -6.7854519E-008 -6.2541426E-008 -5.6243261E-008 -4.8909824E-008 -4.1149188E-008 -3.2436554E-008 -2.2943716E-008 -1.3014879E-008 -2.0256796E-009  9.6903587E-009 -1.0490903E-008 -1.5917926E-008 -3.7805939E-008 -1.4006050E-008 -5.3880616E-008  2.2170412E-009  9.0946262E-009  1.8996519E-008  2.7472974E-008 -5.0882937E-027 -3.8395086E-027 -3.1455747E-027 -2.7231446E-027 -2.4707534E-027 -2.1978334E-027 -2.1114156E-027 -1.9460075E-027 -1.8457788E-027 -1.7522539E-027 -1.6725226E-027 -1.5955560E-027 -1.5356804E-027 -1.4556445E-027 -1.3973289E-027 -1.4118406E-027 -1.4093314E-027 -1.3976208E-027 -1.4008749E-027 -1.4145660E-027 -1.3752876E-027 -1.3774163E-027 -1.4270415E-027 -1.4323762E-027 -1.4328333E-027 -1.4332522E-027 -1.4337672E-027 -1.4340015E-027 -1.4348130E-027 -1.4346862E-027 -1.4347032E-027 -1.4342665E-027 -1.4346776E-027 -1.4344909E-027 -1.4344184E-027 -1.4345429E-027 -1.4344105E-027 -1.4019243E-027 -1.4423279E-027 -1.5267922E-027 -1.5754891E-027 -1.6647387E-027 -1.7480046E-027 -1.8452121E-027 -1.9607327E-027 -2.0962277E-027 -2.2023507E-027 -2.4351116E-027 -2.7496505E-027 -3.1837049E-027 -3.8727570E-027 -5.1011537E-027  2.4066251E-010 -2.4397458E-011 -7.2440896E-011 -1.7386857E-010  7.3876498E-011 -8.7964109E-010  1.3012762E-010  1.0228621E-009  3.3049326E-010 -4.5299816E-010 -2.0371542E-009  7.1280277E-010 -1.3073955E-009 -3.1855289E-010 -3.0476980E-010 -2.7444293E-010 -1.5275217E-010 -8.0973611E-008 -1.6212627E-007 -2.4333337E-007 -3.2447695E-007 -4.0597908E-007 -4.8717881E-007 -5.6877667E-007 -6.5001313E-007 -7.3098555E-007 -8.1181693E-007 -8.9298964E-007 -9.7426679E-007 -1.0547049E-006 -1.1355565E-006 -1.2153338E-006 -1.2948593E-006 -1.3751394E-006 -1.4538892E-006 -1.5330718E-006 -1.6111420E-006 -1.6894126E-006 -1.7668859E-006 -1.8437406E-006 -1.9215930E-006 -1.9986633E-006 -2.0768360E-006 -2.1542257E-006 -2.2341973E-006 -2.3151830E-006 -2.3996848E-006 -2.4878713E-006 -2.5816915E-006 -2.6825000E-006 -2.7927459E-006 -2.9134366E-006 -3.0485294E-006 -3.2014866E-006 -3.3744929E-006 -3.5718344E-006 -3.7994902E-006 -4.0608889E-006 -4.3593597E-006 -4.7015269E-006 -5.0906688E-006 -5.5340207E-006 -6.0317495E-006 -6.5864618E-006 -7.1988342E-006 -7.8648418E-006 -7.8714692E-006 -7.2013039E-006 -6.5738610E-006 -5.9984665E-006 -5.4796296E-006 -5.0143764E-006 -4.6061443E-006 -4.2529632E-006 -3.9542157E-006 -3.7075200E-006 -3.5105748E-006 -3.3629301E-006 -3.2622328E-006 -3.2084414E-006 -3.2009784E-006 -3.2393199E-006 -3.3244465E-006 -3.4572412E-006 -3.6363041E-006  3.1380939E-008  3.6869923E-008  3.8337032E-008  3.6917224E-008  3.3158928E-008  2.7885084E-008  2.1596361E-008  1.4681049E-008  7.4157790E-009 -1.4568503E-011 -3.3424272E-012  3.8966817E-012  1.2746943E-011  8.5081246E-011  1.7789809E-010  4.3808196E-010  1.0774748E-010  1.8077716E-010 -7.3056616E-011  2.4813827E-010  3.3712586E-010 -7.5548172E-010 -6.9865112E-010  7.6120693E-010 -9.3005895E-012 -3.9823947E-010 -1.2293621E-010  1.3378960E-011  1.0887228E-009  4.1188874E-009  1.4915282E-009  4.1683656E-009  5.4255807E-009  2.3051185E-009 -5.5518338E-009 -1.7508586E-006 -3.5018661E-006 -5.2647481E-006 -7.0490097E-006 -8.8496254E-006 -1.0677338E-005 -1.2558917E-005 -1.4449265E-005 -1.6361725E-005 -1.8273575E-005 -2.0159531E-005 -2.1994956E-005 -2.3748768E-005 -2.5380076E-005 -2.6867800E-005 -2.8153138E-005 -2.9214919E-005 -3.0006109E-005 -3.0469708E-005 -3.0550801E-005 -3.0179405E-005 -2.9233018E-005 -2.7598240E-005 -1.7504957E-009 -6.1444013E-010 -9.6489793E-010 -1.1232018E-009 -1.0372579E-009 -4.0868715E-010 -7.2906044E-011  3.0331314E-010  6.1347965E-010  1.0688734E-009  1.2383683E-009  1.1485776E-009  1.2934491E-009  1.4682884E-009  1.4824595E-009  1.4853450E-009  1.3652912E-009  1.2285499E-009  1.2621570E-009  1.3503515E-009  1.3854109E-009  1.4134595E-009  1.4167320E-009  1.3416339E-009  1.3440162E-009  1.3621243E-009  1.4006067E-009  1.5314210E-009  1.6756771E-009  1.7161773E-009  1.6353542E-009  1.5485950E-009  1.5560599E-009  1.5820885E-009  1.6119339E-009  1.6430075E-009  1.6951992E-009  1.8572119E-009  1.9277362E-009  1.9693007E-009  1.9703299E-009  1.8625573E-009  1.8708612E-009  1.9019404E-009  1.9609223E-009  2.1476709E-009  2.2305930E-009  2.2740491E-009  2.2985681E-009  2.3312959E-009  2.3876098E-009  2.4224806E-009  2.4188066E-009  2.2744845E-009  2.3033007E-009  2.5082745E-009  2.5963697E-009  2.6232869E-009  2.6194508E-009  2.4548806E-009  2.4805956E-009  2.6940076E-009  2.7843710E-009  2.7955488E-009  2.7839419E-009  2.5951296E-009  2.6106514E-009  2.8236918E-009  2.9071570E-009  2.8939761E-009  2.8562884E-009  2.6411881E-009  2.6343631E-009  2.8230610E-009  2.8740295E-009  2.8072140E-009  2.7274708E-009  2.4768379E-009  2.4221697E-009  2.5466559E-009  2.5318575E-009  2.4066967E-009  2.2678266E-009  2.0071343E-009  1.8886891E-009  1.9110294E-009  1.7825409E-009  1.5920442E-009  1.3576388E-009  1.0836744E-009  7.7198923E-010  4.7785830E-010  2.4599711E-010  7.7906278E-011  5.9264352E-011  1.4004681E-011  6.0761940E-012  1.7409074E-012  7.2494215E-012 -2.8574533E-009  5.1646166E-010  8.0558007E-009 -2.0953217E-006 -1.2568612E-006 -1.6388600E-006  2.4909221E-008 -9.5744612E-007 -2.9880869E-006  3.2647980E-008  4.5959180E-008 -6.3140564E-009  5.7507554E-010 -2.8499558E-006  6.5489238E-008 -2.3723566E-006 -2.6812772E-007 -6.5116236E-007 -4.1503478E-006  6.2262958E-009 -4.0152935E-006 -2.4772927E-006  1.2043016E-008 -4.5647807E-007 -7.2602160E-007 -8.5274979E-009 -1.8423676E-006  4.2132908E-008 -1.4200324E-006  3.1547000E-008 -1.9774869E-008 -5.5151802E-006  9.5317925E-009 -1.7532533E-006 -5.5258298E-006 -2.4252237E-007  6.1428597E-008  4.2876193E-009 -3.3293011E-006  6.4313970E-008 -2.5588349E-006 -2.6016137E-006 -7.8401749E-008 -3.4994232E-006 -7.9098735E-007 -1.0372308E-006  1.5800843E-008 -2.7082829E-006 -2.2393994E-006 -1.7564960E-006  1.8646623E-008 -5.4595241E-008  7.5163018E-009 -6.8482272E-006 -2.7413456E-006 -1.0563704E-007  1.1893235E-008  2.1660386E-008 -2.0184927E-009  1.4757186E-008  3.7494730E-008  3.9616341E-008 -8.1525418E-009  1.9181621E-008  5.9268185E-008  4.6832836E-008  8.0113092E-008  7.5840780E-008  1.5135625E-008  5.4408290E-008  1.0404822E-007  1.0760932E-007  8.0650204E-010  6.6318843E-008  1.4585317E-007  1.2954677E-007  1.9462421E-007  1.9897229E-007  8.3304754E-008  1.7800007E-007  2.6872295E-007  2.7453815E-007  3.3885585E-007  3.7925192E-007  2.4993251E-007  3.6898776E-007  4.8303756E-007  5.3544835E-007  3.5429425E-007  5.4358180E-007  6.8358748E-007  7.1534615E-007  8.0218999E-007  8.5194183E-007  6.5714798E-007  7.9555045E-007  9.2808034E-007  8.4690985E-007  5.7388125E-007  5.7573612E-007  7.6380494E-007 -1.5761719E-008 -1.1038601E-007  2.4925279E-007  1.2190134E-007  6.9458413E-008 -5.5224380E-008  4.9292135E-008  1.5099482E-007 -7.4264152E-008  1.6916062E-007  7.4826278E-008  8.7607114E-008 -4.4386888E-007  7.0154382E-007  7.6290672E-007  1.8910501E-007 -6.2050412E-007 -2.2715849E-007 -2.6308058E-007 -3.5946115E-007 -1.2041968E-006 -1.5001173E-007 -1.4338138E-007  7.4140212E-008 -4.0088089E-007  1.5511051E-007 -1.6915425E-007  8.0394643E-008 -1.4491805E-006 -2.0713429E-006 -1.1337885E-006  6.3398241E-007  1.5795638E-007 -9.4161526E-008 -1.6251547E-007  6.4326021E-007 -5.4052966E-007 -4.5427794E-007  2.8842915E-007  3.3081533E-007  2.6291951E-007  2.8040462E-007  5.9175701E-007 -2.4184524E-006 -6.3662190E-007 -4.6051565E-007  1.4424861E-007  1.2210855E-007  1.1862422E-007  9.4121246E-008 -2.4828206E-007 -2.3387361E-007  6.6149786E-008 -1.5923512E-007 -5.5127502E-007 -1.9341868E-006 -3.4957204E-007  5.0202947E-007  4.7989400E-007  3.5439777E-007  2.8534872E-007 -6.0848910E-007 -4.2243979E-007  6.2667388E-008  5.6492504E-008  8.0178445E-008  7.6138632E-007 -3.0624464E-006  6.1010607E-007  7.2419604E-007 -7.2901976E-007 -7.5977059E-007 -2.8488592E-006 -9.1755217E-007 -8.3479974E-007 -2.7347060E-007 -6.1484561E-007  2.0694657E-007  1.9994020E-007  5.3637965E-007  6.4088790E-007 -1.0120152E-007 -1.5475802E-007 -7.2879577E-007 -5.5700069E-007 -3.2547876E-007 -4.1482494E-007 -6.4238344E-007 -4.9567753E-007 -6.4826481E-007  5.3432183E-008  4.7637198E-008  5.5684867E-008  4.5309746E-008  3.9651951E-008  4.0040386E-008  3.1858216E-008  9.1614119E-008  9.3170636E-008 -3.6966567E-007  1.1055981E-007  3.0934607E-008 -1.1050159E-007 -4.5809623E-007 -1.0221054E-006 -9.0214833E-007 -3.5035904E-007 -3.4300803E-007 -2.2034591E-007 -3.2887541E-007 -3.5757939E-007 -1.9566310E-007 -3.0198329E-007 -4.6331349E-007  6.7433950E-008 -1.6110470E-007  3.7681118E-007  3.7055167E-007  4.3771841E-007 -2.2955340E-007 -1.0963170E-006  8.5419822E-008 -9.6706800E-007 -3.0074065E-007  4.8189766E-007  5.9879333E-008 -3.4454558E-006 -4.0960967E-006 -4.2945629E-007  2.0356409E-007  8.0983278E-007  7.1799231E-007  4.9719862E-007  5.5152538E-007  7.6695570E-007  5.4051722E-007  3.1042878E-007  2.4704706E-007  4.2894206E-007  7.5195994E-008  2.1631906E-007 -2.8996483E-007 -1.7153393E-007 -3.9961820E-007 -7.9535176E-007 -9.3336497E-007 -6.4018922E-007  1.2013967E-009  2.5433349E-007 -2.0472576E-007 -7.0202202E-007 -8.1526479E-007  1.1969347E-008 -7.2332768E-007  3.6729954E-007 -4.7135177E-007 -1.3639398E-006 -1.2851534E-006  3.8944123E-008  5.5511745E-008 -1.1378607E-006 -9.4679899E-008 -5.8487711E-008 -1.3690890E-007 -9.2670865E-007  1.4227872E-007  1.4410990E-007 -9.2494002E-007 -1.5071976E-006 -1.4132200E-006 -8.2481048E-007 -1.3714988E-006 -8.1248789E-007 -1.4083605E-006  1.7984236E-007 -1.5109841E-006 -1.0144716E-006 -1.0914516E-006 -6.0765763E-007  1.0366458E-007 -1.2492741E-007  7.5360148E-008 -1.3412113E-006 -6.3923839E-007  2.3163559E-008  2.3583373E-008  2.6685256E-007  2.6581993E-007  1.4138642E-007 -1.9983826E-006 -2.1712767E-006  2.7527651E-008 -1.4258912E-006 -1.2546529E-006 -1.5128553E-006 -1.0318483E-006 -1.7831774E-006 -1.3725085E-006  5.4430450E-008 -1.0020476E-006 -8.8680419E-007  1.2184848E-008 -4.2557859E-008 -6.4217119E-008 -8.0805740E-008  7.6611245E-008  9.4846746E-008 -4.8681485E-007 -2.0160475E-006 -5.8909868E-007 -5.0047578E-007  2.4387317E-007 -1.6513885E-006 -1.1897817E-006 -1.7756979E-006 -7.8975673E-007 -1.5568938E-007  1.1953627E-007  7.3376337E-008  1.1013299E-007  5.0590934E-008 -8.2647049E-007  5.9766722E-007 -4.9178847E-007 -4.5577234E-007 -3.4146830E-007  1.4610469E-007  4.2321010E-007  3.0215369E-007 -2.0559237E-007 -2.9210548E-007  4.8136216E-008  4.7446031E-008  5.5392249E-008  6.7593700E-008 -1.3728053E-008 -1.4035754E-006  4.2108980E-008  2.2475164E-007  3.0385815E-007  2.2554077E-007  3.8426357E-007 -8.5670093E-007 -1.2712913E-006  4.7773128E-008  3.5926205E-008 -2.9139660E-006 -3.8987757E-006 -2.5924999E-006 -3.0703973E-007  2.0997663E-007  1.9525000E-007  6.4042748E-008  1.0082222E-007  4.8639151E-007  3.4440413E-007  1.4527040E-007 -9.6653012E-007 -8.8220228E-007 -1.9437853E-006 -2.7823159E-006 -3.6413075E-006 -2.0122905E-006 -2.9254112E-006 -6.8833529E-007  8.8356680E-007  3.8155593E-008  3.2497774E-008  3.6199912E-008  3.6103633E-007 -6.7522197E-007 -3.7847617E-006 -5.1873519E-007 -9.1052017E-007 -1.2204790E-006 -2.1441294E-006  4.0994955E-007 -2.1365632E-006 -4.9566056E-006 -5.2363428E-006  2.6032076E-008 -2.4492152E-007 -1.9852590E-006 -2.8849481E-008 -5.2878852E-007  2.3788204E-007  9.5740531E-008  5.0050808E-008  3.6064039E-008 -2.1114350E-006 -1.7392998E-006 -3.9797042E-007 -2.0796660E-007  4.0392945E-008  4.3386091E-007 -1.2438811E-006 -1.4428312E-006 -9.5553112E-007 -1.1188377E-007  2.8918158E-007  3.6071079E-007  5.7312939E-009 -2.2235249E-006 -2.7218639E-006 -1.1485244E-006 -1.8858135E-006 -1.3275272E-006 -4.8594334E-009 -1.4912037E-008  1.3933356E-008  6.6183565E-009  1.4800314E-008  9.0997822E-007  7.5981155E-007 -6.2540139E-007 -2.0145378E-007 -8.3270237E-008  8.2897238E-009  1.1365505E-007  1.0547107E-007  1.6067044E-007 -4.5292563E-006 -4.5051780E-006 -4.5772224E-006 -6.1550473E-006  4.8514014E-007 -1.3848874E-006 -1.5525427E-006 -1.4857271E-006 -1.1370617E-006 -1.2036061E-006  4.2352493E-007 -4.4304386E-006  6.6627758E-008  4.7518398E-008  6.6629628E-008 -1.7426565E-007 -3.1475267E-007 -6.0645173E-006 -2.1305107E-009 -4.5748864E-009  5.3856033E-009  5.6621801E-008 -2.5037507E-006 -2.5045816E-006 -1.8346930E-006 -3.0463042E-006 -5.7989377E-009 -9.6236354E-008 -3.7424151E-006 -3.6634203E-006 -3.6690208E-007 -3.2544047E-006 -7.2373779E-007 -2.7784405E-006 -8.3708085E-007 -9.9421933E-007 -2.2191071E-006 -2.1822144E-006 -1.3088700E-006 -2.0157749E-006 -1.6046902E-006 -1.9547995E-006 -3.4771124E-008  1.8944665E-007 -4.3436576E-008  8.5951076E-007 -1.7640355E-007 -2.0850851E-006  6.5409563E-008  1.1699393E-007  5.9783546E-008  1.6222662E-007 -3.3630625E-008 -3.6812791E-007  3.7063912E-008  1.3052090E-007 -4.9595443E-006  5.2740608E-007  1.3090671E-007 -2.3053643E-006 -2.7166350E-006 -1.4722657E-006 -5.8615010E-007  1.6901178E-007  5.7520579E-008 -2.8029561E-008 -2.2187428E-007 -7.9605850E-009  8.4326319E-007 -3.4597504E-006 -6.8851384E-006 -5.1688377E-008  2.4182144E-008  3.5510039E-008 -3.8646820E-007 -5.2331910E-007 -1.7873247E-006  2.0545860E-008  2.7233695E-007  2.1521246E-007 -1.3882491E-006 -3.8480506E-007  4.8211062E-008  4.0075587E-008 -3.2853240E-007  4.7389946E-008 -1.3545280E-006  1.1456919E-008 -1.3788030E-007  1.7723888E-007 -2.3368817E-008  4.9912941E-009 -7.8161353E-007  1.5383160E-008  5.3262959E-007  3.0159644E-007 -8.1401090E-008 -1.8261542E-006 -2.6133655E-007  2.9144983E-008  9.0856017E-007 -5.8790338E-007 -1.0578274E-007  5.2578510E-008  2.2976435E-007 -3.5670168E-006 -2.2769793E-007  5.5199602E-007 -1.9098518E-006  7.9552654E-008 -1.3201236E-006  5.0069010E-008 -9.5986394E-009 -1.0452866E-006  2.1131339E-007  2.2924136E-008 -1.1598772E-006 -6.2987340E-007 -1.6080357E-006 -2.9668290E-006 -3.1575306E-007 -4.8150702E-008 -1.3434423E-007 -7.6484620E-007 -8.1595946E-007 -5.2041770E-006  2.0701861E-008 -2.2159231E-007 -1.4424574E-007  8.9199037E-008  5.7426257E-008  1.0567517E-007  3.5056838E-008 -3.2803124E-006  2.0084651E-007  1.5765278E-008  1.2752361E-008 -1.7555392E-006 -2.9867475E-006 -2.5179317E-006 -2.2250280E-006 -1.1180250E-006 -1.2430270E-006 -2.7614484E-006  5.8133558E-008 -6.8477223E-007  3.4579193E-007 -6.0103992E-006 -2.5988062E-006 -2.8203257E-006  1.5632619E-007  7.4857552E-008  1.2594244E-007 -1.4537636E-006  3.9468846E-008 -3.0648851E-007 -1.6379247E-006 -6.0215168E-008 -2.4442007E-008 -1.5829928E-006  1.7757551E-007  3.3363356E-008 -1.8247434E-006 -1.5392346E-006 -1.9166100E-006 -1.0549674E-006 -2.4038758E-007  4.5773856E-008  4.9885102E-008 -9.3126931E-007 -1.1135636E-007  9.2072218E-008  4.1461686E-007 -3.2282873E-006 -7.5066782E-006 -2.7022103E-006 -1.2182868E-006  5.5576683E-009  2.5248434E-008 -1.7979639E-006 -1.2540592E-007  3.1563929E-008 -4.0856269E-007 -5.1435844E-008  1.5390355E-008  2.1087668E-007 -5.8412176E-007 -5.3350094E-006 -1.1308123E-006 -8.2534647E-007 -9.0644477E-008  6.4058397E-007 -1.1629720E-006 -2.0660282E-006 -2.9069789E-007  1.2300382E-007  4.5618126E-008  3.3090750E-007  6.3546555E-008 -8.1990106E-007 -7.9896837E-007 -1.8124427E-006 -2.7087908E-007 -3.6947861E-007 -1.4646271E-007 -5.8543782E-007 -1.3752773E-006 -8.1777533E-006 -5.1950519E-006 -4.1360695E-006 -1.3474222E-006 -1.8174993E-006 -2.2887532E-006 -2.7500910E-006 -3.3947641E-006 -4.3290890E-006 -6.0080114E-006 -3.9744382E-006 -4.4354721E-006 -8.1578584E-006 -9.8410393E-007 -1.4683227E-005 -2.8935466E-005 -6.7153836E-007 -5.9907375E-007 -4.9028644E-006 -2.7761184E-005 -6.6993614E-006 -1.0196391E-005 -2.6703214E-007 -1.7806511E-005 -2.3920438E-005 -3.2287616E-005 -1.5775042E-005 -6.2740321E-006 -3.3277682E-007 -7.9832981E-006 -2.2908687E-005 -5.3174907E-006 -1.5819169E-007 -3.0122907E-005 -9.8805482E-006 -1.9934516E-005 -3.2753463E-005 -4.1352507E-006 -5.2537351E-006 -6.9637606E-006 -3.9797902E-006 -4.6202210E-006 -7.8940208E-007 -3.8760831E-006 -1.1731906E-006 -1.5373388E-006 -3.1014411E-006 -2.0435322E-006 -2.5479464E-006 -1.8739460E-005 -1.0388772E-007 -2.6505571E-006 -1.9634478E-005 -3.0981701E-005 -6.2201819E-006 -1.3839826E-007 -7.0357294E-006 -7.6004000E-006 -8.4766175E-006 -8.0597342E-006 -7.2323161E-006 -7.6635819E-006 -8.5218134E-006 -8.0325434E-006 -9.0726567E-006 -8.5663566E-006 -9.7485046E-006 -9.3991469E-006 -1.0610916E-005 -1.0184349E-005 -1.1623700E-005 -1.1392761E-005 -1.2886537E-005 -1.2769284E-005 -1.4370714E-005 -1.4374052E-005 -1.6056809E-005 -1.6394072E-005 -1.8161855E-005 -1.8414164E-005 -2.0508003E-005 -2.0009134E-005 -2.2603143E-005 -2.1984811E-005 -2.4552942E-005 -2.3779073E-005 -2.6310164E-005 -2.5300249E-005 -2.7739281E-005 -1.6372369E-005 -1.8444206E-005 -1.6598991E-005 -1.8513549E-005 -1.7147177E-005 -1.8657014E-005 -1.7283953E-005 -1.9944828E-005 -1.8854360E-005 -1.7285416E-005 -1.1845953E-005 -2.6568876E-005 -1.5031562E-005 -1.5781740E-005 -1.5720446E-005 -1.0949173E-005 -1.7262922E-005 -1.5880945E-005 -1.4508972E-005 -1.4592293E-005 -1.3377137E-005 -1.3192576E-005 -1.4619275E-005 -1.3341241E-005 -1.2010040E-005 -1.2097439E-005 -1.0913914E-005 -1.0749520E-005 -1.2093985E-005 -1.0903661E-005 -1.4677468E-005 -9.6471859E-006 -9.7569236E-006 -1.0941880E-005 -9.5347826E-006 -1.0837755E-005 -9.5479328E-006 -8.3904950E-006 -8.3516150E-006 -7.3503792E-006 -7.2981804E-006 -2.8838585E-005 -1.3224850E-005 -8.5592266E-006 -8.6775652E-006 -8.2609004E-006 -7.1797614E-006 -1.0879861E-005 -6.2545640E-006 -6.1721661E-006 -6.9875560E-006 -5.9700793E-006 -6.6946206E-006 -5.6895761E-006 -5.0939626E-006 -4.7963613E-006 -5.3198706E-006 -4.4641433E-006 -3.9959595E-006 -3.7183248E-006 -4.0805192E-006 -3.3155191E-006 -3.6395738E-006 -2.9427291E-006 -5.4355417E-006 -2.6848189E-006 -2.3736719E-006 -2.7152568E-005 -2.2811803E-005 -2.7499810E-005 -5.3742831E-006 -3.2804605E-006 -3.5133673E-006 -3.1004706E-006 -7.7655800E-006 -3.0008521E-005 -4.3787964E-006 -2.5309513E-005 -3.0876482E-005 -1.7339541E-005 -1.2217825E-005 -2.1327879E-006 -1.9107950E-006 -7.8697876E-006 -7.3554958E-006 -2.0310873E-006 -1.6229381E-006 -1.2178482E-005 -8.4514806E-006 -1.9589104E-005 -7.5309720E-006 -1.2047079E-005 -1.8795291E-005 -2.9765718E-006 -4.7390156E-006 -1.5415739E-006 -1.2595025E-006 -1.3122593E-006 -6.8438819E-006 -3.0637578E-006 -1.0224337E-006 -7.3360645E-006 -4.5745647E-006 -2.6059518E-005 -1.4518908E-005 -2.4000174E-005 -1.0083779E-005 -3.1931326E-005 -3.2511470E-005 -2.3722717E-006 -1.9876830E-006 -2.1349371E-006 -1.1103744E-005 -9.7617116E-007 -7.8110623E-007 -6.4740885E-006 -6.7073797E-006 -2.3370779E-005 -8.2017791E-006 -1.0947791E-005 -1.1875847E-005 -1.8776494E-005 -2.0492521E-005 -5.2219611E-006 -4.5486812E-006 -5.1247589E-006 -3.1266844E-005 -2.6160599E-006 -4.0943180E-006 -4.1779289E-006 -3.5469454E-006 -3.1273802E-006 -3.5766607E-006 -3.1492725E-006 -1.0716292E-005 -6.5137608E-006 -6.1248624E-006 -2.4559087E-005 -2.6360409E-005 -1.0875321E-005 -1.1742473E-005 -1.0807363E-005 -1.1675172E-005 -1.0742253E-005 -1.1652321E-005 -1.0743148E-005 -1.2555269E-005 -1.1690435E-005 -1.0725803E-005 -1.1762132E-005 -1.0797965E-005 -1.2737389E-005 -9.7447657E-006 -9.8738654E-006 -1.0875824E-005 -9.7599274E-006 -1.1005198E-005 -1.0031496E-005 -8.8562723E-006 -9.0956702E-006 -7.9994668E-006 -8.2225966E-006 -7.7212699E-006 -1.1196260E-005 -6.4338279E-006 -1.2698756E-005 -7.1697962E-006 -7.9355790E-006 -1.8030699E-006 -1.6696914E-006 -7.7231737E-007 -6.0255658E-007 -9.1657861E-007 -7.1649949E-006 -7.4183836E-006 -8.4665191E-006 -7.6890341E-006 -6.6714030E-006 -6.9668154E-006 -1.8987156E-006 -3.3299730E-005 -3.2580538E-005 -3.3542396E-005 -2.5498869E-006 -3.6304949E-006 -3.6710684E-006 -4.1472650E-006 -1.0034871E-006 -1.3374983E-006 -5.8353804E-006 -6.0042786E-006 -6.8308240E-006 -6.0424572E-006 -5.2915502E-006 -8.7123851E-006 -1.2253170E-005 -4.4408842E-006 -2.2639368E-006 -2.2654835E-005 -2.1916940E-005 -8.8695493E-006 -6.0510653E-007 -9.1264976E-007 -5.8282849E-007 -2.3020731E-005 -4.9827457E-006 -4.3207225E-007 -1.3027700E-006 -3.1929722E-006 -5.9755687E-006 -6.3221357E-006 -5.6701383E-006 -7.2438611E-006 -6.6378944E-006 -5.7411584E-006 -6.0719025E-006 -6.9260213E-006 -6.3912725E-006 -3.9266527E-006 -3.5614482E-006 -1.0092344E-005 -1.0188247E-005 -9.2066300E-006 -9.2485089E-006 -5.5742979E-006 -5.9067919E-006 -5.7231212E-006 -8.7447345E-006 -7.9084134E-006 -8.7030124E-006 -2.7385360E-006 -2.7651023E-006 -5.7133074E-006 -3.2104566E-006 -2.5225458E-006 -6.9635971E-006 -7.7196742E-006 -6.2325210E-006 -4.3014541E-006 -8.7101887E-006 -1.6210753E-006 -5.6051012E-006 -2.2732542E-006 -1.9452112E-006 -1.5036551E-005 -1.5014990E-005 -1.2810786E-005 -1.4686558E-005 -2.0135632E-005 -1.8133022E-005 -7.0282171E-006 -2.2398061E-006 -8.2101607E-007 -5.8711397E-006 -6.2202770E-006 -6.4301116E-006 -1.2396413E-005 -2.0722318E-005 -5.9816017E-006 -5.3133377E-006 -7.7385519E-006 -9.8979910E-006 -2.2026331E-005 -2.2308017E-005 -3.5976883E-006 -4.0518809E-006 -1.7749965E-006 -1.7857386E-006 -9.1642147E-006 -1.0544874E-005 -5.1850396E-006 -8.5027811E-006 -7.4385822E-006 -8.3369911E-006 -3.3836086E-005 -3.3760798E-005 -3.3142012E-005 -5.0618228E-006 -1.0084064E-005 -1.5731508E-005 -1.4151201E-005 -1.4423624E-005 -4.8112417E-006 -9.5629369E-006 -1.1796350E-005 -2.7266617E-006 -2.4296456E-006 -3.1548308E-006 -6.7282788E-006 -6.7671199E-006 -1.6990189E-006 -3.2776898E-005 -4.0232476E-006 -8.2484053E-006 -1.7222405E-006 -1.4162772E-006 -1.2512672E-006 -1.1735621E-006 -1.2935243E-006 -1.0803743E-006 -9.8802424E-007 -1.0154478E-005 -1.9650556E-005 -2.0844824E-005 -1.8799439E-005 -1.9611270E-005 -1.7612051E-005 -1.8344985E-005 -6.9274645E-006 -6.1617328E-006 -6.7134379E-006 -7.3894795E-006 -8.4780039E-006 -6.4232615E-006 -6.4008417E-006 -9.5905099E-006 -5.3344214E-006 -5.2538757E-006 -5.5072930E-006 -3.8498585E-006 -3.3574383E-006 -3.5136896E-006 -4.0113269E-006 -7.5021866E-007 -6.5069527E-006 -3.1503920E-006 -2.7793042E-006 -9.7983728E-006 -7.8346667E-006 -7.7146223E-006 -2.7341588E-006 -5.1910223E-006 -4.5722734E-006 -1.5260184E-006 -1.0018334E-005 -5.0358993E-006 -1.9765908E-006 -4.8685085E-006 -6.4321226E-006 -5.5559494E-006 -5.4010275E-006 -4.2361495E-006 -4.7572246E-006 -1.0004505E-005 -2.8189047E-006 -1.6285591E-005 -1.6747401E-005 -1.4607471E-005 -1.4959990E-005 -8.2062370E-006 -5.8196313E-007 -4.5053325E-007 -4.5260599E-007 -3.1138346E-007 -9.3306381E-006 -2.7834205E-006 -6.6552375E-006 -5.3318809E-006 -1.6852623E-005 -2.4390600E-005 -2.4743582E-005 -2.6474104E-005 -2.6883534E-005 -2.4589730E-005 -2.6929770E-005 -2.8774159E-005 -2.8772341E-005 -3.0448925E-005 -3.0291959E-005 -3.1866468E-005 -3.1439260E-005 -2.6451524E-005 -2.2575801E-005 -1.1651562E-005 -1.1448269E-005 -1.3125913E-005 -1.3134121E-005 -1.4795487E-005 -1.0015329E-005 -1.4978179E-005 -1.6813308E-005 -2.5074294E-007 -1.1770241E-006 -4.3861939E-006 -3.8612952E-006 -9.0256657E-006 -9.5223195E-007 -1.6094061E-005 -1.8959598E-005 -6.7539793E-006 -8.4622693E-006 -5.2515557E-006 -8.9604602E-006 -5.3153657E-006 -4.8431213E-006 -2.0655812E-005 -1.1259933E-005 -1.2584965E-006 -2.3958818E-006 -3.8199691E-006 -3.6605039E-006 -4.3954815E-007 -2.2075258E-006 -3.6821385E-007 -5.4008115E-007 -5.0833050E-006 -2.4166275E-006 -2.5050542E-006 -6.8743416E-006 -1.9881196E-007 -4.7311961E-006 -9.1614639E-006 -2.8425242E-005 -9.5109717E-006 -9.0176973E-006 -2.8707923E-005 -2.1854971E-005 -3.0921827E-005 -2.9532694E-005 -2.9717849E-005 -3.1048338E-005 -2.9217631E-005 -3.0057703E-005 -2.7082741E-005 -2.8006294E-005 -2.4204520E-005 -3.2534871E-005 -2.4665435E-005 -3.3363059E-005 -2.1262243E-005 -2.1498385E-005 -2.3068820E-005 -3.1468496E-005 -1.1569241E-005 -3.2201830E-005 -3.0639721E-005 -2.1930850E-005 -8.1975598E-006 -1.3734492E-005 -1.4288068E-005 -1.7873955E-005 -2.1278447E-005 -2.4820754E-005 -3.2790843E-005 -3.1848276E-005 -2.2833764E-005 -5.6373233E-006 -5.9104770E-006 -2.4102450E-006 -2.3858121E-006 -5.5763277E-006 -4.8321084E-006 -8.9475373E-006 -2.3402818E-007 -2.0252970E-007 -6.4760380E-006 -4.0292561E-006 -5.5682600E-006 -3.9622927E-006 -3.9800045E-006 -4.8848771E-006 -5.8906063E-006 -6.9752678E-007 -8.8012850E-007 -4.6148654E-006 -1.0817566E-006 -1.2905224E-006 -4.0792891E-006 -1.2619815E-006 -1.6314082E-006 -1.4395137E-006 -1.7020186E-006 -2.9627221E-006 -3.2821242E-006 -1.7333254E-006 -1.9066559E-006 -2.6682290E-006 -1.2364729E-005 -5.5379728E-006 -7.2849456E-006 -1.8814281E-005 -1.8317638E-005 -9.7921860E-006 -1.0224855E-005 -7.2366482E-006 -7.5474524E-006 -8.2864134E-006 -2.5762043E-005 -3.1927426E-005 -2.7924225E-005 -4.2633804E-006 -2.2716778E-005 -2.6036692E-005 -1.0899699E-005 -4.3202235E-006 -1.7798648E-005 -3.2770264E-005 -5.5440122E-006 -3.9880246E-006 -4.9087722E-006 -6.3309392E-006 -3.0466895E-006 -3.3021928E-007 -1.3917533E-006 -2.5038196E-006 -3.6592619E-006 -1.2555898E-005 -7.4529418E-007 -4.7572559E-006 -2.1616187E-006 -1.2953830E-005 -1.8814308E-005 -1.3428046E-005 -7.9852271E-006 -5.8048410E-006 -1.8604723E-005 -6.0933689E-006 -1.4124700E-006 -1.5536869E-006 -3.1906764E-006 -1.3302387E-005 -6.2445370E-007 -2.0862088E-005 -1.6475157E-005 -9.3251322E-006 -2.7417926E-005 -7.0675090E-006 -8.4410740E-008 -1.1608835E-005 -4.0073559E-006 -2.3793787E-006 -7.7015010E-006 -1.1266793E-005 -1.9554382E-006 -2.0152819E-006 -1.3648354E-005 -1.3786041E-005 -1.4220105E-005 -5.1115721E-006 -1.2442945E-005 -1.3272201E-005 -7.4396962E-006 -9.5669479E-006 -1.5188941E-005 -7.4979694E-006 -2.8470529E-006 -7.7430223E-007 -8.9967349E-006 -1.7011147E-006 -1.1830359E-005 -3.1221992E-006 -6.4966207E-006 -7.3233978E-006 -1.3301575E-005 -4.6433819E-006 -1.2640497E-005 -3.0097393E-005 -8.7034569E-006 -2.1415768E-005 -1.5956911E-005 -4.0941674E-006 -1.1863856E-007 -6.2868796E-006 -3.1098103E-006 -2.0515993E-005 -8.2794233E-006 -4.5423259E-006 -6.5085172E-006 -2.9684387E-005 -4.3148306E-007 -1.4766203E-006 -2.4328658E-006 -4.4724314E-006 -4.9042641E-006 -5.2126719E-006 -1.2157254E-005 -5.5366446E-006 -1.1924467E-005 -7.9077367E-006 -1.8839757E-005 -4.5742772E-006 -3.6739596E-006 -5.0092231E-007 -2.0458781E-005 -4.5385848E-006 -9.3418897E-006 -1.3445473E-005 -2.5279747E-005 -2.0568964E-005 -6.0361274E-006 -3.0294877E-005 -1.6952430E-005 -3.0067323E-005 -3.6406809E-006 -9.5602726E-006 -6.3397517E-006 -7.4691554E-006 -1.0801070E-006 -1.0782286E-005 -6.7758463E-006 -2.1310555E-006 -4.5507036E-006 -8.1258892E-006 -4.7769846E-006 -2.4891638E-005 -1.3319927E-005 -1.2772576E-005 -5.6428594E-006 -7.7231711E-006 -2.0935012E-005 -2.8498330E-005 -9.5874622E-006 -1.3574803E-005 -1.3646170E-005 -1.1921415E-005 -9.1794340E-006 -1.0492877E-006 -8.8053521E-007 -5.3579793E-006 -1.5554685E-006 -3.5276081E-006 -4.4720294E-006 -5.1671501E-006 -1.5451363E-005 -2.1845811E-006 -2.0381747E-006 -4.9757777E-007 -8.3643890E-007 -1.5954530E-005 -2.5828098E-005 -1.3853930E-005 -2.4371677E-005 -2.4700276E-006 -2.0026840E-005 -3.1540152E-005 -5.6335917E-006 -1.3381926E-005 -9.3420250E-006 -9.3341190E-007 -1.4438176E-005 -9.6743380E-006 -8.9948425E-006 -6.8548250E-006 -4.5804369E-006 -2.4776035E-006 -5.3932830E-006 -2.7490556E-006 -2.8088195E-005 -2.0174282E-005 -2.8808100E-005 -1.0320929E-006 -1.3690964E-005 -4.6196100E-006 -4.7145659E-006 -2.0248870E-007 -1.7908050E-005 -1.9912567E-005 -8.2016319E-006 -3.4263775E-006 -3.9823960E-006 -4.4555266E-006 -1.8041555E-005 -3.9812357E-006 -3.9432413E-006 -1.1448074E-006 -1.2860837E-005 -5.0208092E-006 -1.9325920E-005 -1.6167984E-005 -6.4605735E-008 -2.7905751E-006 -1.7586450E-006 -1.2285037E-005 -8.9669198E-006 -2.1971416E-005 -2.1127733E-005 -3.1236230E-006 -1.0655532E-005 -7.1243616E-006 -5.2737238E-006 -3.3374326E-005 -5.7507103E-006 -2.3991643E-006 -1.3362282E-005 -2.0231639E-005 -6.0426057E-006 -3.3863429E-006 -1.5371403E-006 -3.2599673E-005 -6.3147545E-006 -9.0882493E-006 -3.9635916E-007 -2.2989401E-005 -2.0870389E-006 -1.3142449E-005 -1.6753863E-005 -2.9769367E-006 -7.7237192E-006 -1.2391640E-005 -1.5891504E-005 -1.0347096E-005 -1.4910182E-005 -1.0984260E-005 -1.0848912E-006 -1.6136812E-005 -3.3538374E-005 -9.9792046E-006 -1.4847446E-005 -9.2856784E-006 -2.8810295E-006 -5.8214319E-006 -7.6980356E-006 -1.7083765E-005 -1.8165396E-006 -5.9494778E-006 -7.3909752E-006  3.4068810E-008  9.7947252E-009 -2.0346813E-008  1.5802685E-008  2.4842903E-008  3.4830080E-008 -3.3388170E-008 -3.7448860E-008 -1.1617429E-007 -5.3705818E-008 -7.5270446E-008 -1.1243746E-007 -1.1839571E-007 -1.3565000E-007 -1.6579089E-007 -1.8527528E-007 -1.7454118E-007 -1.9629898E-007 -2.0845438E-007 -1.9096079E-007 -2.0535100E-007 -2.1248551E-007 -1.9354720E-007 -2.0350921E-007 -2.0686436E-007 -1.8839784E-007 -1.9479727E-007 -1.9623479E-007  6.2921378E-009 -1.7852218E-007 -1.8709897E-007 -1.6993549E-007 -1.7236099E-007 -1.6715377E-007 -1.6533446E-007 -1.5076214E-007 -1.5178679E-007 -1.4704465E-007 -1.4164295E-007 -1.3935020E-007 -1.3668558E-007 -1.2742841E-007 -1.2393712E-007 -1.2231680E-007 -1.1807819E-007 -1.1314316E-007 -1.1195294E-007 -4.3060255E-009 -1.7838922E-008  5.9357019E-009  2.8154933E-008  3.4029655E-008  3.4598822E-008  3.4215922E-008  3.5517591E-008  3.2259308E-008  3.0110391E-008  2.9320067E-008  2.4569404E-008  2.2333969E-008  2.0921900E-008  1.6435274E-008  1.4847672E-008  1.3400313E-008  9.6614838E-009  8.6041524E-009  7.3954361E-009  4.2926369E-009  3.9951100E-009  3.1078284E-009  7.7850660E-010  9.6435058E-010 -1.0730601E-009 -7.6738955E-010 -1.1961893E-009 -1.7571333E-009 -3.2936731E-009 -2.7240205E-009 -2.9554713E-009 -2.6454345E-009 -3.9563985E-009 -4.5453125E-009 -3.8740714E-009 -3.5634418E-009 -4.6267349E-009 -4.9594313E-009 -7.6824321E-009 -9.5751912E-008 -3.4875472E-008 -8.4402884E-008  1.0460986E-008 -4.3831436E-008 -6.9490331E-008  1.9171367E-008  3.1190229E-008  3.6031766E-008  2.5518486E-008  3.2531232E-008  3.0336589E-008  2.4178858E-008  2.7554258E-008  2.9215532E-008  2.9564143E-008  2.9075551E-008  2.4594580E-008  2.4033970E-008  3.1572515E-008  2.7622914E-008  1.7972345E-008  1.7879204E-008  3.2319630E-008  2.9426189E-008  2.3923409E-008  1.4627253E-008  2.1834877E-008  2.5129393E-008  3.4358773E-008 -1.4452582E-008  1.1647827E-008 -2.9870116E-008  7.1510887E-009 -4.1447144E-008  3.3801509E-008  3.7533163E-008  3.4222526E-008 -2.7869951E-008 -2.1827418E-008 -5.3753645E-008 -4.5869352E-008 -1.0217341E-008 -3.2172533E-008 -2.5013862E-008  2.8998795E-008  2.1865684E-008  1.5500588E-008 -5.8695129E-008  1.2120550E-009 -2.7115952E-008 -2.8366820E-008 -9.7192135E-008  1.3824334E-008 -9.2081649E-009 -1.2908273E-008 -9.2463428E-008 -2.6877390E-008 -6.7581397E-008 -3.0208358E-009 -2.4407756E-008 -2.2768957E-008 -7.4547223E-008 -2.8304465E-009 -2.4012718E-008 -1.3555538E-009 -2.8422987E-008 -2.9291747E-008 -8.9463989E-008 -2.7122335E-009 -2.4441673E-008  2.1085939E-008  4.2116727E-009 -1.1590516E-009 -8.0664270E-008  7.8871538E-009 -1.8736115E-008 -2.1520728E-008 -9.9066208E-008 -1.8198860E-009 -8.4654783E-010 -2.3893054E-008  3.5296374E-009 -2.4709750E-008 -2.6472065E-008 -9.9250692E-008  4.5414126E-009 -1.8340037E-008  6.4078160E-009 -3.8119977E-009 -2.3389092E-008 -2.2804804E-008 -6.8638399E-008 -3.7445086E-009 -2.3281245E-008  2.6343509E-009  9.4187608E-009 -1.1264310E-008  1.5908247E-008 -2.7946913E-009 -4.9662284E-009 -3.7857671E-009 -2.3600703E-008 -2.5295349E-009 -2.4675042E-008 -4.5123546E-010 -2.3869773E-008  1.1942254E-008  1.8859626E-008  3.4095613E-008  4.2600614E-008 -4.2207572E-009 -2.2783407E-008 -3.9937277E-009  6.6134752E-010 -1.3654876E-008  2.6830261E-008  3.3711036E-008 -3.9935958E-009  3.1007531E-008  2.8196650E-008  3.0655073E-008  4.4295946E-008  4.4218578E-008  4.9131296E-009  3.4003459E-008  2.3553604E-008  1.0340581E-008 -1.1203035E-007 -1.5015236E-007 -6.2019152E-008 -1.1261749E-007 -4.9950245E-008 -1.8356202E-007 -2.9936853E-008 -1.5075399E-007 -6.4030707E-008 -1.6957336E-007 -6.5825330E-008 -1.6637594E-007 -6.3597813E-008 -1.7670121E-007 -1.1850176E-008 -1.7139777E-007 -6.8721534E-008 -1.2787142E-007 -5.4778012E-008 -4.4561709E-008  2.9735342E-008  2.9949434E-008 -2.0601707E-007 -6.0815589E-008 -1.9568199E-007 -6.5340229E-008 -1.9016389E-007 -6.4913193E-008 -9.1979616E-008  2.1291296E-008 -1.4078798E-007 -6.9161097E-008 -1.9633110E-007 -4.7747331E-008 -1.9623689E-007 -5.8752606E-008 -1.2664623E-007 -5.6654413E-008 -1.7884707E-007 -6.6257672E-008 -2.0932786E-007 -5.1235610E-008 -2.0326687E-007 -3.5621641E-008 -1.4891571E-007 -4.4448941E-009 -1.1345647E-007 -5.6946107E-008 -1.4557572E-007 -6.2295974E-008 -1.2353234E-007 -6.2777052E-008 -1.2425870E-007  1.3226339E-008  1.7841714E-008  3.5883107E-008  3.0028528E-008 -3.3220879E-008 -6.5709471E-008 -5.2558918E-008 -7.0526927E-008 -6.9496517E-008 -6.3948583E-008 -7.1087848E-008 -6.2819992E-008 -5.8181815E-008 -5.8716625E-009  2.0871243E-008 -3.7536004E-008 -5.0177113E-008 -9.7261693E-008 -4.0630311E-008 -4.3747473E-008  1.6783443E-008  2.1685933E-008  1.0372654E-008 -9.0890901E-008  5.8159793E-009 -1.0264766E-008  2.3367636E-008 -1.0606690E-007  1.8876097E-008 -3.7078041E-008 -8.1844478E-008 -1.1567949E-007  2.3207612E-008  3.2110166E-008  3.3304745E-008  3.0293957E-008  1.1918776E-008 -2.9887821E-008  4.0330362E-008 -5.0940779E-008 -8.2273711E-008 -6.3197917E-008 -1.9978500E-008 -2.0872184E-008 -6.7706773E-008 -1.2898446E-007 -2.0406813E-008 -1.8721986E-008 -1.4574080E-007 -1.6539219E-008 -1.1867508E-008 -3.6266648E-009 -1.7642905E-007 -1.9263453E-008  6.0798702E-009 -1.6408554E-008  2.0945222E-008 -6.7044949E-008  3.7254102E-008  4.6647827E-008 -2.0155587E-007 -2.0960583E-008 -1.7475467E-008 -2.1289520E-007 -7.3398966E-008 -1.6953088E-008 -7.2914882E-008 -2.2642256E-007 -2.1542184E-008 -1.7659936E-008 -2.3721799E-007 -1.7825766E-008 -8.1652133E-008 -2.3766668E-007 -1.6887246E-008 -8.2520968E-008 -8.4064539E-008 -2.2081527E-007 -1.7006414E-008 -1.9563689E-007 -1.6613754E-008 -1.1768968E-007 -1.5235862E-008 -8.9913596E-008 -9.2009559E-008 -1.3914538E-008 -1.1588449E-008 -9.0351596E-009 -9.6002204E-008 -5.2708988E-009 -1.7496731E-009  3.8360634E-009 -9.3939454E-008  7.9307969E-009  1.6083327E-008  2.0905465E-008 -8.7041025E-008  3.1124565E-008  3.5522782E-008 -7.2546340E-008  4.2746542E-008  4.4665465E-008  4.3693536E-008 -4.6089223E-008 -1.2874559E-008  1.2898251E-008  1.8052687E-008 -6.1062464E-008 -6.4077033E-008  5.3474285E-009  2.1553987E-008 -7.0697243E-008  9.6444217E-009 -8.8883812E-008 -9.6159468E-008 -9.7732263E-008 -9.3231754E-008 -9.0661715E-008 -7.3615972E-008 -4.9837507E-008 -1.3299716E-008  1.5252225E-008  9.6431050E-009  3.1111674E-008 -2.3278851E-008 -2.0188148E-008  9.2910017E-011  5.5876585E-009  2.8937076E-008 -5.0925672E-008 -1.5512086E-008 -1.0621804E-007 -7.0797192E-008 -6.9728911E-008  2.7889486E-008 -8.1266181E-008 -8.6947521E-008 -8.7369711E-008 -8.5767073E-008 -3.1937422E-008  1.3587553E-008 -7.9300250E-008 -1.0689940E-005 -2.5743588E-005 -1.5222868E-005 -2.1440584E-005 -2.0276121E-005 -1.5003138E-005 -1.7458714E-005 -2.5242022E-005 -2.1569643E-005 -1.4394420E-005 -1.2341283E-005 -1.4387054E-005 -3.6502553E-006 -9.4648884E-006 -6.5474147E-006 -1.8404537E-005 -2.7553511E-005 -1.9503219E-005 -1.0727440E-005 -2.2856540E-005 -1.9671695E-005 -5.6952286E-006 -9.4272339E-006 -1.2189350E-005 -2.0349133E-005 -2.7436700E-005 -1.6858826E-005 -1.2463744E-005 -9.4797422E-006 -1.2715066E-006 -9.4682038E-006 -1.1470290E-005 -1.0841048E-005 -1.0146296E-005 -1.0255520E-005 -1.1630235E-005 -1.2462876E-005 -1.1691072E-005 -2.2203634E-005 -1.9952268E-005 -1.8385832E-005 -2.1498879E-005 -1.7980675E-005 -1.6714940E-005 -2.7068968E-005 -2.5072917E-005 -2.5207144E-005 -2.4451761E-005 -2.2927922E-005 -2.3084501E-005 -1.4103920E-005 -1.5231792E-005 -1.4133114E-005 -1.5277537E-005 -2.0318210E-005 -2.1552141E-005 -2.0622410E-005 -2.2942426E-005 -2.2503349E-005 -1.0923142E-005 -1.0840608E-005 -9.1354861E-006 -1.0663041E-005 -1.2380638E-005 -2.1286214E-005 -1.9108128E-005 -1.7650002E-005 -1.7032260E-005 -2.0521604E-005 -1.9445586E-005 -2.1560088E-005 -2.2505824E-005 -2.6418358E-005 -5.1063955E-006 -6.1784518E-006 -4.5564792E-006 -3.0577953E-006 -4.0264257E-006 -2.1935954E-006 -1.8542094E-005 -7.5914546E-006 -8.0048754E-006 -1.6256993E-005 -1.4552209E-005 -1.6117202E-005 -1.4270714E-005 -7.9650821E-006 -1.3139383E-005 -1.3170268E-005 -2.5249772E-005 -2.1051666E-005 -2.3227098E-005 -2.5277195E-005 -1.3271142E-005 -2.4133001E-005 -2.0896947E-005 -1.8513239E-005 -2.7737418E-005 -1.7091985E-005 -1.8016214E-005 -1.2234303E-005 -1.0008112E-005 -9.1864468E-006 -1.4054909E-006 -2.6282373E-006 -1.6208247E-005 -9.9717797E-006 -1.9639246E-005 -1.2708128E-005 -2.3586740E-005 -2.7672168E-005 -1.5922369E-005 -2.3320276E-005 -2.1067328E-005 -1.8718196E-005 -2.4356802E-005 -1.6989107E-005 -1.1019025E-005 -1.6019467E-005 -1.1355210E-005 -2.4701790E-005 -2.1412185E-005 -1.5760708E-005 -1.1204169E-005 -7.5671223E-006 -6.5436907E-006 -1.3397854E-005 -1.4015716E-005 -4.2468433E-006 -2.4720703E-006 -1.0629868E-006 -9.4928333E-006 -8.9514049E-006 -1.2025137E-006 -9.6964793E-006 -1.3388050E-005 -2.2783652E-005 -2.5154652E-005 -2.2523496E-005 -2.1614663E-005 -2.0496594E-005 -9.3065163E-006 -1.2462245E-005 -2.3434687E-005 -1.9532936E-005 -1.6003480E-005 -1.6086387E-005 -2.3324487E-005 -1.3347972E-005 -1.3259004E-005 -5.4063488E-006 -7.5439644E-006 -8.3727420E-006 -9.0338859E-006 -1.0372115E-005 -9.9758277E-006 -9.1685622E-006 -1.0824434E-005 -1.1352608E-005 -1.2094497E-005 -1.1571622E-005 -1.2508017E-005 -1.2129581E-005 -1.2288650E-005 -1.2392116E-005 -1.1707948E-005 -1.0847297E-005 -8.7446967E-006 -1.1869039E-005 -8.4403875E-006 -1.1210057E-005 -9.7255810E-006 -9.6001418E-006 -7.9581422E-006 -1.0437490E-005 -1.2273701E-005 -1.2427402E-005 -7.5327713E-006 -7.3663623E-006 -7.1322371E-006 -7.9267653E-006 -2.0526596E-007 -1.0190592E-007 -2.5362781E-007 -3.1924410E-007 -4.0036516E-007 -4.8233643E-007 -5.8176333E-007 -1.5680236E-005 -6.4473092E-007 -1.2077635E-007 -5.6738337E-006 -1.4458742E-007 -2.9914294E-007 -1.3809843E-005 -7.8188988E-007 -2.0778816E-007 -7.9931332E-006 -4.8071887E-008 -6.9016966E-006 -2.3022883E-007 -2.8302566E-007 -1.6290828E-005 -1.4212253E-005 -5.1209410E-006 -5.7418537E-006 -7.0759833E-007 -5.1666736E-007 -1.6170914E-007 -4.7717883E-007 -1.0329971E-007 -9.3986479E-006 -1.0281909E-005 -7.0875976E-008 -1.5456325E-007 -3.5464025E-007 -6.4102325E-007 -5.3988160E-007 -4.4283650E-007 -1.2452731E-007 -3.8037705E-008 -1.2421561E-007 -1.9204354E-008 -1.4118966E-005 -1.0302374E-005 -1.0270063E-005 -8.9813225E-006 -7.1659821E-006 -9.4867762E-006 -7.7183335E-006 -1.2557906E-006 -3.5067379E-007 -4.9288878E-006 -5.3733668E-006 -1.4068242E-005 -1.2053302E-005 -9.2750399E-008 -7.0645812E-007 -3.0352431E-007 -3.4645166E-008 -4.6410670E-006 -5.1628189E-006 -4.6397590E-006 -2.1683097E-005 -1.6903691E-008 -8.4765844E-006 -8.6500145E-006 -7.8231735E-006 -7.8337249E-006 -6.3962938E-006 -6.3581745E-006 -4.7401434E-006 -4.5157988E-006 -1.5341543E-005 -7.2761403E-007 -2.3415007E-007 -7.3132237E-007 -1.2436257E-007 -1.6823430E-007 -1.4187619E-007 -3.4573133E-006 -3.1915348E-006 -4.3539419E-006 -4.8257370E-006 -1.7166333E-008 -2.5133089E-006 -2.3204769E-006 -2.7803476E-006 -2.0254892E-006 -2.2973326E-006 -1.6969666E-006 -1.8350721E-006 -1.3814944E-006 -1.4387572E-006 -1.1027701E-006 -1.8582759E-006 -1.1098457E-006 -8.6836343E-007 -8.5072132E-007 -6.7788691E-007 -6.5059160E-007 -5.2617659E-007 -4.9680389E-007 -4.0658891E-007 -3.7884391E-007 -3.1275856E-007 -2.8813145E-007 -2.3917446E-007 -1.4130616E-008 -3.7860400E-006 -3.6019424E-006 -3.0955835E-006 -7.8807077E-007 -5.7126277E-006 -2.3849044E-005 -7.8919150E-007 -2.1799306E-007 -1.2601381E-006 -2.0889376E-006 -5.3231450E-007 -1.2989832E-007 -5.0581162E-008 -2.5406551E-007 -1.8526771E-006 -1.9123623E-006 -1.8127095E-007 -6.9877036E-007 -1.9276267E-007 -2.9414877E-006 -2.4575435E-006 -3.9822950E-008 -1.9026418E-007 -6.1164178E-006 -3.4160455E-006 -1.4337346E-006 -1.4229994E-006 -5.9115231E-006 -5.1586270E-006 -6.3387283E-006 -5.5086286E-006 -6.6640085E-006 -5.3767680E-006 -7.2456949E-006 -5.1186192E-006 -1.4588001E-007 -2.1390516E-007 -4.1954922E-006 -1.5023075E-007 -2.5231866E-006 -2.0107535E-006 -1.5858793E-007 -1.9886023E-006 -1.6458123E-006 -1.5827181E-006 -1.2766145E-006 -1.3411477E-006 -1.0682211E-006 -1.6547003E-006 -6.4847825E-006 -3.7433067E-006 -5.4130819E-006 -3.0386712E-006 -1.0968692E-007 -2.5160583E-007 -8.4247598E-007 -4.4736697E-007 -3.2523213E-007 -6.7809559E-008 -1.3496468E-007 -8.9718549E-008 -7.9365945E-008 -4.3275657E-006 -1.2598832E-006 -1.4608878E-006 -1.1311132E-007 -2.2722587E-007 -1.8204618E-007 -3.5161088E-007 -1.4900234E-007 -1.5813000E-008 -1.0942883E-006 -8.8472076E-007 -1.4073058E-007 -6.5173659E-009 -3.3245445E-006 -7.8595083E-006 -8.4042930E-007 -6.7676224E-007 -7.2045020E-007 -5.6565116E-007 -5.8200352E-007 -7.1314249E-007 -1.0779212E-006 -1.0345142E-006 -1.0653037E-006 -1.3280882E-006 -1.3095751E-006 -4.6201891E-007 -9.3386628E-007 -5.3103140E-006 -1.0811890E-007 -1.7110935E-007 -2.3093383E-007 -1.2554544E-007 -1.1608609E-006 -1.3243207E-006 -4.4643286E-006 -5.6584472E-007 -8.2226871E-006 -1.1232926E-007 -1.4724933E-007 -8.3786468E-008 -7.0216063E-008 -9.3491479E-008 -1.8287396E-005 -7.9737370E-007 -7.7528999E-007 -6.5361320E-007 -1.0373809E-006 -1.1404140E-006 -1.4802419E-006 -1.3275952E-006 -1.6648568E-006 -1.4663908E-006 -1.8688196E-006 -1.7189519E-006 -2.1158870E-006 -1.9352918E-006 -2.3904181E-006 -2.2650357E-006 -9.1116335E-007 -3.0553702E-006 -2.4878467E-006 -9.5915461E-006 -9.0979425E-006 -7.6326839E-006 -1.0304035E-005 -2.0286593E-005 -1.8562717E-005 -1.1995567E-005 -1.1176136E-005 -8.5955184E-006 -8.0348981E-006 -6.6743483E-006 -6.2498898E-006 -6.4141045E-006 -5.6625613E-006 -5.8922557E-006 -4.4889531E-006 -4.5007470E-006 -4.3329923E-006 -8.0012780E-006 -1.0054487E-005 -9.3163403E-006 -1.1550437E-006 -1.1550631E-005 -2.0600141E-007 -2.5215931E-007 -3.2088775E-006 -1.0260193E-008 -3.1375003E-007 -4.0446832E-007 -3.4595402E-007 -4.5546311E-007 -2.7575723E-007 -3.5498879E-007 -6.9089034E-007 -9.7656602E-007 -5.8730459E-007 -7.9407941E-007 -6.4307538E-007 -4.7848115E-007 -7.2273164E-007 -5.3046026E-007 -8.1023468E-007 -7.9031647E-007 -1.1115719E-006 -7.3653381E-007 -1.0158072E-006 -4.3677749E-007 -6.5260190E-007 -3.9773718E-007 -2.7056672E-006 -2.5893289E-006 -1.0498113E-007 -1.3608123E-007 -8.9220451E-006 -1.2544612E-005 -8.9338031E-006 -1.2979613E-005 -9.1364024E-006 -1.3844006E-005 -1.1495508E-005 -1.4450209E-005 -1.7666488E-005 -1.0223148E-005 -1.8653277E-005 -1.6431542E-005 -1.8164905E-005 -4.3851741E-007 -3.5628158E-007 -3.7055039E-007 -1.7510532E-007 -2.3694166E-007 -1.1806773E-005 -9.4648712E-006 -7.2844512E-007 -6.3534623E-007 -3.8958079E-006 -6.9155021E-007 -7.6913859E-007 -5.8449500E-007 -5.0985873E-007 -2.8944549E-006 -3.5654814E-006 -2.2593629E-006 -1.5070435E-006 -2.1294888E-006 -2.4511602E-006 -2.9294055E-006 -2.8098098E-006 -6.0768004E-006 -1.0230538E-006 -2.8331456E-007 -2.9147752E-007 -2.1984384E-007 -2.2187703E-007 -2.7879513E-007 -7.8598716E-007 -6.9569244E-007 -1.6660842E-007 -8.3637172E-009 -1.0056609E-006 -7.2431853E-007 -3.2950005E-006 -3.2229485E-006 -3.3776329E-006 -4.8832075E-007 -4.0987268E-007 -5.0902960E-007 -5.6534527E-007 -1.2280000E-007 -1.6453836E-006 -1.3935901E-006 -1.6958668E-006 -1.1351661E-006 -8.7522134E-007 -1.2910878E-006 -8.6274128E-007 -2.6066532E-007 -6.7389167E-007 -2.2624436E-007 -3.2142439E-007 -3.0935511E-007 -4.8131266E-008 -5.0989747E-007 -2.3114629E-006 -4.3910928E-007 -4.6739936E-006 -4.6027621E-008 -2.3763946E-005 -2.3563417E-008 -1.1505225E-005 -1.6653727E-006 -1.3829812E-006 -1.6298877E-007 -2.0322853E-006 -1.6315572E-006 -1.9769738E-006 -3.8540756E-006 -9.1289606E-007 -6.5376664E-007 -4.9126002E-007 -4.4035688E-007 -5.7165122E-007 -3.8381276E-007 -4.8862790E-007 -3.2813458E-007 -4.0938963E-007 -2.7420725E-007 -3.3693419E-007 -2.2601575E-007 -2.7345002E-007 -1.8309342E-007 -4.7169450E-007 -6.8580817E-007 -2.1932812E-007 -1.4723207E-007 -3.0599818E-007 -5.6656079E-007 -3.7792038E-007 -9.2031533E-007 -1.9011007E-007 -9.0481057E-008 -6.9243335E-008 -3.5372551E-006 -4.6378003E-006 -2.9596985E-006 -8.1921502E-006 -7.2085320E-006 -3.4171569E-006 -2.7214673E-006 -1.7367954E-005 -1.5984044E-005 -1.5097613E-005 -1.3008436E-005 -1.1459586E-005 -1.3823076E-005 -1.4831005E-005 -1.0686767E-005 -1.4227393E-005 -1.2075574E-005 -7.8238597E-006 -1.4632306E-005 -5.2069588E-007 -1.6176163E-007 -3.7764656E-006 -6.0440139E-009 -5.7672904E-007 -7.0381234E-006 -4.2995913E-007 -1.1419697E-007 -1.0792732E-007 -1.2024318E-005 -4.2774920E-007 -5.6944800E-007 -6.4407593E-007 -5.1960907E-007 -2.6479812E-007 -3.6347996E-007 -3.3047747E-007 -5.5237077E-007 -6.1825350E-007 -1.7995729E-006 -1.3023697E-006 -3.6998465E-006 -3.7235659E-007 -3.1056499E-007 -2.3495878E-006 -6.2292234E-006 -8.7406242E-007 -5.2656485E-008 -1.5558360E-007 -1.2487142E-006 -4.2029690E-007 -5.6697653E-007 -5.2354395E-007 -6.4626399E-007 -8.9455801E-007 -7.2548091E-007 -1.0989573E-006 -1.1738632E-005 -1.3115151E-005 -1.1140538E-005 -9.7886734E-006 -1.8832054E-006 -3.6395474E-006 -3.1041131E-006 -3.6142464E-006 -3.1216814E-006 -6.7278570E-006 -6.0643835E-006 -1.0676237E-007 -2.6993358E-007 -7.7593568E-006 -2.0532687E-005 -1.5638740E-005 -9.1768902E-006 -7.5395836E-006 -8.3443294E-006 -7.5961277E-006 -3.2556346E-006 -2.4676072E-007 -1.7650480E-007 -7.9787555E-007 -3.8031340E-007 -2.9239277E-007 -4.0618396E-007 -5.1305379E-007 -3.9270357E-007 -3.6027862E-007 -2.3225447E-006 -2.7065825E-006 -1.7433178E-006 -4.8675124E-007 -7.0453398E-007 -1.3272113E-007 -1.5804454E-007 -1.7582247E-007 -2.6086760E-007 -2.1571056E-007 -3.2293251E-007 -8.9566591E-006 -4.1263088E-007 -3.6342434E-007 -1.8569247E-006 -1.6740375E-006 -1.4004852E-006 -1.2292139E-006 -2.8424302E-007 -2.9336659E-007 -3.7022479E-007 -2.0696360E-006 -1.8049136E-006 -1.1057703E-006 -4.0030548E-007 -6.4010179E-007 -3.6055793E-007 -1.2714133E-006 -1.1857312E-006 -1.2794700E-006 -5.3375725E-007 -6.6955520E-007 -1.1010545E-006 -7.4488069E-008 -8.9703038E-008 -5.6506688E-008 -6.4249852E-008 -3.9593505E-008 -4.3544755E-008 -6.5479128E-008 -4.3607087E-008 -6.1393931E-008 -2.7107148E-008 -2.9690812E-007 -2.1015679E-005 -1.7570100E-005 -4.3238171E-006 -3.0406497E-006 -5.3971836E-007 -4.0535504E-006 -9.1941953E-008 -1.0997669E-007 -1.9728393E-006 -1.4883519E-006 -1.8357705E-006 -2.0793797E-006 -2.7447272E-006 -1.1054977E-006 -3.1583419E-007 -2.8952526E-007 -3.4182934E-007 -2.3367133E-007 -1.8095882E-007 -5.4974794E-007 -1.0275519E-007 -9.4287795E-008 -5.1449776E-006 -3.5020519E-006 -4.3490527E-006 -9.5913435E-006 -2.1068596E-007 -1.9902754E-007 -2.3007941E-007 -2.5908706E-006 -3.0135035E-006 -1.3433663E-006 -1.1505472E-006 -1.0142367E-006 -1.1219148E-006 -8.3527144E-007 -8.2891156E-007 -6.9368101E-007 -9.2721494E-007 -4.4585297E-007 -3.1856557E-007 -9.6928839E-006 -8.7151291E-007 -2.9916037E-007 -7.9481578E-006 -1.6271848E-007 -1.0025143E-005 -1.5352584E-006 -2.2568421E-006 -2.0650239E-006 -1.4731080E-006 -9.8975447E-007 -7.3487576E-007 -6.4813216E-006 -4.0994742E-006 -2.7542634E-006 -2.5916644E-006 -1.5457722E-006 -1.5814007E-006 -3.5092692E-006 -3.4512145E-006 -4.0659609E-006 -4.6668532E-007 -9.1959080E-007 -2.4751596E-006 -1.2707973E-007 -3.1085287E-006 -5.0737761E-006 -2.0530660E-006 -8.7169980E-008 -4.7503495E-008 -9.2510151E-007 -2.3776744E-006 -6.5812331E-006 -9.2824039E-008 -6.5023507E-008 -1.2945044E-007 -1.9752232E-007 -3.1850628E-007 -2.8320719E-007 -2.1688683E-007 -2.4646273E-006 -4.4333136E-007 -6.1558303E-007 -9.7005653E-007 -2.3572930E-007 -2.8878220E-007 -1.9880465E-007 -4.6464822E-006 -4.0673513E-006 -4.6848152E-008 -4.2368112E-006 -4.7209560E-007 -3.3330857E-007 -6.5729500E-007 -1.4699553E-007 -2.6349730E-007 -1.1920658E-007 -1.9491841E-007 -8.6624389E-008 -1.3114760E-007 -4.9182146E-007 -1.1605897E-007 -2.4793678E-006 -1.7390083E-007 -1.0969175E-006 -2.4257759E-007 -3.2380179E-007 -4.0953420E-007 -3.9802493E-008 -5.1765450E-008 -1.4881313E-006 -9.3539654E-007 -2.8148985E-006 -3.2924607E-006 -5.2298019E-007 -2.5521367E-006 -1.6977634E-006 -1.0224166E-006 -1.0401320E-006 -7.7865293E-007 -6.3718339E-007 -5.7374631E-007 -5.4304901E-007 -3.5517958E-007 -3.1101700E-007 -1.9876260E-007 -1.3689403E-006 -7.8329868E-007 -1.4113749E-006 -1.8514943E-006 -5.8205263E-007 -4.0138415E-007 -6.8199470E-007 -5.3206295E-007 -1.0548164E-006 -7.8102845E-007 -2.3641847E-007 -8.0177587E-007 -5.9367343E-007 -6.9261030E-007 -3.3739506E-007 -2.5146957E-007 -1.4515140E-007 -7.0095058E-008 -7.9449952E-008 -5.8400194E-008 -6.0199793E-008 -4.0780254E-008 -4.0683228E-008 -5.7666060E-008 -2.6455418E-008 -2.5212224E-008 -3.2774535E-008 -5.0749776E-008 -3.1411812E-008 -3.9715316E-008 -6.7406543E-008 -5.6153690E-008 -8.5025978E-008 -6.9626113E-008 -4.3693363E-008 -5.3550117E-008 -3.0520089E-008 -1.0150206E-007 -9.8256196E-008 -1.2003177E-007 -1.3531207E-007 -1.1563641E-007 -1.9748239E-007 -1.3657058E-008 -4.8080600E-009 -1.2359573E-008 -3.7527262E-008 -7.7023834E-008 -8.2786562E-008 -2.8653025E-007 -5.1340516E-007 -9.4096740E-008 -1.2784437E-008 -6.0003823E-007 -1.2886202E-007 -1.9611329E-007 -1.6327979E-007 -3.1105003E-007 -9.3476329E-008 -2.5306679E-007 -8.9984112E-008 -8.1514617E-008 -3.8326600E-007 -4.1757279E-007 -6.7326540E-007 -3.8230715E-007 -2.5062830E-006 -5.1361620E-007 -9.9578557E-007 -2.2136840E-007 -1.9689371E-007 -1.5648774E-007 -1.6640525E-007 -3.9894319E-007 -6.2672264E-007 -1.1712967E-007 -1.0630584E-007 -1.4036517E-006 -1.7639879E-006 -3.8932356E-008 -6.7785285E-008 -8.8482919E-007 -3.5797660E-007 -2.8173569E-007 -2.8866709E-008 -1.3037591E-005 -1.1201664E-005 -8.3862646E-006 -6.0104675E-006 -5.1639530E-006 -8.9253653E-006 -7.0580108E-006 -7.2842768E-006 -6.7830203E-006 -2.5702916E-008 -4.3702215E-006 -2.2208629E-008 -1.0012926E-008 -2.3620798E-006 -1.8852742E-006 -1.2805628E-007 -8.6455241E-007 -4.3790095E-006 -1.9164620E-008 -1.0352535E-005 -4.2680963E-006 -7.0536303E-006 -7.3553258E-006 -8.3158938E-006 -8.9233590E-006 -3.9913543E-006 -1.0206413E-006 -1.6449229E-006 -2.0141977E-006 -2.2439384E-008 -1.1304956E-006 -1.8837276E-006 -3.8682627E-006 -5.9814075E-007 -1.9497643E-007 -3.8282315E-008 -3.8816213E-007 -1.0534183E-006 -1.5161865E-006 -2.9515818E-008 -5.7464284E-008 -1.3123317E-008 -1.0845438E-006 -1.2876009E-006 -1.0424385E-006 -2.1865236E-007 -5.2523588E-009 -4.4590912E-008 -6.3431071E-006 -4.3063524E-007 -2.2916678E-007 -2.0683998E-008 -7.0969231E-009 -8.3150103E-006 -1.2657296E-007 -2.9530942E-007 -7.7069801E-006 -9.1970858E-008 -7.2974377E-006 -5.1774977E-007 -2.1580797E-008 -1.6643196E-005 -3.1185241E-006 -8.8592057E-007 -3.6067936E-007 -3.0393675E-006 -1.8431068E-006 -3.2710620E-006 -1.0517677E-006 -1.6376271E-006 -3.7555714E-006 -2.4337864E-006 -1.7380119E-008 -1.4056281E-007 -7.4387528E-007 -6.3019792E-007 -8.6819849E-007 -2.2876606E-006 -9.5755010E-007 -4.7701924E-007 -1.1335467E-006 -5.5342560E-007 -9.3598632E-007 -6.7442694E-007 -8.8995063E-007 -1.0678736E-005 -1.0431173E-006 -1.7364709E-007 -1.9123460E-006 -3.9166000E-007 -1.2630013E-006 -9.3522753E-007 -2.2165173E-006 -2.8130073E-006 -3.0706098E-006 -3.5051705E-006 -1.0775416E-006 -1.5131686E-006 -2.1886369E-006 -2.7681677E-006 -1.7573525E-006 -7.6871258E-006 -1.1893394E-006 -1.6304692E-006 -4.5679516E-007 -6.4511884E-006 -6.4591780E-006 -6.3866858E-006 -8.1525204E-006 -8.4809538E-006 -3.8601683E-007 -5.7481698E-006 -7.7319945E-007 -1.4522899E-005 -6.1052410E-008 -7.6780456E-007 -7.9636281E-008 -8.5965544E-007 -6.5809244E-006 -4.5764272E-006 -7.5407406E-007 -4.1465494E-006 -2.0371160E-007 -2.4945822E-008 -1.5111342E-008 -6.6682028E-006 -5.9105173E-007 -6.3353883E-007 -5.9574690E-006 -5.2676679E-007 -1.5645248E-008 -4.0130098E-007 -3.3166384E-006 -7.3805282E-007 -9.6753259E-006 -2.2805866E-007 -4.4850041E-007 -3.9259416E-006 -2.6271145E-007 -4.1931667E-008 -5.8613945E-006 -3.9556074E-006 -4.3087934E-007 -1.4681167E-006 -4.0488855E-006 -4.6301116E-006 -1.4622807E-006 -7.2596988E-006 -1.0058187E-005 -8.3199161E-006 -1.3135413E-005 -1.3988347E-005 -1.4298689E-005 -1.1041468E-005 -9.4923728E-006 -1.5033584E-005 -1.6331290E-005 -2.3442032E-005 -2.4707240E-005 -1.0667032E-005 -1.8953590E-005 -1.7852117E-005 -1.7849533E-005 -1.7445512E-005 -1.5476817E-005 -2.0668650E-005 -1.2649415E-005 -7.0720493E-006 -2.4134348E-005 -1.4892234E-005 -7.1619315E-006 -9.6901625E-006 -1.0641142E-005 -1.0409795E-005 -1.0646948E-005 -1.4656354E-005 -9.4049884E-006 -1.3436707E-005 -8.4249657E-006 -1.1849422E-005 -7.6065137E-006 -1.1354323E-005 -1.6583809E-005 -4.4563714E-006 -8.6548311E-006 -6.7456884E-007 -1.5610833E-006 -7.8417836E-007 -1.0050482E-005 -1.2944811E-005 -1.5584539E-005 -1.5131900E-005 -1.5904555E-005 -1.5645563E-005 -1.4442433E-005 -1.2787973E-005 -5.4254644E-006 -6.1495880E-007 -1.7690829E-006 -4.8021010E-006 -1.7917796E-007 -5.1946925E-008 -1.5946555E-006 -2.1666124E-007 -1.4247114E-007 -2.4137550E-006 -2.4285143E-006 -3.0059602E-007 -2.1215922E-007 -2.1933577E-007 -1.9767129E-007 -5.1808581E-007 -2.6639233E-007 -2.5905718E-007 -2.4558736E-007 -4.2736748E-007 -7.4582203E-007 -6.4586946E-007 -6.5067111E-007 -2.9035379E-007 -5.1364829E-007 -5.4966109E-007 -2.4629552E-007 -6.1603820E-007 -4.6233930E-007 -6.9588727E-007 -3.7544389E-007 -7.3642415E-007 -8.1273621E-007 -2.5910941E-007 -3.6794277E-007 -7.3979441E-007 -7.5164356E-007 -3.3393262E-007 -2.1262908E-007 -5.6880577E-008 -1.2789664E-006 -2.4006357E-008 -5.4000441E-008 -5.6791479E-008 -1.6497761E-007 -1.9232643E-007 -1.4463126E-007 -1.3230018E-007 -8.6526060E-008 -1.1653678E-007 -1.9412023E-007 -3.2547680E-006 -6.3760960E-008 -2.1094791E-007 -2.7549493E-008 -1.9691802E-009 -1.8413115E-008 -2.2215077E-006 -3.6705958E-008 -7.8976655E-008 -7.7010775E-008 -1.6828141E-009 -8.1736427E-006 -2.2383347E-005 -1.5895817E-007 -4.2528364E-006 -2.1280708E-006 -9.7046415E-008 -2.3596366E-008 -1.4893214E-008 -5.2493450E-007 -2.3792864E-009 -8.4689313E-007 -3.4513162E-008 -4.4813604E-006 -5.4982819E-007 -3.7939060E-006 -1.9433869E-008 -2.5750210E-007 -4.6820905E-008 -9.0200932E-007 -2.1922765E-007 -1.3281980E-005 -5.6128576E-007 -3.4059720E-008 -3.3355381E-007 -1.6086217E-008 -6.4660674E-006 -1.2777460E-008 -2.6464935E-007 -3.2387944E-007 -8.2166464E-008 -4.9323039E-008 -1.8383334E-007 -1.0239307E-007 -1.2255437E-006 -6.4373185E-007 -1.4804513E-005 -1.3059329E-005 -1.6350311E-005 -1.2231070E-005 -1.4631333E-005 -1.1049882E-005 -1.6068142E-005 -3.7880593E-006 -3.6468188E-006 -2.3539630E-006 -1.6637330E-006 -1.1750493E-007 -9.2221269E-006 -1.1681733E-006 -7.5122280E-006 -6.0681591E-006 -1.5186723E-005 -8.6287998E-008 -7.8749249E-006 -7.9655006E-007 -2.5872918E-007 -1.6398798E-006 -3.1752204E-006 -7.3156066E-006 -1.3298625E-005 -1.5022708E-005 -2.3868783E-006 -2.5349962E-006 -2.2722968E-006 -2.8545886E-006 -5.1330832E-007 -9.9312893E-007 -7.4180377E-007 -3.4062412E-006 -3.5118525E-006 -2.4252695E-007 -5.6146520E-006 -2.2760856E-007 -4.6056492E-007 -4.4034706E-007 -1.6105021E-006 -1.1634482E-006 -1.4709831E-006 -2.4187508E-005
        </DataArray>
        <DataArray type="Float64" Name="joule heating" NumberOfComponents="1" format="ascii">
  7.8078711E+004  3.1586242E+003  4.0571657E+004  6.2912654E+005  7.6634911E+000  2.4170240E+001  6.0376718E+002  7.8019265E+001 -9.0130207E+000  9.2558544E-007  3.4821133E-002 -1.8683495E-006 -8.6945351E-011  4.1568930E-009 -1.7695712E-004 -2.8544352E-006 -3.9250106E-015 -8.5014371E-016 -7.1195356E-004  5.5101283E+000  2.7280951E+005  8.1848377E-001 -2.4145212E+002  7.5686337E+004  8.6777432E+004  7.3007364E+004  6.9868974E+004  6.5563108E+004  4.7468954E+004  6.7004211E+004  4.2630390E+004  3.9609608E+004  2.7770178E+004  2.4880088E+004  2.2457097E+004  1.7089559E+004  1.2984425E+004  1.0769093E+004  8.0012948E+003  9.1536907E+005  6.5049691E+005  5.1033584E+005  4.1868610E+005  3.7146244E+005  2.6161762E+005  1.8799962E+005  2.6312316E+005  1.6842042E+005  1.6838416E+005  1.1706050E+005  7.4905850E+001  8.9279350E+001  1.7799816E+002  1.7390250E+002  2.2343773E+002  2.2197791E+002  2.7927305E+002  2.3800098E+002  3.5601264E+002  3.6263578E+002  3.2842376E+002  5.4584394E+002  4.0871490E+002  4.7360223E+002  7.7894248E+002  5.5176478E+002  9.9570786E+001  1.2514457E+002  1.7648475E+002  2.2524993E+002  3.6501490E+002  5.4192228E+002  8.1997787E+002  1.2113961E+003  1.4885445E+003  1.7993218E+003  1.8954842E+003  2.0519294E+003  3.3819602E+003  2.4551213E+003  3.0357000E+003  3.4196132E+003  2.8299902E+003  4.0834401E+003  3.9773830E+003  3.7686160E+003  3.6433733E+003  3.4039672E+003  4.2171757E+003  3.3538697E+003  3.7436038E+003  3.5336292E+003  3.8238584E+003  3.3648967E+003  3.2948344E+003  3.8254099E+003  3.7269805E+003  3.0318134E+003  4.1196120E+003  3.0667847E+003  2.8467764E+003  2.5099512E+003  3.9279458E+003  2.9191747E+003  2.8014492E+003  2.2861417E+003  3.0418965E+003  2.3327052E+003  2.5573315E+003  2.1409872E+003  2.9326221E+003  2.1884260E+003  2.0107065E+003  1.7462144E+003  2.6877841E+003  1.9228164E+003  1.7166820E+003  1.5078132E+003  2.3365008E+003  1.7113624E+003  1.6342902E+003  1.4798164E+003  1.4559753E+003  1.7711381E+003  1.3017210E+003  1.2695630E+003  1.2483954E+003  1.6061864E+003  1.2208676E+003  1.1667150E+003  1.0880672E+003  1.0495027E+003  1.2978569E+003  9.5982749E+002  9.1028231E+002  8.0663156E+002  8.6288134E+002  1.0546377E+003  7.8447391E+002  7.1836494E+002  7.1787836E+002  6.7010954E+002  6.1929995E+002  6.1054540E+002  6.2836914E+002  6.4279936E+002  8.1159113E+002  6.3887152E+002  6.6420633E+002  1.9692198E-001  6.0174154E-002  2.4348522E-001  1.8134820E-001  5.1712189E-001  6.3220015E-001  3.1933321E-002  9.0275522E-002  1.3400162E+000 -3.3716964E+000  1.0077935E+001  4.5735898E+000  6.6745366E+000  6.6939541E+000  1.0728127E+000  2.3962151E+000  7.0638396E-001  2.4022982E+000  5.0133927E+000 -2.0917957E+000  5.3992103E+000  4.7289039E-001  1.3857285E+001  1.0178918E+001  9.2313337E+000  2.1609725E+000  5.1332600E-001 -7.6319939E-003  7.2201407E-004 -6.8988318E-006  8.2962902E-006 -5.4385488E-006  8.8740318E-006  3.2092663E-006  2.8636438E-007 -2.0457310E-005 -1.3863660E-005 -1.1322837E-003 -5.1456451E-007  2.1593555E-006  3.0490278E-006  3.0197160E-006  2.3962818E-006  1.2893231E-007  8.3308237E-006  6.9116219E-006  1.1166736E-005  8.8642675E-006  1.1875507E-006  9.8129266E-006  1.7467676E-005 -1.5258544E-005 -3.0854275E-005 -2.4798642E-005  1.0124292E-005  8.2597787E-006  9.8721439E-006  1.2568859E-005  1.4441341E-006  1.4484994E-006  2.5157378E-007  2.0083500E-007  1.8973778E-008  3.6019455E-009  2.7670036E-010 -3.8589916E-010  6.7438205E-008  9.4316704E-008 -1.9339361E-007  1.0552945E-005  1.2386443E-005 -1.0345262E-005  1.8149624E-004  3.1152873E-004  8.6590496E-004  2.9048687E-004  7.4174132E-004  1.2864134E-003 -4.0683617E-003 -4.0625457E-003  8.8537875E-004  3.4591711E-004  4.6491693E-005  2.9728022E-004  7.4106493E-004  1.4188031E-003 -7.5221724E-004  4.3228796E-004 -3.3209260E-004  2.4968468E-004  6.6916266E-005  1.4760853E-004  3.9510117E-004  4.3119659E-005  4.8197730E-002  3.3925976E-002  1.3919963E-002  8.7727467E-001  1.2014791E+000  1.0347968E+000 -2.2054329E+000 -2.2190086E+001  3.4640661E+002  1.9845127E+003 -1.3351426E+004  4.0507591E+003  6.0743109E+003  6.4092356E+003  6.0203601E+003  6.8298118E+003  6.9806896E+003  6.8226181E+003  1.0841355E+005  8.4427767E+004  6.3407482E+004  5.3097669E+004  3.8954798E+004  3.8378437E+004  3.2116903E+004  2.2674705E+004  2.0953756E+004  1.7776100E+004  1.2286455E+004  1.0476595E+004  8.3104205E+003  5.7954158E+003  4.5625114E+003  4.0039546E+003  3.0643029E+003  2.0981645E+003  1.8505350E+003  1.5648001E+003  1.1737123E+003  9.4736754E+002  7.6159963E+002  6.2110104E+002  5.6718957E+002  4.8282285E+002  4.0935018E+002  3.3074367E+002  2.8971507E+002  2.4440165E+002  1.9901687E+002  1.5820938E+002  1.4559358E+002  1.3955037E+002  8.7556380E+001  8.6188853E+001  5.9373322E+001  4.1212479E+001  3.8983751E+001  2.1794280E+000 -2.6573577E-001  6.7771110E-002 -1.4609362E-002  3.9083800E-003 -9.7818487E-004  1.8482462E-004 -4.8240565E-005  1.2583208E-005  1.8640181E-007 -9.5685033E-009  9.0159491E-010 -2.1715650E-012  4.5600409E-012 -9.9503183E-012 -1.6344188E-011 -3.2739897E-011 -3.4989654E-012 -5.1175197E-013 -4.0232799E-013  1.9933291E-015  4.3524747E-014  4.8856053E-015  4.1892081E-014  1.5313185E-015  8.7501562E-015  5.7794723E-015  1.8640047E-015 -3.7201991E-015  2.9192444E-014 -1.8302694E-014  4.5549175E-013  3.8558553E-013  9.7924270E-014  1.0508370E-013 -4.5249313E-015  1.5471977E-015 -1.0560862E-015 -3.8183974E-015 -3.2542215E-015  2.1172701E-015 -1.4902652E-015  6.8955860E-015 -3.7208714E-015 -1.0034712E-015  7.0231699E-015  2.2622361E-015 -8.9949663E-015 -3.1081596E-015  1.4921651E-014 -9.2384755E-014  9.9768916E-014 -1.4331780E-013  1.3606115E-013 -2.6769555E-013 -4.3420847E-012  1.3856210E-010 -3.7543011E-009  1.1399511E-007  1.2080129E-006 -2.1108843E-005 -4.6243641E-005  1.0885745E-005 -3.1775295E-006  7.0067690E-007 -1.9709493E-007  5.6513993E-008 -2.4102234E-008  2.5600564E-008 -9.0666656E-008  3.3652405E-007 -1.0609895E-006  1.7233800E-005 -3.5730919E-006  1.9382160E-004  2.0509170E-003  2.5653061E-002 -1.3450032E-001  4.3238282E+001  1.5819820E+002  3.5310306E+002  6.3191451E+002  1.0649004E+003  1.5091265E+003  1.8892830E+003  2.5698532E+003  3.4039696E+003  4.0167684E+003  4.8236064E+003  5.9112798E+003  6.7179545E+003  7.5877097E+003  9.6625519E+003  1.0073819E+004  1.1411373E+004  1.3686294E+004  1.4804249E+004  1.5070003E+004  1.5879607E+004  1.9419275E+004  2.4089893E+004  2.1534261E+004  2.2165708E+004  2.5457283E+004  2.7892640E+004  2.9699161E+004  3.4929340E+004  3.7254135E+004  4.0558046E+004  4.2069199E+004  4.4903884E+004  4.8974979E+004  6.3690351E+004  5.3119927E+004  6.5239591E+004  7.9992340E+004  9.1795855E+004  9.9151464E+004  1.2262838E+005  1.4140345E+005  1.5475221E+005  1.9659936E+005  2.0656807E+005  2.3231968E+005  3.0636933E+005  3.4882872E+005  3.3127889E+005  3.3402364E+005  3.6227724E+005  3.5911938E+005  2.9171622E+005  2.3223455E+005  2.3196051E+005  2.0405348E+005  1.8394746E+005  1.6999758E+005  1.5717317E+005  1.5945133E+005  1.4593287E+005  1.3129997E+005  1.3200066E+005  1.2905425E+005  1.3075090E+005  1.3491412E+005  1.3193843E+005  1.2311546E+005  9.3578774E+001  7.7452434E+001  6.2831965E+001  4.8894256E+001  3.1623762E+001  2.1772742E+001  1.3731739E+001  5.7506641E+000  1.4519332E+000  3.1830442E-001  4.7684192E-001  9.2153341E-001  6.5265046E-001  2.6903658E+000  3.1574999E+000  4.5470895E+000  9.4359258E+000  1.2908652E+001  9.1450443E+000  1.2084510E+001  2.3070194E+001  4.6810828E+001  2.2442709E+001  4.9174852E+000  2.0741657E+000  6.0403716E+000  4.2183142E+000  1.9289351E+001  1.7733151E+001  7.8948386E+001  9.1642868E+001  1.5207457E+002  4.6615216E+002  1.1558608E+003  1.3631723E+003  3.2065633E+003  1.2180921E+004  2.6450595E+004  4.7050898E+004  6.7192562E+004  1.1188255E+005  1.7080812E+005  1.8524412E+005  2.1613706E+005  2.7345347E+005  3.2271572E+005  3.8642544E+005  4.3202647E+005  5.4574313E+005  6.2141566E+005  6.1142303E+005  6.7151205E+005  7.3830966E+005  8.2638074E+005  8.8585224E+005  1.0498980E+006  1.1235421E+006  1.0145012E+006  2.9614771E+002 -1.4010093E+002 -3.9264268E+000 -4.9588938E+001 -4.2109644E+001  8.7817906E+001  1.5927241E+001  8.2882386E+001  6.0028940E+001  4.9265206E+001  5.4435469E+001  2.2352809E+001  2.6753369E+001  3.2716507E+001  1.9773274E+001  2.1627200E+001  2.4852101E+001  1.4585553E+001  2.2779964E+001  1.7833437E+001  2.4603040E+001  1.5678774E+001  2.7648620E+001  1.7700294E+001  2.6440569E+001  1.7742166E+001  2.7471556E+001  2.2708792E+001  3.3101461E+001  2.2278681E+001  3.6063122E+001  2.3509582E+001  3.5267612E+001  2.3622249E+001  3.7873605E+001  2.5775507E+001  3.9897658E+001  3.3521090E+001  4.5581048E+001  2.8792045E+001  5.2338217E+001  3.0434658E+001  5.1345362E+001  3.4472944E+001  5.3461801E+001  4.4912814E+001  6.0964335E+001  3.9265193E+001  6.8626566E+001  5.0180967E+001  7.0856767E+001  4.4121222E+001  8.0109751E+001  4.6750991E+001  7.5963238E+001  6.2739529E+001  8.4895896E+001  5.3375179E+001  9.6461001E+001  5.6463034E+001  9.1285782E+001  7.4990253E+001  1.0192901E+002  6.3952139E+001  1.1521233E+002  6.6583319E+001  1.0768515E+002  8.7974013E+001  1.1928726E+002  7.4718397E+001  1.3313217E+002  7.6182783E+001  1.2193173E+002  9.8059314E+001  1.3270397E+002  8.1377597E+001  1.4239527E+002  7.9250000E+001  1.2438937E+002  9.6024193E+001  1.2867104E+002  7.4315738E+001  1.2761898E+002  6.7299557E+001  1.0150899E+002  7.1930237E+001  9.3013753E+001  4.8688548E+001  7.3775458E+001  3.4132155E+001  4.5722770E+001  1.2719704E+001  1.1077542E+001  8.9962832E+000  1.4158040E+000  3.9409229E+000  8.4634745E-001  1.5835998E+000  8.7142135E-001  6.1880742E+002 -1.0940896E+002  3.2755298E+001  5.7916249E+004  1.9235146E+004  3.2000731E+004  1.2397879E+004  1.1012976E+004  1.3684976E+005  7.0575549E+001  1.7976763E+003  4.7587538E+002  1.8690012E+002  2.4248497E+005  4.6779429E+003  7.9336059E+004  3.2943800E+004  5.0800518E+003  2.6107160E+005  8.2100832E+000  3.3839924E+005  2.0831775E+005  9.5507401E+002  2.4832774E+003  6.2543086E+004  2.9153345E+002  4.3001728E+004  3.7688437E+001  2.3843245E+004  1.3979205E+001  1.2622000E+001  4.6444863E+005  1.5925366E+000  1.2227430E+005  4.1726446E+005  7.0414735E+002  2.8764029E+003  6.5826698E+002  2.8324970E+005  7.5831503E+003  1.9941677E+005  2.2188274E+005  2.0107043E+004  1.8826121E+005  7.5047630E+003  1.2831658E+004  1.1991992E+002  1.0673749E+005  6.8451224E+004  3.7299651E+004  4.5366584E+000  4.3371344E+001  7.5993491E-001  5.7546865E+005  1.8275216E+005  1.3081901E+002  4.3870548E+000  2.9253640E+001  5.2032788E+001  9.6243844E+001  5.9837208E+001  1.2699375E+002  2.2805299E+002  2.8140840E+002  1.8469272E+002  3.4147785E+002  2.3475280E+002  3.8905173E+002  5.9576938E+002  6.5716390E+002  4.3495824E+002  6.4872257E+002  1.1013395E+003  1.0958455E+003  7.6038876E+002  1.1795294E+003  8.9974610E+002  1.3031174E+003  1.7656062E+003  1.8802071E+003  1.6062042E+003  2.2874801E+003  2.0997186E+003  3.0396822E+003  3.1375664E+003  4.4129753E+003  4.2334321E+003  6.2871644E+003  6.7039226E+003  9.3376220E+003  9.2595186E+003  1.3598864E+004  1.3287088E+004  1.9456017E+004  2.0088055E+004  2.9084759E+004  2.7585616E+004  4.0037344E+004  4.3158197E+004  5.8025544E+004  5.3946475E+004  2.8694801E+003  2.9849299E+003  9.9925268E+003  6.3424977E+004  8.2884997E+004  4.9564883E+002  8.2971496E+003  4.5850929E+004  4.2365114E+002  6.2719364E+002  1.4208469E+002  1.8027225E+002  9.4193670E+004  8.9947454E+003  1.2090457E+004  7.1102029E+002  1.1805282E+005  1.0736709E+005  4.6792427E+003  5.2642459E+003  1.3467215E+005  1.2229159E+004  8.0130015E+002  1.1135594E+002  1.2821968E+004  5.1046632E+002  7.7127270E+002  1.3921788E+002  1.6222651E+005  1.8587402E+005  1.1050795E+005  8.2001510E+003  5.5191631E+002  3.6468737E+002  5.9153594E+002  1.0367133E+004  7.9618337E+003  7.3973315E+003  1.4548469E+003  1.8449273E+003  1.2530550E+003  1.4970675E+003  6.3069887E+003  2.2042123E+005  8.6986558E+003  5.9915634E+003  4.5082110E+002  3.6461223E+002  3.2719057E+002  1.9739028E+002  1.3247078E+003  1.4271404E+003  9.0686433E+001  8.2582252E+003  1.2905031E+004  1.9875301E+005  8.8599944E+003  5.6026714E+003  4.4517884E+003  2.1476055E+003  1.7250867E+003  1.8272451E+004  1.8583040E+004  7.3615887E+001  5.7810430E+001  1.5406592E+002  1.4642891E+004  2.5280981E+005  1.2848728E+004  1.7689237E+004  1.4412186E+004  1.1722729E+004  2.2018848E+005  2.6361218E+004  2.9134284E+004  2.0514453E+004  3.0278182E+004  1.0198621E+003  8.7045263E+002  1.5923147E+004  2.1591469E+004  2.9036354E+002  4.4879181E+002  9.5119965E+003  6.7380684E+003  4.0986663E+003  4.7256628E+003  7.4093392E+003  5.2588137E+003  1.0667805E+004  4.9988344E+001  3.7343902E+001  6.0106622E+001  3.3503970E+001  2.4088228E+001  2.6069772E+001  1.5029590E+001  2.6469279E+002  2.3860387E+002  7.1076671E+003  2.7874641E+002  1.5687301E+001  2.3951410E+004  3.3865964E+004  4.2903758E+004  4.8219880E+004  2.1642237E+003  2.3663147E+003  1.5450668E+003  2.5222531E+003  2.0176590E+003  1.6121739E+003  2.5350279E+003  3.8893853E+003  1.1242850E+002  1.6005490E+003  3.8904077E+003  3.1451469E+003  3.3896796E+003  8.4370773E+002  2.7451738E+004  2.9395623E+002  2.0042577E+004  3.2812821E+003  9.1831519E+003  1.2088117E+002  2.9230950E+005  3.3239692E+005  3.8850673E+003  7.9238716E+002  2.3660332E+004  2.8732484E+004  2.6568391E+004  3.5044778E+004  3.9308480E+004  4.5886726E+004  4.2762017E+004  5.5974217E+004  5.9840393E+004  7.2710256E+004  7.7564974E+004  9.7541260E+004  1.0085382E+005  9.0074438E+004  1.1479702E+005  1.0979742E+005  8.7310598E+004  5.1976541E+004  8.2892335E+004  1.0750388E+005  1.2801879E+005  1.3812445E+005  3.0048752E+004  8.1848358E+003  4.7475218E+003  3.3535938E+003  1.3815969E+005  1.4256288E+005  2.8380323E+001  6.5948099E+001  2.2499230E+004  2.0091468E+002  1.3730390E+002  3.0407925E+002  1.7033715E+004  7.3369451E+002  6.3306055E+002  1.3180019E+004  6.0401116E+004  6.7447622E+004  5.6120017E+004  7.7793012E+004  6.7595253E+004  9.2044231E+004  9.0098143E+004  1.3417791E+005  1.7031559E+004  1.7944265E+004  5.6913947E+003  1.7287384E+004  1.0281622E+003  1.6335552E+002  3.8276064E+004  5.7878736E+003  7.8407545E+000  7.6886679E+000  2.7745398E+003  2.2290884E+003  8.8835422E+002  1.0615539E+005  1.3073627E+005  1.4729156E+001  1.6392286E+005  1.5122845E+005  1.7291048E+005  1.5130868E+005  1.8958437E+005  1.6938142E+005  2.2701129E+002  1.4138966E+004  1.1067448E+004  4.0898557E+004  5.6611116E+003  1.7257306E+003  1.1622464E+002  5.4997696E+002  4.8752466E+002  7.8851266E+004  2.0463706E+005  5.8435413E+003  3.9253572E+003  1.1357632E+003  5.7786767E+004  4.0767712E+004  5.6448595E+004  8.3829448E+003  6.7074753E+004  3.9247465E+002  3.2006160E+002  4.1758905E+002  3.5344180E+002  1.0435489E+004  6.0517188E+003  3.2599792E+003  2.7125555E+003  1.7202070E+003  5.5652054E+002  1.1610127E+004  1.4383445E+004  6.1575632E+002  1.1326841E+003  4.2352933E+001  5.1226884E+001  7.0597323E+001  9.7953564E+001  1.8217552E+003  3.6987950E+004  3.0360021E+001  3.3090536E+003  3.2535867E+004  2.5602482E+004  2.0006261E+004  1.9171576E+004  2.7853926E+004  8.8942362E+001  1.0254510E+002  2.5915763E+005  3.2874695E+005  2.4045046E+005  4.9402273E+004  1.2134843E+003  1.4042557E+003  2.0415497E+002  2.7236278E+002  6.7986418E+003  6.8095640E+003  5.3120841E+002  1.4401377E+005  1.3014031E+004  1.5805373E+005  1.9422155E+005  2.5702441E+005  1.4265369E+005  1.7828223E+005  1.2144462E+005  1.8394411E+004  2.1961311E+001  1.4968476E+001  2.5501654E+002  7.7519672E+004  1.3296953E+005  2.9100215E+005  6.9959984E+004  8.5648139E+004  1.0768515E+005  7.7281810E+004  2.7550133E+003  9.7406808E+004  3.9443163E+005  4.3260428E+005  9.2045991E+000  1.0393824E+003  1.6502846E+005  1.6459071E+002  1.0142188E+004  1.0283186E+003  2.1196007E+002  1.3236750E+002  1.4466225E+002  2.0098187E+005  1.9054332E+005  3.9179576E+003  2.2522911E+003  6.0799485E+001  3.0503667E+004  2.0501877E+004  2.6313861E+004  1.1783270E+004  1.8293085E+002  8.6316986E+003  2.4084725E+003  2.1040928E+002  1.6755802E+005  1.8263909E+005  1.5074126E+004  1.6742408E+005  2.5991728E+004  1.1464591E+001  1.3993599E+001  3.5338339E+000  4.8824400E-001  2.8022096E+000  3.7870958E+004  5.0731364E+004  5.0789485E+003  6.0929658E+003  4.1175378E+003  9.5895940E-001  1.0218289E+003  1.2726869E+003  1.6406169E+003  3.2753740E+005  2.8431984E+005  3.7596148E+005  4.5058725E+005  3.8538764E+003  2.9347061E+004  3.2097895E+004  2.9067033E+004  2.0565697E+004  1.8617698E+004  1.3809454E+004  3.6329379E+005  3.2736406E+003  2.0658626E+003  5.3597856E+003  3.2086607E+002  1.1040583E+003  5.1371109E+005  4.6510621E+002  1.4324331E+004  7.2866444E+002  8.5722207E+003  1.8231198E+005  1.9277901E+005  1.7753106E+005  2.3684196E+005  3.7632284E+002  2.3512460E+004  1.9152883E+005  2.7826589E+005  3.9891480E+004  1.4603038E+005  5.4190978E+003  1.0634287E+005  7.6566616E+003  1.0749863E+004  1.3487123E+005  5.5779089E+004  1.9065079E+004  5.1576537E+004  4.0187948E+004  4.3441814E+004  1.5934454E+001  7.5207749E+002  1.0370150E+003  3.1521068E+004  4.1681426E+002  8.0215595E+004  1.7360990E+002  3.4083543E+002  1.0619704E+002  2.0673582E+003  5.8333519E+002  4.0341992E+004  2.2207918E+001  2.6434756E+003  3.4037188E+005  4.6938035E+003  3.8983820E+002  6.5161799E+004  1.4256790E+005  1.0915198E+005  3.8820372E+003  5.3463715E+003  3.7675264E+003  1.0063310E+002  3.3924565E+003  2.9144653E+002  1.9623177E+004  2.9513889E+005  5.8733649E+005  3.3041579E+001  7.9460086E+001  3.1737514E+001  1.1770149E+005  2.8465595E+003  5.0010810E+004  6.4569052E+000  1.8886535E+003  4.2385300E+003  8.8923248E+004  1.4911539E+003  4.1607810E+001  6.2526280E+001  4.9491825E+004  7.3250066E+001  2.3999076E+004  2.1057110E+000  8.9097690E+002  1.7705179E+004  1.3607160E+004  1.3531239E+002  8.5539993E+003  2.9858629E+000  6.3330531E+004  2.0289042E+004  9.3612974E+002  1.6918612E+005  2.4180782E+003  1.2725639E+003  2.5458071E+004  4.2253218E+003  1.0242789E+005  3.0173495E+004  1.0600795E+004  2.2597192E+005  2.9113660E+003  6.7160096E+004  1.8076594E+005  6.7095141E+002  2.3527642E+004  4.0748087E+002  1.9386650E+002  1.4148437E+004  5.4594095E+003  1.2680202E+001  1.1794710E+004  4.0361767E+004  3.8288736E+004  1.7404797E+005  1.3929781E+003  5.9135479E+001  1.9161798E+003  7.1339230E+003  1.3919974E+004  2.8649168E+005  5.6604797E+000  4.6568010E+003  2.4016639E+003  2.0575479E+002  3.6430675E+004  2.5637265E+002  1.6350515E+002  2.8208382E+005  6.4739076E+003  8.3805947E+002  7.6345894E+001  1.3042532E+005  1.6080217E+005  2.2939824E+005  2.0413264E+005  6.8021079E+004  1.4480282E+005  2.0913342E+005  8.6528269E+001  5.8279976E+003  2.5257195E+003  4.8195299E+005  1.2133601E+005  2.4628943E+005  2.4635247E+003  8.2149825E+002  4.4964443E+002  1.8384241E+004  3.9681390E+001  6.0774768E+004  2.4313214E+004  1.8452114E+002  4.3460757E+001  3.4157823E+004  3.9724218E+003  1.8574530E+002  5.3408274E+004  2.1741221E+004  3.4087358E+004  1.3973695E+004  7.0706561E+002  4.7042966E+001  6.9785956E+001  8.3495233E+004  1.2827566E+002  4.1974406E+002  2.8429676E+003  1.2146104E+005  3.7298137E+005  7.5056993E+004  2.8194613E+004  6.5217486E-001  1.2182618E+001  2.9372169E+004  3.5617523E+004  2.8413207E+002  2.0709348E+003  7.6348793E+000  3.0473803E+000  8.7425170E+002  5.9045239E+003  4.4215553E+005  1.7071818E+004  1.2156663E+005  1.4537237E+003  5.0167701E+004  1.5656801E+005  1.8781441E+005  5.7459517E+004  2.0813439E+004  4.4462669E+002  5.3703806E+003  7.9717442E+001  1.9673075E+004  7.0034650E+004  4.6692759E+004  1.2983716E+003  1.6288368E+003  1.6241945E+003  1.0051863E+004  4.1134230E+004  3.3930216E+004  1.9784587E+004  1.8756317E+004  8.8673501E+002  1.6242519E+003  2.6201397E+003  3.9980567E+003  7.4660135E+003  9.3865342E+003  2.0086897E+004  1.3599992E+004  1.4531732E+004  3.6621107E+004  5.0347592E+002  1.0215295E+005  8.9717598E+005  3.7115712E+002  2.1109542E+002  1.3784980E+004  6.2510304E+005  3.7867865E+004  5.0848905E+004  4.7109546E+001  1.5258224E+005  6.0933483E+005  1.2801183E+006  2.9411316E+005  5.0484965E+004  4.7754953E+001  3.1371806E+004  3.6571880E+005  1.4990595E+004  1.2402911E+001  9.2597686E+005  1.3007260E+005  4.5459819E+005  1.4464978E+006  1.3722579E+004  1.8022876E+004  2.5286436E+004  1.4435625E+004  1.6722275E+004  3.0051952E+002  9.6561564E+003  6.5567892E+002  1.1130051E+003  4.9663645E+003  2.3134150E+003  3.2560102E+003  1.8886835E+005  5.4731262E+000  8.7504741E+003  2.5430395E+005  1.5919625E+006  1.9072284E+004  9.2343107E+000  2.2357829E+004  2.9142468E+004  3.5621171E+004  3.3205189E+004  2.7152247E+004  3.0669578E+004  3.7280508E+004  3.3824216E+004  4.2166147E+004  3.8345013E+004  4.8405784E+004  4.5523646E+004  5.6705766E+004  5.2689983E+004  6.7193104E+004  6.4638797E+004  8.1307939E+004  7.9667865E+004  9.9831895E+004  9.9500338E+004  1.2341071E+005  1.2873478E+005  1.5775218E+005  1.6395554E+005  2.0442966E+005  1.9224749E+005  2.5067075E+005  2.3317073E+005  2.9916899E+005  2.7567750E+005  3.5055851E+005  3.1695620E+005  3.9992510E+005  1.2865973E+005  1.6667985E+005  1.3396904E+005  1.7147390E+005  1.4666001E+005  1.7971823E+005  1.5344135E+005  2.0621143E+005  1.9092648E+005  1.5896240E+005  6.9720510E+004  3.5907298E+005  1.0809095E+005  1.2619666E+005  1.2930616E+005  5.9534615E+004  1.6507132E+005  1.3796599E+005  1.0960287E+005  1.1531130E+005  9.2234960E+004  9.2394727E+004  1.2070007E+005  9.9122007E+004  7.5928236E+004  8.0476207E+004  6.1980265E+004  6.2187136E+004  8.4115960E+004  6.7527576E+004  1.2902013E+005  4.9578460E+004  5.3137114E+004  7.1744839E+004  5.2910627E+004  7.4743591E+004  5.6290657E+004  4.0358528E+004  4.2051055E+004  3.0386737E+004  3.1354369E+004  4.4910024E+005  8.7972894E+004  3.8372855E+004  3.9376299E+004  4.3298992E+004  3.1666993E+004  8.1517800E+004  2.2165572E+004  2.2690359E+004  3.1408322E+004  2.2082382E+004  3.0272562E+004  2.0858906E+004  1.5557000E+004  1.4258878E+004  1.8957275E+004  1.2704316E+004  9.4750056E+003  8.4376051E+003  1.0981278E+004  6.8194316E+003  8.9745397E+003  5.5010979E+003  1.6425648E+004  4.2720525E+003  3.3952299E+003  3.8689465E+005  2.5128964E+005  4.0067714E+005  1.5538039E+004  6.1129057E+003  6.9440784E+003  6.7213362E+003  3.2037139E+004  5.0666368E+005  1.3581556E+004  3.2259348E+005  5.6478422E+005  1.7571740E+005  7.4296050E+004  2.5703680E+003  2.1101005E+003  4.3746673E+004  4.1022530E+004  2.5290658E+003  1.5341870E+003  9.6834316E+004  3.6352793E+004  1.8382854E+005  2.8428488E+004  7.1150394E+004  2.0985237E+005  4.7824934E+003  1.1827167E+004  1.3242565E+003  8.7777947E+002  1.0224365E+003  2.4997011E+004  4.9851577E+003  5.8565420E+002  2.6407230E+004  1.0698287E+004  3.5811289E+005  1.0248113E+005  2.9043285E+005  5.1152133E+004  6.4408315E+005  7.1427498E+005  3.1525955E+003  2.1224373E+003  2.4284819E+003  5.9900065E+004  5.1068883E+002  3.2532573E+002  2.0285940E+004  2.2371191E+004  2.7668971E+005  3.3296767E+004  5.7704112E+004  6.8363297E+004  2.2772526E+005  2.7625850E+005  1.4210208E+004  1.0359844E+004  1.3359980E+004  6.2664386E+005  3.5062549E+003  8.4594918E+003  9.0506346E+003  6.8624138E+003  5.0892759E+003  6.8153577E+003  5.0678052E+003  5.7807264E+004  2.2511185E+004  2.0593680E+004  3.2049639E+005  3.9184686E+005  5.6981016E+004  6.6276618E+004  5.6108718E+004  6.5303206E+004  5.5427708E+004  6.4944673E+004  5.5457886E+004  7.5656572E+004  6.5396134E+004  5.5408857E+004  6.6213959E+004  5.6329898E+004  7.7546132E+004  4.6358328E+004  4.7821716E+004  5.7336978E+004  4.7097682E+004  5.8937816E+004  4.9879212E+004  3.9815958E+004  4.2082434E+004  3.3709419E+004  3.5572816E+004  3.1586783E+004  6.1198535E+004  2.2810589E+004  7.8413584E+004  2.4777399E+004  3.0603353E+004  1.6756762E+003  1.4449565E+003  3.0914487E+002  1.8850627E+002  4.3230306E+002  2.8327036E+004  3.0105684E+004  3.7519309E+004  3.1999420E+004  2.5447276E+004  2.7349548E+004  1.8385897E+003  8.2160738E+005  7.3620424E+005  9.0774439E+005  3.3996995E+003  6.5603400E+003  6.8310880E+003  9.0689280E+003  6.0485101E+002  1.1247352E+003  1.6415890E+004  1.7762051E+004  2.3736034E+004  1.8343480E+004  1.3552996E+004  3.9535540E+004  7.2334691E+004  9.6936829E+003  2.5695457E+003  2.6233600E+005  2.3611349E+005  3.9343436E+004  1.8341384E+002  5.3417321E+002  1.8466023E+002  2.8842127E+005  1.2334207E+004  9.6232878E+001  1.1331606E+003  4.9918286E+003  2.1632890E+004  2.3486939E+004  2.0260302E+004  2.9076058E+004  2.5249378E+004  2.0307222E+004  2.1881894E+004  2.6866413E+004  2.3515767E+004  7.4661010E+003  6.2251008E+003  4.9036078E+004  5.0241536E+004  4.0697789E+004  4.1069427E+004  1.9156545E+004  2.0582855E+004  1.8721443E+004  6.1757165E+004  5.6807644E+004  3.7856977E+004  3.7395792E+003  3.8092098E+003  1.6763215E+004  5.1211952E+003  3.4773625E+003  2.3230787E+004  2.8621559E+004  1.8634124E+004  9.0279202E+003  3.6954464E+004  1.3073299E+003  1.5086743E+004  2.5780736E+003  1.8953977E+003  1.0910023E+005  1.1004911E+005  7.8449478E+004  1.0311442E+005  3.0077947E+005  2.3319718E+005  2.5909781E+004  2.5708574E+003  4.3839166E+002  1.8760712E+004  2.0326832E+004  3.2897261E+004  7.4383116E+004  2.1490384E+005  2.0466477E+004  1.7158737E+004  3.1655730E+004  4.9031521E+004  3.7034366E+005  3.2336898E+005  6.7560318E+003  8.9148368E+003  2.0715223E+003  2.3065672E+003  6.0705159E+004  9.7092709E+004  1.7227156E+004  3.4823734E+004  2.6675366E+004  3.3748453E+004  1.0263690E+006  1.1771966E+006  9.9352021E+005  1.2489181E+004  5.1438562E+004  1.4844117E+005  1.0107884E+005  1.0294720E+005  1.1282149E+004  4.6385918E+004  7.0753280E+004  3.7669537E+003  2.9206758E+003  5.8289352E+003  2.4894858E+004  2.5580199E+004  1.4442370E+003  1.2882996E+006  7.5669324E+003  3.5955899E+004  1.6173188E+003  1.0584637E+003  8.2764493E+002  7.0028303E+002  8.5277980E+002  5.7830750E+002  4.8319066E+002  5.0504005E+004  1.8736610E+005  2.0965385E+005  1.6948630E+005  1.8398851E+005  1.4807877E+005  1.6116960E+005  2.6748687E+004  2.2743990E+004  2.5829407E+004  2.9176578E+004  3.6615923E+004  2.7628166E+004  2.3983621E+004  4.5119213E+004  1.9362608E+004  1.5837260E+004  1.7140701E+004  7.1528751E+003  5.1069678E+003  6.0047623E+003  7.8699851E+003  2.8149784E+002  2.3325550E+004  4.8781171E+003  4.0057238E+003  4.8555082E+004  3.1847219E+004  4.0449885E+004  3.7061451E+003  1.3056493E+004  9.9336261E+003  1.1541910E+003  4.7503741E+004  1.5244683E+004  1.9270961E+003  1.3310845E+004  1.9827488E+004  1.4536078E+004  1.6914883E+004  1.0279021E+004  1.8975503E+004  5.3410958E+004  4.3374689E+003  1.7228013E+005  2.1036561E+005  1.3747979E+005  1.7003853E+005  3.1632244E+004  1.8324207E+002  1.0134979E+002  1.0267754E+002  4.7808562E+001  4.4411417E+004  3.8455242E+003  4.3631512E+004  2.4199319E+004  1.3730397E+005  4.8091168E+005  4.0942169E+005  5.6857015E+005  4.9312375E+005  3.4858675E+005  4.3363673E+005  5.7701727E+005  5.0842784E+005  6.6762599E+005  5.8292154E+005  7.6643547E+005  8.7222624E+005  3.8037720E+005  2.9732084E+005  6.4539063E+004  6.4500480E+004  8.2986090E+004  8.4507730E+004  1.0573818E+005  4.9687545E+004  1.0902477E+005  1.3565179E+005  3.1889141E+001  7.0679525E+002  1.0332470E+004  6.9986951E+003  5.4241204E+004  8.0283657E+002  1.2366364E+005  1.7212130E+005  2.2124311E+004  3.9116432E+004  1.7994729E+004  4.0315842E+004  1.8438139E+004  1.7026428E+004  2.1108217E+005  6.2374744E+004  1.4184626E+003  5.3009831E+003  1.5879520E+004  1.1437281E+004  9.8296976E+001  2.5438750E+003  7.2568567E+001  1.6801296E+002  1.7823464E+004  4.0666009E+003  4.9197876E+003  2.3968742E+004  2.1730342E+001  1.6475941E+004  4.2934505E+004  6.6337646E+005  4.4189888E+004  3.4809128E+004  4.4501826E+005  2.3005776E+005  5.7056099E+005  4.9737397E+005  5.4864367E+005  6.8555853E+005  5.9922491E+005  7.3468452E+005  5.0502178E+005  4.4049143E+005  2.8584392E+005  7.8429367E+005  3.4889789E+005  9.0983074E+005  2.3751779E+005  2.6070142E+005  2.5854620E+005  1.1175504E+006  1.4780297E+005  1.2678924E+006  1.3831995E+006  4.5875863E+005  6.5567247E+004  2.0164670E+005  1.8427496E+005  3.3295806E+005  2.7892539E+005  4.3407272E+005  1.1724919E+006  8.5984265E+005  3.1112330E+005  1.7133186E+004  1.8145522E+004  2.8518624E+003  3.0978044E+003  1.8682233E+004  1.6016312E+004  7.5757104E+004  6.6922429E+001  1.9961702E+001  5.4802279E+004  3.7127051E+004  4.6084965E+004  3.5171884E+004  3.7348992E+004  4.4183310E+004  2.0988666E+004  5.6415414E+002  1.0041019E+003  1.6495295E+004  1.4593872E+003  8.6076403E+002  2.1896820E+004  1.8309698E+003  1.7390176E+003  2.5667552E+003  1.4756922E+003  9.3574915E+003  1.3253683E+004  4.0329586E+003  4.3616593E+003  7.9828773E+003  1.3703170E+005  1.4979777E+004  2.9027683E+004  2.0116106E+005  1.5579854E+005  4.7805053E+004  5.1863980E+004  2.7891302E+004  3.1023495E+004  3.6436086E+004  6.2682430E+005  1.0665937E+006  4.7739356E+005  3.0204625E+004  2.6903888E+005  4.1736603E+005  9.0596480E+004  2.7703179E+004  1.5136445E+005  9.6718582E+005  1.5401412E+004  8.8795983E+003  1.2333012E+004  2.0734721E+004  4.3903318E+003  5.3458634E+001  9.0348170E+002  4.0241743E+003  7.5392167E+003  7.6374809E+004  2.6382705E+002  1.2188688E+004  5.4312225E+003  8.2576903E+004  3.0738134E+005  8.6062611E+004  3.4148145E+004  1.7728954E+004  2.1322061E+005  1.7880359E+004  1.0042478E+003  1.6496799E+003  5.1305960E+003  7.4963580E+004  2.1706358E+002  2.5280826E+005  2.3725865E+005  4.4182089E+004  6.1894558E+005  3.2482430E+004  2.0318185E+000  6.6853494E+004  8.8900674E+003  4.1182282E+003  3.0640620E+004  6.2773770E+004  1.9105696E+003  2.1495089E+003  8.9083888E+004  9.1259173E+004  9.8600593E+004  1.3218570E+004  7.4660667E+004  1.2956567E+005  2.8542466E+004  5.9875471E+004  1.1437501E+005  6.1102516E+004  1.2661707E+004  3.2330130E+002  4.0218649E+004  1.7836520E+003  6.7076489E+004  7.3442922E+003  2.0793315E+004  2.9122599E+004  1.0249083E+005  1.0437879E+004  7.6398430E+004  7.6078371E+005  4.0943395E+004  2.1897502E+005  1.4602528E+005  1.2387340E+004  4.8262275E+000  2.7660430E+004  5.0115019E+003  2.0017385E+005  3.2995720E+004  1.0674749E+004  2.2431791E+004  5.0925624E+005  1.3184372E+002  1.1797271E+003  8.0980730E+003  1.0888067E+004  1.6616955E+004  2.0240261E+004  9.0025088E+004  4.7219371E+004  6.8258454E+004  4.1034162E+004  1.9941121E+005  1.1712062E+004  2.6196800E+004  5.7214591E+002  2.1200316E+005  1.8823619E+004  4.1808120E+004  1.1918760E+005  3.2773748E+005  2.2864634E+005  9.3548124E+004  8.0124370E+005  1.3720205E+005  8.6729863E+005  6.7842792E+003  4.6074623E+004  2.2783301E+004  9.2145516E+004  7.3434235E+002  5.8150335E+004  2.7080029E+004  2.1610387E+003  1.7498250E+004  3.4510511E+004  1.7793931E+004  3.3407000E+005  8.6631731E+004  7.8034158E+004  2.2638162E+004  3.2053494E+004  3.8866728E+005  6.0095646E+005  8.6608934E+004  8.8250431E+004  8.9511403E+004  9.8406421E+004  4.0527824E+004  5.6167910E+002  3.8513997E+002  1.5677017E+004  1.2642879E+003  6.0527122E+003  2.2518802E+004  2.5406197E+004  1.0013532E+005  2.8780600E+003  9.7504368E+003  2.9035933E+001  3.6573457E+002  1.2165146E+005  3.9287405E+005  9.1288574E+004  3.7148881E+005  3.5340286E+003  2.3718151E+005  6.5196204E+005  9.9556698E+003  8.6894297E+004  9.8593399E+004  4.0573669E+002  9.7605098E+004  4.7529061E+004  4.1826304E+004  1.4906919E+005  1.9146264E+004  3.2335338E+003  2.3564683E+004  4.3121763E+003  4.3519351E+005  2.2172037E+005  1.0687425E+006  6.3776595E+002  9.2529067E+004  2.0392035E+004  5.8008995E+004  1.8480740E+001  1.5159252E+005  2.0252143E+005  3.6508478E+004  2.9855263E+004  8.3520123E+003  1.3015276E+004  1.3127679E+005  6.8597254E+004  7.6455444E+003 -2.2557599E+002  8.0972076E+004  1.2937797E+004  1.8010640E+005  1.3024215E+005  1.2522227E+001  4.7092774E+003  1.6062477E+003  1.1396799E+005  4.7160702E+004  2.5691641E+005  2.6412653E+005  6.4172905E+003  5.6334891E+004  2.7649391E+004  1.3555631E+004  1.1126551E+006  1.5791807E+004  2.8478963E+003  8.5797130E+004  2.4530598E+005  1.7351054E+004  6.5735303E+003  1.5172543E+003  7.9264489E+005  2.4663912E+004  4.1205075E+004  7.9775238E+001  4.6358189E+005  2.7608546E+003  1.0486014E+005  1.0827793E+005  5.2343955E+003  4.1919338E+004  7.7679381E+004  1.2316604E+005  5.3215099E+004  1.0590464E+005  6.0044996E+004  6.1299648E+002  1.2145907E+005  1.1906639E+006  5.0726026E+004  1.1083072E+005  4.4303345E+004  4.6288311E+003  1.8170524E+004  3.1657593E+004  1.8022168E+005  1.7575348E+003  2.7222132E+004  2.9196697E+004  5.5559719E+001  3.6237870E+000  3.3237604E+002  9.9316718E+000  2.4946999E+001  9.7612883E+001  5.5216647E+002  8.4474758E+002  4.6538565E+002  1.0614739E+003  1.5105476E+003  2.0727770E+003  1.9171962E+003  2.1876926E+003  2.5971846E+003  2.7922060E+003  2.3722293E+003  2.6037690E+003  2.6163119E+003  2.1604572E+003  2.3401561E+003  2.2718724E+003  1.8943939E+003  1.9516578E+003  1.9477167E+003  1.5527989E+003  1.6536771E+003  1.5860429E+003  1.6348242E+000  1.3083415E+003  1.3869927E+003  1.1395303E+003  1.1586923E+003  1.0656546E+003  1.0289725E+003  8.2646891E+002  8.5663301E+002  7.9515469E+002  7.4531908E+002  7.0240307E+002  6.8321799E+002  5.8684253E+002  5.4707786E+002  5.2839794E+002  4.9548756E+002  4.6731666E+002  4.5986470E+002  2.3007682E+001  3.1252551E+001  1.7194254E+002  5.1191076E+001  7.4004907E+001  1.0448529E+002  1.0167654E+002  1.2098509E+002  1.4234197E+002  1.2203522E+002  1.3504988E+002  1.4633443E+002  1.1841912E+002  1.2538401E+002  1.3111235E+002  1.0407920E+002  1.0816843E+002  1.1161812E+002  8.8577038E+001  9.0511693E+001  9.3268799E+001  7.3484613E+001  7.5137021E+001  7.7451679E+001  6.5924991E+001  6.6793188E+001  5.2018161E+001  4.8427759E+001  4.8962828E+001  4.9874010E+001  3.8809059E+001  3.5956349E+001  3.4819081E+001  3.3701684E+001  3.4558350E+001  2.6733673E+001  2.6254671E+001  2.5678633E+001  2.6751624E+001  2.4780883E+001  2.9090944E+002  6.1565407E+001  2.2985390E+002  4.1792874E+000  8.1715904E+001  1.8285380E+002  1.4780468E+001  6.5403838E+001  9.9724764E+001  3.3509219E+001  1.1078314E+002  7.2179203E+001  1.5554091E+002  1.0380324E+002  5.1171927E+001  7.4298245E+001  4.1948054E+001  2.6876801E+001  2.3773230E+001  6.0866820E+001  9.3507147E+001  1.2635692E+001  1.2606698E+001  8.3410821E+001  3.8072481E+001  1.1745565E+002  1.4974161E+002  1.3511789E+002  3.0300226E+001  1.8490075E+002  3.7854133E+002  2.8121695E+000  3.6183348E+002  1.9322354E+000  6.4294318E+001  8.8376121E+001  5.2523177E+002  5.5527685E+002  1.2841991E+003  3.1035527E+001  1.5003443E+002  1.3023753E+002  2.6242596E+001  1.1106229E+002  9.2669753E+001  1.0168361E+002  5.7697893E+002  5.9574110E+002  1.3340271E+003  5.2397026E+001  2.8557788E+002  2.8284806E+002  6.5383894E+002  8.4212304E+001  4.6964769E+002  4.6710093E+002  1.0616216E+003  3.3328460E+001  1.7907604E+002  2.9967085E+001  1.3099419E+002  1.2778170E+002  3.1599039E+002  2.8965482E+001  1.4240491E+002  3.8413421E+001  2.1426635E+002  2.1066412E+002  4.8908659E+002  3.1263271E+001  1.5338392E+002  9.6832444E+001  5.4106965E+002  5.4631865E+002  1.2348658E+003  7.0607033E+001  3.9483759E+002  3.9042033E+002  9.0724455E+002  3.1107445E+001  4.1989457E+001  2.0710339E+002  5.8573587E+001  3.2759188E+002  3.2395774E+002  7.4805393E+002  6.4434763E+001  3.1381335E+002  5.7756987E+001  2.2625536E+001  9.9543766E+001  1.0067754E+002  2.4757244E+002  2.1568123E+001  1.0642126E+002  4.7762450E+001  7.7171961E+001  3.7555405E+002  8.9888296E+001  4.6776996E+002  1.7202037E+001  2.3415260E+001  1.1357772E+002  3.4276488E+001  1.6549865E+002  4.5915648E+001  2.2162639E+002  6.9402676E+001  8.1445391E+001  7.6855046E+001  4.4911092E+002  1.8551359E+001  9.2285871E+001  2.7322968E+001  4.1744370E+001  2.4164779E+001  8.9831374E+001  8.5408292E+001  1.8073074E+001  9.9171489E+001  5.5254642E+002  4.3663345E+001  3.0272577E+002  3.6234033E+002  7.9665594E+002  5.9577397E+001  9.9719951E+001  5.4408345E+002  3.7296728E+002  6.0762695E+002  3.1966705E+002  3.1315094E+002  1.6610076E+002  1.6464355E+003  9.4693297E+002  5.6283374E+002  3.0416745E+002  8.4162347E+002  4.2870192E+002  7.5036293E+002  3.4485708E+002  1.7757642E+003  8.9303020E+002  7.4460690E+002  4.0801764E+002  4.4356846E+002  2.1363645E+002  6.8292213E+002  3.6710629E+002  3.5684973E+002  1.2855097E+003  6.3523867E+002  1.1727267E+003  5.2537256E+002  1.0607976E+003  6.0208435E+002  1.2616493E+003  7.1420656E+002  4.7820298E+002  2.9701849E+002  1.5034713E+003  8.4641336E+002  1.4166031E+003  7.1777586E+002  3.7072981E+002  2.0855640E+002  9.6063283E+002  4.8493068E+002  1.6518169E+003  7.4811813E+002  1.7633540E+003  8.5479261E+002  1.6817781E+003  9.3311646E+002  3.0719060E+002  1.8081683E+002  5.0977535E+002  2.8173064E+002  3.1862079E+002  2.2341033E+002  1.4898764E+003  7.7698846E+002  1.1611153E+001  6.8651688E+001  3.4538276E+001  8.5041858E+002  2.9022494E+002  7.7479692E+002  4.0198722E+002  5.4112724E+002  2.0735507E+002  4.5969450E+002  6.6954534E+002  1.5870699E+002  8.1949963E+002  5.7431384E+002  1.1710664E+002 -1.1861205E+001  2.1066047E+002  5.6591856E+001 -5.9920745E+001  1.9639009E+002  1.2345268E+002  1.8742596E+002  1.9850021E+002  1.2902698E+000  1.9213819E+002  2.5518786E+001  5.8482857E+001  1.4460729E+001 -4.9062561E+001  8.2570586E+001  3.0944992E+002  2.1024126E+001  2.0280144E+002  5.7701608E+001  1.1798252E+002  4.8372434E+000 -3.4531725E+001  7.9930272E+001  7.4368057E+001  2.5514399E+001  1.8522032E+002  5.4739645E+001  7.1234122E+001  1.5870237E+002  4.1739883E+002  1.1146358E+002  1.5034473E+002  5.3263703E+002  1.6933374E+002  2.0561244E+002  2.4992826E+002  7.6246781E+002  6.8909680E+001  3.0812105E+002  4.2922947E+001  3.3914296E+002  1.4205027E+002  3.2642278E+002  2.3169660E+002  9.9768108E+002  8.2788689E+001  5.5153675E+001  1.1500402E+003  1.5850698E+002  5.3974506E+001  1.7221432E+002  1.5202219E+003  1.1017605E+002  7.4915218E+001  1.6558790E+003  8.0839617E+001  2.3036664E+002  2.0600782E+003  8.1690404E+001  2.4036500E+002  2.5890392E+002  2.2140753E+003  1.0071249E+002  9.6560016E+002  1.0884876E+002  5.2529866E+002  1.0976818E+002  3.2570163E+002  3.4714396E+002  1.2691928E+002  1.5328310E+002  1.5468578E+002  5.0709621E+002  1.8505673E+002  1.8389769E+002  2.2331233E+002  5.6783821E+002  2.2749603E+002  2.5782186E+002  2.5592896E+002  7.2570865E+002  2.6910820E+002  2.5192262E+002  7.8743336E+002  2.3404729E+002  1.9279906E+002  8.4355567E+001  7.8330357E+002  6.4502918E+002  6.0139068E+000  1.2052862E+001  1.1716795E+002  9.5063824E+001  4.8307969E-001  1.2487353E+002  1.3318569E+002  1.1864012E+002  2.1779020E+002  2.8579523E+002  3.2318411E+002  3.9365583E+002  4.5737101E+002  5.0064040E+002  5.2967884E+002  8.3223174E+002  4.6486860E+002  5.9383132E+002  4.3227109E+001 -1.0634431E+002  8.7379943E+002  2.4805477E+002  1.6991949E+002  1.0442648E+002  9.6854809E+002 -9.1731746E+001  2.0261721E+002  8.8874480E+002  1.4181160E+002  3.1226009E+001  7.7586044E+002  6.3900321E+002  5.3833437E+002  4.6995388E+002 -4.5477469E+001  6.6115269E+000  3.4015621E+002 -2.4491862E-003  4.0201389E+004  5.1635334E-001  3.0470925E+001 -1.5122957E+003  1.2954004E+002  3.2277201E+001  2.5825300E+004  2.1615277E+002 -2.2741869E-001  3.3824748E-002  2.4735867E+003 -2.3672830E+000 -5.7698728E+000  5.0005695E+000  2.0055901E+002  1.6701156E+004 -2.0738253E+001  1.0289190E-004  9.3995480E+003  8.8965015E+003  7.3848200E+002  1.9362324E+003 -1.0704911E-004 -6.5945352E+001  4.1927233E+004  8.3979732E+000  2.3493292E+000  7.5910103E-006  2.2691518E+001  9.1032090E-004  7.6838269E-002  2.6736026E-003  3.1275066E-004  1.8825135E-004  7.3936834E-003 -5.2984885E-003 -4.1015165E-004  3.8011652E+004  1.6278322E+003  9.6611427E+001 -4.1088239E+003  6.9437912E+001  1.4653623E+000  8.7794940E+004  2.5895867E+003  1.8396981E+004  1.2944783E+003 -3.5054626E+002  6.0620314E+002 -8.6404802E-003  2.5636657E-001 -2.2877232E-002 -2.7247422E-001  4.6715816E+001  1.1121440E+003 -2.1895646E+002  1.2136706E+004  7.3743505E+001  4.6162222E+000  1.7101482E+002 -1.0327469E+000  2.0085319E+003  2.7511456E+003  7.5575525E+004 -1.7195949E+003  7.1796897E+003  4.1403202E+002  6.4745572E+003  3.1984813E+002  9.7332487E+002  1.0571271E+003  1.5672098E+005  6.5099675E+000 -2.1480609E+001  5.5660920E+001  3.7657658E-001  4.4295007E+002 -2.9396738E-001  1.2796209E+002  1.0480992E+004  5.5317653E+002  1.2834177E+004 -8.8175985E+001  6.0697100E+003 -1.4122770E+001  8.5840444E+000  1.0531389E-004 -1.2187820E-003  2.0644317E+004 -4.3756886E+000 -4.1543285E+002  1.9702312E+004  2.2442082E-001  1.7605823E+005  3.3832631E+001  9.6013476E+001  3.1170899E+005  2.0172092E+001  1.0749041E+005 -6.1470931E+001  3.2432800E-003  6.9026232E-005  1.4827973E+001  1.9254602E+002  9.8835808E+000  6.6793771E-005  3.7867114E+002  4.1358773E+004  3.3721106E+003  4.3564085E+005  1.2360701E+002  4.3876855E+002  3.6078942E+001 -2.7924935E+002  2.5133601E+004  6.2630913E+001  1.7534845E-003  2.6681005E+003 -8.9235278E-005  2.3032766E+005  1.0416274E+002 -2.7102032E+000  6.2627204E+004  1.0839930E+002  1.8232710E+003  2.8029257E+001 -2.8930287E-002  8.6025479E+003  2.1226815E+002  8.8881700E-001  1.8296990E-002  8.9242563E-006  1.1454318E+003  2.9494775E-004  6.0976093E+002  2.4500469E+004  9.4508942E+003  3.2629789E+002  2.8876024E+003  3.6002332E+003  1.1757211E+003 -1.9010168E-003  5.7225985E+003  1.4164583E+003 -2.0878768E-001  5.7123575E+000  1.1618772E+004  6.8885110E+001 -1.3800919E-002  6.0732342E+002  9.3315509E-009  6.8236490E-007  1.1168220E-005  2.5789460E-005  2.2713755E-005  1.7643415E-006  9.5031439E-006  5.1877972E-005  4.7835701E-005  2.9678752E-006  4.0078595E-006 -7.3535855E-005 -3.6475544E-004  3.9044630E-005  1.4340327E-004  3.7389360E-005  4.3147405E-006 -4.5138097E-004  4.1997860E-005  1.7439529E-004  6.1506660E-005  3.1308824E-005  9.7040927E-008  1.9958025E-004  1.8646708E-004  1.4919610E-004  9.1347424E-006  1.0813840E-008  3.5137372E-009  8.4105050E-005  1.3651338E+000 -8.8021058E-001  2.4626256E+001  1.7767228E+001  2.0169106E+001  2.9484173E+001  5.4651864E+001  3.1846976E+002  4.8150298E+001  1.8381265E-005  2.3459461E+002  2.6271994E+000  1.1019086E+002  3.0298995E+003  1.2341896E+002  1.0725508E+001 -1.0700849E-005  4.2895176E-001  9.0061525E-009  2.5671800E+000  3.8055638E+001  3.6278580E+003 -2.9153054E+002 -6.8253379E+001 -2.2724463E+001  4.4184036E+001  2.3414486E+001  6.7613798E+000  3.6875529E+002 -1.1725446E-014  2.0276015E+002  5.1704160E-002 -4.3335113E-009  2.1406244E-013  5.4529938E+001  4.9529420E+001  3.3772240E+001  2.6513223E+001  6.6484409E+000 -6.1160611E-016 -5.4408664E-014  6.2904788E-014  1.7858009E+001  4.7577420E-007 -4.8593492E-007  5.8490613E-007  2.0297413E-009 -1.3860240E-007  2.7115312E-008  5.9534676E+002 -2.3439268E+001  8.6000825E-001 -4.1157672E-001  2.3721097E+002  1.2470031E+001  4.7731743E+000  1.6431545E+002 -7.0725175E-011  1.0150578E-008 -2.7011459E-002  1.1302235E-001  2.7454778E+002  3.7908021E+003 -2.0270183E-015 -1.3008646E-003 -2.5947913E-002  6.1075617E-004  3.0496695E-002 -4.0140326E-004  2.6184514E-002 -6.5813086E-004  6.3249281E-003  1.6237557E+003  3.6472927E+001  2.7098752E-003  4.2616218E+001  3.4946765E+000  4.6161338E+000 -1.2030961E+001 -1.7616081E-004  1.3301435E-003  4.8329792E-003 -3.3111925E-002  3.6478692E-010 -4.7367808E-005  6.0087357E-006  1.5121325E-003 -5.3555756E-005 -1.6040315E-004  2.5073669E-006 -2.1202575E-005  8.2600788E-007  1.6119203E-006 -1.7618416E-008  2.5295829E-005  1.0624832E-007 -3.8415277E-009  4.2435538E-009 -2.4603000E-010  1.5391236E-009 -5.9735476E-011 -2.9484591E-011 -1.0957734E-012  1.2244517E-011 -3.0686149E-013  3.4724493E-012 -1.2731126E-013  6.3552266E-013  1.6543898E-003 -1.7276147E-004  4.1922897E-005 -2.6220525E-012  6.5591854E-003  2.1000258E+004  4.9446710E-008  7.8981255E-014 -1.0922252E-007  1.9574215E+003  8.2898050E-012 -1.4689833E-013  4.4785328E+000  5.8220882E-012 -1.7367589E-006 -1.0044589E-006 -1.3327896E-014  1.7790696E-009 -3.4796386E-015 -2.7716315E-004 -6.1910845E-004  1.1959250E-002 -6.7714301E-014  2.0385075E-005 -2.8937706E-005 -1.9923837E-008 -2.6371098E-007  7.1413746E-001  1.0273208E-002  2.6534925E-001 -6.2064701E-002  1.8998657E+000 -8.5041751E-001  1.4181746E+001 -3.6162426E-001 -1.4959980E-015  3.5581274E-012  7.6726057E+001 -5.3278696E-015 -2.0721734E-005 -2.3562578E-004 -6.7904051E-013  2.9845680E-003  6.7096547E-003  3.1232016E-004  1.1533209E-004  7.1011720E-003  3.0429782E-004  5.3672736E-005  9.2101052E+000  7.0227999E-002  7.0423205E-001  2.8640284E-002  4.1275800E-007 -2.0048104E-006 -2.2594981E-009  2.2303737E-010 -5.0228439E-013  3.8493153E-015  2.7251189E-013 -5.8178415E-015 -7.1907803E-001 -1.7395339E-002  1.2503297E-004  8.7204221E-008  1.2307279E-015  6.8412320E+001  3.1149893E+000  9.0008022E+001  8.7278502E+000  1.8712408E-007  2.4537898E-003  6.6695868E-004 -2.3021713E-013  6.2344373E-015 -1.9636153E-003  6.6109140E+002  2.6373727E-005  7.4844306E-005  8.9517876E-004 -5.1598945E-005 -8.8571285E-005  1.0678103E-002 -9.0923610E-009 -1.6842272E-009 -5.6139186E-008 -2.4050294E-007  7.0171470E-003 -2.4322422E-004 -7.1047182E-009  2.1461562E-006 -5.4931924E-015  1.0728801E-013  3.9292638E-012  1.8409799E-012  1.6481561E-004 -4.1469828E-004  2.2426921E+000 -3.4989166E-002  3.2395200E-002 -4.6305810E-015 -4.4236022E-015  1.3016581E-015  2.0880108E+000  7.2343379E-002 -5.2746553E+001  1.3795740E-009 -1.5072727E-010  4.6447820E-004 -2.7189388E-003  1.5083459E-002  1.0280990E-003 -1.0368448E-002 -5.4946997E-003  1.4000858E-001  4.8628905E-003  2.0318235E-002 -2.7699735E-003  9.2670994E-002  3.3757179E-003  2.8146885E-002  5.8920009E-003 -6.6364962E-003  1.2931890E-003  1.2127683E-007 -3.3775543E-008  1.2534261E-007 -3.0009562E-007  1.0841005E+004 -2.4782464E+002  4.0539926E-001  2.4424096E+000  2.6117208E-007 -3.7363953E-010 -9.5341572E-010 -1.1822763E-009 -6.2744933E-011 -1.2613483E-008  6.2500124E-010  2.0526204E-009  2.6151720E-007 -3.0894216E-010  2.7010911E-008  3.0852199E-007  6.2410979E-008 -2.4576030E-009  1.3380494E+003  2.2086323E+001  3.9608537E+000 -3.1601115E-008  6.7857255E-008  1.4786402E+001  6.8460775E+000  8.0261166E+001  4.4936999E+000  1.4088428E+001  4.5639240E+000  2.7629477E+002  1.0667625E+000  1.7109978E+002  1.6335196E+001  1.9250592E+002  1.1590989E+002  4.1437883E+000  1.3931539E+002  5.7837939E+000  5.4326714E+001  2.7678038E+001  2.3126956E+002  1.5725893E+001  9.6497584E+001  3.1478849E+000  2.6644617E+001  1.1953980E-002 -2.7792300E-002  1.2517632E-015 -1.9539063E-015  1.6828445E-006  9.0192627E-003  2.4474746E-003 -2.9103994E-001  1.1598406E-005  1.2770567E-002  4.9426480E-003  2.9967281E-001  1.5903268E-002  1.4705094E-004 -1.9783681E-001  1.3263471E-001  2.9537530E-001  6.2549807E-003  5.5447151E-003  7.4330165E-004  1.1868819E-012 -5.7196024E-012  7.4295745E+001 -3.5589361E-001 -2.3652664E-010 -3.2023292E-010  1.6650483E-003  8.3627478E-002 -2.1863810E-004  3.2513364E-003  7.5989311E-003  3.7609738E+003 -4.1520343E-003 -1.0700364E-003 -1.6559396E-001  4.6367617E-001  1.2193357E+000 -1.6166671E-001  5.4913717E+000 -7.4618471E+000  9.2918948E-002  2.3134422E-002  4.7550484E-003  1.4406085E-002  8.3618850E-002  8.2958479E-002 -8.0437028E-002  2.5249342E-001  6.2654819E-011  3.3990342E-016 -5.8866917E-008  1.6920260E-009  4.8439880E-001  5.1293453E+000  1.4250573E+000 -6.1708035E-012 -6.9152904E-012 -1.1887745E-010  6.3690454E-011 -1.3932558E-011  1.5426593E-003 -2.0088602E-005  1.0854359E-004  8.8399459E-006  6.7828297E-005 -3.8184187E-006  3.8430178E-007  4.7156734E-002  2.9938909E-003  4.2262002E-010  3.9793852E-012  9.0801918E-009 -3.0700492E-001  3.9821779E-002  2.0757763E+001 -3.5664480E-009 -1.2189986E-004  4.3446473E-015  3.5073211E+004  2.9002083E+000  3.4991921E+002 -2.2902786E-007 -6.8686843E-009  1.0182847E-001  5.4974240E-008 -1.1916880E-007  2.7230494E-004  3.0614617E-002 -1.7610674E-009 -1.5454509E-009  1.1288941E-010 -2.0841264E-012 -1.6222461E-009  5.1158681E-011  2.7447913E-011  1.5929641E-012  2.4715648E-011 -7.2322434E-013 -7.2989065E-013 -1.4892253E-014 -3.2088707E-013  8.7571552E-015  9.9522227E-012 -1.3416729E-009 -1.6842282E-015 -2.0613880E-015 -2.1760774E-013 -5.4951665E-011 -3.3726297E-012 -9.4228508E-010 -1.4616766E-014 -3.0757486E-015 -2.5397253E-015  6.4288610E-005 -5.5155910E-007  1.1404930E-004  1.1866840E+000 -7.5438141E-006  1.2325841E-004 -1.3262926E-002 -3.1540666E-001 -2.8629437E-002 -1.8441775E-002  1.5523604E-002  2.3910593E-003  2.0913427E-002  5.2908019E-003  1.0494027E-005  1.7916031E-002 -2.0707655E-004  6.5769281E-008  6.1887063E-003  2.8099941E-006  2.5408005E-001  1.5559383E+003  7.3994298E-006 -4.7306642E-002  3.5963616E+000  1.5007151E-007  2.2315970E-001  1.4337454E-015  9.6869806E+001  8.9221119E-001  3.9743158E+000 -1.0754966E+000  2.3006429E+000  4.8144284E-001  8.5565251E-004  3.5289425E-002  1.1971468E-002  1.1303506E-002  1.4953428E-004  7.9723378E-006  1.8920865E+001  3.9866284E-001 -3.0092882E-012 -1.7531282E-004  3.5517911E-008  2.6307798E-003  1.0685346E-015  1.8090147E-001  1.1936376E-007 -6.3977316E-010  1.3622299E-008  1.2939676E+000  4.8690590E-001  5.0459326E-001  1.4102669E+001  2.0131940E+000  1.0057948E+002  5.5452755E+002  1.2206588E-001  7.1752419E+001  4.1173409E-003  8.3214463E-003  1.8886414E-002  5.2364084E+000 -6.1383461E+001  1.0651722E-007  8.4006720E-006  1.0647751E-010  1.1713296E-007  3.2416944E-003  1.5227398E+003  5.0189059E+001  9.6480326E-008  6.8248895E-010  4.6622956E-008 -6.8067268E-010 -8.7992220E-007  1.0152803E-013 -1.8173645E-013  5.3554667E-003  1.0779361E-012 -2.7849709E-005  3.4512341E+001  6.7012021E-004 -1.0010484E-002  1.3310025E-011  3.1251572E-001  2.1466388E-001 -1.1893916E+000  7.8414356E+000  1.3785339E-001  3.2416529E-001  1.5172234E+000  1.0374298E+000  4.7993745E-003  1.9706619E-004 -2.3927839E-012 -1.9694379E+000 -8.1131950E-002  7.2101155E+000  1.7081607E-001 -2.6230611E+000  4.7579856E+000  4.0795464E+001  3.8521608E+000  4.2861175E+000  8.3949017E-001 -2.9407113E-003  3.7445574E-005  2.5293248E+001  5.2309650E+000  1.1065803E-001  3.1405510E+000  1.2618607E+001  1.9864152E+001  1.1003603E+001  7.9402521E+000  2.1000198E-001  5.3762516E-002 -2.7962116E-010  7.6016679E-012 -3.0381481E-011  2.9711467E-010 -1.4459177E-009  7.9259111E-009 -9.7944160E-011  5.5662983E-009 -5.7561620E-010  4.8340572E-008  3.1360124E-012  6.6338267E+003  8.0593749E+002  1.9376112E-006  1.5860906E-007  8.5114723E-002 -5.6016344E+001  1.6286572E-002  2.2546766E-004  5.6083105E+000 -1.6719401E+001  7.6349462E+001 -2.1671659E+002  1.0487323E+002  3.6232236E+002  1.1363755E-001  4.8262683E-001 -1.6595134E-001  6.8434996E-003  1.0198988E+000  6.2914350E+000  1.6273318E+000 -2.2489412E-001  6.0846287E-001  1.3869073E-002  8.0962865E-002  2.0859142E+000  1.0941039E-012  3.6621247E-001  1.4418553E-012  1.2076539E+003  1.0591908E+003  3.6152678E-001  1.6081772E+000  2.4510868E+000 -2.3583332E-001  1.0597856E+000 -5.1147532E-001  5.9393655E+001 -4.1244115E+001  3.3931590E-002  6.7859596E-001  3.0548696E+001  4.1017262E+001  1.2446046E-001  1.5727360E+000 -2.5100428E-014  1.7257418E+002 -5.2927818E-002 -1.0695395E-007  1.8024558E-009 -3.1168829E-009  3.4426488E-009 -1.9996867E-010  1.2882449E-009  2.5235330E-010 -2.0857016E-010  5.3564304E-010  2.9771262E-010 -1.6321897E-010  4.4267990E+001  1.5199683E+003  3.0026029E-003 -9.9626315E-003  6.2769970E-001  9.4730372E-005 -9.7193659E-015  4.8047092E-003 -6.7814925E-003  1.5072926E-001 -1.4919195E-016  1.7911333E+001  1.2125794E-003 -2.8100645E-007  4.6973017E-003  1.2481032E+000  1.8424158E-001  3.9060947E+000  1.2059017E+000  2.1641997E-011  2.0915757E+002  5.3463407E+000 -2.8794997E-005  7.9812023E+001  2.0653111E+001  2.1386089E-003  5.4007784E+000  1.0564293E+000  5.3594430E+000  1.5867779E+001  5.0243446E+000 -2.0454879E-015  1.0784023E+002  6.0678059E-001  5.5675725E+000  3.7651052E+002  3.7925855E-012  4.6133432E-012  9.6677531E-013  2.2577684E-013  3.1238097E-014 -6.7412372E-015  6.7955135E-004 -3.2087661E-015  2.2397280E-003 -7.9008751E-015 -1.7640098E-007 -3.5036056E-014 -6.1961999E-013 -3.9109070E-012  3.6584032E-015  2.1785648E-016 -2.7101730E-006 -1.6256010E-009  1.5110501E-003  1.0712887E-001  2.4292784E-005 -2.2389407E-005 -4.4842757E-006  1.3439124E-007  5.7923291E-008  4.0640491E-009  2.0519668E-010  3.9874733E-010 -1.0074612E-010 -7.3823023E-012 -7.1921035E-013  1.0129056E-013 -8.8534252E-007 -1.4069766E-009  4.2574778E-006 -3.4809463E-006 -4.6367611E-011 -1.4593715E-011  3.1461126E-010  2.6041551E-010  1.2833749E-007 -1.7614178E-009 -3.3694278E-013 -2.6616741E-008  3.3024375E-010  3.5677232E-008  5.9720705E-011 -6.7195624E-014  7.1698735E-010  1.0451492E-009 -4.4060910E-015  1.3982413E-014 -3.2257772E-014  2.8530140E-014  3.6914364E-013  3.7902515E-016 -6.1810182E-014  3.7852533E-014  2.5378133E-013 -4.3550213E-014  5.9744520E-013  7.0965776E-013  6.8579330E-014 -2.1711557E-012  2.9069637E-014 -8.4249616E-013 -2.6525184E-011 -3.0177329E-010 -2.2383492E-010 -8.5443291E-012  5.1668321E-015 -5.7902149E-013 -4.3130013E-014 -1.0753458E-011  1.4952183E-009 -2.3967299E-009  1.6978471E-014  7.5960240E-015 -9.0332964E-016  7.8132279E-015 -3.1830742E-015  6.1490337E-011  4.7660747E-009 -4.6030084E-014  5.2636732E-014 -3.0590945E-008  3.2967835E-014 -2.3261978E-014 -1.3573714E-013  3.3430717E-011  2.8059667E-011 -1.9442789E-013  8.4004264E-012 -1.2315477E-010  7.7961086E-010 -8.0143402E-012 -5.6813845E-010 -5.3558754E-012  2.0099483E+004 -4.4883892E-011  2.5596057E-004  1.6518158E+002  1.3583419E+002  7.3875900E+001  9.5397008E+001  1.1875487E+003  8.0718043E+002  1.0980533E+001  3.3353412E+001  4.1707949E+003  5.2848361E+003  1.2095422E+001 -2.1012403E-015 -9.2480161E-002  1.3506913E+001  1.6267832E+002  7.2742039E-015  5.1084085E+000  2.5571554E+001  5.7195511E-009 -6.1367864E-008  3.1241758E-009 -4.4191587E-008  9.4197601E-010  7.0006561E-009 -3.5764604E-008  9.8795767E-008  7.1362271E+002 -5.1996145E-008 -1.0523283E-006 -1.0391832E-002  1.1613730E-001  4.2117296E+001  1.7947095E-002 -1.0685503E-005 -3.3973565E-011  3.9912442E+003  2.0138946E-002  5.4441875E+002 -7.9922751E+000  3.2530005E+002  2.7937748E+002  1.5093165E+003  1.2171092E+002 -4.3637217E-005 -2.7831818E-005  2.5273364E-014  6.9553816E-001  1.7678965E-002  2.0504769E-001 -2.3181022E-007  3.6557102E+001 -5.6856822E-009  4.5080479E+001 -5.3177628E-006 -4.0320622E-008  1.8186340E-014  3.7208202E-015 -3.5815411E-016  1.5633142E+000  1.2129537E+000 -1.2072826E-008  6.4887015E+002  5.0447320E-015  2.2583908E-014  1.2939632E+003  1.8818355E+001 -5.3606018E-012  1.6013622E-014  8.9350334E-006 -2.0227959E+000  3.2724565E+000  1.2985448E+001 -1.3136648E-004 -6.1341888E-008  1.8529183E-009  2.4433574E-008  1.7041613E+001  1.4153248E+003 -1.2596239E-005  9.0625620E-003 -4.7780469E-003  1.9914434E-001  8.1590432E-005  2.1955142E+004  1.2197896E+003  9.9655127E-002  1.4983350E+001 -3.9248185E-004  1.1582652E-012  9.2031328E+001  3.4018006E-011  2.6263604E+001  3.5186434E+000  5.6502286E-002  1.9876308E+001  5.8654584E+000  7.2217623E+000  2.1797356E+001  3.9899744E+001  3.7136202E+001  4.2385571E+000  1.5492438E-002  3.6626729E-002 -3.8519300E-012  1.1535925E-002  1.7365503E-001  7.1426313E+000  7.4139422E-007  2.1591993E-004  1.3545211E-002  2.6453142E-001  1.9274156E+000  9.1165920E-004  6.4505092E-002  1.0776181E+003 -3.9101677E-009 -7.5605347E-004  4.8611125E+001 -2.5283332E-010  8.4647196E-004  1.6701135E+001  3.0202310E-004 -4.5047748E-009 -7.3108879E-008  1.5581829E-007  1.1020368E-006  2.4391508E-006 -2.8771665E-008  1.6342097E+000  9.4077098E+003  3.2688866E+001  4.0210807E+001  3.5043278E+000  1.4372667E+001  1.3774487E+002  1.0653115E+003  2.4238471E-007  2.6048214E+002 -1.0659599E-012  2.4605156E-013  4.7433105E-013  1.4117000E+001  4.7689042E-010  3.1430934E-001  2.0504806E-001 -1.0451035E-010  9.3399036E-015 -3.1931251E-010  2.6395663E-002  4.0395273E-002  1.6199334E-005  5.6609815E-001  1.5266249E-003  1.2791959E+002 -3.6163111E-001  1.3700881E-003  1.5175785E+000  2.4412585E-002  3.4510574E-001  8.3966599E-001 -5.3557479E-003 -1.7306431E-004  3.4356466E+002  7.4223094E-008 -1.5580379E-006 -3.9261661E-004  1.3740067E-002  4.1303360E-002  1.8270513E-002  6.9723390E-001  6.9646692E-001  2.4052722E+001 -3.2961746E+001  6.5255735E+004  1.8892077E+005  2.7046059E-003  1.2949156E+004  4.9056613E+004  1.9307015E-001  2.3281328E-001  7.4634053E-001  8.0706662E+003  8.2757075E-003  1.9077095E-001  1.3390255E+005  7.3592355E-001  1.8983864E-007  4.9035386E-003  1.1396848E-005  3.2013247E-006  3.8596628E-006  4.4901532E-003  2.9220134E-006 -2.7909751E-003  1.9292320E-007  1.1237768E-002  3.4156444E-008  2.6042064E-004  1.5248419E+000  7.2102151E-002  7.2403381E+003 -1.1025830E-009  1.5889720E+000  1.3846034E-005  1.6177373E-004  2.9549010E-003  3.5122241E-003 -4.7695572E-002  2.1645551E-001  4.9878842E+003  9.0519438E+003  1.3759390E+004 -6.9293412E-007  5.1836037E+002  3.2466920E+000  1.8129997E+003  2.7442743E+000  6.5498645E-014  4.9179341E-009  3.8007213E-007  7.4498906E+000  4.5953623E-001 -2.7942699E-006  2.5590629E+002  1.2692803E+002  5.8128017E+001  1.3991475E+002  3.1563714E+002  2.0434530E+002  2.8009514E+001  6.9932474E+001  3.8419550E+002  2.8892250E+002  1.1630643E+003  8.6339476E+002  2.2246633E+002  5.5104175E+002  6.8740851E+002  8.4649239E+001  6.4356576E+002  4.7254637E+002  8.7669650E+002  3.1817734E+002  8.0346565E+002  2.7140536E+002  1.7481187E+002  3.1087734E+002  8.4951753E+002  7.5850433E+002  3.1016064E+002  1.7120807E+001  1.4913837E-004  1.8454998E+000  1.6453669E-001 -1.2109854E-009  5.8222237E+000  2.5102171E+001  8.9261927E-001  9.8148685E-001  5.3713561E+001  1.9005028E+001  2.1123986E+001 -9.5256646E-014  2.8210717E-009  5.1631108E-010  3.6513317E+000  1.2758637E-008  1.3276410E-014  1.9816921E-014 -1.6196498E-001 -1.0488254E-011  2.2086239E-014  5.0109715E+001  4.2629131E+001  1.4478542E+001  3.5653959E+004  6.0320101E-008  1.1397712E-003 -2.8234461E-005 -6.8792953E-014  3.3103305E-008 -1.8611828E-007  7.3186938E+000  7.7370329E-005  1.4323973E-001  5.9835961E-009 -2.1577036E-001  2.4231217E+002  6.4384441E+002  3.6417901E+000 -1.1144654E-012 -7.8131197E-011  2.9152399E-001  3.6133239E+000  2.6254805E+003  1.8280588E-003 -1.7031337E-009  3.9534177E+000  1.0603142E-006  1.0931134E+000  2.1284112E-011  5.8418748E-001  1.0035014E-001  1.9246136E-006  7.2906872E+000 -2.2278786E-007 -5.0789092E-014  9.5910285E+000  2.1779860E+001  1.9600710E-001  1.0116534E-001  5.3779198E-002  3.5792126E-002  1.6789634E-001  2.2661345E-003  8.3079382E-002  2.4589015E+001  4.3730973E+004  8.2094453E-004  1.5255176E+003  1.0447762E-008  3.9368910E-002  3.3143106E+000  1.0355865E+001  4.9348656E-007  1.7468195E+004  3.2478678E-013  1.0162842E-007  4.0814494E+003  1.3771803E+003 -3.9583963E-010 -1.0386696E-003  3.8122915E+000  1.5058483E+001  2.1118577E+002  3.6064731E+002  1.5557630E-003  3.6564325E-004  2.3686642E-002  3.0943172E-001  1.0061716E+003  6.9089694E-001  1.5313064E-003  4.5811270E-002  1.6572454E+000  1.1682432E-009  1.8024996E+001 -1.3540394E-010  3.9180674E+003  2.1425512E+000  7.4120569E-001  7.2891721E+000  3.5959638E+005
        </DataArray>
        <DataArray type="Float64" Name="temperature" NumberOfComponents="1" format="ascii">
  5.0462105E+002  5.0461202E+002  5.0455506E+002  5.0446447E+002  4.8465063E+002  4.8461182E+002  4.8611284E+002  5.0500000E+002  5.0476621E+002  5.0253564E+002  5.0259987E+002  3.5326644E+002  3.5324996E+002  3.5329771E+002  3.5332054E+002  2.9315000E+002  2.9315000E+002  2.9315000E+002  2.9315000E+002  5.0475676E+002  5.0467225E+002  5.0511292E+002  5.0480321E+002  5.0456112E+002  5.0456588E+002  5.0457065E+002  5.0457556E+002  5.0458061E+002  5.0458576E+002  5.0459090E+002  5.0459596E+002  5.0460073E+002  5.0460507E+002  5.0460877E+002  5.0461123E+002  5.0461261E+002  5.0461325E+002  5.0461335E+002  5.0461299E+002  5.0452494E+002  5.0454726E+002  5.0455923E+002  5.0456583E+002  5.0456934E+002  5.0457075E+002  5.0457069E+002  5.0456948E+002  5.0456744E+002  5.0456460E+002  5.0456093E+002  4.8471295E+002  4.8481735E+002  4.8492552E+002  4.8503011E+002  4.8513186E+002  4.8523010E+002  4.8532636E+002  4.8541731E+002  4.8550551E+002  4.8559056E+002  4.8567311E+002  4.8575335E+002  4.8583084E+002  4.8590629E+002  4.8597919E+002  4.8604890E+002  5.0489264E+002  5.0475493E+002  5.0459936E+002  5.0442481E+002  5.0422635E+002  5.0399685E+002  5.0372492E+002  5.0339737E+002  5.0305176E+002  5.0270821E+002  5.0236639E+002  5.0202649E+002  5.0168880E+002  5.0135341E+002  5.0102062E+002  5.0069048E+002  5.0036299E+002  5.0003832E+002  4.9971642E+002  4.9939735E+002  4.9908114E+002  4.9876792E+002  4.9845752E+002  4.9814909E+002  4.9784368E+002  4.9754147E+002  4.9724124E+002  4.9694300E+002  4.9664769E+002  4.9635568E+002  4.9606710E+002  4.9578173E+002  4.9549944E+002  4.9522038E+002  4.9494492E+002  4.9467288E+002  4.9440419E+002  4.9413888E+002  4.9387715E+002  4.9361864E+002  4.9336385E+002  4.9311266E+002  4.9286530E+002  4.9262162E+002  4.9238178E+002  4.9214563E+002  4.9191339E+002  4.9168497E+002  4.9146059E+002  4.9123996E+002  4.9102340E+002  4.9081077E+002  4.9060213E+002  4.9039731E+002  4.9019663E+002  4.8999974E+002  4.8980624E+002  4.8961593E+002  4.8942892E+002  4.8924533E+002  4.8906542E+002  4.8888955E+002  4.8871739E+002  4.8854932E+002  4.8838549E+002  4.8822611E+002  4.8807007E+002  4.8791715E+002  4.8776893E+002  4.8762529E+002  4.8748632E+002  4.8735198E+002  4.8722207E+002  4.8709697E+002  4.8697654E+002  4.8686119E+002  4.8675058E+002  4.8664398E+002  4.8654199E+002  4.8644482E+002  4.8635269E+002  4.8626568E+002  4.8618489E+002  5.0476454E+002  5.0476209E+002  5.0475750E+002  5.0475088E+002  5.0474232E+002  5.0473293E+002  5.0472243E+002  5.0471086E+002  5.0469849E+002  5.0468668E+002  5.0467447E+002  5.0466140E+002  5.0464741E+002  5.0463111E+002  5.0461331E+002  5.0459238E+002  5.0456801E+002  5.0453796E+002  5.0450123E+002  5.0445665E+002  5.0439946E+002  5.0432670E+002  5.0423581E+002  5.0412554E+002  5.0399771E+002  5.0385874E+002  5.0371644E+002  5.0357373E+002  5.0343312E+002  5.0329701E+002  5.0316403E+002  5.0303659E+002  5.0291278E+002  5.0279151E+002  5.0267120E+002  5.0265188E+002  5.0269507E+002  5.0268013E+002  3.5325980E+002  3.5324995E+002  3.5323991E+002  3.5323071E+002  3.5322271E+002  3.5321579E+002  3.5320995E+002  3.5320508E+002  3.5320115E+002  3.5319809E+002  3.5319585E+002  3.5319438E+002  3.5319365E+002  3.5319364E+002  3.5319430E+002  3.5319563E+002  3.5319760E+002  3.5320020E+002  3.5320341E+002  3.5320723E+002  3.5321163E+002  3.5321660E+002  3.5322214E+002  3.5322822E+002  3.5323476E+002  3.5324155E+002  3.5324774E+002  3.5326345E+002  3.5327438E+002  3.5326507E+002  3.5325775E+002  3.5325120E+002  3.5324526E+002  3.5323981E+002  3.5323491E+002  3.5323057E+002  3.5322680E+002  3.5322363E+002  3.5322106E+002  3.5321911E+002  3.5321780E+002  3.5321715E+002  3.5321718E+002  3.5321791E+002  3.5321938E+002  3.5322162E+002  3.5322468E+002  3.5322859E+002  3.5323343E+002  3.5323925E+002  3.5324613E+002  3.5325418E+002  3.5326353E+002  3.5327448E+002  3.5328846E+002  3.5327811E+002  5.0271529E+002  5.0283135E+002  5.0295065E+002  5.0307478E+002  5.0320367E+002  5.0333815E+002  5.0347737E+002  5.0362332E+002  5.0377915E+002  5.0394838E+002  5.0414947E+002  5.0462005E+002  5.0461897E+002  5.0461786E+002  5.0461674E+002  5.0461561E+002  5.0461446E+002  5.0461328E+002  5.0461555E+002  5.0461287E+002  5.0461126E+002  5.0461034E+002  5.0460994E+002  5.0460995E+002  5.0461030E+002  5.0461095E+002  5.0461186E+002  5.0461303E+002  5.0461442E+002  5.0461603E+002  5.0461786E+002  5.0461990E+002  5.0462216E+002  5.0462463E+002  5.0462734E+002  5.0463029E+002  5.0463350E+002  5.0463698E+002  5.0464078E+002  5.0464491E+002  5.0464941E+002  5.0465432E+002  5.0465972E+002  5.0466565E+002  5.0467218E+002  5.0467940E+002  5.0468747E+002  5.0469651E+002  5.0470670E+002  5.0471828E+002  5.0473162E+002  5.0474711E+002  5.0476540E+002  5.0478757E+002  5.0481483E+002  5.0485084E+002  5.0490328E+002  4.8235567E+002  4.5325004E+002  4.1897413E+002  3.8529186E+002  3.6052619E+002  3.4404203E+002  3.2989678E+002  3.1711489E+002  3.0502089E+002  2.9315000E+002  2.9315000E+002  2.9315000E+002  2.9315000E+002  2.9315000E+002  2.9315000E+002  2.9315000E+002  2.9315000E+002  2.9315000E+002  2.9315000E+002  2.9315000E+002  2.9315000E+002  2.9315000E+002  2.9315000E+002  2.9315000E+002  2.9315000E+002  2.9315000E+002  2.9315000E+002  2.9315000E+002  2.9315000E+002  2.9315000E+002  2.9315000E+002  2.9315000E+002  2.9315000E+002  2.9315000E+002  2.9315000E+002  2.9315000E+002  2.9315000E+002  2.9315000E+002  2.9315000E+002  2.9315000E+002  2.9315000E+002  2.9315000E+002  2.9315000E+002  2.9315000E+002  2.9315000E+002  2.9315000E+002  2.9315000E+002  2.9315000E+002  2.9315000E+002  2.9315000E+002  2.9315000E+002  2.9315000E+002  2.9315000E+002  2.9315000E+002  2.9315000E+002  2.9315000E+002  2.9315000E+002  2.9315000E+002  2.9315000E+002  2.9315000E+002  2.9315000E+002  2.9611771E+002  2.9917908E+002  3.0243481E+002  3.0599629E+002  3.1000518E+002  3.1458522E+002  3.2009044E+002  3.2673727E+002  3.3530193E+002  3.4622634E+002  3.5758288E+002  3.6912607E+002  3.8077098E+002  3.9258947E+002  4.0606642E+002  4.2319294E+002  4.4843249E+002  5.0475669E+002  5.0475652E+002  5.0475624E+002  5.0475586E+002  5.0475538E+002  5.0475480E+002  5.0475413E+002  5.0475337E+002  5.0475252E+002  5.0475158E+002  5.0475058E+002  5.0474951E+002  5.0474837E+002  5.0474718E+002  5.0474593E+002  5.0474463E+002  5.0474329E+002  5.0474190E+002  5.0474048E+002  5.0473902E+002  5.0473753E+002  5.0473601E+002  5.0473446E+002  5.0473288E+002  5.0473127E+002  5.0472963E+002  5.0472797E+002  5.0472628E+002  5.0472455E+002  5.0472280E+002  5.0472102E+002  5.0471920E+002  5.0471735E+002  5.0471546E+002  5.0471353E+002  5.0471155E+002  5.0470953E+002  5.0470746E+002  5.0470532E+002  5.0470313E+002  5.0470086E+002  5.0469852E+002  5.0469608E+002  5.0469353E+002  5.0469086E+002  5.0468802E+002  5.0468497E+002  5.0468159E+002  5.0467764E+002  5.0466671E+002  5.0466262E+002  5.0465911E+002  5.0465593E+002  5.0465299E+002  5.0465022E+002  5.0464759E+002  5.0464509E+002  5.0464270E+002  5.0464040E+002  5.0463819E+002  5.0463604E+002  5.0463397E+002  5.0463196E+002  5.0463000E+002  5.0462810E+002  5.0462624E+002  5.0462442E+002  5.0462267E+002  5.0503851E+002  5.0505932E+002  5.0507413E+002  5.0508541E+002  5.0509424E+002  5.0510114E+002  5.0510621E+002  5.0510979E+002  5.0511207E+002  5.0507257E+002  5.0503348E+002  5.0499514E+002  5.0495768E+002  5.0492153E+002  5.0488676E+002  5.0485391E+002  5.0482490E+002  5.0480491E+002  5.0479104E+002  5.0478101E+002  5.0477326E+002  5.0476696E+002  5.0476157E+002  5.0475624E+002  5.0475590E+002  5.0475574E+002  5.0475580E+002  5.0475615E+002  5.0475688E+002  5.0475816E+002  5.0476022E+002  5.0476350E+002  5.0476876E+002  5.0477720E+002  5.0478904E+002  5.0480233E+002  5.0480031E+002  5.0479710E+002  5.0479281E+002  5.0478733E+002  5.0478064E+002  5.0477313E+002  5.0476507E+002  5.0475620E+002  5.0474665E+002  5.0473661E+002  5.0472605E+002  5.0471496E+002  5.0470303E+002  5.0469039E+002  5.0467685E+002  5.0466194E+002  5.0464554E+002  5.0462729E+002  5.0460683E+002  5.0458329E+002  5.0455620E+002  5.0452190E+002  4.8472231E+002  4.8483008E+002  4.8494090E+002  4.8504982E+002  4.8515535E+002  4.8525753E+002  4.8535598E+002  4.8545047E+002  4.8554164E+002  4.8562969E+002  4.8571496E+002  4.8579770E+002  4.8587819E+002  4.8595692E+002  4.8603473E+002  4.8611281E+002  4.8619265E+002  4.8627569E+002  4.8636286E+002  4.8645465E+002  4.8655120E+002  4.8665237E+002  4.8675816E+002  4.8686880E+002  4.8698424E+002  4.8710378E+002  4.8722814E+002  4.8735736E+002  4.8749131E+002  4.8762985E+002  4.8777289E+002  4.8792038E+002  4.8807214E+002  4.8822796E+002  4.8838779E+002  4.8855169E+002  4.8871968E+002  4.8889168E+002  4.8906761E+002  4.8924730E+002  4.8943042E+002  4.8961699E+002  4.8980723E+002  4.9000106E+002  4.9019786E+002  4.9039836E+002  4.9060294E+002  4.9081176E+002  4.9102465E+002  4.9124074E+002  4.9146095E+002  4.9168530E+002  4.9191357E+002  4.9214574E+002  4.9238178E+002  4.9262163E+002  4.9286527E+002  4.9311267E+002  4.9336374E+002  4.9361845E+002  4.9387677E+002  4.9413863E+002  4.9440397E+002  4.9467278E+002  4.9494498E+002  4.9522058E+002  4.9549957E+002  4.9578187E+002  4.9606743E+002  4.9635624E+002  4.9664816E+002  4.9694310E+002  4.9724091E+002  4.9754136E+002  4.9784439E+002  4.9815013E+002  4.9845862E+002  4.9876997E+002  4.9908379E+002  4.9940009E+002  4.9971933E+002  5.0004148E+002  5.0036643E+002  5.0069416E+002  5.0102467E+002  5.0135791E+002  5.0169380E+002  5.0203201E+002  5.0237207E+002  5.0271397E+002  5.0305779E+002  5.0340377E+002  5.0373250E+002  5.0400766E+002  5.0424243E+002  5.0444775E+002  5.0463166E+002  5.0480046E+002  5.0495919E+002  5.0485715E+002  5.0486853E+002  5.0483813E+002  5.0471653E+002  5.0474024E+002  5.0472911E+002  5.0462345E+002  5.0474843E+002  5.0469988E+002  5.0491798E+002  5.0464764E+002  5.0468848E+002  5.0475794E+002  5.0464037E+002  5.0463325E+002  5.0470803E+002  5.0461681E+002  5.0475437E+002  5.0469049E+002  5.0483549E+002  5.0465128E+002  5.0463135E+002  5.0466163E+002  5.0475739E+002  5.0461521E+002  5.0471696E+002  5.0472187E+002  5.0501977E+002  5.0473479E+002  5.0505662E+002  5.0478522E+002  5.0466085E+002  5.0493774E+002  5.0461498E+002  5.0468193E+002  5.0475987E+002  5.0463984E+002  5.0467406E+002  5.0464583E+002  5.0462798E+002  5.0462656E+002  5.0463581E+002  5.0461967E+002  5.0469553E+002  5.0475156E+002  5.0474523E+002  5.0480657E+002  5.0470494E+002  5.0471264E+002  5.0472573E+002  5.0507144E+002  5.0476966E+002  5.0501228E+002  5.0467477E+002  5.0461789E+002  5.0476031E+002  5.0486525E+002  5.0484663E+002  5.0481480E+002  5.0482004E+002  5.0484792E+002  5.0482400E+002  5.0480014E+002  5.0479862E+002  5.0481536E+002  5.0479157E+002  5.0480483E+002  5.0478034E+002  5.0477276E+002  5.0476213E+002  5.0476831E+002  5.0475077E+002  5.0474847E+002  5.0473787E+002  5.0473565E+002  5.0472624E+002  5.0472040E+002  5.0471399E+002  5.0471957E+002  5.0470955E+002  5.0470223E+002  5.0469929E+002  5.0469137E+002  5.0468917E+002  5.0469767E+002  5.0468939E+002  5.0467999E+002  5.0467924E+002  5.0468784E+002  5.0467930E+002  5.0466992E+002  5.0467110E+002  5.0466191E+002  5.0466335E+002  5.0467255E+002  5.0466503E+002  5.0465620E+002  5.0465788E+002  5.0466674E+002  5.0465972E+002  5.0465179E+002  5.0471536E+002  5.0472356E+002  5.0468827E+002  5.0466921E+002  5.0466174E+002  5.0478390E+002  5.0469553E+002  5.0467476E+002  5.0478551E+002  5.0473150E+002  5.0483439E+002  5.0482118E+002  5.0466894E+002  5.0466079E+002  5.0465355E+002  5.0471857E+002  5.0466260E+002  5.0465610E+002  5.0472128E+002  5.0472712E+002  5.0466946E+002  5.0469630E+002  5.0477515E+002  5.0485956E+002  5.0470290E+002  5.0472785E+002  5.0477442E+002  5.0483987E+002  5.0466350E+002  5.0466967E+002  5.0467608E+002  5.0465245E+002  5.0471486E+002  5.0478353E+002  5.0477467E+002  5.0464609E+002  5.0472523E+002  5.0472039E+002  5.0469437E+002  5.0468428E+002  5.0468671E+002  5.0467753E+002  5.0465872E+002  5.0466411E+002  5.0473001E+002  5.0473211E+002  5.0474237E+002  5.0473865E+002  5.0475455E+002  5.0481023E+002  5.0476801E+002  5.0476713E+002  5.0486677E+002  5.0470223E+002  5.0470813E+002  5.0465859E+002  5.0470831E+002  5.0465139E+002  5.0465749E+002  5.0467536E+002  5.0466928E+002  5.0470258E+002  5.0469759E+002  5.0489608E+002  5.0490208E+002  5.0482240E+002  5.0464682E+002  5.0466969E+002  5.0464011E+002  5.0464125E+002  5.0471321E+002  5.0472437E+002  5.0467553E+002  5.0470368E+002  5.0469966E+002  5.0469289E+002  5.0469443E+002  5.0467990E+002  5.0468907E+002  5.0463475E+002  5.0463597E+002  5.0478107E+002  5.0477306E+002  5.0473427E+002  5.0473657E+002  5.0473517E+002  5.0473963E+002  5.0474034E+002  5.0474320E+002  5.0472003E+002  5.0493397E+002  5.0493752E+002  5.0492986E+002  5.0497314E+002  5.0497279E+002  5.0493784E+002  5.0497024E+002  5.0475087E+002  5.0476793E+002  5.0471531E+002  5.0477460E+002  5.0493483E+002  5.0468791E+002  5.0468970E+002  5.0469594E+002  5.0469158E+002  5.0476253E+002  5.0476099E+002  5.0476496E+002  5.0475863E+002  5.0476289E+002  5.0476194E+002  5.0475574E+002  5.0475367E+002  5.0485430E+002  5.0475790E+002  5.0465049E+002  5.0465643E+002  5.0466465E+002  5.0476808E+002  5.0470816E+002  5.0473435E+002  5.0471324E+002  5.0474375E+002  5.0463917E+002  5.0483296E+002  5.0466414E+002  5.0466946E+002  5.0475104E+002  5.0470689E+002  5.0464241E+002  5.0463743E+002  5.0463101E+002  5.0463255E+002  5.0463976E+002  5.0463398E+002  5.0462812E+002  5.0462957E+002  5.0463505E+002  5.0463099E+002  5.0463645E+002  5.0463254E+002  5.0463781E+002  5.0462736E+002  5.0462871E+002  5.0462425E+002  5.0462221E+002  5.0462411E+002  5.0464193E+002  5.0464245E+002  5.0463877E+002  5.0464264E+002  5.0468301E+002  5.0474306E+002  5.0464502E+002  5.0475796E+002  5.0462629E+002  5.0462984E+002  5.0490576E+002  5.0487499E+002  5.0471767E+002  5.0477823E+002  5.0478783E+002  5.0477067E+002  5.0471803E+002  5.0468251E+002  5.0469207E+002  5.0473288E+002  5.0469760E+002  5.0469337E+002  5.0468745E+002  5.0468930E+002  5.0468348E+002  5.0468544E+002  5.0464728E+002  5.0462222E+002  5.0472422E+002  5.0472803E+002  5.0475010E+002  5.0468683E+002  5.0476898E+002  5.0480433E+002  5.0470577E+002  5.0475186E+002  5.0496384E+002  5.0500487E+002  5.0465021E+002  5.0465604E+002  5.0467344E+002  5.0469088E+002  5.0468709E+002  5.0490338E+002  5.0463885E+002  5.0463564E+002  5.0464260E+002  5.0464626E+002  5.0464595E+002  5.0464969E+002  5.0474491E+002  5.0473618E+002  5.0474125E+002  5.0462230E+002  5.0470312E+002  5.0473860E+002  5.0477422E+002  5.0468518E+002  5.0469512E+002  5.0467456E+002  5.0464887E+002  5.0474763E+002  5.0475549E+002  5.0470616E+002  5.0470196E+002  5.0470028E+002  5.0470552E+002  5.0474735E+002  5.0462500E+002  5.0472422E+002  5.0472010E+002  5.0471197E+002  5.0470741E+002  5.0473825E+002  5.0466953E+002  5.0475820E+002  5.0475916E+002  5.0476340E+002  5.0470328E+002  5.0463394E+002  5.0462871E+002  5.0476693E+002  5.0476274E+002  5.0497246E+002  5.0496781E+002  5.0491548E+002  5.0487386E+002  5.0472945E+002  5.0470895E+002  5.0501275E+002  5.0464373E+002  5.0462677E+002  5.0462501E+002  5.0462896E+002  5.0470941E+002  5.0471436E+002  5.0487282E+002  5.0483704E+002  5.0465927E+002  5.0465895E+002  5.0465451E+002  5.0461875E+002  5.0467116E+002  5.0466330E+002  5.0476100E+002  5.0479150E+002  5.0464459E+002  5.0463758E+002  5.0474583E+002  5.0465695E+002  5.0472923E+002  5.0467563E+002  5.0468108E+002  5.0468088E+002  5.0468136E+002  5.0468697E+002  5.0463493E+002  5.0465419E+002  5.0501211E+002  5.0500961E+002  5.0472791E+002  5.0465389E+002  5.0465132E+002  5.0467527E+002  5.0461982E+002  5.0461757E+002  5.0461916E+002  5.0470316E+002  5.0468070E+002  5.0469569E+002  5.0467517E+002  5.0466935E+002  5.0504582E+002  5.0476842E+002  5.0462450E+002  5.0479810E+002  5.0471376E+002  5.0469587E+002  5.0479511E+002  5.0480763E+002  5.0478866E+002  5.0463972E+002  5.0465328E+002  5.0474734E+002  5.0474872E+002  5.0496277E+002  5.0467455E+002  5.0473165E+002  5.0473129E+002  5.0474338E+002  5.0476858E+002  5.0463263E+002  5.0466756E+002  5.0474016E+002  5.0462061E+002  5.0462404E+002  5.0474198E+002  5.0462778E+002  5.0472190E+002  5.0481166E+002  5.0479492E+002  5.0490174E+002  5.0505052E+002  5.0503160E+002  5.0464868E+002  5.0464408E+002  5.0475422E+002  5.0470924E+002  5.0471114E+002  5.0497448E+002  5.0466442E+002  5.0465821E+002  5.0465541E+002  5.0468094E+002  5.0468651E+002  5.0466352E+002  5.0467838E+002  5.0467215E+002  5.0471777E+002  5.0472160E+002  5.0472558E+002  5.0472247E+002  5.0473534E+002  5.0468151E+002  5.0465434E+002  5.0463647E+002  5.0464334E+002  5.0463047E+002  5.0476022E+002  5.0475914E+002  5.0466534E+002  5.0468132E+002  5.0462168E+002  5.0466742E+002  5.0462576E+002  5.0462904E+002  5.0463362E+002  5.0463325E+002  5.0464303E+002  5.0469706E+002  5.0461914E+002  5.0469303E+002  5.0464850E+002  5.0461637E+002  5.0469788E+002  5.0475298E+002  5.0470200E+002  5.0475018E+002  5.0474690E+002  5.0461604E+002  5.0471472E+002  5.0473820E+002  5.0471835E+002  5.0471326E+002  5.0472023E+002  5.0477693E+002  5.0469733E+002  5.0475831E+002  5.0464384E+002  5.0476468E+002  5.0469944E+002  5.0478286E+002  5.0477359E+002  5.0484186E+002  5.0464959E+002  5.0477850E+002  5.0468542E+002  5.0505140E+002  5.0470610E+002  5.0465738E+002  5.0466445E+002  5.0475728E+002  5.0471058E+002  5.0469277E+002  5.0468149E+002  5.0475556E+002  5.0469561E+002  5.0470419E+002  5.0479963E+002  5.0472999E+002  5.0470648E+002  5.0464732E+002  5.0465502E+002  5.0466854E+002  5.0476392E+002  5.0487122E+002  5.0487561E+002  5.0464660E+002  5.0475649E+002  5.0471054E+002  5.0493176E+002  5.0466211E+002  5.0463912E+002  5.0461425E+002  5.0475830E+002  5.0490548E+002  5.0500828E+002  5.0468160E+002  5.0491074E+002  5.0472851E+002  5.0507586E+002  5.0477228E+002  5.0462482E+002  5.0469153E+002  5.0477870E+002  5.0474523E+002  5.0499059E+002  5.0464045E+002  5.0468100E+002  5.0476616E+002  5.0463069E+002  5.0475235E+002  5.0465170E+002  5.0464872E+002  5.0475557E+002  5.0465088E+002  5.0462195E+002  5.0462888E+002  5.0468518E+002  5.0473901E+002  5.0464665E+002  5.0463555E+002  5.0467623E+002  5.0472597E+002  5.0469730E+002  5.0472692E+002  5.0473847E+002  5.0463561E+002  5.0487777E+002  5.0474368E+002  5.0461426E+002  5.0471595E+002  5.0462148E+002  5.0476369E+002  5.0478398E+002  5.0474460E+002  5.0474952E+002  5.0471930E+002  5.0468565E+002  5.0503684E+002  5.0471659E+002  5.0473406E+002  5.0478570E+002  5.0467932E+002  5.0478919E+002  5.0476920E+002  5.0465174E+002  5.0463283E+002  5.0465663E+002  5.0483325E+002  5.0461857E+002  5.0469106E+002  5.0464602E+002  5.0464292E+002  5.0461345E+002  5.0463266E+002  5.0463801E+002  5.0488573E+002  5.0475241E+002  5.0466132E+002  5.0467204E+002  5.0469541E+002  5.0464945E+002  5.0464531E+002  5.0466766E+002  5.0475883E+002  5.0473699E+002  5.0504934E+002  5.0467757E+002  5.0473125E+002  5.0478984E+002  5.0479794E+002  5.0471778E+002  5.0469797E+002  5.0475452E+002  5.0470838E+002  5.0473365E+002  5.0472475E+002  5.0474028E+002  5.0476279E+002  5.0487724E+002  5.0485470E+002  5.0467995E+002  5.0476453E+002  5.0470292E+002  5.0467236E+002  5.0461957E+002  5.0467202E+002  5.0470759E+002  5.0471145E+002  5.0508182E+002  5.0507795E+002  5.0472839E+002  5.0461953E+002  5.0471529E+002  5.0476004E+002  5.0476022E+002  5.0495644E+002  5.0471296E+002  5.0474519E+002  5.0466489E+002  5.0473286E+002  5.0463172E+002  5.0475046E+002  5.0463853E+002  5.0465280E+002  5.0463755E+002  5.0462075E+002  5.0462325E+002  5.0468931E+002  5.0464037E+002  5.0489488E+002  5.0470677E+002  5.0461649E+002  5.0471290E+002  5.0476716E+002  5.0476036E+002  5.0475343E+002  5.0471709E+002  5.0470390E+002  5.0466341E+002  5.0464596E+002  5.0463505E+002  5.0474657E+002  5.0473998E+002  5.0473247E+002  5.0472416E+002  5.0471508E+002  5.0470492E+002  5.0469285E+002  5.0462723E+002  5.0462084E+002  5.0468096E+002  5.0475090E+002  5.0460111E+002  5.0467428E+002  5.0476569E+002  5.0475417E+002  5.0461760E+002  5.0457290E+002  5.0465446E+002  5.0461224E+002  5.0475735E+002  5.0458543E+002  5.0470794E+002  5.0462892E+002  5.0474809E+002  5.0478261E+002  5.0475560E+002  5.0461417E+002  5.0457110E+002  5.0461552E+002  5.0475583E+002  5.0456720E+002  5.0477350E+002  5.0472926E+002  5.0459168E+002  5.0462375E+002  5.0469819E+002  5.0468734E+002  5.0463103E+002  5.0464113E+002  5.0475271E+002  5.0470910E+002  5.0474886E+002  5.0474407E+002  5.0471882E+002  5.0473689E+002  5.0472759E+002  5.0457491E+002  5.0475574E+002  5.0478830E+002  5.0456593E+002  5.0454990E+002  5.0461426E+002  5.0475617E+002  5.0461463E+002  5.0461586E+002  5.0461531E+002  5.0461720E+002  5.0461758E+002  5.0461901E+002  5.0461868E+002  5.0462085E+002  5.0462021E+002  5.0462298E+002  5.0462193E+002  5.0462480E+002  5.0462372E+002  5.0462773E+002  5.0462585E+002  5.0463002E+002  5.0462800E+002  5.0463286E+002  5.0463031E+002  5.0463646E+002  5.0463293E+002  5.0463966E+002  5.0463477E+002  5.0464331E+002  5.0463797E+002  5.0462871E+002  5.0463108E+002  5.0462196E+002  5.0462344E+002  5.0461481E+002  5.0461561E+002  5.0460743E+002  5.0460747E+002  5.0464721E+002  5.0465155E+002  5.0465649E+002  5.0465961E+002  5.0466414E+002  5.0466710E+002  5.0467132E+002  5.0466297E+002  5.0467461E+002  5.0467843E+002  5.0462183E+002  5.0460012E+002  5.0465203E+002  5.0467492E+002  5.0468146E+002  5.0463516E+002  5.0468538E+002  5.0468863E+002  5.0468571E+002  5.0469186E+002  5.0468867E+002  5.0469435E+002  5.0469808E+002  5.0470108E+002  5.0469823E+002  5.0470406E+002  5.0470112E+002  5.0470636E+002  5.0470989E+002  5.0471259E+002  5.0470518E+002  5.0470976E+002  5.0471500E+002  5.0471860E+002  5.0472054E+002  5.0472492E+002  5.0472682E+002  5.0472368E+002  5.0472862E+002  5.0472573E+002  5.0473026E+002  5.0459936E+002  5.0468355E+002  5.0471230E+002  5.0462798E+002  5.0473416E+002  5.0473503E+002  5.0473198E+002  5.0473116E+002  5.0473601E+002  5.0473977E+002  5.0474039E+002  5.0474476E+002  5.0474485E+002  5.0474138E+002  5.0474519E+002  5.0474895E+002  5.0474864E+002  5.0474548E+002  5.0474852E+002  5.0475188E+002  5.0475122E+002  5.0475498E+002  5.0475389E+002  5.0473296E+002  5.0475109E+002  5.0475323E+002  5.0462442E+002  5.0460691E+002  5.0459303E+002  5.0472939E+002  5.0474602E+002  5.0474330E+002  5.0475770E+002  5.0462266E+002  5.0460691E+002  5.0475540E+002  5.0459377E+002  5.0459773E+002  5.0469246E+002  5.0468604E+002  5.0475113E+002  5.0475296E+002  5.0474447E+002  5.0475080E+002  5.0475485E+002  5.0475435E+002  5.0472313E+002  5.0470783E+002  5.0462008E+002  5.0470999E+002  5.0468166E+002  5.0468921E+002  5.0474386E+002  5.0473075E+002  5.0475290E+002  5.0475396E+002  5.0475544E+002  5.0461919E+002  5.0474162E+002  5.0475498E+002  5.0470624E+002  5.0472761E+002  5.0458758E+002  5.0462376E+002  5.0458815E+002  5.0461913E+002  5.0460550E+002  5.0459494E+002  5.0474934E+002  5.0474956E+002  5.0474806E+002  5.0468425E+002  5.0475412E+002  5.0475483E+002  5.0470803E+002  5.0471172E+002  5.0464161E+002  5.0470388E+002  5.0467986E+002  5.0467732E+002  5.0469808E+002  5.0469349E+002  5.0472627E+002  5.0472477E+002  5.0472338E+002  5.0458889E+002  5.0474212E+002  5.0472926E+002  5.0473173E+002  5.0474080E+002  5.0473937E+002  5.0473852E+002  5.0473730E+002  5.0469591E+002  5.0461780E+002  5.0461919E+002  5.0458267E+002  5.0458195E+002  5.0467554E+002  5.0467317E+002  5.0467123E+002  5.0466914E+002  5.0466690E+002  5.0466521E+002  5.0466289E+002  5.0466763E+002  5.0466132E+002  5.0465875E+002  5.0465735E+002  5.0465489E+002  5.0465988E+002  5.0465602E+002  5.0465255E+002  5.0465120E+002  5.0464897E+002  5.0464750E+002  5.0464505E+002  5.0464604E+002  5.0464271E+002  5.0464353E+002  5.0464052E+002  5.0464653E+002  5.0464358E+002  5.0462060E+002  5.0467471E+002  5.0470267E+002  5.0470033E+002  5.0474858E+002  5.0474984E+002  5.0475425E+002  5.0475485E+002  5.0475361E+002  5.0464115E+002  5.0463834E+002  5.0463771E+002  5.0463573E+002  5.0463625E+002  5.0463382E+002  5.0474717E+002  5.0460301E+002  5.0461442E+002  5.0459059E+002  5.0474431E+002  5.0473034E+002  5.0473258E+002  5.0473400E+002  5.0475631E+002  5.0475723E+002  5.0471035E+002  5.0471347E+002  5.0471501E+002  5.0471693E+002  5.0471486E+002  5.0463498E+002  5.0464617E+002  5.0472215E+002  5.0474314E+002  5.0458298E+002  5.0458832E+002  5.0465379E+002  5.0475455E+002  5.0475821E+002  5.0475534E+002  5.0457804E+002  5.0472066E+002  5.0475527E+002  5.0475962E+002  5.0473135E+002  5.0463430E+002  5.0463202E+002  5.0463668E+002  5.0463153E+002  5.0462982E+002  5.0463020E+002  5.0462814E+002  5.0462772E+002  5.0462619E+002  5.0472345E+002  5.0472829E+002  5.0468261E+002  5.0468683E+002  5.0468552E+002  5.0468927E+002  5.0462650E+002  5.0462473E+002  5.0462050E+002  5.0475111E+002  5.0476012E+002  5.0465695E+002  5.0473819E+002  5.0473628E+002  5.0472191E+002  5.0473336E+002  5.0474735E+002  5.0469950E+002  5.0469701E+002  5.0470177E+002  5.0471959E+002  5.0469799E+002  5.0474781E+002  5.0470800E+002  5.0474168E+002  5.0474246E+002  5.0465904E+002  5.0466531E+002  5.0465586E+002  5.0464694E+002  5.0470482E+002  5.0470878E+002  5.0471831E+002  5.0474488E+002  5.0476016E+002  5.0461789E+002  5.0461656E+002  5.0475731E+002  5.0464191E+002  5.0458304E+002  5.0462195E+002  5.0462180E+002  5.0471664E+002  5.0466915E+002  5.0469922E+002  5.0468492E+002  5.0473651E+002  5.0473770E+002  5.0475848E+002  5.0476186E+002  5.0474180E+002  5.0475076E+002  5.0462482E+002  5.0469452E+002  5.0469370E+002  5.0468805E+002  5.0460075E+002  5.0458548E+002  5.0457828E+002  5.0470947E+002  5.0463159E+002  5.0470147E+002  5.0468051E+002  5.0467343E+002  5.0471825E+002  5.0463686E+002  5.0469307E+002  5.0474011E+002  5.0473891E+002  5.0474864E+002  5.0462189E+002  5.0462463E+002  5.0474649E+002  5.0456736E+002  5.0471701E+002  5.0462566E+002  5.0475165E+002  5.0475190E+002  5.0475282E+002  5.0475213E+002  5.0475121E+002  5.0475169E+002  5.0475250E+002  5.0469164E+002  5.0458825E+002  5.0459389E+002  5.0459368E+002  5.0459941E+002  5.0459922E+002  5.0460520E+002  5.0464403E+002  5.0464153E+002  5.0464679E+002  5.0464930E+002  5.0464897E+002  5.0464924E+002  5.0463881E+002  5.0466028E+002  5.0463946E+002  5.0473697E+002  5.0461913E+002  5.0472106E+002  5.0472237E+002  5.0472454E+002  5.0472567E+002  5.0475392E+002  5.0472714E+002  5.0472941E+002  5.0473031E+002  5.0466492E+002  5.0465440E+002  5.0465726E+002  5.0473230E+002  5.0471207E+002  5.0471359E+002  5.0474899E+002  5.0467823E+002  5.0462035E+002  5.0474411E+002  5.0461881E+002  5.0470466E+002  5.0470351E+002  5.0470088E+002  5.0474231E+002  5.0463702E+002  5.0467367E+002  5.0474574E+002  5.0470796E+002  5.0471878E+002  5.0471375E+002  5.0472580E+002  5.0468483E+002  5.0475445E+002  5.0475504E+002  5.0475507E+002  5.0475541E+002  5.0470523E+002  5.0473439E+002  5.0476891E+002  5.0476447E+002  5.0459347E+002  5.0469318E+002  5.0467649E+002  5.0468213E+002  5.0466683E+002  5.0466151E+002  5.0465261E+002  5.0465660E+002  5.0464348E+002  5.0464594E+002  5.0463460E+002  5.0463453E+002  5.0464685E+002  5.0464099E+002  5.0467228E+002  5.0460923E+002  5.0461367E+002  5.0461012E+002  5.0461512E+002  5.0461120E+002  5.0461534E+002  5.0461737E+002  5.0461164E+002  5.0475555E+002  5.0475067E+002  5.0471090E+002  5.0471258E+002  5.0467632E+002  5.0477235E+002  5.0460454E+002  5.0461243E+002  5.0469684E+002  5.0466023E+002  5.0462830E+002  5.0461657E+002  5.0463247E+002  5.0463035E+002  5.0464729E+002  5.0463939E+002  5.0478216E+002  5.0477382E+002  5.0477833E+002  5.0476724E+002  5.0475886E+002  5.0474648E+002  5.0475578E+002  5.0475601E+002  5.0463485E+002  5.0475955E+002  5.0476500E+002  5.0461626E+002  5.0475636E+002  5.0462645E+002  5.0468106E+002  5.0467076E+002  5.0469557E+002  5.0461323E+002  5.0461586E+002  5.0459985E+002  5.0461541E+002  5.0459151E+002  5.0458427E+002  5.0458082E+002  5.0457798E+002  5.0457414E+002  5.0457571E+002  5.0458641E+002  5.0460025E+002  5.0458471E+002  5.0457796E+002  5.0461437E+002  5.0457806E+002  5.0457393E+002  5.0459397E+002  5.0464546E+002  5.0476275E+002  5.0457117E+002  5.0454968E+002  5.0471896E+002  5.0477450E+002  5.0475610E+002  5.0473996E+002  5.0473898E+002  5.0456880E+002  5.0457301E+002  5.0461099E+002  5.0457534E+002  5.0457341E+002  5.0461666E+002  5.0461547E+002  5.0473727E+002  5.0473541E+002  5.0462328E+002  5.0462318E+002  5.0466721E+002  5.0475593E+002  5.0475574E+002  5.0469014E+002  5.0462547E+002  5.0469540E+002  5.0462914E+002  5.0463293E+002  5.0464356E+002  5.0464441E+002  5.0475346E+002  5.0475187E+002  5.0470263E+002  5.0474996E+002  5.0474948E+002  5.0470700E+002  5.0474774E+002  5.0474276E+002  5.0474534E+002  5.0474500E+002  5.0472066E+002  5.0471703E+002  5.0474141E+002  5.0473851E+002  5.0472592E+002  5.0474819E+002  5.0461441E+002  5.0462593E+002  5.0457017E+002  5.0457982E+002  5.0469904E+002  5.0464136E+002  5.0462057E+002  5.0462927E+002  5.0463076E+002  5.0469729E+002  5.0456660E+002  5.0458051E+002  5.0462219E+002  5.0465271E+002  5.0457719E+002  5.0474065E+002  5.0463886E+002  5.0462703E+002  5.0462964E+002  5.0471915E+002  5.0471460E+002  5.0470689E+002  5.0472020E+002  5.0472740E+002  5.0475544E+002  5.0474833E+002  5.0475592E+002  5.0471893E+002  5.0463764E+002  5.0475359E+002  5.0473364E+002  5.0473405E+002  5.0467908E+002  5.0472110E+002  5.0464940E+002  5.0463320E+002  5.0472494E+002  5.0456587E+002  5.0469904E+002  5.0475015E+002  5.0476654E+002  5.0473536E+002  5.0460506E+002  5.0475692E+002  5.0467883E+002  5.0473313E+002  5.0463962E+002  5.0468613E+002  5.0465177E+002  5.0475600E+002  5.0461792E+002  5.0473972E+002  5.0473085E+002  5.0471362E+002  5.0468919E+002  5.0474567E+002  5.0474098E+002  5.0465836E+002  5.0466297E+002  5.0466828E+002  5.0461659E+002  5.0467123E+002  5.0472989E+002  5.0469005E+002  5.0473385E+002  5.0467072E+002  5.0465994E+002  5.0472242E+002  5.0475557E+002  5.0470147E+002  5.0475614E+002  5.0465353E+002  5.0476178E+002  5.0461533E+002  5.0472173E+002  5.0470726E+002  5.0471592E+002  5.0466381E+002  5.0465913E+002  5.0471631E+002  5.0461416E+002  5.0469525E+002  5.0475974E+002  5.0475567E+002  5.0474944E+002  5.0472532E+002  5.0460619E+002  5.0469155E+002  5.0461978E+002  5.0472357E+002  5.0462475E+002  5.0475516E+002  5.0474715E+002  5.0472920E+002  5.0473612E+002  5.0475257E+002  5.0475731E+002  5.0471628E+002  5.0464856E+002  5.0464991E+002  5.0473897E+002  5.0468181E+002  5.0473889E+002  5.0471072E+002  5.0475478E+002  5.0465601E+002  5.0462809E+002  5.0461455E+002  5.0472021E+002  5.0463257E+002  5.0466960E+002  5.0465120E+002  5.0466077E+002  5.0461987E+002  5.0455861E+002  5.0473451E+002  5.0461778E+002  5.0462327E+002  5.0468417E+002  5.0476249E+002  5.0462090E+002  5.0469228E+002  5.0473946E+002  5.0463208E+002  5.0465157E+002  5.0462167E+002  5.0464977E+002  5.0462018E+002  5.0465256E+002  5.0475306E+002  5.0462720E+002  5.0471453E+002  5.0456997E+002  5.0476191E+002  5.0464434E+002  5.0464020E+002  5.0472940E+002  5.0469253E+002  5.0475293E+002  5.0475323E+002  5.0461791E+002  5.0475084E+002  5.0472643E+002  5.0478813E+002  5.0477449E+002  5.0459622E+002  5.0473812E+002  5.0473539E+002  5.0476167E+002  5.0475293E+002  5.0462672E+002  5.0457269E+002  5.0465411E+002  5.0457447E+002  5.0473372E+002  5.0456999E+002  5.0462450E+002  5.0461343E+002  5.0467118E+002  5.0467144E+002  5.0475219E+002  5.0460642E+002  5.0463422E+002  5.0463243E+002  5.0465710E+002  5.0462473E+002  5.0474575E+002  5.0464214E+002  5.0474886E+002  5.0463341E+002  5.0457418E+002  5.0452715E+002  5.0475130E+002  5.0467608E+002  5.0463351E+002  5.0470016E+002  5.0475560E+002  5.0459007E+002  5.0457886E+002  5.0471948E+002  5.0471349E+002  5.0473575E+002  5.0470857E+002  5.0456210E+002  5.0463698E+002  5.0472744E+002  5.0479282E+002  5.0462391E+002  5.0470476E+002  5.0458370E+002  5.0466864E+002  5.0475632E+002  5.0472877E+002  5.0474367E+002  5.0473700E+002  5.0466313E+002  5.0466236E+002  5.0457041E+002  5.0472363E+002  5.0461667E+002  5.0462315E+002  5.0471707E+002  5.0461502E+002  5.0470579E+002  5.0474044E+002  5.0466622E+002  5.0468546E+002  5.0469697E+002  5.0472036E+002  5.0474605E+002  5.0462341E+002  5.0469473E+002  5.0465118E+002  5.0475654E+002  5.0470600E+002  5.0475692E+002  5.0471343E+002  5.0458909E+002  5.0474993E+002  5.0468716E+002  5.0468996E+002  5.0466241E+002  5.0463854E+002  5.0464197E+002  5.0469245E+002  5.0475345E+002  5.0459914E+002  5.0460012E+002  5.0470252E+002  5.0467714E+002  5.0463013E+002  5.0474730E+002  5.0472777E+002  5.0462438E+002  5.0470059E+002  5.0475056E+002  5.0464698E+002  5.0462182E+002  5.0496657E+002  5.0436593E+002  5.0432430E+002  5.0387744E+002  5.0497401E+002  5.0494359E+002  5.0386398E+002  5.0322022E+002  4.8616316E+002  5.0250239E+002  5.0188630E+002  5.0119075E+002  5.0049258E+002  4.9990459E+002  4.9924326E+002  4.9862736E+002  4.9802223E+002  4.9739587E+002  4.9680948E+002  4.9623611E+002  4.9564521E+002  4.9509615E+002  4.9456185E+002  4.9401295E+002  4.9350406E+002  4.9301091E+002  4.9250697E+002  4.9204166E+002  5.0472443E+002  4.9159317E+002  4.9114337E+002  4.9072582E+002  4.9030278E+002  4.8990905E+002  4.8953364E+002  4.8917314E+002  4.8880972E+002  4.8847352E+002  4.8815444E+002  4.8785291E+002  4.8757080E+002  4.8729349E+002  4.8704342E+002  4.8681507E+002  4.8660433E+002  4.8640581E+002  4.8602342E+002  4.8631751E+002  4.8591825E+002  5.0468770E+002  5.0288714E+002  5.0220088E+002  5.0152476E+002  5.0085833E+002  5.0020240E+002  4.9955848E+002  4.9892579E+002  4.9830282E+002  4.9769178E+002  4.9709092E+002  4.9650056E+002  4.9592328E+002  4.9535875E+002  4.9480714E+002  4.9426984E+002  4.9374620E+002  4.9323637E+002  4.9274187E+002  4.9226224E+002  4.9179754E+002  4.9134906E+002  4.9091604E+002  4.9049892E+002  4.9009796E+002  4.8971062E+002  4.8933725E+002  4.8897800E+002  4.8863409E+002  4.8830629E+002  4.8799464E+002  4.8769932E+002  4.8742238E+002  4.8716401E+002  4.8692448E+002  4.8670317E+002  4.8650096E+002  4.8615176E+002  4.8579754E+002  4.8567513E+002  4.8554969E+002  5.0498073E+002  4.8539497E+002  4.8530696E+002  5.0358878E+002  5.0375050E+002  5.0344093E+002  5.0405785E+002  5.0392137E+002  5.0417323E+002  5.0408069E+002  5.0430871E+002  5.0439512E+002  5.0451314E+002  5.0459496E+002  5.0449805E+002  5.0467625E+002  5.0468852E+002  5.0461766E+002  5.0459217E+002  5.0476253E+002  5.0479768E+002  5.0477364E+002  5.0472147E+002  5.0455940E+002  5.0483340E+002  5.0430064E+002  5.0364107E+002  5.0357588E+002  5.0413586E+002  5.0411105E+002  5.0455816E+002  4.8549990E+002  5.0052912E+002  5.0039878E+002  5.0001067E+002  5.0019985E+002  4.8583878E+002  4.8587987E+002  4.8595845E+002  4.8607343E+002  4.8611131E+002  4.8618820E+002  4.9861307E+002  4.9848960E+002  4.9812148E+002  4.9828245E+002  4.9113084E+002  4.9104519E+002  4.9079608E+002  4.9090283E+002  4.9508138E+002  4.9497246E+002  4.9465350E+002  4.9478903E+002  4.8575758E+002  4.8572822E+002  4.8784488E+002  4.8776295E+002  4.8761580E+002  4.8767448E+002  4.8814849E+002  4.8807534E+002  4.8952226E+002  4.8944912E+002  4.8923414E+002  4.8932548E+002  4.8846813E+002  4.8839107E+002  4.9679440E+002  4.9667768E+002  4.9632929E+002  4.9648103E+002  4.9348960E+002  4.9338903E+002  4.9309479E+002  4.9322221E+002  4.8915441E+002  4.8990268E+002  4.8981109E+002  4.9202807E+002  4.9193643E+002  4.9166889E+002  4.9178408E+002  4.9250022E+002  4.9238545E+002  4.9298506E+002  4.8681149E+002  4.8674959E+002  4.8664306E+002  4.8668659E+002  4.8704197E+002  4.8698531E+002  4.9156940E+002  4.9400633E+002  4.9388034E+002  4.9563944E+002  4.9549883E+002  4.8623241E+002  4.8729089E+002  4.8723005E+002  4.8880413E+002  4.8872321E+002  4.9029654E+002  4.9020160E+002  4.9453429E+002  4.9620655E+002  5.0119023E+002  5.0102221E+002  4.8640688E+002  4.8636347E+002  4.8755869E+002  4.9070367E+002  4.8599617E+002  4.9799180E+002  4.9987454E+002  4.8659933E+002  4.9924080E+002  4.9908097E+002  5.0254254E+002  5.0240620E+002  5.0199961E+002  5.0219495E+002  5.0185702E+002  4.9739014E+002  4.9723858E+002  4.8623373E+002  4.8898392E+002  4.8890195E+002  4.8650142E+002  4.8645685E+002  4.9769702E+002  4.9754955E+002  4.8863949E+002  4.8855645E+002  4.9050563E+002  4.9040881E+002  4.8971778E+002  4.8962795E+002  4.9893027E+002  4.9877588E+002  4.9010411E+002  4.9000663E+002  4.8742713E+002  4.8736294E+002  5.0288399E+002  5.0299535E+002  5.0269533E+002  4.9375414E+002  4.9362870E+002  4.9227009E+002  4.9215635E+002  4.9274891E+002  4.9263213E+002  5.0152500E+002  5.0136093E+002  4.8800035E+002  4.8795450E+002  4.9592918E+002  4.9579078E+002  4.9427659E+002  4.9414862E+002  4.8716600E+002  4.8710576E+002  4.9135601E+002  4.9125109E+002  4.9536601E+002  4.9522988E+002  4.9709807E+002  4.9695146E+002  4.9956101E+002  4.9940534E+002  4.8631645E+002  4.8628991E+002  4.8831187E+002  4.8823294E+002  4.8692589E+002  4.8689252E+002  5.0085286E+002  5.0069946E+002  5.0493812E+002  5.0494926E+002  5.0497124E+002  4.9786840E+002  4.8908194E+002  4.9609120E+002  4.9062038E+002  4.9288457E+002  4.8752226E+002  4.9147925E+002  4.9442382E+002  4.8657256E+002  4.9974230E+002  5.0171596E+002  4.8603486E+002  4.8521300E+002  4.8594648E+002  4.8559020E+002  4.8509609E+002  5.0384190E+002  5.0444407E+002  5.0424330E+002  4.8564296E+002  5.0487897E+002  5.0451031E+002  5.0324265E+002  4.8587412E+002  5.0441518E+002  4.8498970E+002  4.8545857E+002  4.8609449E+002  5.0482783E+002  5.0332530E+002  5.0483629E+002  5.0494388E+002  5.0482704E+002  4.8488027E+002  5.0308019E+002  4.8580069E+002  4.8538116E+002  4.8614438E+002  4.8653671E+002  4.8747198E+002  4.8606878E+002  4.8670616E+002  4.8904664E+002  4.9057850E+002  4.8770872E+002  4.9143465E+002  4.9283620E+002  4.9437221E+002  4.8934945E+002  4.8627124E+002  4.9601959E+002  4.8645235E+002  4.9779330E+002  4.8636588E+002  4.9966442E+002  5.0163537E+002  4.9093021E+002  4.8685878E+002  4.8710467E+002  4.9181294E+002  4.8699006E+002  4.8735505E+002  4.8723090E+002  4.9325296E+002  4.8790869E+002  4.8823023E+002  4.9482430E+002  4.8855393E+002  4.8808326E+002  4.9651792E+002  4.8889035E+002  4.8839251E+002  4.8872566E+002  4.9832022E+002  4.8962365E+002  5.0020360E+002  4.9000365E+002  5.0219932E+002  4.9039633E+002  4.8981401E+002  4.9020425E+002  4.9124170E+002  4.9215315E+002  4.9261868E+002  4.9239122E+002  4.9362626E+002  4.9413501E+002  4.9522778E+002  4.9388589E+002  4.9577398E+002  4.9695020E+002  4.9753236E+002  4.9550561E+002  4.9877672E+002  4.9938963E+002  4.9724647E+002  5.0070120E+002  5.0134635E+002  5.0274087E+002  4.9908669E+002  5.0102480E+002  5.0467267E+002  5.0425812E+002  4.8621526E+002  4.8677853E+002  5.0500005E+002  5.0493457E+002  4.8780485E+002  5.0482115E+002  4.8946429E+002  4.9106266E+002  4.9195526E+002  4.9341279E+002  4.9499426E+002  4.9670486E+002  4.9851806E+002  5.0044400E+002  5.0244970E+002  5.0194649E+002  5.0488314E+002  4.8477775E+002  4.9996022E+002  5.0401439E+002  5.0442045E+002  5.0483277E+002  4.9807354E+002  4.8467054E+002  4.8572044E+002  4.9628430E+002  4.8599979E+002  5.0488581E+002  4.9460693E+002  4.9305299E+002  4.9163121E+002  4.9076114E+002  4.8530675E+002  5.0450713E+002  4.8920358E+002  5.0294766E+002  5.0450979E+002  5.0373447E+002  5.0462969E+002  5.0408243E+002  5.0475476E+002  5.0472885E+002  5.0472577E+002  5.0451407E+002  5.0346164E+002  5.0319394E+002  5.0481021E+002  5.0482672E+002  5.0479813E+002  5.0481239E+002  5.0414406E+002  5.0466483E+002  5.0469685E+002  5.0304670E+002  5.0475315E+002  5.0477770E+002  5.0484517E+002  5.0483368E+002  5.0328956E+002  5.0436521E+002  5.0460298E+002  5.0374077E+002  5.0477740E+002  5.0281677E+002  5.0486776E+002  5.0279208E+002  5.0306805E+002  5.0302713E+002  5.0291069E+002  5.0295858E+002  5.0315038E+002  5.0327574E+002  5.0319955E+002  5.0427314E+002  5.0415857E+002  5.0399882E+002  5.0429941E+002  5.0404286E+002  5.0388605E+002  5.0468762E+002  5.0467739E+002  5.0464694E+002  5.0470482E+002  5.0463159E+002  5.0459373E+002  5.0357784E+002  5.0368296E+002  5.0354249E+002  5.0361902E+002  5.0467806E+002  5.0473054E+002  5.0474743E+002  5.0475038E+002  5.0471195E+002  5.0478770E+002  5.0483110E+002  5.0484132E+002  5.0484077E+002  5.0483140E+002  5.0476570E+002  5.0478482E+002  5.0479684E+002  5.0477147E+002  5.0477253E+002  5.0426740E+002  5.0438553E+002  5.0446857E+002  5.0470622E+002  5.0482141E+002  5.0485458E+002  5.0485892E+002  5.0486178E+002  5.0486505E+002  5.0482916E+002  5.0471079E+002  5.0483803E+002  5.0485434E+002  5.0479913E+002  5.0481821E+002  5.0480803E+002  5.0479501E+002  5.0480411E+002  5.0343616E+002  5.0341224E+002  5.0461237E+002  5.0444541E+002  5.0453320E+002  5.0454894E+002  5.0331689E+002  5.0442345E+002  5.0465504E+002  5.0390820E+002  5.0463754E+002  5.0385031E+002  5.0478826E+002  5.0482014E+002  5.0283282E+002  5.0276390E+002  5.0486201E+002  5.0485035E+002  5.0387762E+002  5.0290600E+002  5.0419481E+002  5.0481182E+002  5.0446969E+002  5.0456817E+002  5.0472275E+002  5.0467301E+002  5.0457397E+002  5.0476790E+002  5.0472354E+002  5.0398968E+002  5.0308163E+002  5.0479134E+002  5.0315355E+002  5.0472980E+002  5.0455398E+002  5.0359039E+002  5.0481364E+002  5.0483950E+002  5.0485701E+002  5.0474703E+002  5.0348503E+002  5.0483720E+002  5.0486858E+002  5.0482222E+002  5.0273927E+002  5.0270725E+002  5.0484494E+002  5.0285424E+002  5.0482459E+002  5.0440485E+002  5.0457938E+002  5.0468129E+002  5.0476073E+002  5.0429087E+002  5.0484612E+002  5.0330849E+002  5.0457012E+002  5.0475529E+002  5.0378543E+002  5.0373141E+002  5.0473475E+002  5.0480978E+002  5.0337962E+002  5.0486239E+002  3.5325548E+002  3.5324380E+002  3.5325646E+002  3.5323909E+002  3.5322082E+002  3.5323124E+002  3.5321382E+002  3.5322495E+002  3.5321566E+002  3.5320879E+002  3.5320769E+002  3.5320615E+002  3.5320548E+002  3.5320886E+002  3.5321921E+002  3.5323086E+002  3.5323672E+002  3.5320704E+002  3.5326949E+002  3.5321093E+002  3.5324715E+002  3.5322630E+002  3.5324983E+002  3.5321761E+002  3.5321169E+002  3.5320610E+002  3.5327217E+002  3.5326744E+002  3.5325660E+002  3.5328665E+002  4.7118666E+002  4.6113991E+002  4.7726437E+002  4.8071524E+002  4.8340612E+002  4.8638870E+002  4.8954097E+002  4.9637648E+002  4.9307553E+002  3.7471119E+002  5.0306257E+002  4.7473814E+002  5.0433089E+002  4.9957966E+002  4.9525616E+002  5.0436835E+002  4.7116907E+002  4.5647323E+002  3.6703554E+002  4.7276998E+002  4.7911819E+002  4.9245278E+002  4.8315486E+002  5.0226629E+002  5.0098890E+002  4.9805862E+002  5.0128760E+002  5.0443372E+002  5.0433715E+002  2.9641564E+002  5.0182908E+002  4.9003935E+002  3.3074693E+002  2.9705786E+002  4.8168000E+002  4.9105420E+002  4.8758834E+002  4.8479495E+002  5.0449344E+002  2.9484598E+002  2.9598741E+002  2.9476217E+002  4.9910424E+002  3.5160537E+002  3.5188679E+002  3.5191476E+002  3.5263231E+002  3.5208137E+002  3.5256346E+002  5.0442103E+002  5.0268871E+002  5.0029822E+002  4.9861597E+002  4.7700956E+002  4.6521224E+002  5.0455043E+002  5.0440053E+002  2.9860592E+002  3.1201503E+002  4.9824191E+002  4.9596523E+002  5.0411954E+002  4.9869463E+002  2.9405310E+002  4.8167888E+002  4.7306688E+002  4.5408287E+002  4.4504201E+002  4.1796933E+002  4.1356163E+002  3.8486396E+002  3.8253342E+002  4.9888243E+002  4.9947591E+002  4.7634512E+002  4.9380052E+002  4.6882051E+002  4.7609907E+002  5.0394814E+002  3.6275101E+002  3.6066120E+002  4.9605931E+002  4.9338356E+002  2.9536350E+002  3.4660400E+002  3.4541815E+002  3.5627416E+002  3.4226781E+002  3.5062304E+002  3.3816372E+002  3.4453917E+002  3.3367492E+002  3.3867032E+002  3.2915541E+002  3.4958146E+002  3.3293405E+002  3.2477183E+002  3.2760951E+002  3.2063917E+002  3.2274799E+002  3.1681343E+002  3.1834070E+002  3.1331421E+002  3.1438176E+002  3.1013949E+002  3.1084091E+002  3.0727241E+002  2.9409531E+002  4.9830765E+002  4.9632312E+002  4.9844883E+002  3.0417469E+002  4.7696977E+002  5.0128572E+002  3.2973146E+002  3.0767735E+002  3.2822405E+002  5.0446326E+002  3.1482921E+002  2.9578522E+002  5.0465429E+002  3.1113514E+002  3.3473404E+002  3.3396374E+002  3.0468513E+002  3.0314938E+002  3.0421065E+002  4.9677745E+002  4.9867102E+002  4.1026930E+002  3.0772339E+002  3.6542581E+002  3.5873587E+002  3.2526125E+002  3.2363417E+002  4.9338347E+002  4.8925804E+002  4.8872146E+002  4.8394501E+002  4.8264299E+002  4.7523808E+002  4.7457255E+002  4.6313616E+002  3.0211160E+002  3.1101500E+002  5.0450354E+002  3.0159653E+002  4.9972214E+002  5.0009699E+002  3.0741369E+002  4.9915919E+002  5.0039635E+002  5.0111777E+002  5.0149004E+002  5.0084652E+002  5.0171430E+002  3.3692959E+002  4.5596664E+002  4.4476840E+002  4.3043974E+002  4.1790110E+002  3.5148218E+002  3.6018903E+002  3.2141819E+002  3.1935365E+002  3.0905325E+002  2.9560684E+002  2.9693609E+002  2.9510490E+002  5.0438206E+002  4.8583343E+002  5.0192527E+002  5.0178744E+002  2.9991714E+002  5.0436330E+002  5.0440299E+002  5.0434629E+002  5.0444585E+002  3.0386475E+002  5.0129198E+002  5.0203796E+002  3.0468441E+002  2.9355431E+002  3.6958855E+002  5.0251164E+002  5.0239951E+002  5.0273296E+002  5.0239463E+002  5.0294223E+002  5.0272690E+002  5.0220115E+002  3.1725994E+002  3.1540997E+002  3.1805765E+002  3.2048627E+002  5.0044895E+002  5.0319203E+002  3.1257518E+002  3.6094405E+002  3.0019471E+002  3.1048984E+002  3.1475380E+002  3.0676508E+002  5.0240973E+002  5.0234042E+002  5.0159499E+002  5.0258622E+002  4.7712141E+002  2.9938149E+002  3.0080836E+002  2.9806792E+002  4.6038436E+002  4.3211658E+002  5.0076952E+002  3.1166806E+002  3.1197505E+002  5.0296195E+002  5.0285026E+002  5.0288426E+002  5.0233872E+002  5.0281161E+002  5.0233465E+002  5.0289390E+002  5.0237062E+002  5.0286420E+002  5.0241522E+002  5.0299086E+002  5.0251416E+002  5.0302449E+002  5.0292736E+002  4.8597482E+002  5.0196656E+002  3.5161353E+002  3.5011748E+002  4.4219871E+002  3.5156381E+002  4.9860799E+002  4.9141087E+002  4.9453298E+002  4.8326363E+002  3.5225499E+002  3.5021816E+002  3.5389333E+002  3.5748445E+002  3.5166620E+002  3.5287245E+002  3.4757590E+002  3.4458452E+002  3.5382490E+002  3.3735684E+002  3.5213904E+002  3.5196654E+002  3.5018143E+002  3.1609261E+002  4.9955351E+002  4.7476420E+002  4.6133997E+002  3.3694370E+002  2.9553256E+002  4.7861462E+002  4.7121243E+002  4.7995291E+002  4.7310345E+002  4.7719473E+002  4.6913928E+002  4.9121047E+002  4.8643200E+002  4.8754988E+002  4.8376097E+002  4.8929596E+002  4.8460793E+002  4.7422775E+002  4.8597754E+002  4.7644110E+002  4.9645620E+002  4.9509907E+002  4.9852171E+002  4.9786126E+002  4.8290641E+002  4.7144497E+002  4.8121922E+002  5.0264412E+002  5.0315371E+002  2.9859829E+002  2.9975906E+002  4.6304536E+002  3.8918725E+002  3.9464522E+002  4.7235794E+002  3.9810246E+002  3.8827196E+002  4.0080167E+002  4.7261265E+002  4.6942061E+002  3.8804177E+002  4.8092946E+002  4.6947586E+002  4.6944082E+002  5.0338339E+002  5.0359054E+002  5.0344502E+002  3.1392354E+002  3.1897947E+002  4.5990805E+002  4.4420400E+002  3.0889044E+002  3.0649410E+002  4.5679981E+002  5.0202636E+002  5.0276438E+002  5.0326077E+002  5.0338802E+002  5.0452181E+002  4.0237007E+002  3.9376747E+002  5.0332074E+002  5.0345320E+002  5.0357514E+002  5.0334227E+002  5.0374403E+002  4.9854995E+002  5.0326039E+002  5.0379369E+002  5.0368359E+002  5.0398600E+002  5.0390432E+002  5.0363938E+002  5.0330202E+002  5.0336924E+002  3.1771742E+002  2.9363510E+002  3.1789687E+002  3.1165457E+002  5.0357670E+002  5.0393234E+002  5.0312401E+002  3.0373488E+002  3.0182706E+002  3.0359480E+002  3.0671603E+002  3.1267299E+002  4.1296310E+002  3.8725222E+002  3.7395591E+002  3.6757474E+002  3.7823135E+002  3.5792545E+002  3.5099797E+002  5.0394214E+002  5.0312830E+002  3.2373647E+002  3.2495127E+002  3.3103120E+002  4.3935229E+002  5.0353958E+002  5.0395392E+002  3.3205606E+002  3.7740097E+002  2.9412756E+002  5.0315044E+002  5.0474343E+002  4.9436383E+002  3.2562769E+002  3.1910082E+002  5.0417174E+002  3.3022688E+002  3.2125855E+002  5.0184070E+002  4.7390463E+002  3.1697405E+002  3.1084171E+002  3.0612127E+002  3.0545572E+002  3.0964176E+002  3.0456477E+002  3.0826014E+002  3.0358690E+002  3.0677779E+002  3.0251175E+002  3.0525541E+002  3.0145348E+002  3.0376605E+002  3.0039167E+002  3.0973183E+002  3.1371944E+002  3.0234765E+002  2.9941926E+002  3.0582187E+002  3.0622392E+002  3.0211531E+002  3.1090815E+002  3.0235865E+002  2.9757820E+002  2.9675481E+002  3.6520492E+002  3.5439350E+002  4.9996429E+002  4.3597929E+002  4.3478874E+002  4.9421202E+002  4.9521028E+002  4.7301636E+002  4.7139074E+002  4.0220279E+002  3.8844624E+002  3.8866967E+002  3.8315077E+002  3.8834526E+002  4.7054614E+002  4.8030808E+002  4.7531980E+002  3.9168780E+002  3.8837197E+002  3.1153187E+002  5.0411373E+002  5.0457401E+002  2.9764847E+002  5.0345308E+002  4.9294253E+002  3.3980820E+002  5.0434399E+002  2.9751469E+002  4.9064884E+002  5.0380547E+002  5.0370040E+002  5.0364945E+002  5.0372250E+002  4.5330822E+002  4.4076307E+002  4.2896402E+002  4.1831384E+002  4.3048262E+002  3.6322270E+002  3.4753363E+002  5.0384224E+002  5.0389419E+002  2.9961181E+002  3.5156437E+002  3.5478767E+002  5.0264243E+002  2.9576066E+002  5.0425210E+002  3.2440074E+002  3.2544264E+002  3.3203741E+002  5.0251331E+002  5.0190065E+002  5.0119044E+002  5.0127154E+002  5.0014116E+002  4.6882626E+002  4.8360483E+002  4.7165363E+002  4.9369841E+002  4.3819335E+002  5.0022643E+002  4.9207218E+002  5.0413722E+002  5.0419379E+002  4.0549354E+002  4.0338345E+002  3.1615743E+002  3.3804578E+002  4.0650000E+002  4.9578084E+002  4.8263263E+002  3.4946573E+002  3.4647572E+002  3.4944457E+002  3.4656695E+002  3.4433495E+002  2.9840021E+002  2.9685292E+002  5.0306290E+002  3.0185979E+002  3.7973304E+002  5.0405667E+002  5.0322746E+002  5.0361373E+002  3.0204759E+002  4.9406853E+002  4.8965539E+002  4.9731094E+002  5.0398221E+002  5.0364058E+002  4.3608620E+002  4.4262911E+002  4.4893009E+002  4.2042044E+002  4.0502438E+002  2.9965844E+002  4.5727758E+002  5.0304493E+002  5.0303101E+002  5.0340588E+002  5.0375098E+002  5.0369073E+002  5.0401254E+002  4.5982580E+002  4.6242269E+002  4.5677079E+002  3.9379479E+002  5.0109474E+002  4.9855408E+002  4.6812302E+002  4.5373358E+002  4.6520204E+002  4.9263544E+002  4.9140472E+002  4.8771020E+002  4.7138075E+002  4.5989230E+002  4.3955125E+002  3.1136839E+002  3.0840392E+002  3.0686319E+002  3.0459389E+002  3.0315062E+002  3.0121120E+002  3.0244956E+002  2.9951826E+002  3.0048472E+002  3.0007636E+002  3.0123279E+002  4.9987080E+002  4.9511635E+002  3.4600960E+002  3.3377777E+002  4.5269709E+002  5.0416460E+002  4.1446446E+002  3.9318365E+002  5.0381648E+002  5.0405638E+002  5.0408038E+002  5.0419119E+002  5.0405008E+002  5.0423495E+002  5.0381068E+002  5.0395550E+002  5.0383124E+002  5.0408106E+002  5.0424374E+002  5.0395147E+002  5.0443774E+002  5.0450599E+002  4.0967508E+002  3.8704432E+002  3.8990478E+002  4.6878275E+002  2.9823922E+002  5.0412811E+002  3.0019895E+002  5.0429458E+002  5.0438175E+002  5.0329139E+002  5.0365602E+002  5.0366107E+002  5.0327659E+002  5.0363287E+002  5.0397555E+002  5.0402710E+002  5.0400359E+002  5.0364142E+002  5.0399190E+002  4.8571949E+002  5.0017724E+002  5.0339842E+002  4.2804215E+002  2.9885834E+002  4.7627686E+002  4.7258453E+002  3.2835693E+002  3.2244379E+002  3.1640964E+002  3.0999289E+002  3.0497974E+002  3.4523939E+002  3.3295001E+002  3.2428497E+002  3.2262168E+002  3.1232513E+002  3.1338959E+002  5.0433924E+002  5.0447893E+002  4.9097744E+002  5.0303702E+002  4.5640352E+002  5.0075779E+002  2.9586584E+002  3.7249533E+002  3.9477245E+002  4.8708298E+002  2.9693550E+002  5.0457581E+002  4.0497192E+002  3.3892780E+002  4.4082487E+002  5.0438887E+002  5.0455183E+002  5.0418844E+002  5.0391008E+002  3.0138422E+002  5.0431563E+002  5.0357075E+002  3.6922849E+002  5.0416468E+002  5.0397728E+002  5.0260867E+002  5.0416085E+002  5.0403046E+002  5.0425307E+002  5.0296808E+002  5.0248128E+002  2.9510012E+002  5.0337870E+002  5.0375960E+002  5.0406777E+002  5.0422868E+002  2.9705866E+002  3.0074671E+002  2.9669298E+002  2.9953568E+002  2.9607693E+002  2.9807978E+002  3.9531693E+002  2.9845739E+002  3.8030611E+002  3.0101318E+002  3.2256859E+002  3.0403625E+002  3.0761375E+002  3.0994730E+002  2.9524324E+002  2.9599707E+002  3.3127060E+002  3.2025556E+002  5.0087444E+002  5.0155238E+002  3.6562739E+002  3.4479927E+002  3.3361617E+002  3.4639202E+002  3.2486015E+002  3.1768491E+002  3.1505251E+002  3.1175135E+002  3.0526255E+002  3.0104443E+002  2.9989705E+002  2.9755536E+002  3.2541829E+002  3.1065106E+002  3.4288577E+002  3.3090009E+002  3.0465057E+002  3.0090101E+002  3.0601463E+002  3.0650784E+002  3.3602151E+002  3.0893591E+002  2.9865602E+002  3.1550912E+002  3.2427131E+002  3.3136083E+002  3.1498971E+002  3.0651769E+002  3.2183174E+002  3.1948111E+002  2.9752578E+002  2.9653508E+002  2.9685317E+002  2.9561320E+002  2.9573980E+002  2.9694357E+002  2.9479804E+002  2.9465494E+002  2.9537563E+002  2.9674757E+002  2.9542979E+002  2.9625411E+002  2.9820848E+002  2.9780620E+002  2.9995286E+002  2.9945008E+002  2.9723663E+002  2.9873031E+002  2.9642367E+002  3.0194771E+002  3.0020229E+002  3.0228781E+002  3.0234216E+002  3.0421706E+002  3.2895444E+002  2.9540388E+002  2.9343556E+002  2.9384116E+002  2.9531200E+002  2.9841922E+002  2.9837138E+002  3.1511559E+002  3.2518593E+002  2.9510389E+002  2.9396548E+002  3.4030648E+002  3.0959704E+002  3.0342961E+002  3.0484320E+002  3.1969000E+002  3.0581805E+002  3.0543178E+002  3.0346288E+002  3.0134538E+002  3.1981129E+002  3.1182410E+002  3.1804998E+002  3.0773999E+002  5.0447620E+002  3.1244059E+002  5.0216114E+002  5.0435655E+002  5.0437897E+002  5.0443632E+002  5.0443220E+002  5.0435068E+002  5.0434865E+002  5.0449957E+002  5.0451824E+002  5.0447204E+002  5.0442167E+002  5.0468806E+002  2.9630537E+002  5.0325414E+002  5.0405021E+002  5.0314665E+002  2.9452600E+002  4.8470022E+002  4.6265312E+002  3.4938666E+002  3.4518433E+002  3.3921959E+002  3.4911716E+002  3.5109971E+002  3.4967660E+002  3.4989245E+002  2.9803523E+002  5.0444001E+002  3.0759053E+002  3.0058350E+002  4.9751281E+002  4.9832159E+002  5.0411240E+002  4.3108006E+002  3.6457901E+002  2.9496140E+002  5.0033729E+002  5.0001033E+002  5.0260373E+002  4.9993895E+002  5.0033860E+002  4.9776225E+002  5.0454073E+002  5.0406000E+002  5.0177379E+002  5.0131528E+002  2.9428594E+002  4.5990128E+002  4.5522057E+002  5.0142174E+002  3.5049561E+002  4.7053961E+002  2.9784128E+002  5.0403460E+002  3.2453858E+002  3.1944573E+002  2.9478257E+002  2.9538013E+002  2.9393050E+002  4.6732096E+002  4.6867615E+002  3.1216439E+002  5.0440118E+002  2.9346834E+002  2.9408782E+002  5.0287431E+002  5.0218407E+002  2.9746447E+002  2.9434250E+002  2.9582594E+002  4.9231614E+002  5.0440007E+002  5.0412724E+002  4.5609923E+002  3.4025502E+002  3.4510067E+002  3.0392533E+002  5.0473538E+002  4.8651395E+002  3.4845664E+002  5.0176522E+002  5.0336386E+002  5.0283289E+002  3.5517768E+002  5.0456904E+002  5.0439928E+002  4.9971938E+002  5.0344473E+002  3.5747232E+002  2.9448886E+002  5.0445722E+002  3.0292575E+002  4.7513960E+002  4.8396701E+002  4.6677373E+002  4.8451357E+002  4.6854061E+002  4.9608769E+002  4.7322455E+002  4.8865080E+002  4.7838412E+002  4.7948468E+002  4.2647347E+002  5.0109081E+002  2.9656241E+002  4.3296531E+002  5.0373358E+002  4.9904243E+002  3.3774301E+002  5.0189771E+002  5.0207281E+002  5.0232859E+002  5.0239982E+002  5.0216532E+002  4.8000493E+002  5.0431489E+002  3.2717327E+002  5.0192092E+002  4.9716773E+002  3.1070658E+002  3.6830969E+002  5.0252064E+002  3.8507859E+002  3.6359627E+002  3.7594708E+002  4.4612387E+002  4.0178560E+002  3.4916120E+002  3.6237733E+002  5.0362089E+002  4.8832070E+002  5.0462905E+002  4.8003811E+002  5.0451149E+002  5.0372545E+002  5.0043056E+002  5.0437480E+002  3.3928067E+002  5.0385512E+002  2.9734641E+002  2.9476743E+002  2.9421974E+002  4.9672311E+002  3.0093300E+002  5.0340819E+002  4.0488810E+002  3.0111174E+002  2.9410725E+002  2.9993208E+002  4.8317375E+002  5.0307720E+002  4.5766266E+002  5.0423218E+002  5.0350317E+002  5.0434219E+002  5.0418207E+002  3.9663697E+002  4.9651509E+002  3.7564386E+002  4.4094404E+002  4.9927643E+002  4.9408353E+002  3.7872203E+002  5.0422112E+002  3.9461726E+002  3.5199086E+002  4.8248791E+002  3.8490241E+002  4.2856321E+002  3.8599525E+002  4.9459696E+002  4.8700303E+002  4.9999618E+002  4.9939040E+002  5.0091173E+002  5.0266397E+002  3.8656948E+002  4.9799180E+002  4.9686910E+002  4.6622873E+002  4.6271835E+002  4.6683992E+002  5.0241612E+002  4.6001346E+002  4.8025802E+002  5.0144396E+002  4.6942108E+002  3.5325749E+002  3.8279679E+002  3.8520356E+002  3.5201818E+002  3.5203695E+002  3.8538487E+002  3.5187512E+002  3.8602863E+002  3.5177530E+002  3.8498035E+002  3.5245159E+002  4.7070837E+002  4.6697346E+002  4.8572412E+002  5.0278180E+002  3.0523123E+002  4.9583499E+002  3.6140512E+002  4.1496277E+002  4.1019272E+002  4.0956660E+002  4.1603211E+002  4.4012624E+002  4.9692776E+002  4.9791189E+002  5.0043948E+002  3.7260528E+002  5.0049211E+002  4.9256689E+002  5.0390943E+002  5.0428872E+002  2.9426565E+002  3.1480830E+002  3.4570224E+002  5.0436496E+002  4.7903067E+002  3.3412688E+002  4.8123286E+002  4.7520435E+002  4.7646601E+002  4.7540014E+002  5.0159231E+002  4.7977311E+002  4.7361045E+002  4.7275034E+002  4.8452152E+002  4.9237595E+002  4.9261108E+002  4.9942698E+002  4.7988353E+002  4.8752155E+002  4.8943604E+002  4.7707028E+002  4.9068865E+002  4.8629280E+002  4.9761922E+002  4.8378210E+002  4.9324545E+002  4.9356648E+002  4.7823508E+002  4.8223534E+002  4.9501446E+002  4.9624056E+002  4.8223691E+002  5.0425516E+002  3.8603620E+002  4.7617166E+002  4.3024524E+002  3.2431320E+002  4.5939565E+002  4.7182643E+002  4.5622579E+002  4.6850612E+002  4.6974449E+002  4.6227180E+002  4.6470908E+002  2.9735329E+002  3.2886840E+002  3.1512024E+002  5.0375629E+002  2.9714766E+002  2.9326817E+002  2.9353922E+002  4.9646674E+002  2.9630169E+002  2.9490938E+002  5.0459490E+002  5.0485171E+002  4.8637748E+002  5.0350997E+002  3.3442794E+002  4.1336218E+002  5.0053304E+002  2.9519705E+002  3.0174017E+002  2.9905348E+002  5.0209652E+002  2.9520402E+002  5.0164982E+002  3.0517212E+002  4.8029767E+002  5.0413119E+002  5.0444856E+002  4.5578865E+002  2.9898742E+002  3.0892330E+002  5.0333879E+002  4.5699594E+002  4.9046799E+002  5.0316198E+002  3.1614043E+002  4.6493093E+002  2.9760072E+002  4.1583875E+002  2.9454882E+002  5.0361106E+002  5.0340866E+002  3.6205711E+002  5.0460253E+002  3.0154760E+002  2.9556691E+002  5.0373012E+002  5.0386953E+002  4.2677368E+002  4.3046328E+002  4.2836993E+002  4.2856048E+002  4.2896926E+002  4.2822458E+002  4.2830081E+002  5.0296286E+002  5.0460142E+002  3.6084659E+002  5.0429090E+002  3.2613744E+002  4.5291076E+002  5.0336582E+002  4.3499368E+002  3.5202966E+002  4.9638098E+002  2.9525782E+002  3.4963665E+002  5.0444106E+002  5.0442894E+002  3.1543790E+002  5.0058509E+002  4.8857914E+002  4.9634914E+002  4.9326673E+002  5.0416415E+002  5.0139996E+002  5.0141534E+002  5.0143599E+002  4.4804475E+002  5.0422168E+002  4.9110759E+002  4.9940679E+002  4.8841666E+002  5.0408292E+002  3.3962302E+002  5.0425414E+002  3.0168889E+002  5.0445004E+002  5.0344192E+002  5.0042200E+002  5.0377900E+002  5.0400016E+002
        </DataArray>
        <DataArray type="Float64" Name="temperature loads" NumberOfComponents="1" format="ascii">
  2.2593977E-004  3.1754518E-004  1.8209949E-003  1.0249560E-002 -3.6398378E-007 -2.1372950E-006 -8.9662683E-006  2.5770315E-002  1.3129582E-004  2.3728584E-002  2.3784909E-002 -4.5478612E-003 -1.9940636E-002 -1.9947449E-002 -4.5495012E-003 -6.6458085E-004 -5.6013916E-004 -1.6741693E-004 -1.3749344E-004  2.8618774E-012  3.6582347E-010  8.8704182E-004  5.6368185E-012  1.7263910E-003  1.6547148E-003  1.5830017E-003  1.5112622E-003  1.4394895E-003  1.3676739E-003  1.2958051E-003  1.2238727E-003  1.1518675E-003  1.0766189E-003  9.2887397E-004  7.2640137E-004  5.7011617E-004  4.6942048E-004  4.0416603E-004  3.6319688E-004  1.8621963E-003  1.8660244E-003  1.8677822E-003  1.8687107E-003  1.8691799E-003  1.8693609E-003  1.8693482E-003  1.8691982E-003  1.8689491E-003  1.8686210E-003  1.8682036E-003 -3.1875136E-006 -3.7208172E-006 -4.2254964E-006 -4.7034800E-006 -5.1568569E-006 -5.5850030E-006 -5.9879812E-006 -6.3700084E-006 -6.7307963E-006 -7.0702627E-006 -7.3884804E-006 -7.6860055E-006 -7.9642038E-006 -8.2203972E-006 -8.4592161E-006 -8.6817704E-006  3.7044223E-005  3.8721444E-005  4.1649942E-005  4.5836424E-005  5.1517690E-005  5.9107445E-005  6.9024779E-005  7.5806600E-005  7.5951536E-005  7.3815863E-005  7.1715014E-005  6.9647425E-005  6.7612211E-005  6.5607961E-005  6.3633849E-005  6.1688940E-005  5.9773716E-005  5.7887220E-005  5.6029966E-005  5.4200763E-005  5.2400240E-005  5.0627753E-005  4.8884535E-005  4.7171029E-005  4.5486591E-005  4.3830966E-005  4.2205383E-005  4.0610668E-005  3.9043062E-005  3.7503722E-005  3.5991467E-005  3.4505306E-005  3.3048239E-005  3.1614562E-005  3.0206058E-005  2.8825306E-005  2.7471679E-005  2.6141982E-005  2.4835910E-005  2.3559402E-005  2.2306705E-005  2.1079918E-005  1.9876101E-005  1.8696513E-005  1.7538811E-005  1.6410907E-005  1.5302327E-005  1.4221728E-005  1.3160393E-005  1.2125362E-005  1.1107715E-005  1.0119370E-005  9.1549498E-006  8.2132354E-006  7.2907007E-006  6.3979925E-006  5.5235379E-006  4.6793366E-006  3.8632715E-006  3.0685275E-006  2.3017420E-006  1.5553178E-006  8.3428634E-007  1.3297684E-007 -5.4387859E-007 -1.1988753E-006 -1.8284727E-006 -2.4310309E-006 -3.0155574E-006 -3.5766020E-006 -4.1194380E-006 -4.6382376E-006 -5.1363595E-006 -5.6150586E-006 -6.0715362E-006 -6.5106260E-006 -6.9268685E-006 -7.3164405E-006 -7.6833570E-006 -8.0292483E-006 -8.3540591E-006 -8.6556549E-006 -8.9380087E-006  7.8774814E-004  1.5754315E-003  2.3628791E-003  3.1498944E-003  3.9363240E-003  4.7221281E-003  5.5070891E-003  6.2909690E-003  7.0735373E-003  7.8551071E-003  8.6351743E-003  9.4133105E-003  1.0189026E-002  1.0961359E-002  1.1729967E-002  1.2493465E-002  1.3250393E-002  1.3998115E-002  1.4734207E-002  1.5455347E-002  1.6154943E-002  1.6826510E-002  1.7464039E-002  1.8063168E-002  1.8623955E-002  1.9153183E-002  1.9660419E-002  2.0151163E-002  2.0629889E-002  2.1100254E-002  2.1562572E-002  2.2019638E-002  2.2470296E-002  2.2913510E-002  2.3346654E-002  2.3945299E-002  2.4020710E-002  2.3975736E-002 -5.0116045E-003 -5.5680187E-003 -6.1242937E-003 -6.6805048E-003 -7.2366797E-003 -7.7928280E-003 -8.3489653E-003 -8.9050964E-003 -9.4612293E-003 -1.0017367E-002 -1.0573519E-002 -1.1129692E-002 -1.1685890E-002 -1.2242107E-002 -1.2798353E-002 -1.3354656E-002 -1.3910964E-002 -1.4467361E-002 -1.5023774E-002 -1.5580246E-002 -1.6136777E-002 -1.6693357E-002 -1.7250006E-002 -1.7806711E-002 -1.8363518E-002 -1.8920316E-002 -1.9476860E-002 -2.0036405E-002 -1.9482270E-002 -1.8924502E-002 -1.8367411E-002 -1.7810485E-002 -1.7253654E-002 -1.6696887E-002 -1.6140165E-002 -1.5583533E-002 -1.5026938E-002 -1.4470381E-002 -1.3913901E-002 -1.3357457E-002 -1.2801046E-002 -1.2244672E-002 -1.1688315E-002 -1.1132013E-002 -1.0575721E-002 -1.0019452E-002 -9.4631938E-003 -8.9069460E-003 -8.3506980E-003 -7.7944421E-003 -7.2381747E-003 -6.6818884E-003 -6.1255771E-003 -5.5692465E-003 -5.0130218E-003 -4.4556885E-003  2.3393605E-002  2.2953052E-002  2.2506735E-002  2.2055267E-002  2.1598786E-002  2.1137722E-002  2.0671033E-002  2.0200852E-002  1.9731302E-002  1.9270224E-002  1.8856199E-002  1.4479372E-004  1.5278503E-004  1.6473978E-004  1.8104968E-004  2.0264576E-004  2.3101992E-004  2.6842850E-004  3.0572064E-004  2.9922038E-004  2.9276956E-004  2.8634562E-004  2.7993980E-004  2.7354771E-004  2.6716593E-004  2.6079136E-004  2.5442326E-004  2.4805872E-004  2.4169789E-004  2.3533832E-004  2.2897977E-004  2.2262125E-004  2.1626194E-004  2.0990110E-004  2.0353801E-004  1.9717207E-004  1.9080277E-004  1.8442937E-004  1.7805135E-004  1.7166786E-004  1.6527951E-004  1.5888406E-004  1.5248158E-004  1.4607162E-004  1.3965380E-004  1.3322711E-004  1.2678962E-004  1.2034043E-004  1.1387820E-004  1.0740011E-004  1.0090260E-004  9.4381475E-005  8.7828264E-005  8.1227445E-005  7.4558482E-005  6.7747116E-005  6.0585062E-005  4.6664062E-016 -2.6841376E-014 -7.6723350E-014 -3.1957076E-014 -1.3877788E-017 -5.1750965E-013 -7.2683352E-013 -8.0011865E-013 -2.4532980E-013 -3.9598159E-003 -7.7840585E-003 -1.1338580E-002 -1.4515263E-002 -1.6889448E-002 -1.7995804E-002 -1.8125135E-002 -1.7022109E-002 -1.5218144E-002 -1.3166141E-002 -1.0662544E-002 -8.1744159E-003 -5.3775948E-003 -2.8058015E-003 -2.8215674E-003 -5.7918901E-003 -8.2152164E-003 -1.0722521E-002 -1.2589951E-002 -1.4185907E-002 -1.5221839E-002 -1.5739608E-002 -1.5777321E-002 -1.5461992E-002 -1.4779169E-002 -1.3852332E-002 -1.2752866E-002 -1.1543416E-002 -1.0336459E-002 -9.0941855E-003 -7.8929827E-003 -6.7216117E-003 -5.6309632E-003 -4.5829456E-003 -3.5945028E-003 -2.6517825E-003 -1.7473248E-003 -8.5909619E-004 -7.9716975E-004 -1.6341607E-003 -2.2041100E-003 -2.8450288E-003 -3.2682955E-003 -3.5716538E-003 -3.7356536E-003 -3.7567008E-003 -3.6262458E-003 -3.3010626E-003 -2.8706801E-003 -2.2829859E-003 -1.5891242E-003 -8.1704056E-004  8.1167711E-015  2.2561814E-014  3.3202607E-014  5.0804846E-014  8.7471697E-014  8.6736174E-018  1.5127136E-013  1.6438240E-014  3.9780679E-014  2.4209801E-013 -1.0408341E-017  4.8198598E-013  7.9982028E-014  6.6445113E-014 -3.4694470E-018  7.2970276E-014  6.4553831E-014  3.3209550E-013  3.1055913E-011  9.3027808E-012  2.7725109E-011  7.8293955E-011  7.0677686E-011  7.2418516E-011  6.3916590E-011  6.7991623E-011  8.7286497E-011  8.0434171E-011  8.7112241E-011  8.6801264E-011  7.5876945E-011  9.4463951E-011  9.2482405E-011  1.3879742E-010  6.7091048E-011  8.9269723E-011  8.6372795E-011  1.0664902E-010  1.4264298E-010  8.3999406E-011  1.1552044E-010  1.1793585E-010  9.8789309E-011  1.1348229E-010  8.9829329E-011  9.8019017E-011  8.2419205E-011  7.5182878E-011  7.2227320E-011  6.7575568E-011  1.4927138E-010  2.9023845E-011  5.6031510E-011  1.0001600E-010  1.9273537E-011  5.2405018E-011  6.0127095E-011  7.1085518E-011  5.8946625E-011  7.6162949E-011  1.5614529E-010  7.8969839E-011  1.3460298E-010  1.4421978E-010  2.2201221E-011  1.4728994E-010  5.2374400E-010  5.7162211E-010  6.3012509E-010  2.8133149E-010  3.9895995E-010  5.4207183E-011  1.4424018E-010  3.7377390E-010  4.6952664E-010  4.7974310E-010  5.6176495E-010  9.1712077E-010  7.1914319E-010  5.1684750E-010  9.1235682E-010  1.4289402E-009  1.4767489E-009  1.5883947E-009  1.6858245E-009  4.7900251E-002  4.2577998E-002  3.7255750E-002  3.1933501E-002  2.6611252E-002  2.1289001E-002  1.5966750E-002  1.0644499E-002  5.3222502E-003  5.0988103E-012  6.9739770E-012  5.9170446E-012  3.9975356E-011 -1.5543122E-015  1.4756196E-011  7.2790662E-012  6.0813576E-012  5.2313709E-012  4.3565151E-013  6.5103478E-013  1.0320633E-012 0.0  1.1166623E-012  8.0468965E-013  9.6191013E-013 -1.3854903E-014  7.7392647E-013  8.2621043E-013  7.9396308E-013  1.0178527E-012  2.0824221E-012  9.6502177E-013  9.1660013E-013  2.2879476E-012  8.5975671E-013  2.8368412E-011  5.0945712E-011  3.7164113E-011  6.1507919E-011  9.0119267E-011  1.1424230E-010  1.4355838E-010  1.1323209E-010  1.3733370E-010  2.2544732E-010  1.7937931E-010  3.3226778E-010  3.7285337E-010  4.4152850E-010  5.3878240E-010  4.3199928E-010  4.8430593E-010  5.1204552E-010  6.6393113E-010  7.3259798E-010  7.6488504E-010  1.6567563E-009  8.6158463E-010  2.2979507E-011 -2.8271821E-015  6.6378232E-011  1.0417922E-010  1.3210599E-010  9.1695349E-010  1.4650596E-010  1.2274357E-010  1.6447466E-010  3.1872422E-016  8.3401184E-010  1.3249845E-010 -8.8817842E-016  2.8307578E-010  1.4081339E-010 -1.5755603E-015  1.4638323E-010  9.1702645E-011  1.0716889E-010  9.8293799E-011  1.1545023E-010  9.1049860E-011  1.0713451E-010  8.1773667E-011  8.5589881E-011  7.7388674E-011  8.0286528E-011  7.4442876E-011  8.7605530E-011  8.1055083E-011  7.9944445E-011  6.4396091E-011  1.3319097E-010  6.9866919E-011  6.6131938E-011  7.1989141E-011  8.0000476E-011  4.4408921E-015  9.5424552E-011  7.0076265E-011  1.6564647E-010  9.5608311E-011 -2.5553421E-015  8.6958777E-011  8.3941334E-011  8.2755117E-011  1.0317937E-010  1.9878064E-010  9.1917935E-011  1.3055592E-010  6.9438072E-015  1.0881936E-010  1.1356227E-010  9.0675053E-011  9.8230528E-011  9.4056470E-011  1.1339138E-010  9.0857693E-011  1.0856343E-010  8.4029067E-011  8.8417172E-011  8.2211729E-011  9.6215719E-011  7.4807237E-011  8.6839476E-011  6.5202807E-011  6.6702610E-011  6.0235904E-011  6.8305385E-011  5.1462865E-011  9.2877954E-011  3.3022647E-011  2.6919222E-011  3.0380029E-011  2.2272263E-011  2.3551176E-011  1.7003670E-011  1.5969939E-011  1.3401007E-011  1.6107116E-011  1.3034084E-011  1.5662946E-011  1.4982941E-011 -3.4498320E-015  1.5057742E-011  1.2989603E-011  3.3327110E-011  2.1647852E-011  1.8711770E-011  2.0440942E-011  1.4474639E-011  1.3915581E-011  1.9355019E-011  1.6487118E-011  1.7733049E-015  1.9105604E-011  9.4247343E-012  9.1928262E-012  7.7754423E-012  4.3192117E-012 -3.5527137E-015  2.7590374E-011  5.3503868E-011  2.9118041E-011  4.2945203E-011  3.7272230E-010  5.7745808E-011  6.4801498E-012  9.1971941E-010  1.6721913E-010  4.1848125E-010  5.6920157E-010  1.5702994E-010  5.1107918E-010  5.5976557E-011  1.9093704E-010  1.0405898E-011 -1.0658141E-013  6.0877525E-011  3.5470293E-011  1.9642243E-010  6.0521188E-010  1.2086332E-011  6.6562222E-010  8.4827434E-010  5.6672889E-011  4.5711346E-010  1.0143708E-010  2.4737012E-010  1.1842083E-011  6.4432015E-011  8.3375085E-011  3.8846792E-010  3.3310243E-011  1.8989255E-012  9.7990949E-010  8.0120799E-010  6.4119376E-011  4.9870152E-010  2.0827429E-010  6.5853101E-011  1.8764013E-010  3.9506176E-011  3.5804248E-011  3.9030112E-011  1.2566659E-010  6.3977268E-011  3.2827074E-011  7.6695983E-011  2.2227464E-010  3.6308734E-012  4.9578119E-012  2.3391067E-011  4.9669779E-010  1.0675905E-012  3.0863312E-011  1.0006396E-010  5.3084648E-011  1.7037038E-010  1.4108181E-010  1.5502621E-010  5.8420824E-011  1.9603874E-010  2.1798030E-010  2.4325431E-010  2.7075941E-010  3.1424463E-010  1.7046631E-010  1.5248247E-010  2.9077540E-010  7.2581940E-011  1.9723245E-010  1.5934631E-010  3.5473846E-010  8.9343644E-011  3.4499692E-010  4.6290438E-010  1.9119284E-010  2.7984015E-010  1.4520651E-010  3.7857717E-010  1.7904256E-010  4.2263082E-010  3.9207748E-010  2.8425973E-010  3.4857806E-010  2.8968827E-010  2.9474734E-010  3.2288483E-010  3.8453152E-010  3.5987568E-010  1.6682122E-010  2.8589398E-010  1.8111734E-010  1.2855139E-010  4.6946980E-010  2.9218938E-010  1.4779289E-010  1.8854962E-010  1.4122747E-010  2.9021407E-010  4.1001158E-010  1.9159074E-010  1.8513902E-010  1.8405899E-010  8.0909501E-011  1.6935076E-010  1.9775825E-010  6.0847327E-011  3.9634074E-010  3.1698733E-010  7.1540995E-010  4.7691628E-011  4.1480064E-010  5.5365490E-010  4.1472248E-010  6.1675109E-011  8.2195584E-011 -6.3948846E-014  1.7048052E-010  1.1999646E-010  9.4331654E-011  1.3940138E-010  6.2259531E-010  9.1731067E-011  3.8291148E-010  8.3421270E-011  2.2181013E-010  1.7760726E-010  1.3804424E-010  9.5411679E-011  4.0013504E-010  5.6834892E-010  6.8641981E-011  4.3907988E-011  4.7064930E-010  2.7806379E-010  3.9886316E-010  1.9028334E-010  3.5359449E-010  4.5140780E-010  2.3551650E-010  2.5696067E-010  4.9084292E-011  9.4246388E-011  1.7261925E-010  6.5872285E-010  4.1876547E-010  5.6005689E-010  4.2243897E-010  9.2754249E-011  9.1745278E-011  2.6479796E-010  1.4890134E-010  4.2632564E-014 -1.9895197E-013  1.3707790E-010  2.9035618E-010  4.5707793E-010  4.5255888E-010  9.0288665E-010  2.3806024E-010  1.9798563E-010  5.5866778E-010  2.5431746E-010  5.7881522E-010  3.2753178E-010  9.1915808E-011  3.2622438E-010  3.8787107E-010  9.1091579E-011 -1.4210855E-014  9.0579988E-011  1.8911805E-010  1.2209966E-010  2.8427394E-010  1.1613110E-010  4.8073900E-010  5.5932503E-010  2.3413804E-010  7.4123818E-010  6.6920691E-011  2.5321967E-011  9.1425534E-011  1.3969270E-010  2.5167424E-010  1.4598811E-010  8.7084118E-011  1.0248868E-010  1.1633716E-010  1.2970958E-010  2.5745450E-010  2.8056490E-010  3.0508929E-010  2.1804070E-010  2.8054714E-010  2.4716407E-010  4.7864290E-010  7.8327389E-010  4.0543213E-010  3.9376147E-010  1.0284573E-010  3.0684078E-010  1.4274804E-010  2.1049118E-010  2.2060931E-010  7.5687012E-011  7.5530693E-011  1.1383605E-010  1.0565770E-010  6.0747851E-011  1.4395596E-010  1.6273560E-010  1.0820145E-010  3.2711256E-010  4.7597837E-010  2.1002222E-010  6.4542860E-010  6.1581318E-010  3.4869885E-011  1.9030466E-010  5.5176486E-010  1.4210855E-014  1.7325164E-010  4.0833470E-010  2.0983038E-010  6.0140337E-011  4.6696869E-011  7.7577056E-011  5.0479798E-010  6.3025141E-010  4.0255088E-010  1.9150548E-010  6.3556627E-010  2.2723157E-010  2.7900171E-010  1.4480861E-010  4.1413273E-010  3.4521008E-010  2.9382363E-010  2.7873170E-010  3.0669867E-010  2.5531222E-010  2.2191671E-010  2.7161207E-010  2.4684255E-010  3.2775915E-010  1.5020873E-010  2.6696512E-010  2.2524205E-010  2.2066615E-010  1.6541435E-010  3.3533354E-010  1.3373835E-010  9.1843333E-010  5.5507599E-011  2.1270807E-010  1.6561330E-010  1.5780799E-010  2.5179503E-010  1.3312729E-010  3.1931791E-011  1.6385115E-011  1.3267609E-011  2.2926372E-010  2.9029934E-010  3.6587267E-010  1.7604407E-010  1.1624479E-010  1.2352075E-010  2.1253754E-010  1.0402346E-010  2.1185542E-010  1.0314238E-010  8.0348173E-011  1.7340085E-010  2.0232704E-010  1.3834267E-010  4.7094773E-011  1.2155965E-010  9.0629726E-011  2.3897684E-010  1.1993961E-010  4.5687898E-011  1.0048673E-010  2.9177016E-010  7.8883033E-010  7.8637186E-010  5.8369665E-010  1.2829560E-010  1.0146550E-010  1.5094059E-010  1.6936497E-010  2.0162361E-010  1.8555113E-010  2.3950975E-010  1.5046453E-010  9.6193276E-011  5.0604854E-010  1.3463364E-010  1.3716317E-010  4.3868909E-010  3.6686743E-010  3.2235192E-010  2.3227642E-011  1.7061552E-010  7.9681683E-010  2.5846703E-010  1.7601565E-010  2.5078606E-010  6.9753980E-011  3.3955416E-010  1.0254553E-010  1.4577495E-010  1.0854251E-010  1.1706192E-010  2.8640557E-010  5.2611426E-010  3.8684789E-010  5.4774318E-010  5.6793681E-010  1.0210499E-010  3.3000447E-010  5.7383431E-011  2.7000624E-011  2.8020253E-011  1.6614621E-010  3.8494363E-010  8.3926466E-010  3.6255443E-011  9.5248254E-012  1.7616841E-010  3.8630077E-010  6.2917316E-010  7.0400930E-010  2.2785684E-010  8.6998853E-011 -3.5527137E-015  1.0531380E-009  5.9941385E-010  3.2832759E-010  7.0252781E-010  3.3537617E-010  2.2629365E-010  6.7125683E-010  6.2864558E-010  1.5265300E-010  1.0086865E-010  2.2737368E-013  9.4061647E-011  6.2034644E-010  5.5329963E-010  4.3451820E-010  3.8957637E-010  2.4928681E-010  6.5045924E-010  3.1931791E-010  3.4006575E-011  9.8197006E-011  1.1763746E-010  6.8723693E-011  5.7042371E-011  4.3456794E-011  3.4191316E-011  1.8886226E-010  4.4958881E-010  3.1002045E-010  9.3663743E-011  5.2651927E-010  1.6459012E-010  5.6246563E-011  6.6279426E-011  2.0969537E-010  5.4623683E-010  2.3118218E-010  7.9722895E-011  2.3480595E-010  1.0716406E-010  2.6602720E-011  4.2412296E-011  3.0090241E-010  8.1438856E-011  2.1913138E-010  2.5881519E-011  1.7847412E-010  2.5018210E-010  7.9286622E-010  7.6893514E-010  8.1367801E-010  8.0618179E-011 -1.9895197E-013  2.4616043E-010  3.6105519E-010  2.9133673E-010  1.5478463E-010  1.4630075E-010  6.1255889E-011  9.6434860E-011  8.4323659E-012  4.4724402E-010  7.7535844E-010  5.2091309E-010  2.8350655E-010  7.6170181E-011  4.6497917E-011  1.2474288E-010  9.6548547E-011  3.9273473E-011  7.1054274E-015  5.5138116E-011  8.8805407E-011  1.0096102E-010  1.2350654E-010  2.9004354E-010  4.3197446E-011  3.6918379E-010  1.2983037E-010  4.3302917E-011  4.7275250E-010  7.1334227E-010  6.6329164E-010  4.0301984E-011  4.1154635E-011  7.3072215E-011  2.5380587E-011  3.3180925E-010 -4.2632564E-014  9.7770680E-011  9.0992103E-011  9.1503694E-011  9.9475983E-014  1.4185275E-010  8.4241947E-011  1.7207924E-010  5.3938720E-010  5.6127192E-010  1.4690471E-011  1.8927082E-011  4.2888360E-011  7.7315576E-010  6.5156769E-010  1.6175505E-010  7.1170803E-010  2.0756374E-010  1.7232082E-010  1.0911094E-010  1.6999024E-010  6.1167782E-010  9.5830899E-010  7.9609208E-011  9.0039975E-011  1.0133832E-009  3.7260861E-011  3.3523406E-011  1.2688872E-010  2.2673419E-011  5.2850169E-011  8.2849283E-011  2.9871217E-011  8.9308116E-011  6.0708771E-011  1.2590817E-010  1.2164492E-011  6.4850347E-012  2.8836666E-010  3.7804782E-010  5.0553695E-010  3.1079139E-011  7.8500761E-011  4.8921578E-010  1.6646595E-010  2.1178082E-010  5.0835069E-010  1.1278445E-010  1.5108981E-010  1.7892532E-010  3.6779113E-010  1.0066969E-010  6.0941829E-010  3.9017323E-010  1.2478552E-010  5.6417093E-011  1.6640911E-010  5.3280047E-011  2.5488589E-010  2.7004887E-010  6.2257755E-011  2.6120972E-010  4.1868731E-010  5.4640736E-010  3.0610181E-011  5.8719252E-011  3.5766945E-012  8.2202689E-011  1.4118129E-010  1.7828938E-010  2.2776447E-011  7.4976469E-011  1.0143353E-010  4.5632476E-010  3.6303049E-010  3.4586378E-010  1.9252155E-011  3.1409897E-010  5.2624216E-010  1.6004265E-010  2.2638602E-010  6.9640294E-011  8.4160234E-011  1.8047785E-010  2.1876190E-010  9.9660724E-011  4.1431036E-010  1.4061641E-011  5.9296568E-011  3.1923264E-010  1.5786839E-010  1.1853984E-010  1.3963586E-010  1.2330759E-010  7.3116269E-010  3.6237680E-010  2.9125147E-011  2.3285907E-010  4.8919446E-010  4.7307935E-010  4.3911541E-011  7.0535577E-011  2.9766056E-010  1.6822810E-010  5.8751937E-010  8.9443120E-011  5.9456795E-010  4.2250292E-010  8.2138740E-011  7.6286710E-010  1.3686297E-010  2.8904878E-011  1.7462298E-010  3.7260861E-011 -8.5265128E-014  7.2908790E-011  2.0185631E-011  4.1006842E-010  2.0143887E-011  1.7599433E-010  2.9075409E-011 -7.1054274E-015  1.5118928E-010  1.7060131E-010  2.3301538E-010  4.0790837E-010  2.4395774E-010  6.2104277E-010  7.1111117E-011  9.3726271E-010  5.5435123E-010  5.4633631E-010  1.3073986E-010  6.1476157E-011  1.2123280E-010  1.0433610E-010  2.5242741E-010  2.2441782E-010  2.0668267E-010  7.5250739E-010  8.4710905E-011  5.4177463E-010  4.0017767E-011  4.3513637E-011 -2.9842795E-013  3.7638870E-010  9.1907282E-010  2.4418512E-010  4.9595883E-011  1.6820323E-010  1.7864465E-010  2.8265390E-011  6.3757000E-011  6.4493744E-011  1.4651391E-010  3.8363623E-010  6.8148154E-010  6.2286176E-011  1.8886226E-011  2.0463631E-011  2.0747848E-011  4.4408921E-012  1.4027535E-010  2.0773427E-010  1.5822366E-010 -2.6645353E-015  5.6245142E-010  3.7408654E-010  7.9893425E-011  4.1296744E-011  3.8028247E-011  8.3417717E-011  6.6071593E-012 -7.1054274E-015  8.0007112E-011  2.7137048E-010  4.3111470E-010  1.2398971E-011  1.6715518E-012  1.0295764E-010  6.2286176E-010  2.1159963E-011  7.2759576E-011  4.7023718E-011  1.1590373E-010  2.0773427E-010  3.8582471E-010  1.5103296E-010 -1.1368684E-013  5.0278004E-010  4.3388582E-010  3.7518078E-010  6.6583539E-010  1.8306778E-010  1.3518786E-010  1.7882940E-010  2.0605739E-011  5.9714012E-011  4.5638160E-011  4.4678927E-011  2.7918645E-010  1.3619683E-010  3.2876926E-010  8.6369775E-010  8.9354923E-010  1.8149578E-010  1.4316054E-010  1.3251884E-010  1.3046056E-010  7.3217384E-011  4.4047695E-011  1.3143232E-010  7.8565032E-010  4.0331549E-010  2.5307414E-010  1.0043630E-010  1.3764013E-009  7.7140267E-010  6.4721753E-012  1.2001130E-010  8.7480374E-010  1.2097745E-009  6.2282890E-010  2.0600627E-009  1.5889815E-012  1.0679554E-010  5.6645085E-010  9.0403773E-010  1.4662475E-010  5.5061403E-011  6.0820361E-011  5.9139893E-010  2.3983112E-010  1.3468253E-009  9.9435296E-012  1.4899054E-009  8.4017217E-011  2.6020758E-010  4.6242692E-010  1.2847903E-009  1.0928449E-010  2.3416941E-010  2.1854463E-009  1.0536521E-009  9.0258135E-011  4.9148589E-011  1.9208431E-010  1.7805362E-010  7.4416634E-011  1.0974409E-010  1.2102420E-010  5.2295065E-010  1.4808633E-012  1.6757525E-011  1.0769760E-009  1.1594232E-009  7.7762423E-010  3.3572823E-011  2.2572399E-009  1.5772000E-009  2.0859244E-009  5.7667462E-010  1.6303401E-009  1.6113613E-009  1.1864313E-009  1.1746075E-009  1.2624681E-009  1.4800659E-009  1.1615391E-009  1.9247192E-009  4.3910990E-010 -1.6326281E-012  1.0858457E-009  1.2255504E-009  1.0279199E-009  9.5017959E-010  7.2609753E-010  5.6844970E-010  8.0793540E-010  7.0099825E-010  8.0973299E-010  3.0714908E-010  3.6951513E-010  5.8778820E-010  3.5030416E-010  6.4437000E-010  6.5576267E-010  6.4579502E-010  5.7769639E-010  6.0183041E-010  5.8887973E-010  1.8018557E-010  5.8111354E-010  6.4948078E-010  3.9322785E-010  3.5026933E-010  5.0372389E-010  2.9431336E-010  3.7793652E-010  4.6355894E-010  2.7898748E-010  1.7943016E-009  5.9735011E-010  9.0222210E-010  6.7604650E-010  2.1668179E-010  5.3768540E-010  2.5900957E-010  2.1584551E-010  2.4865155E-010  1.3784012E-010  1.7300585E-010  8.3042785E-011  1.0132906E-010  8.8276587E-011  9.9908247E-011  2.8992185E-011 -4.4339318E-011 -1.7572458E-011 -1.7507773E-011 -4.7255706E-011  1.3955013E-010 -4.3261047E-011 -6.1728848E-011 -4.7791080E-011 -1.1912384E-010 -7.1807480E-011 -7.9919491E-011 -8.3909103E-011 -7.4214031E-011 -7.4207633E-011 -7.5856960E-011  5.9687708E-010  2.1708793E-010 -6.2692221E-011  1.2957808E-009 -4.1202627E-011 -7.5374373E-011 -3.1806180E-011 -4.6628586E-011 -5.9054746E-011 -3.2006053E-011 -4.4236230E-011 -1.2926167E-011 -2.1931415E-011 -2.6832568E-011 -1.3642421E-012 -1.2672531E-011  4.3200998E-012  1.1301002E-011  1.6703530E-012  2.4572814E-011  1.0897843E-011  2.0518301E-011  3.7070885E-011 -4.1423780E-011  5.8792463E-011  2.6326848E-011  3.2245196E-010  6.0427417E-010  6.2196829E-010 -8.1259663E-013  3.1143775E-011  1.5218890E-010  2.2037345E-011  8.3628883E-010  5.8094238E-010  2.0272974E-011  6.3729937E-010  6.1798914E-010  2.3443073E-010  2.0964983E-010  1.0921274E-010 -1.6842118E-017 -6.4789648E-011 -5.3335904E-011  4.8365275E-011  7.2882681E-011 -2.2553988E-011 -3.4366785E-011  8.5182664E-010 -5.2709529E-011  1.9744436E-010  3.1902854E-010  5.8177915E-011 -1.7935021E-012  8.1962723E-011  7.8956451E-011  3.3901458E-011  4.6681882E-010  3.0321165E-013  2.1991428E-011 -1.7928879E-011 -1.4152841E-011  6.7473185E-010  1.0491851E-009  6.6157254E-010  9.3061018E-010  2.7802434E-010  2.9366973E-010  5.7621390E-011  1.0065267E-010  1.1520812E-010  1.6883874E-010  1.7006742E-010  3.0750064E-011 -3.8041086E-011 -7.2356319E-011  5.1399943E-010  3.2570084E-012  2.1382824E-010  3.5015906E-010  2.5309493E-010  3.3285644E-010 -5.5980564E-011  7.5687491E-012 -2.1032065E-011  6.7406768E-010  1.3196759E-010  1.0681605E-010  1.0112507E-010  5.8229840E-011  1.5502969E-010  5.1454531E-011  8.7998110E-011  1.3990207E-010  1.0817409E-009  1.9909044E-009  6.8328544E-010  7.1136318E-010  2.4423690E-010  4.0770461E-010  3.0157583E-010  1.2128569E-010  1.3543174E-010  3.9025045E-010  4.3873165E-010  4.1548535E-010  4.3084053E-010  4.7534447E-010  4.8280466E-010  4.6484257E-010  4.2926492E-010  6.3297903E-010  6.1458277E-010  6.4186081E-010  5.3889030E-010  6.5959703E-010  7.2841349E-010  8.3993924E-010  7.1731068E-010  7.3829768E-010  8.4006488E-010  6.8240480E-010  8.3319685E-010  1.8585111E-009  2.7668436E-010  5.8038172E-013  2.0525379E-011  1.0290025E-010  2.3157515E-010  1.4034465E-010  3.5043291E-011  4.4222636E-013  3.0730832E-010  8.7508242E-010  3.8490665E-010  9.5311227E-010  5.5187979E-010  9.6116925E-010  1.5663240E-010  1.0544765E-009  9.1901422E-010  1.2639114E-009  1.2744948E-010  1.1914119E-010  2.6602378E-011  1.1917023E-010  3.8669239E-011  4.6735526E-011 -5.4690997E-011 -4.4122739E-011 -5.9452165E-011 -5.4288769E-011 -6.7129898E-011  9.5098657E-010  6.7742671E-010  8.5043967E-012  6.3488920E-011  8.0682025E-010  8.9076836E-010  6.4495694E-010  4.5159376E-011  1.8143763E-011  3.8567609E-011  8.3754814E-010 -9.9965417E-012  6.3153038E-011  1.5964643E-011  6.3679536E-011  1.0145452E-009  1.1877816E-009  9.5671064E-010  1.0197503E-009  1.2268050E-009  1.3507557E-009  1.1341189E-009  1.1201303E-009  1.3463218E-009  9.5160733E-011  7.5449490E-012  1.8561991E-010  1.5674942E-010  2.7645098E-010  1.3837322E-010  5.5558926E-010  4.6992875E-010  1.1855783E-009  2.6013543E-011  1.5957440E-011  3.4360890E-010  1.8792644E-010  1.0032346E-010 -3.7744030E-011  8.0377014E-011  7.9903975E-011 -6.3209879E-012  7.5409199E-011  3.5655929E-011  2.6907806E-011  7.5301987E-011  1.5611642E-010 -2.8480909E-011  9.7250522E-011  1.6395361E-010  1.7979023E-010  4.7150109E-010  7.4943819E-010  6.2298718E-010  2.0672724E-010  1.5593081E-010 -7.3470414E-011  6.1533630E-011  1.7136021E-011  1.9790179E-009  1.0984589E-009  2.6005160E-012  5.3869833E-010  7.6628179E-010  1.0305466E-009  2.1788960E-009 -8.2194119E-011  1.9805614E-010  2.8384903E-010  2.8257228E-010  8.3720003E-012  7.3927261E-011  3.6831594E-011  1.9250825E-011 -4.0014291E-011  3.8159420E-012  2.0846094E-009  1.1066695E-010  1.0804642E-010  4.3925308E-011  1.0604286E-009  6.6089917E-010  1.1364089E-009 -1.1218738E-011  8.1194323E-010  1.1743517E-010  5.6149525E-010  6.4777574E-010  1.1460158E-011  6.6138861E-010  1.7796488E-010  6.8740811E-011  6.4888672E-011  6.7244516E-011  1.7105737E-009  9.9503872E-010  1.1874345E-010  4.3867828E-010  2.7419175E-011  4.5721527E-010  2.5764279E-010  8.9852838E-011  9.4177468E-011  9.1956331E-011  2.7995170E-010  6.2920306E-011  1.4584361E-010  8.1519726E-011  5.6279046E-010  6.1852220E-010  7.4890304E-010  2.9477679E-010  1.1158031E-009  2.8358721E-010  6.7495422E-010  3.2978662E-010  6.7957144E-010  5.9844043E-010  8.5929152E-010  9.6174344E-010  9.9123357E-010  5.5765129E-010  7.1505686E-010 -2.9791563E-011  1.4451303E-009  4.6362377E-011  1.0398547E-010  3.0422488E-011  6.1931579E-011  9.3812838E-011 -7.2204966E-011  1.0266127E-010  1.1740744E-010  2.8146934E-010  5.5083966E-010  7.8217480E-010  1.3328950E-010 -3.5560277E-011  4.9095742E-011  1.8282212E-010  2.0762172E-010  1.6442991E-009  2.0945482E-010  5.5576634E-010 -3.1082321E-012  5.5470346E-011  4.3296832E-011  1.0491405E-011  1.1176474E-009  4.8402573E-010  9.0101978E-011  9.8550446E-011  7.7135241E-011  1.2998908E-010  2.8616406E-011  1.7726748E-010  6.7790135E-011  5.7297603E-011  1.4637180E-011  4.8743230E-012  2.2249117E-011  1.4234764E-010  7.5111073E-013  6.8436230E-012  6.3771003E-010  5.3979234E-010  4.1032216E-010  6.8093684E-010  4.5961003E-010  6.4803998E-010  2.3541171E-010  5.2795695E-010  9.8836557E-010  5.6919971E-010  2.7775216E-010  8.1050444E-010  6.9408008E-010  4.3794302E-010  1.7391128E-010  9.4085442E-010  9.5364494E-010  1.1663091E-009  9.6852488E-010  4.4815351E-010  7.7037277E-010  4.1948745E-010  1.0501836E-009  3.2866553E-011  1.8774376E-010  2.0471567E-012  9.5760580E-011  1.2955627E-010  4.4764192E-012  1.3215519E-009  6.8119107E-010  5.5730899E-012  5.5802014E-010  8.9327573E-010  1.6507203E-009  2.0141630E-009  1.3539901E-009  5.8033672E-010  7.7610651E-010  2.2052614E-011 -8.9205457E-014  6.0279758E-012  3.8535480E-011  8.0207416E-012  2.7911340E-011  9.1837649E-012  2.2665551E-011  1.4348569E-009  2.6405441E-011  2.5126223E-011  9.9829546E-010  1.3423402E-011  1.3654233E-009  2.3857917E-010  7.6502275E-010 -4.9906276E-012  9.8525363E-010  5.6561454E-010  6.5861169E-010  2.8674520E-010  6.3431420E-010  6.9389850E-010  7.8973198E-010  8.6811269E-010  8.5228669E-010  8.5242666E-010  6.5689043E-010  6.1628424E-010  7.1665037E-010  6.6562670E-010  9.5096735E-010  8.1392664E-010  7.3559866E-010  5.8021427E-010  3.3833203E-010  5.1425069E-011  1.0186341E-009  8.3272004E-010  2.9021372E-010  1.4101493E-011  1.1150308E-010  6.5410479E-011  2.4556357E-010  1.7889463E-009  1.1568635E-009  1.4992774E-009  1.0309571E-009  1.2396362E-009  2.0502212E-009  8.4241079E-010  1.6818515E-010  5.4761643E-011  1.6083722E-009  9.3211448E-010  2.7759461E-010  4.2476899E-014  3.6593814E-011  1.3924534E-010  1.4397240E-009  9.7139216E-011  3.5441041E-010  1.8325202E-009  7.5727014E-010  1.0328864E-009  8.3113207E-011  1.2627716E-010  5.1641654E-011  1.7856499E-010  8.0446042E-011  4.2113165E-011  2.0750343E-010  1.3036457E-010  1.5320556E-010  8.4854203E-011  1.1797170E-010  7.5233028E-011  1.4648855E-010  1.5864492E-010  1.3719464E-010  3.7134380E-011  1.2661744E-009  1.0540971E-009  7.1576388E-010  4.7864182E-010  2.6465652E-012  1.0006669E-009  4.4743823E-010  9.8663537E-010  1.1647619E-009  6.6019392E-010  1.2039349E-009  7.1992498E-010  1.0618260E-009  5.2483594E-010  8.4650498E-010 -2.9114823E-011  1.0057602E-009  5.1491483E-010  8.1577256E-010 -4.4682102E-011  5.6635023E-012  1.6159904E-011 -4.9251066E-011  1.6328227E-010  8.8590468E-011  9.6834722E-011  2.7980801E-011  6.1347408E-011  1.0794502E-009  7.3900342E-011 -1.3624059E-011  1.8483067E-010  3.4587231E-010  1.4046949E-010  6.5445638E-010  1.0249378E-009 -4.3670616E-011  1.1073786E-009  6.3772249E-011  3.3776446E-011  1.3017143E-011  3.6180243E-011  5.1984009E-010  9.9623835E-012  6.2549489E-010 -8.3678220E-012  8.5282446E-010  6.9652786E-010  6.4133087E-010  1.1588005E-011  8.5206705E-010  9.1484593E-011  1.6326428E-010 -6.2331565E-011  1.5680246E-010  2.0573669E-010  1.0397907E-010  7.1564812E-010  5.5300158E-010  2.1202751E-010  6.4730882E-010  1.1867827E-010 -1.5977368E-011  1.8317671E-010 -5.6225149E-011  1.9490323E-010  1.1498071E-010  1.1202142E-010  5.3791135E-011  2.0175506E-011  2.6284300E-011  5.3600497E-010  1.0815670E-011  1.1245094E-009 -5.7914721E-011  3.7887687E-011  8.2742791E-012  3.8575085E-010  8.2304063E-010 -8.9681474E-011  6.4939720E-010  1.7743355E-010  2.4592158E-012  1.8168679E-011 -1.1203485E-011  9.2648955E-011  6.7576922E-010  8.6016779E-011  2.2737368E-012 -5.5241066E-011  6.3791094E-010  1.1672416E-010  9.3366069E-011  1.3975528E-010  3.9959106E-011  8.0725282E-012 -7.4217317E-012 -1.8030030E-011  6.3801053E-010  7.0482746E-010 -2.7068676E-011  2.6529958E-010 -1.7161270E-011  4.7748472E-012  1.7976493E-011  4.6526483E-010  2.1012787E-009  6.5398860E-013 -4.1131121E-011  3.3764406E-010  2.2951084E-010  2.2149665E-010  7.8066797E-010  8.8951843E-010  4.2964130E-010  2.4124155E-011  1.3493196E-009  1.0969072E-009  1.6224538E-010  1.4997686E-011  8.4858020E-010  5.3502094E-011  1.4847920E-010  6.6101208E-013  6.5518992E-010  8.9475260E-010  4.5608311E-010  8.8864194E-010  5.6377985E-010 -4.8781488E-012  1.1942722E-009  4.0902847E-010  2.9138283E-010 -2.3194491E-011  8.5116138E-010  7.4868604E-010 -3.1722165E-011  8.2148375E-011  4.5742395E-011  1.4706762E-010  1.0767245E-009  2.6358306E-011  4.3531074E-011  3.6046643E-011  4.9458280E-013  4.5913340E-010  1.1645852E-010  1.6150362E-010  4.0945436E-012  8.1847907E-011  4.3951415E-010  3.2625280E-010  5.4769476E-011  1.0454930E-009  6.2624604E-011  1.5795452E-009  5.2323208E-010  5.5064640E-010  4.8263562E-010  2.2619178E-010  1.1632552E-010  6.2975840E-010  1.1742257E-009  7.2703023E-010  1.2386968E-010  1.8490907E-009  1.3962844E-010  4.1183012E-010  5.5956139E-011  3.1528206E-010  8.6007802E-010  2.0758215E-009  9.3429725E-011  1.9988391E-010  1.2891638E-009  3.5154083E-011  9.2759314E-012  8.0355185E-010  8.5183545E-010 -3.0410326E-011  6.8782909E-011  4.5578155E-011  4.4794952E-012  4.4271963E-010  8.1840654E-010  6.3311790E-011  6.6074430E-013  3.3881706E-010  9.9216885E-012  9.9648041E-010  1.4284224E-010  4.8600557E-012  8.9487908E-011  5.0541260E-011 -3.7549878E-011  2.2824259E-010  5.9172632E-010  3.8531878E-010  8.7066102E-011  8.9507620E-010  1.1423067E-009  9.3421588E-012  4.3861533E-010 -1.0021864E-011  1.3494119E-010  2.3678924E-010  2.3990607E-010  6.5059814E-011  4.8154191E-011  1.2657202E-010  5.0386133E-010  7.0398513E-011  6.2883578E-010  2.0890292E-011  2.4304815E-010  3.3636698E-011 -1.8911795E-011  3.1319013E-010  9.2371190E-011  1.7098500E-010  1.5157485E-010  2.3879020E-010  7.8876063E-010  6.2061360E-010  1.8131850E-012  1.5592235E-010  3.7349699E-010  3.5054737E-010  4.8721541E-012  7.6533552E-011  8.0925946E-010  1.0939977E-010 -4.0815170E-011  8.4502753E-010  1.6288435E-010  5.4028076E-011  3.6353979E-010  9.0896992E-010  5.2780466E-010  8.8356856E-011  1.2422488E-009  1.7738798E-010  6.2695855E-010  8.8439833E-010  7.0678555E-010  6.0408028E-010  2.1719672E-009  4.7464700E-010  7.6365722E-010  4.5975038E-010  5.7586597E-010  2.7700276E-010  5.4911235E-010  1.1135614E-009  8.4403646E-010  5.7923238E-010  6.7408996E-010  1.5970585E-009  2.4592397E-009  2.1620152E-009  3.2943514E-009  4.9690330E-009  2.8543297E-009  4.0466253E-009  5.9867652E-009  3.1254199E-009  9.4543699E-011  5.1236531E-009  2.8995418E-009  3.9456906E-009  6.4855133E-009  4.6245787E-009  1.3980175E-009  2.4531157E-009  1.7465075E-009  2.3633354E-009  3.2308939E-009  4.5980408E-009  4.6098849E-009  2.2256002E-009  2.6488575E-009  3.6484581E-009  1.8130327E-009  3.7996708E-009  3.1716031E-009  1.4582209E-009  1.3118571E-009  1.1483931E-009  1.0927434E-010  1.5430766E-010  1.4889239E-010  1.0213889E-010  1.4361518E-010  9.8188541E-011  1.5403295E-010  1.7968709E-010  1.8270629E-010  3.1477131E-010  6.7166558E-010  2.4278722E-010  4.7073293E-010  1.2328431E-009  3.5428123E-010  6.1241254E-010  1.5980190E-009  4.2103119E-010  6.7714454E-010  1.7323005E-009  1.7163969E-010  1.4641767E-009  5.3520812E-010  1.3617277E-009  8.8754926E-010  1.1975878E-009  1.2996312E-010  6.1656250E-010  5.8941474E-010  8.7468498E-010  4.5140410E-010  3.4605410E-010  5.4368689E-010  1.3842622E-009  1.3831710E-009  6.1716440E-010  1.2032115E-009  3.8220088E-009  3.0913251E-009  1.9814895E-009  1.4970367E-010  5.9239613E-010  2.5233453E-009  1.2250907E-010  3.4052790E-010  3.0686159E-010  2.8440176E-010  7.4122986E-010  3.2891729E-010  4.9214803E-010  1.0612907E-009  6.6611866E-010  5.7261282E-010  5.4605318E-010  3.4520790E-010  3.3403175E-010  7.0945390E-010  1.2031292E-009  2.8219923E-010  2.6266573E-010  6.7740902E-010  9.2556828E-010  1.0011996E-009  1.2478960E-009  1.3088566E-009  3.9121765E-010  1.1392641E-009  1.1198780E-009  3.3846684E-011  1.0381248E-009  8.0178519E-011  7.8021418E-010  2.8181738E-011  2.4655046E-010  2.9491643E-010  7.8623427E-010  2.4445854E-010  1.5201041E-009  2.7049327E-009  2.3392507E-010  1.1166818E-009  2.0025652E-009  8.6428914E-011  3.8138104E-010  4.3282314E-010  1.5660300E-009  6.7434749E-010  2.5654517E-009  5.2179570E-010  3.3955759E-009  6.0432563E-011  1.9219286E-009  4.8659058E-010  2.7900130E-009  6.4737336E-010  1.4325276E-009  4.9355060E-010  1.1730990E-009  1.0361183E-009  1.5357891E-009  2.4463339E-010  5.1960056E-010  2.8902435E-010  1.2828927E-009  4.0893613E-010  2.7933658E-009  3.1925107E-010  2.4210145E-010  1.2013952E-010  8.0177091E-010  3.6082045E-010  1.8810349E-009  8.3778536E-011  2.5350797E-009  5.8810657E-010  3.3962358E-009  6.1093181E-010  1.5920824E-010  1.3446270E-009  9.7291273E-011  2.9975712E-009 -3.6126777E-014  3.6548743E-009  9.0605901E-010  1.1492114E-009  6.9223524E-010  8.1363520E-011  1.9250088E-009  2.0598677E-009  6.1337096E-009  7.6491584E-011  1.8945705E-009  8.9365857E-010  7.9149275E-010  1.0188739E-009  6.0704456E-010  7.4933754E-010  6.7747769E-010  7.2867857E-010  1.7024794E-009  5.4949806E-010  9.6635887E-010  1.0689599E-010  1.9040979E-009  5.6968998E-010  4.0388583E-010  1.3264639E-010  1.5839757E-010  1.0975622E-010  1.9221309E-009  5.4193246E-010  5.4406366E-010  2.9952645E-009  1.7342991E-010  1.0377587E-010  7.1970086E-010  8.5692032E-011  2.1005290E-010  1.2588070E-010  2.2807233E-010  3.9655521E-010  1.0158703E-009  1.2041223E-010  1.7138223E-010  4.2159460E-010  5.6200456E-009  2.8278644E-009  9.5434211E-010  3.0619816E-009  2.9696352E-009  1.5871934E-009  6.3778118E-010  3.0246485E-009  1.8202970E-009  1.0010004E-013  2.3860105E-009  3.1277292E-009  2.9716156E-009  7.2161791E-010  2.7918290E-010  2.3130453E-009  1.0453671E-009  2.4033966E-009  2.2767141E-009  8.4404055E-015  3.9512579E-010  8.3060337E-010  2.8910314E-009  2.3314624E-009  3.2872191E-009  2.6440747E-009 -3.4073029E-014  2.2060156E-009  2.7374891E-010  2.2760364E-010  2.1045457E-009  4.2125666E-010  1.1619847E-009  1.3455985E-009  4.1177323E-014  1.8803031E-009  3.4478375E-009  2.8838075E-009  1.7683988E-009  1.6578517E-009  1.5823725E-009  8.4683350E-010  1.6065496E-009  8.1037005E-010  5.9245053E-010  3.2780889E-010  3.0579492E-009  5.1188828E-010  1.3099494E-009  2.8213696E-009  4.2461768E-009  3.9727669E-009  4.3034724E-010  5.0762294E-010  4.3352901E-010  1.4478587E-009  7.9157404E-010  6.8279786E-010  4.3470947E-009  2.4180581E-009  4.6530416E-009  4.5903088E-009  1.6070206E-009  3.0312567E-009  3.6674786E-009  1.0286138E-009  3.5979042E-010  6.5771932E-010  2.0098573E-009  1.9110410E-009  2.7093441E-009  1.2582096E-010  1.0019731E-009  4.1196139E-010  3.8371930E-010  1.2885861E-009  2.8330886E-009  7.2570845E-011  1.0199560E-009  1.1710125E-010  1.7834455E-009  2.6215825E-010  8.3524767E-010  2.0330484E-009  5.5139256E-009  2.6412127E-010  1.4811180E-010  8.3660646E-010  1.4904100E-009  1.9903901E-010  5.0662759E-010  2.8664498E-010  2.0040785E-009  2.2356516E-009  3.8581639E-009  1.4965854E-009  1.1717560E-009  2.4930057E-009  2.5521098E-009  1.4960747E-009  1.5430480E-009 -9.8868074E-015  3.9792197E-009  6.4718873E-010  5.0147853E-010  2.2605273E-009  1.0578737E-009  2.9856288E-010  1.2586100E-009  8.8186034E-010  2.6829756E-009  4.5147136E-010  2.5602523E-010  3.2904311E-009  5.1471359E-010  1.1271967E-009  2.7906993E-009  6.0036611E-014  4.4732767E-010  1.1928896E-009  2.6388315E-009  6.1830168E-010  1.9280405E-009  2.4224676E-009  1.9246244E-009  1.6748467E-009  1.5873475E-009  9.3133177E-010  1.9435727E-009  2.6816282E-009  2.9950215E-010  2.2280556E-009  3.7893242E-010  5.0101326E-010  3.3975334E-010  1.1396606E-009  3.0168208E-009  1.9477308E-009  1.2748705E-009  1.4578513E-009  2.7207008E-009  2.8287936E-009  1.2891916E-009  2.3033236E-009  9.7755137E-010  2.4467102E-009  1.6743726E-009  1.0551198E-009  3.2189718E-010  2.3873434E-009  5.1317042E-010  1.5453594E-010  1.0048051E-009  2.1153457E-010  2.9251944E-010  2.8978467E-010  4.8922288E-010  3.8493515E-010  1.6321520E-010  2.9232435E-010  5.1630243E-009  2.9678122E-009  7.3878308E-011  1.1702832E-009  3.5741818E-009  1.1578681E-009  1.1188207E-009  3.1605164E-009  1.4111798E-009  1.3237862E-009  2.6794049E-009  1.3028829E-009  5.4341598E-010  1.6297437E-010  2.0281105E-010  1.7283496E-010  5.3413906E-010  6.0029318E-010  1.5980562E-010  1.0197698E-009  8.4913033E-010  9.7135894E-010  2.9581248E-010  7.4659407E-010  3.0762812E-009  5.0180372E-010  3.2441197E-009  1.6929963E-010  8.2819163E-010  1.1113203E-009  2.2249960E-009  1.1747738E-009  1.2755731E-009  2.0388666E-010  9.7043119E-010  6.0634875E-009  1.8599167E-010  2.8291538E-009  4.4565240E-011  2.0792186E-009  1.1368684E-013  2.5531222E-010  1.5216983E-010  1.3590693E-009  3.3290917E-009  4.9536766E-009  1.1900170E-010  4.6156856E-011  5.4782845E-010  1.1928591E-010  9.1284846E-010  4.1916337E-010  4.2410875E-010  6.7730070E-009  3.4600589E-010  7.3271167E-011  1.1158363E-010  2.2089353E-010  2.8683189E-009  1.0944632E-009  5.2915539E-010  2.5327154E-009  2.4752467E-010  5.3819917E-009  1.9063862E-011  1.6665922E-009  1.8518449E-009  2.2412223E-009  8.8450633E-009  6.5090262E-009  6.1994569E-009  3.8373855E-009  3.0108822E-009  1.0834356E-009  3.1432137E-009  1.7549837E-009  9.3359631E-010  2.0052084E-009  3.4508503E-009  4.0205350E-010  2.4454039E-010  6.6506800E-010  4.8220272E-010  8.3309715E-010  1.1810926E-009  3.8835424E-010  5.5230771E-009  4.1422936E-009  1.7219577E-009  7.7193363E-010  1.5025421E-009  1.4068746E-010  9.9093711E-010  8.9914920E-010  1.7479351E-011  5.1471716E-010  1.8719959E-010  1.3827162E-011  4.6117066E-010  2.1248070E-010  2.7688429E-010  2.8086333E-010  4.2905413E-010  4.8640914E-010  1.4721309E-009  1.4535999E-009  2.0411903E-009  9.4814823E-011  7.1736395E-011  1.6043344E-010  6.3522521E-011  9.6953556E-011  1.5919710E-010  4.4188653E-011  4.7748472E-010  1.2707346E-010  3.5754510E-011  1.6848389E-010  3.3156766E-010  9.4587449E-011  3.3446668E-010  7.7335471E-011  6.1891114E-009  3.6983465E-009  9.5212727E-010  8.8897423E-010 -6.9121597E-011  1.1720260E-009  3.5346375E-009  9.6622443E-010  6.2982508E-010  1.7461161E-009  4.5429260E-010  4.8090669E-009  1.0567192E-010  2.7927172E-010  3.7330210E-009  1.0388476E-008  3.8671288E-011  7.0670580E-011  5.1437041E-009  1.0975327E-009  9.9032604E-010  1.8957280E-011  7.2805051E-010  1.2732926E-010  6.3107564E-010  1.3005774E-009  1.1797283E-009  3.6254733E-010  9.0074082E-010  2.8035174E-010  5.7434590E-009  3.6385472E-010  2.2387212E-009  7.7989171E-011  6.3965899E-010  5.8571459E-010  1.6876811E-010  3.0121328E-010  1.7340085E-010  5.2477844E-010  2.3187567E-009  2.7426950E-012  1.8481217E-011  5.6843419E-014  8.3308578E-009  1.3642421E-012  3.6664005E-011 -1.1368684E-012  3.0831870E-010  1.5908199E-009  1.5197656E-009  8.4935436E-010  7.6431661E-010  2.7374654E-009  6.1675109E-011  5.8732894E-009  1.3377530E-009  6.9570660E-010  9.5576524E-010  2.5675035E-009  1.2676082E-010  4.6884452E-010  5.0752647E-009  2.2737368E-013 -1.2745261E-008 -1.7221623E-008 -2.8763623E-009 -7.8688345E-010  1.2505552E-011 -7.3076762E-009  1.1148700E-008 -1.0443841E-009 -1.7708999E-009  1.4999387E-008  1.6076740E-008  6.2314598E-009  1.5395358E-008 -1.2586838E-009 -9.5138830E-010  1.2767032E-009  1.0231815E-012  1.6882495E-011 -7.1898683E-009 0.0  1.1764598E-009  7.0095894E-009 -1.1368684E-013  3.4212917E-009  4.1637804E-010  3.3435299E-010 -1.3728823E-009 -7.5051503E-008 -1.1509883E-008  2.6415137E-010  2.0321453E-012 0.0  1.5545933E-012  1.8491181E-012  2.6047428E-012  1.3070586E-012  3.1199349E-012  1.0337842E-012  1.3563248E-012  7.4068529E-013  3.4902636E-013  2.7378794E-012  5.7509553E-013  5.2385873E-013  5.3836102E-013  5.0909277E-013  2.7219893E-012  2.3768799E-012 -7.7715612E-016  1.3443413E-012  8.9101643E-013  4.4708681E-013  3.2152059E-013  3.0131453E-013  1.3271190E-012  4.4079324E-013  4.4458881E-013  7.5991990E-013  4.0330239E-013 -1.0658141E-014  2.0780599E-013  2.4897862E-012  2.8849145E-013 -7.2342132E-013  8.4054291E-013  2.2482190E-012  2.5402527E-012  2.9079482E-012  4.7907511E-013  6.1950445E-014 -1.0835777E-013 -2.2204460E-016  1.6351920E-012  1.8938184E-012  1.2205015E-011  2.5445340E-012  2.3303026E-012 -6.4126482E-013 -4.1036619E-012  2.4288904E-013  5.9426769E-013  5.8389404E-013  1.4631907E-012  2.1993518E-013  3.0953018E-013  1.0144212E-012  3.8766212E-013 -7.1675998E-013  1.5543122E-014  1.3153090E-012  1.3328921E-012  5.2416405E-013  3.8813397E-013  3.5083048E-014 -4.9604765E-013 -1.2958523E-012  5.9607874E-013 -1.2644330E-012 -9.4901864E-013 -8.6097796E-013 -2.1110891E-012 -7.2764017E-013  3.8319348E-013  5.2412241E-013  3.6346481E-012  2.2571355E-012  4.1469328E-012  3.7890246E-012  9.2795910E-013 -1.9606539E-012 -7.7571283E-013  5.4142801E-013  1.8101631E-012  1.9595436E-014 -1.1672885E-012 -2.6840752E-012 -1.0722534E-012 -1.2417845E-012 -2.9642955E-013  3.3695269E-013 -1.6187052E-013 -2.4924507E-013  5.2924332E-013  3.0830893E-013 -3.0619951E-013  8.9794838E-013  6.3726802E-013  1.0685897E-012  8.4043883E-013  1.1808332E-012  9.3702823E-013  1.1918244E-012  9.5445873E-013  1.1736168E-012  9.4990682E-013  5.1358917E-013  4.0867310E-013  2.8566038E-013  1.7029850E-012  2.6288138E-012  2.6419145E-013 -2.7755576E-016 -1.7416624E-014  5.9952043E-013  2.1180835E-012  1.1556311E-012  2.1926905E-013  2.2123969E-013  6.4548367E-013 -1.7030821E-012  4.3370169E-013  1.3669066E-012 -3.4607872E-012 -4.8444582E-012  9.5567998E-013 -1.2723156E-012  3.1752379E-013  1.4079848E-012  8.6378127E-013  1.4224993E-012  9.3269836E-013 -1.9035051E-012 -9.9131814E-013 -3.8672399E-012 -4.8336890E-012  2.4755337E-012  1.5384083E-012  6.7595929E-013  1.5771273E-012  1.9058644E-012  2.1277147E-012  8.2120422E-013  8.7690966E-013  7.8181905E-013  1.0588197E-012  2.1760371E-013  5.1370019E-013  7.6912088E-013  4.9205084E-013  8.4454665E-013  7.9249107E-013  7.7608753E-013  9.5518038E-013  4.9797666E-013  6.9855233E-013  6.2756744E-013 -7.7576140E-013  1.9428903E-016  3.0325742E-013  2.6199043E-012 -5.5511151E-017  1.7898460E-012  1.9767243E-012  1.8007817E-013  1.8085533E-012  7.5883744E-013  5.0626170E-014 -1.3988810E-013 -7.1276318E-013  7.5579820E-013  1.2383983E-012  1.0015461E-012  7.9318496E-013  4.3742787E-013  5.2373383E-013  5.3071436E-013  7.8864693E-013  5.3335114E-013  1.1309009E-013  6.9860784E-013  6.7892914E-013  7.4273920E-013  2.3092639E-014  3.7703174E-013  4.9155124E-013  5.4586891E-013  5.8432426E-013  6.1689542E-013  1.3690854E-012  6.3445083E-013  8.5376151E-013 -3.7698733E-012 -4.2028603E-012 -3.2820413E-012 -1.7851276E-012  6.5632222E-013  6.4419303E-013 -4.2175152E-012 -1.2796014E-012  6.5292216E-013  9.3269836E-013  1.1581847E-012  7.0426998E-013  7.4930340E-013  7.8755058E-013  3.9010462E-013  9.6952307E-013  2.1371793E-015  3.8258285E-013  4.3187676E-013  3.2662761E-013  2.5265762E-012  9.6405522E-013  9.7022390E-013 -3.0504488E-012 -2.6296743E-012  7.4271145E-013  6.0668137E-013  4.6049276E-013  8.7438390E-013  7.2990225E-013  4.8432092E-013  7.0610184E-013  5.9630079E-013  5.0889848E-013  4.7879756E-013  3.9870884E-013  5.7676086E-013  3.4830472E-013  8.6010365E-013 -4.2049697E-015  5.1167404E-013  7.0020101E-012  1.2047585E-012 -1.2811974E-012 -7.3419049E-013  4.7417625E-013  3.3328895E-013  1.6389390E-012  2.4225344E-012 -5.0565108E-013 -2.0344282E-012 -1.5495535E-011 -8.6338714E-012 -4.1856518E-012 -7.2795936E-012 -1.6380286E-011 -1.2218782E-011 -8.4432461E-012 -7.2364337E-012 -2.7577662E-012 -8.4557361E-013 -7.8165252E-013 -5.9574568E-012  2.8033131E-013  2.0932839E-012  2.9626648E-012 -2.8733682E-012  3.0975222E-014  2.0162691E-012  2.4024532E-012  2.0023150E-012  1.2993218E-012  2.5833571E-012  2.4078517E-012  1.9613616E-012  4.1633363E-017  1.6004420E-012  1.9197699E-012  1.3566787E-012  2.8995278E-012  6.6064931E-012  3.1310163E-012  4.8576768E-012  4.5898702E-013  5.1093851E-013  4.0292769E-013  2.7092217E-013  2.3684318E-012  7.7452628E-012  3.2280845E-012  3.8380410E-013  3.7281289E-013  3.1508129E-013  3.4061642E-013  1.4593882E-012  1.0288270E-011  1.1289719E-012 -4.1022741E-014  6.6274763E-012  9.5992103E-012  1.3992640E-011  1.6375790E-015  1.6259771E-012 -2.0553559E-012  1.6084079E-012  3.0886405E-013  1.5278612E-012 -1.3877788E-017  1.3495108E-012  6.5113193E-013  9.4302344E-013  1.2441714E-012  9.5057295E-013  9.5556896E-013 -3.3890668E-012 -3.2189806E-012 -4.5266568E-013  5.8831412E-013  6.4658001E-013  6.5929207E-013  6.4254158E-013  8.1129548E-014  3.2982506E-012  3.5217940E-012  5.0008608E-013  1.1768364E-013  3.2755743E-013  3.7200798E-013  3.0039859E-013  1.0427215E-012  1.1966400E-012  7.0411038E-013  6.2325145E-013  7.8369256E-013  7.2297029E-013  9.1441438E-013  5.7219507E-013  5.7960581E-013  9.1721075E-013  9.5479180E-015 -2.6483260E-012 -2.1571633E-012  3.3223424E-013  2.7564062E-013  3.4741654E-013 -2.3774316E-012 -1.8796076E-012 -2.1966873E-012 -2.2546409E-012  7.0987660E-013  9.1146535E-013  4.3246240E-012  2.8729796E-012  4.2383319E-012  1.5536183E-012  2.0967117E-012  2.7468583E-012  4.5595472E-013  5.7050198E-013  6.0268457E-013  1.6282531E-012  7.2791773E-013  7.5569412E-013  7.1610773E-013  4.0878412E-013  2.0129454E-012 -1.7792851E-012 -1.4321877E-013  8.7363450E-013  8.7463370E-013  9.0322194E-013 -5.6478155E-012 -3.7982950E-012  2.7884639E-013 -2.6199043E-012 -5.0793814E-012  8.3082152E-013  2.9098945E-012 -2.0070612E-012 -1.3031798E-012 -1.3262724E-012 -1.3133938E-012 -1.0933476E-012 -4.7495341E-013 -4.0434323E-013 -2.3026026E-013 -1.1857182E-013 -3.5527137E-014  8.8373753E-014  9.8809849E-014  2.2315483E-013  1.8540725E-013  8.5487173E-014  8.5487173E-014  3.0264680E-013  2.2648550E-013  3.9102055E-013 -2.5046631E-012 -1.5294432E-012 -5.7158722E-012  4.5541348E-013  2.3447910E-013  2.1471713E-013 -3.7846115E-013 -4.4459852E-012  6.3349326E-013 -9.7966080E-013 -3.5940140E-012  1.1416285E-012  9.8739072E-013  1.8152146E-013  6.3443140E-012  2.7946534E-012 -5.4833915E-013  6.1381455E-013 -3.1254999E-012  1.5454582E-011 -2.2204460E-016  5.2291504E-012  5.6494809E-012 -1.1102230E-016 -1.1102230E-016  4.1633363E-017  3.6372294E-013  1.6600610E-013  4.1924797E-014  6.9125261E-013  1.0108581E-012  8.9300789E-013  1.1149762E-012  1.4233059E-013  6.9794170E-013  7.0056461E-013  5.5738747E-013  3.4842962E-013  6.3771211E-013  1.8927707E-012  5.2625959E-012  1.9836841E-012  4.5695669E-012  1.7037205E-012  3.4630077E-012  2.9203862E-012  2.7408631E-013  6.3693495E-013 -1.4843682E-012 -9.7959835E-013 -4.4190623E-012  7.7411688E-013  1.3100632E-013  6.4182687E-013 -2.3289148E-012  1.8044455E-012  2.2436497E-012  3.6270986E-013  8.1235019E-013  5.3739652E-013  3.3722330E-013  5.5406374E-013  9.3758334E-013  1.5634716E-013  4.0245585E-013  1.5173973E-013  7.1348483E-013  3.9797332E-013  1.7777585E-012  2.2473690E-013  5.2605142E-013  1.6142643E-013 -1.8401947E-012  3.8369308E-013  2.4678315E-012  6.9211303E-013  2.5332514E-013  5.9618976E-014  2.6617042E-012 -2.4286129E-013  1.7203017E-011  4.8104853E-012 -6.8541839E-012 -1.5913937E-012 -7.4695805E-013  6.4066807E-013 -1.6413537E-012  9.1054941E-013  4.7409993E-013  4.6665449E-013  1.0451778E-012 -1.4563906E-012  1.9639845E-013  6.3536676E-013  9.0007168E-013  4.1529974E-013  1.1313450E-012  2.7655447E-012  1.1162737E-012  6.9388939E-018  2.8144154E-012  3.0773994E-012 -1.0567103E-012  1.3435919E-012  1.0393665E-012  6.6244926E-013  9.1188168E-013  7.1440076E-013  1.4410834E-012  1.1987633E-013  3.0300623E-012  1.8132995E-012  2.6718072E-012 -2.4804464E-013  4.4607373E-013  2.9911490E-013  3.1980738E-012  2.0568547E-012  3.4762054E-012  6.0380867E-013  6.2733152E-013  7.9272006E-013  4.3139659E-012  1.3877788E-017  3.0357938E-012  3.5993430E-013  6.5297767E-013  3.9188097E-013  4.5075055E-013  2.8405056E-013  3.1086245E-013  3.9074299E-013  2.2121194E-013  3.7148062E-013  1.5673574E-013 -1.2183587E-012  6.3632433E-013  5.3967941E-013 -1.0562662E-012 -1.3003071E-012 -1.2490009E-016  1.7644219E-013  2.5171532E-012  5.3465565E-013  1.4327428E-013  4.6671694E-013 -5.5511151E-017  4.9117654E-013  1.8700319E-013  8.9797614E-013  1.5446394E-012  1.1905477E-012  5.1349897E-013  1.3877788E-017  1.6532192E-012  1.2632256E-012  8.2851781E-013  5.7857712E-013  1.8615109E-012  1.6563417E-012  1.0633161E-012  5.5505600E-013 -9.0016883E-013  6.0459970E-013 -1.7830182E-013  2.8609060E-013  2.8738123E-013  4.5548287E-013  5.0789928E-013  6.2050365E-013  2.8441138E-013  1.5351609E-012  6.0396133E-013  7.7603202E-013  5.8517080E-013  3.2029934E-013  9.5963862E-013  1.2856383E-013  1.8599011E-013  9.2274799E-013  6.2777561E-013  4.1078252E-014  1.7252866E-013 -1.3773704E-014 -5.0477400E-012 -4.4056980E-012 -7.2076789E-012 -2.1173063E-012 -5.2141624E-012  8.4994789E-012 -9.3575148E-012 -1.9138136E-011 -2.8519409E-012 -5.1969540E-013 -1.0756451E-011  2.5315861E-013  1.8679502E-013  1.9529378E-012  6.7736095E-013  2.0591584E-012  5.6950278E-013 -2.7045033E-013  9.6500585E-013  3.4905412E-013  1.4781926E-012  1.4721557E-013  6.0150843E-013  3.6986247E-012 -4.0671910E-012  2.0723007E-014  5.4815180E-013  1.3244267E-013  2.6138813E-013  1.2204404E-012 -1.1577406E-012  8.5292884E-013  7.4564660E-013  1.3956614E-012  2.1280200E-013  1.3199719E-012  5.0766336E-013  7.6834372E-013  2.7839536E-013  2.3371582E-013  1.0387524E-012  1.9889645E-013  7.0388140E-014  3.4475200E-013  6.0917937E-013  5.8819616E-013  6.6641137E-013 -6.5014660E-013 -3.4705572E-013 -6.5947248E-014 -5.1070259E-014  2.7977620E-014  9.9698028E-014  3.9324100E-012  2.4269475E-013  3.4416359E-012  3.3995029E-013 -1.4011015E-012  4.4608761E-013  5.7387428E-013  5.0170978E-013  1.1546319E-013  1.7652546E-013 -1.4175328E-012  1.3544721E-013  9.8457353E-013  2.5462965E-013  5.8517080E-012 -3.3999470E-012 -2.5326408E-012  1.0643708E-012 -3.0297986E-013 -2.7911007E-013  1.1590728E-013 -1.9784174E-013 -2.5013325E-012 -1.9690916E-012 -1.5165647E-012 -1.0498269E-012 -3.1344927E-012 -3.3164582E-012  7.1143091E-013 -1.8162138E-012 -1.7882362E-012 -4.0195625E-012 -5.2025051E-012 -1.9808599E-012  2.6131319E-012 -3.7800874E-012 -1.5354384E-012 -1.2427837E-012  1.9777513E-012  1.2403412E-012  1.6029400E-012  7.5150997E-013  1.1462498E-012  7.3707707E-013  2.7355895E-013  2.1960211E-013  2.2781776E-013  1.8429702E-013  1.7452706E-013  1.7819080E-013  9.3480779E-014  9.0150110E-014  2.6045832E-013  3.5038639E-013  3.6637360E-014  2.6822988E-013  2.4202862E-013  2.7011726E-013  4.7495341E-013  3.9956927E-013  2.5068836E-013  2.8399505E-013  1.3056223E-013  5.6776805E-013  3.3506531E-013  6.4281913E-013  4.3409720E-013  6.5059069E-013  1.4222512E-012  1.1729506E-013  1.1102230E-015  2.4868996E-014  1.3344881E-013  5.1636473E-013  3.6526338E-013  8.1290530E-013  1.2296830E-012 -4.0401016E-013  4.7850612E-014  2.5084934E-012  6.5575323E-013  5.7009952E-013  8.1190610E-013  1.4733770E-012  5.5488947E-013  5.9163785E-013  5.3679283E-013  4.7084558E-013  1.0232926E-012  7.3707707E-013  4.6873616E-013  2.7822189E-013  4.5662085E-013  3.5360603E-013  6.9791395E-013  4.7216397E-013  5.2481630E-013  7.0683737E-013  4.7785387E-013  4.9435456E-013  7.0173034E-013  7.4545925E-013  5.0134202E-013  2.5537905E-013  2.9512504E-013  6.3028749E-013  1.5298873E-013  1.4179491E-012  5.4435623E-013  1.0704840E-012  5.5955240E-014  9.0005781E-013  6.2710948E-013 -2.1410651E-013 -9.4006747E-013 -6.5603079E-012  4.2994497E-012 -1.0833001E-011  1.1394663E-011 -5.6486898E-012  1.8485213E-013  3.8222203E-013  1.4950541E-013  6.6016637E-014  1.0652312E-012  9.0336072E-013  1.3624865E-013  1.6653345E-016 -4.7185589E-012  7.4940054E-014  4.7351012E-014  9.1980590E-013  3.1669112E-013  8.8681840E-013  2.9973246E-013  6.2605476E-013  5.8703042E-013  5.8864025E-013  8.0714602E-013  7.1134765E-013  4.6185278E-014  5.2793880E-012  2.3236968E-012  4.4125814E-013  1.2605472E-012  2.6872185E-012  2.3836488E-013  5.7617799E-013  6.9388939E-017 -2.6845748E-012  9.0150110E-014  6.0396133E-014  3.2640557E-014 -1.3877788E-017  2.8814381E-012 -4.3611781E-012  5.6366023E-013  1.2545520E-014  4.4408921E-016  5.2266524E-013  8.8299854E-013 -4.4408921E-016  6.2838623E-014  9.1038288E-015  5.7226446E-013  1.2193926E-012  5.6649130E-013  1.8401947E-013  2.2813695E-013 -5.6205041E-012 -2.6512681E-012  1.5711737E-013  2.4757973E-013 -4.1201487E-012  6.1953220E-013  6.3176547E-013  1.6611712E-013  6.3771211E-013  1.7646995E-013  2.9246050E-013  8.1107343E-013  3.5837999E-013  9.4135810E-013  2.0849988E-013  4.9323046E-013 -8.3115737E-012  8.7626434E-013 -9.7144515E-017  7.2102740E-013  3.1759317E-012  2.7967489E-012  6.0840222E-013  2.5132188E-012  1.8400420E-012  1.0568491E-012  2.7370606E-012 -6.6477379E-013  9.4185770E-013 -1.1968204E-012 -3.0690728E-014  1.6963028E-012  9.0479013E-013  9.2509334E-013  5.5394578E-013  4.0574488E-013  4.4722559E-013  4.2942039E-013  5.9140193E-013  9.9131814E-013  3.4439118E-013 -5.5226934E-012  5.8317240E-013  1.7841284E-013 -7.5131013E-012 -5.3482913E-013  5.5613153E-013  4.5852211E-014 -1.7171264E-011 -3.6096681E-012 -1.3200996E-011 -7.3334255E-012  3.2027714E-012 -6.6654460E-012  6.0670913E-013  4.5238813E-013  8.9279278E-013  9.3264979E-013  2.1333629E-013  3.1726011E-013  2.1804780E-013  4.5891069E-013  3.1072922E-012  2.2798430E-013 -9.5345953E-013  1.1901591E-013 -1.1102230E-016  7.9673768E-013 0.0  7.6294526E-013  3.6826098E-013 -4.8729909E-012  4.6629367E-014 -1.3025692E-012  1.1771001E-012  6.3604677E-013 -2.6529751E-012  7.5582596E-013  1.1213738E-012  2.0081159E-013  7.2607198E-013  1.1174395E-013  3.9146464E-013 -3.7181369E-013  3.7172210E-012  8.3311136E-013  4.4333981E-013 -1.5368817E-012  4.9973914E-013 -4.5790038E-012  5.4752314E-012  4.6684878E-013  2.0862923E-011  1.0233314E-011  9.9809189E-012  2.5034419E-012  1.3298251E-012  2.7962077E-012  4.3021142E-013  1.9373392E-013  6.8445249E-013 -3.2462921E-012  2.9554137E-013  4.6107562E-013  3.0542791E-012  1.6073809E-012  3.3645309E-013  1.1650125E-012  4.2997272E-012 -2.1052604E-014  2.2942759E-013  5.6872285E-012 -1.6975865E-012 -3.5423608E-012  4.8678839E-012 -5.6582516E-013  2.1014301E-012  5.1545990E-012  8.4597884E-012 -3.1681324E-012  1.2929269E-011  9.5293218E-012 -1.4586887E-011  1.6734392E-012  9.3719477E-012 -7.6341711E-014  3.3889558E-013 -3.3258951E-012  3.5134395E-013  1.2464474E-012  3.0568326E-012  1.0315360E-012  5.1326998E-012  2.9320990E-012  1.0729265E-012  2.3231417E-013  6.4082073E-013  4.4025894E-013 -4.4020343E-012  5.2227667E-013  6.1369659E-013  5.0839888E-013  8.8355712E-013 -3.4794390E-013 -1.3016477E-011  3.8891113E-013  2.3904489E-013  1.6563695E-012 -8.5226270E-012  1.7698759E-012  2.6003366E-012  3.7894271E-012  1.7148297E-012  4.6432302E-013  8.8792862E-013  2.6428720E-012  1.2870503E-012 -2.0816682E-017  2.2803495E-012 -1.3877788E-017  5.6288307E-013  2.4336019E-012  3.2893063E-012  8.3266727E-017  2.5491415E-012  9.1277680E-013  3.7305367E-012  3.9584308E-013  1.3295129E-012  9.1156249E-013  5.0745519E-013  2.5124278E-012  2.6449398E-012  9.7502562E-013  8.8379998E-013  3.1995656E-012  7.6187667E-013  1.0288298E-012  1.7841284E-012  4.5336825E-013  6.2810868E-014  2.0583570E-012  3.4790157E-012 -6.9388939E-018  4.0970630E-012  1.5375444E-012  2.8921830E-012  6.1849657E-013 -4.1300297E-013 -1.3562956E-011  4.3615112E-013  5.8639205E-013  4.7628568E-014 -4.4408921E-016 -8.8817842E-016  9.7108432E-013  1.1812773E-013 -3.1086245E-015  9.2829910E-013  2.4992508E-013  1.0094703E-012  3.8646863E-013  1.1256829E-012 -5.4793670E-013  1.6011081E-012 -1.7896795E-013  1.6812940E-013  9.1815444E-014  5.8718308E-013 -6.9388939E-017  9.2062469E-013  2.5378311E-013  1.5122348E-012  1.0133561E-013  1.6328605E-013  1.6541282E-013 -9.5035091E-013  4.2016390E-013  1.7792712E-013  3.9667436E-012  6.2128080E-013  6.5862593E-013  9.3147712E-014  3.2394504E-012  6.6502359E-014  1.1572965E-012 -1.1102230E-016  6.2450045E-017  7.3734074E-013  1.1510931E-013  7.6181422E-013  5.5511151E-017 -4.7006843E-013  4.5652371E-013  3.0059288E-013  3.8757886E-013  7.6660900E-012  4.1621151E-012  7.2497564E-013 -3.8276049E-012 -4.6362914E-013  1.3709034E-012  4.0251136E-013  3.0775382E-013  4.9849014E-013  2.2215563E-013  3.9859782E-013  1.6633916E-013  5.8683614E-013  1.7371660E-012 -4.5881354E-013  3.6814995E-013 -3.0930813E-013 0.0  2.8491098E-013  5.6260552E-013 -8.6464169E-013  1.1581291E-012  1.2687629E-012  3.3070213E-012  4.5539961E-013  1.7919000E-013  1.0583201E-012  6.4856454E-013  7.1170847E-013  1.2497503E-012  2.9520830E-013 -3.6255721E-015  1.0399459E-012  1.2806978E-012  3.6244618E-013  4.0810688E-012  5.4382887E-013 -1.5831780E-012  1.2365109E-013  4.5335957E-013  8.6167184E-013  1.1846080E-013  1.8272051E-012
        </DataArray>
        <DataArray type="Float64" Name="stress_xx" NumberOfComponents="1" format="ascii">
 0.0 0.0 0.0 0.0  6.1516934E+003  3.5856192E+003  2.8767067E+002 -2.1610399E+003 0.0 0.0 0.0 0.0 0.0 0.0 0.0 0.0 0.0 0.0 0.0 0.0 0.0 -2.5125869E+004 0.0 0.0 0.0 0.0 0.0 0.0 0.0 0.0 0.0 0.0 0.0 0.0 0.0 0.0 0.0 0.0 0.0 0.0 0.0 0.0 0.0 0.0 0.0 0.0 0.0 0.0 0.0 0.0 -3.1111713E+002  3.5469734E+000 -1.0477173E+002 -1.2306363E+002 -1.7182698E+002 -1.7751471E+002 -9.9315491E+001 -3.2552021E+001 -4.2897320E+001 -3.8213012E+001 -1.6579691E+001  2.3307752E+000 -5.2582496E+000 -1.6456604E+001 -4.4973327E+001  1.0099743E+002 -4.7049808E+002 -1.4206593E+002 -1.2330710E+002 -4.1651369E+001 -2.1969795E+001  2.1740649E+000  3.5171876E+001  6.6426438E+001  8.6960002E+001  1.0113287E+002  8.7194074E+001  9.0690871E+001  1.1047038E+002  1.1144940E+002  1.1345127E+002  1.2688783E+002  1.1413965E+002  1.1395694E+002  1.3357031E+002  1.2783761E+002  1.1954519E+002  1.1730168E+002  1.0494966E+002  1.1377741E+002  1.2785590E+002  1.1771424E+002  1.1221563E+002  1.2088990E+002  1.1954523E+002  1.3967720E+002  1.5584816E+002  1.4669457E+002  1.4066857E+002  1.4464384E+002  1.3415017E+002  1.4758946E+002  1.6397946E+002  1.5608327E+002  1.4908666E+002  1.5246243E+002  1.4328033E+002  1.6023860E+002  1.7918147E+002  1.7003173E+002  1.6133617E+002  1.6371129E+002  1.5172101E+002  1.6858619E+002  1.8709535E+002  1.7461825E+002  1.5479248E+002  1.7026451E+002  1.8691825E+002  1.7344211E+002  1.5957812E+002  1.5700326E+002  1.4574457E+002  1.4612136E+002  1.3885890E+002  1.5768620E+002  1.8094150E+002  1.7777439E+002  1.7298264E+002  1.7806554E+002  1.7106567E+002  1.7154290E+002  1.7268056E+002  1.7971170E+002  1.7682055E+002  1.8037624E+002  2.0111776E+002  2.0606825E+002  1.9961625E+002  2.0764033E+002  2.0372930E+002  2.0006963E+002  1.8024860E+002  1.8276106E+002  2.1407780E+002  2.2335603E+002  2.2939024E+002  2.4874869E+002  2.6077353E+002 0.0 0.0 0.0 0.0 0.0 0.0 0.0 0.0 0.0 0.0 0.0 0.0 0.0 0.0 0.0 0.0 0.0 0.0 0.0 0.0 0.0 0.0 0.0 0.0 0.0 0.0 0.0 0.0 0.0 0.0 0.0 0.0 0.0 0.0 0.0 0.0 0.0 0.0 0.0 0.0 0.0 0.0 0.0 0.0 0.0 0.0 0.0 0.0 0.0 0.0 0.0 0.0 0.0 0.0 0.0 0.0 0.0 0.0 0.0 0.0 0.0 0.0 0.0 0.0 0.0 0.0 0.0 0.0 0.0 0.0 0.0 0.0 0.0 0.0 0.0 0.0 0.0 0.0 0.0 0.0 0.0 0.0 0.0 0.0 0.0 0.0 0.0 0.0 0.0 0.0 0.0 0.0 0.0 0.0 0.0 0.0 0.0 0.0 0.0 0.0 0.0 0.0 0.0 0.0 0.0 0.0 0.0 0.0 0.0 0.0 0.0 0.0 0.0 0.0 0.0 0.0 0.0 0.0 0.0 0.0 0.0 0.0 0.0 0.0 0.0 0.0 0.0 0.0 0.0 0.0 0.0 0.0 0.0 0.0 0.0 0.0 0.0 0.0 0.0 0.0 0.0 0.0 0.0 0.0 0.0 0.0 0.0 0.0 0.0 0.0 0.0 0.0 0.0 0.0 0.0 0.0 0.0 0.0 0.0 0.0 0.0 0.0 0.0 0.0 0.0 0.0 0.0 0.0 0.0 0.0 0.0 0.0 0.0 0.0 0.0 0.0 0.0 0.0 0.0 0.0 0.0 0.0 0.0 0.0 0.0 0.0 0.0 0.0 0.0 0.0 0.0 0.0 0.0 0.0 0.0 0.0 0.0 0.0 0.0 0.0 0.0 0.0 0.0 0.0 0.0 0.0 0.0 0.0 0.0 0.0 0.0 0.0 0.0 0.0 0.0 0.0 0.0 0.0 0.0 0.0 0.0 0.0 0.0 0.0 0.0 0.0 0.0 0.0 0.0 0.0 0.0 0.0 0.0 0.0 0.0 0.0 0.0 0.0 0.0 0.0 0.0 0.0 0.0 0.0 0.0 0.0 0.0 0.0 0.0 0.0 0.0 0.0 0.0 0.0 0.0 0.0 0.0 0.0 0.0 0.0 0.0 0.0 0.0 0.0 0.0 0.0 0.0 0.0 0.0 0.0 0.0 0.0 0.0 0.0 0.0 0.0 0.0 0.0 0.0 0.0 0.0 0.0 0.0 0.0 0.0 0.0 0.0 0.0 0.0 0.0 0.0 0.0 0.0 0.0 0.0 0.0 0.0 -3.1549878E+003 -9.5606311E+003 -1.3590425E+004 -1.6755993E+004 -1.9400677E+004 -2.1458048E+004 -2.3093414E+004 -2.4216989E+004 -2.4965087E+004 0.0 0.0 0.0 0.0 0.0 0.0 0.0 0.0 0.0 0.0 0.0 0.0 0.0 0.0 0.0 0.0 0.0 0.0 0.0 0.0 0.0 0.0 0.0 0.0 0.0 0.0 0.0 0.0 0.0 0.0 0.0 0.0 0.0 0.0 0.0 0.0 0.0 0.0 0.0 0.0 0.0 0.0 0.0 0.0 0.0 0.0 0.0 0.0 0.0 -1.1115672E+003  6.4486797E+001  3.2302305E+002  3.9213327E+002  6.5651750E+002  8.9941107E+002  9.6596553E+002  1.2369587E+003  1.2151061E+003  1.1342031E+003  1.1611205E+003  9.5646341E+002  4.8866379E+002 -6.7344803E+001 -8.1588104E+002 -1.5958836E+003 -2.3891123E+003 -3.1019116E+003 -3.6139880E+003 -4.1674066E+003 -4.4529370E+003 -4.4389198E+003 -4.2903337E+003 -4.4058256E+003 -4.7733544E+003 -4.3912312E+003 -4.0113965E+003 -4.0167072E+003 -3.9193953E+003 -3.8196595E+003 -3.7521809E+003 -3.7585334E+003 -3.8165525E+003 -3.8516266E+003 -3.6597454E+003 -3.7509893E+003 -3.8411440E+003 -4.0962086E+003 -4.2904462E+003 -4.4886376E+003 -4.5134964E+003 -4.3361420E+003 -4.3736522E+003 -4.7942662E+003 -4.1445036E+003 -3.6163973E+003 -3.3781259E+003 -3.6013543E+003 -4.1837416E+003 -3.7397178E+003 -3.4150380E+003 -3.2846676E+003 -3.2926980E+003 -3.3492219E+003 -3.2805394E+003 -3.3246471E+003 -3.2304772E+003 -3.1183461E+003 -3.1121477E+003 -3.1480207E+003 -3.0767472E+003 -3.1075732E+003 -3.0122520E+003 -2.9061693E+003 -2.8938062E+003 -2.9154712E+003 -2.8344277E+003 -2.8411565E+003 -2.7120011E+003 -2.5894757E+003 -2.5799053E+003 -2.6694913E+003 -2.7127426E+003 -2.7304546E+003 -2.5366028E+003 -2.4030433E+003 -2.5458620E+003 -3.0022195E+003 -2.9856922E+003 -2.6149956E+003 -2.3734448E+003 -2.2476979E+003 -2.2050155E+003 -2.2011332E+003 -2.1596067E+003 -2.3780049E+003 -2.8400160E+003 -3.3008250E+003 -3.3736459E+003 -3.0776054E+003 -2.5778390E+003 -2.2632138E+003 -2.5854722E+003 -3.6955339E+003 -5.3724309E+003 -7.6329217E+003 -1.0612514E+004 -1.4553470E+004 -1.9395797E+004 0.0 0.0 0.0 0.0 0.0 0.0 0.0 0.0 0.0 0.0 0.0 0.0 0.0 0.0 0.0 0.0 0.0 0.0 0.0 0.0 0.0 0.0 0.0 0.0 0.0 0.0 0.0 0.0 0.0 0.0 0.0 0.0 0.0 0.0 0.0 0.0 0.0 0.0 0.0 0.0 0.0 0.0 0.0 0.0 0.0 0.0 0.0 0.0 0.0 0.0 0.0 0.0 0.0 0.0 0.0 0.0 0.0 0.0 0.0 0.0 0.0 0.0 0.0 0.0 0.0 0.0 0.0 0.0 0.0 0.0 0.0 0.0 0.0 0.0 0.0 0.0 0.0 0.0 0.0 0.0 0.0 0.0 0.0 0.0 0.0 0.0 0.0 0.0 0.0 0.0 0.0 0.0 0.0 0.0 0.0 0.0 0.0 0.0 0.0 0.0 0.0 0.0 0.0 0.0 0.0 0.0 0.0 0.0 0.0 0.0 0.0 0.0 0.0 0.0 0.0 0.0 0.0 0.0 0.0 0.0 0.0 0.0 0.0 0.0 0.0 0.0 0.0 0.0 0.0 0.0 0.0 0.0 0.0 0.0 0.0 0.0 0.0 0.0 0.0 0.0 0.0 0.0 0.0 0.0 0.0 0.0 0.0 0.0 0.0 0.0 0.0 0.0 0.0 0.0 0.0 0.0 0.0 0.0 0.0 0.0 0.0 0.0 0.0 0.0 0.0 0.0 0.0 0.0 0.0 0.0 0.0 0.0 0.0 0.0 0.0 0.0 0.0 0.0 0.0 0.0 0.0 0.0 0.0 0.0 0.0 0.0 0.0 0.0 0.0 0.0 0.0 0.0 0.0 0.0 0.0 0.0 0.0 0.0 0.0 0.0 0.0 0.0 0.0 0.0 0.0 0.0 0.0 0.0 0.0 0.0 0.0 0.0 0.0 0.0 0.0 0.0 0.0 0.0 0.0 0.0 0.0 0.0 0.0 0.0 0.0 0.0 0.0 0.0 0.0 0.0 0.0 0.0 0.0 0.0 0.0 0.0 0.0 0.0 0.0 0.0 0.0 0.0 0.0 0.0 0.0 0.0 0.0 0.0 0.0 0.0 0.0 0.0 0.0 0.0 0.0 0.0 0.0 0.0 0.0 0.0 0.0 0.0 0.0 0.0 0.0 0.0 0.0 0.0 0.0 0.0 0.0 0.0 0.0 0.0 0.0 0.0 0.0 0.0 0.0 0.0 0.0 0.0 0.0 0.0 0.0 0.0 0.0 0.0 0.0 0.0 0.0 0.0 0.0 0.0 0.0 0.0 0.0 0.0 0.0 0.0 0.0 0.0 0.0 0.0 0.0 0.0 0.0 0.0 0.0 0.0 0.0 0.0 0.0 0.0 0.0 0.0 0.0 0.0 0.0 0.0 0.0 0.0 0.0 0.0 0.0 0.0 0.0 0.0 0.0 0.0 0.0 0.0 0.0 0.0 0.0 0.0 0.0 0.0 0.0 0.0 0.0 0.0 0.0 0.0 0.0 0.0 0.0 0.0 0.0 0.0 0.0 0.0 0.0 0.0 0.0 0.0 0.0 0.0 0.0 0.0 0.0 0.0 0.0 0.0 0.0 0.0 0.0 0.0 0.0 0.0 0.0 0.0 0.0 0.0 0.0 0.0 0.0 0.0 0.0 0.0 0.0 0.0 0.0 0.0 0.0 0.0 0.0 0.0 0.0 0.0 0.0 0.0 0.0 0.0 0.0 0.0 0.0 0.0 0.0 0.0 0.0 0.0 0.0 0.0 0.0 0.0 0.0 0.0 0.0 0.0 0.0 0.0 0.0 0.0 0.0 0.0 0.0 0.0 0.0 0.0 0.0 0.0 0.0 0.0 0.0 0.0 0.0 0.0 0.0 0.0 0.0 0.0 0.0 0.0 0.0 0.0 0.0 0.0 0.0 0.0 0.0 0.0 0.0 0.0 0.0 0.0 0.0 0.0 0.0 0.0 0.0 0.0 0.0 0.0 0.0 0.0 0.0 0.0 0.0 0.0 0.0 0.0 0.0 0.0 0.0 0.0 0.0 0.0 0.0 0.0 0.0 0.0 0.0 0.0 0.0 0.0 0.0 0.0 0.0 0.0 0.0 0.0 0.0 0.0 0.0 0.0 0.0 0.0 0.0 0.0 0.0 0.0 0.0 0.0 0.0 0.0 0.0 0.0 0.0 0.0 0.0 0.0 0.0 0.0 0.0 0.0 0.0 0.0 0.0 0.0 0.0 0.0 0.0 0.0 0.0 0.0 0.0 0.0 0.0 0.0 0.0 0.0 0.0 0.0 0.0 0.0 0.0 0.0 0.0 0.0 0.0 0.0 0.0 0.0 0.0 0.0 0.0 0.0 0.0 0.0 0.0 0.0 0.0 0.0 0.0 0.0 0.0 0.0 0.0 0.0 0.0 0.0 0.0 0.0 0.0 0.0 0.0 0.0 0.0 0.0 0.0 0.0 0.0 0.0 0.0 0.0 0.0 0.0 0.0 0.0 0.0 0.0 0.0 0.0 0.0 0.0 0.0 0.0 0.0 0.0 0.0 0.0 0.0 0.0 0.0 0.0 0.0 0.0 0.0 0.0 0.0 0.0 0.0 0.0 0.0 0.0 0.0 0.0 0.0 0.0 0.0 0.0 0.0 0.0 0.0 0.0 0.0 0.0 0.0 0.0 0.0 0.0 0.0 0.0 0.0 0.0 0.0 0.0 0.0 0.0 0.0 0.0 0.0 0.0 0.0 0.0 0.0 0.0 0.0 0.0 0.0 0.0 0.0 0.0 0.0 0.0 0.0 0.0 0.0 0.0 0.0 0.0 0.0 0.0 0.0 0.0 0.0 0.0 0.0 0.0 0.0 0.0 0.0 0.0 0.0 0.0 0.0 0.0 0.0 0.0 0.0 0.0 0.0 0.0 0.0 0.0 0.0 0.0 0.0 0.0 0.0 0.0 0.0 0.0 0.0 0.0 0.0 0.0 0.0 0.0 0.0 0.0 0.0 0.0 0.0 0.0 0.0 0.0 0.0 0.0 0.0 0.0 0.0 0.0 0.0 0.0 0.0 0.0 0.0 0.0 0.0 0.0 0.0 0.0 0.0 0.0 0.0 0.0 0.0 0.0 0.0 0.0 0.0 0.0 0.0 0.0 0.0 0.0 0.0 0.0 0.0 0.0 0.0 0.0 0.0 0.0 0.0 0.0 0.0 0.0 0.0 0.0 0.0 0.0 0.0 0.0 0.0 0.0 0.0 0.0 0.0 0.0 0.0 0.0 0.0 0.0 0.0 0.0 0.0 0.0 0.0 0.0 0.0 0.0 0.0 0.0 0.0 0.0 0.0 0.0 0.0 0.0 0.0 0.0 0.0 0.0 0.0 0.0 0.0 0.0 0.0 0.0 0.0 0.0 0.0 0.0 0.0 0.0 0.0 0.0 0.0 0.0 0.0 0.0 0.0 0.0 0.0 0.0 0.0 0.0 0.0 0.0 0.0 0.0 0.0 0.0 0.0 0.0 0.0 0.0 0.0 0.0 0.0 0.0 0.0 0.0 0.0 0.0 0.0 0.0 0.0 0.0 0.0 0.0 0.0 0.0 0.0 0.0 0.0 0.0 0.0 0.0 0.0 0.0 0.0 0.0 0.0 0.0 0.0 0.0 0.0 0.0 0.0 0.0 0.0 0.0 0.0 0.0 0.0 0.0 0.0 0.0 0.0 0.0 0.0 0.0 0.0 0.0 0.0 0.0 0.0 0.0 0.0 0.0 0.0 0.0 0.0 0.0 0.0 0.0 0.0 0.0 0.0 0.0 0.0 0.0 0.0 0.0 0.0 0.0 0.0 0.0 0.0 0.0 0.0 0.0 0.0 0.0 0.0 0.0 0.0 0.0 0.0 0.0 0.0 0.0 0.0 0.0 0.0 0.0 0.0 0.0 0.0 0.0 0.0 0.0 0.0 0.0 0.0 0.0 0.0 0.0 0.0 0.0 0.0 0.0 0.0 0.0 0.0 0.0 0.0 0.0 0.0 0.0 0.0 0.0 0.0 0.0 0.0 0.0 0.0 0.0 0.0 0.0 0.0 0.0 0.0 0.0 0.0 0.0 0.0 0.0 0.0 0.0 0.0 0.0 0.0 0.0 0.0 0.0 0.0 0.0 0.0 0.0 0.0 0.0 0.0 0.0 0.0 0.0 0.0 0.0 0.0 0.0 0.0 0.0 0.0 0.0 0.0 0.0 0.0 0.0 0.0 0.0 0.0 0.0 0.0 0.0 0.0 0.0 0.0 0.0 0.0 0.0 0.0 0.0 0.0 0.0 0.0 0.0 0.0 0.0 0.0 0.0 0.0 0.0 0.0 0.0 0.0 0.0 0.0 0.0 0.0 0.0 0.0 0.0 0.0 0.0 0.0 0.0 0.0 0.0 0.0 0.0 0.0 0.0 0.0 0.0 0.0 0.0 0.0 0.0 0.0 0.0 0.0 0.0 0.0 0.0 0.0 0.0 0.0 0.0 0.0 0.0 0.0 0.0 0.0 0.0 0.0 0.0 0.0 0.0 0.0 0.0 0.0 0.0 0.0 0.0 0.0 0.0 0.0 0.0 0.0 0.0 0.0 0.0 0.0 0.0 0.0 0.0 0.0 0.0 0.0 0.0 0.0 0.0 0.0 0.0 0.0 0.0 0.0 0.0 0.0 0.0 0.0 0.0 0.0 0.0 0.0 0.0 0.0 0.0 0.0 0.0 0.0 0.0 0.0 0.0 0.0 0.0 0.0 0.0 0.0 0.0 0.0 0.0 0.0 0.0 0.0 0.0 0.0 0.0 0.0 0.0 0.0 0.0 0.0 0.0 0.0 0.0 0.0 0.0 0.0 0.0 0.0 0.0 0.0 0.0 0.0 0.0 0.0 0.0 0.0 0.0 0.0 0.0 0.0 0.0 0.0 0.0 0.0 0.0 0.0 0.0 0.0 0.0 0.0 0.0 0.0 0.0 0.0 0.0 0.0 0.0 0.0 0.0 0.0 0.0 0.0 0.0 0.0 0.0 0.0 0.0 0.0 0.0 0.0 0.0 0.0 0.0 0.0 0.0 0.0 0.0 0.0 0.0 0.0 0.0 0.0 0.0 0.0 0.0 0.0 0.0 0.0 0.0 0.0 0.0 0.0 0.0 0.0 0.0 0.0 0.0 0.0 0.0 0.0 0.0 0.0 0.0 0.0 0.0 0.0 0.0 0.0 0.0 0.0 0.0 0.0 0.0 0.0 0.0 0.0 0.0 0.0 0.0 0.0 0.0 0.0 0.0 0.0 0.0 0.0 0.0 0.0 0.0 0.0 0.0 0.0 0.0 0.0 0.0 0.0 0.0 0.0 0.0 0.0 0.0 0.0 0.0 0.0 0.0 0.0 0.0 0.0 0.0 0.0 0.0 0.0 0.0 0.0 0.0 0.0 0.0 0.0 0.0 0.0 0.0 0.0 0.0 0.0 0.0 0.0 0.0 0.0 0.0 0.0 0.0 0.0 0.0 0.0 0.0 0.0 0.0 0.0 0.0 0.0 0.0 0.0 0.0 0.0 0.0 0.0 0.0 0.0 0.0 0.0 0.0 0.0 0.0 0.0 0.0 0.0 0.0 0.0 0.0 0.0 0.0 0.0 0.0 0.0 0.0 0.0 0.0 0.0 0.0 0.0 0.0 0.0 0.0 0.0 0.0 0.0 0.0 0.0 0.0 0.0 0.0 0.0 0.0 0.0 0.0 0.0 0.0 0.0 0.0 0.0 0.0 0.0 0.0 0.0 0.0 0.0 0.0 0.0 0.0 0.0 0.0 0.0 0.0 0.0 0.0 0.0 0.0 0.0 0.0 0.0 0.0 0.0 0.0 0.0 0.0 0.0 0.0 0.0 0.0 0.0 0.0 0.0 0.0 0.0 0.0 0.0 0.0 0.0 0.0 0.0 0.0 0.0 0.0 0.0 0.0 0.0 0.0 0.0 0.0 0.0 0.0 0.0 0.0 0.0 0.0 0.0 0.0 0.0 0.0 0.0 0.0 0.0 0.0 0.0 0.0 0.0 0.0 0.0 0.0 0.0 0.0 0.0 0.0 0.0 0.0 0.0 0.0 0.0 0.0 0.0 0.0 0.0 0.0 0.0 0.0 0.0 0.0 0.0 0.0 0.0 0.0 0.0 0.0 0.0 0.0 0.0 0.0 0.0 0.0 0.0 0.0 0.0 0.0 0.0 0.0 0.0 0.0 0.0 0.0 0.0 0.0 0.0 0.0 0.0 0.0 0.0 0.0 0.0 0.0 0.0 0.0 0.0 0.0 0.0 0.0 0.0 0.0 -1.4065164E+004 -6.2079812E+003 -1.0585442E+003 -2.8476043E+003 -1.7383135E+004 -9.0462268E+003 -1.0958951E+003 -5.2381817E+002 -4.6215250E+002 -1.1897472E+003 -8.5919424E+002 -5.7175615E+002 -5.2319993E+002 -5.3722926E+002 -6.2344098E+002 -6.5471425E+002 -4.7222893E+002 -1.0411404E+003 -5.4332286E+002 -5.9253224E+002 -6.9919200E+002 -6.1300128E+002 -6.9657050E+002 -7.5053423E+002 -6.5578789E+002 -7.1932307E+002 -7.7167879E+002 -7.1973814E+002 -1.2356594E+004 -7.7184049E+002 -7.8792005E+002 -8.3238043E+002 -9.4165219E+002 -1.3704444E+003 -1.3750984E+003 -1.1321840E+003 -1.1890523E+003 -8.3833341E+002 -1.3058156E+003 -8.2402622E+002 -8.1567503E+002 -9.1308533E+002 -9.7875679E+002 -1.0556571E+003 -1.1406291E+003 -9.6575528E+002 -4.1663212E+002 -2.8682801E+003  1.0411070E+002 -2.3081253E+003 -2.6083355E+003 -3.2082153E+003 -2.1402123E+003 -1.8334464E+003 -1.9490177E+003 -2.0399695E+003 -2.6802323E+003 -2.1388777E+003 -2.2467743E+003 -2.3355924E+003 -2.2513163E+003 -2.2998651E+003 -2.4381710E+003 -2.5352743E+003 -2.5456851E+003 -2.6452815E+003 -2.7182314E+003 -2.7248023E+003 -2.8106723E+003 -2.8701980E+003 -2.9336527E+003 -3.3024781E+003 -2.8474691E+003 -3.9844987E+003 -3.7382429E+003 -4.2222878E+003 -3.5729057E+003 -3.2518742E+003 -3.2360684E+003 -3.3313674E+003 -3.2018706E+003 -3.2774139E+003 -3.5303980E+003 -3.9247872E+003 -3.7444825E+003 -3.6698577E+003 -1.6869183E+003  2.4130323E+002  8.8390569E+002  2.9045816E+002 -1.9594380E+004  4.4379622E+002  1.7845449E+002 -2.0917289E+003 -2.0542510E+003 -1.6405924E+003 -3.1952805E+003 -2.2104121E+003 -3.2379233E+003 -2.1485316E+003 -3.4233528E+003 -5.1889686E+003 -5.5829783E+003 -7.6238147E+003 -7.0975387E+003 -9.8855316E+003 -7.7083905E+003 -5.3005102E+003 -9.0832806E+003 -1.2317614E+004 -7.4081248E+003 -1.0597016E+004 -4.7878791E+003 -3.1549714E+003 -4.3861673E+003 -4.8821093E+003 -1.4976752E+003 -7.2955232E+002 -4.1560274E+003 -8.9481463E+002 -9.0203699E+003  7.2783298E+002 -1.8273779E+003 -1.3268551E+003 -1.3619914E+003 -1.0838457E+003  5.3619592E+002  1.1398350E+002 -1.7234916E+002 -1.0768184E+003 -1.1515535E+003 -1.6296951E+003 -2.3339184E+003 -1.5956850E+003 -1.4237215E+003 -1.2762922E+003 -3.2674286E+003 -2.2625107E+003 -2.1368491E+003 -1.8033871E+003 -2.4294247E+003 -1.7500861E+003 -1.7796602E+003 -1.4937951E+003  7.6180279E+002  4.9404698E+002 -3.1783719E+003 -2.4779373E+003 -2.6706360E+003 -1.6932779E+003 -3.3345881E+003 -2.5752215E+003 -3.9235424E+003 -3.4874507E+003 -3.0976736E+003 -2.6847465E+003 -3.1078059E+003 -2.2994822E+003 -2.1862882E+003 -1.5229524E+003 -1.5393732E+003 -1.3170225E+003 -2.6199497E+003 -1.8756771E+003 -1.9002359E+003 -1.5789595E+003 -3.9840243E+003 -4.0584838E+003 -3.0080395E+003 -2.7777432E+003 -1.9885882E+003 -2.0135173E+003 -1.6812798E+003 -2.8099951E+003 -2.0988691E+003 -2.7451459E+003 -3.6532219E+003 -2.8847193E+003 -3.2804403E+003 -2.0372488E+003 -3.8214339E+003 -2.7541841E+003 -2.9023061E+003 -2.6368249E+003 -1.9834705E+003 -2.4291267E+003 -1.7930581E+003 -2.3105093E+003 -3.3763161E+003 -2.5564970E+003 -3.4650948E+003 -2.6768996E+003 -3.2922883E+003 -2.8341819E+003 -2.5611856E+003 -2.2955500E+003 -1.8953819E+003 -1.3496847E+003 -3.2703931E+003 -2.2970723E+003 -3.3282094E+003 -2.9382289E+003 -4.3285526E+002 -2.1269280E+003 -2.0020898E+003 -4.0017485E+003 -2.4006251E+003 -1.8397321E+003 -3.0032915E+003 -2.5250258E+003 -2.4318143E+003 -1.7253018E+003 -2.9167946E+003 -2.4399164E+003 -1.8994023E+003 -7.9036323E+002 -1.1741726E+003 -2.3294677E+003 -1.1978508E+003 -2.0807889E+003 -7.1483976E+002 -1.6445615E+003 -1.0267207E+003 -1.8290656E+003 -8.5000783E+002 -1.7234612E+003 -1.1031113E+003 -2.4374495E+003 -6.1244435E+002 -1.4772493E+003 -1.2569137E+003 -2.8215612E+003 -9.4366243E+002 -1.8778566E+003 -1.0462328E+003 -1.6258308E+003 -2.5336107E+003 -7.4347868E+002 -1.6027686E+003 -7.6048337E+002 -1.6932084E+003 -7.7856217E+002 -1.6222469E+003 -6.9455586E+002 -1.1692841E+003 -9.3469282E+002 -1.8947885E+003 -7.0644877E+002 -1.3970200E+003 -6.9880175E+002 -1.5166944E+003 -9.4712472E+002 -2.0483123E+003 -8.6507232E+002 -1.8239446E+003 -6.5095937E+002 -1.4747655E+003 -7.2461295E+002 -1.3506477E+003 -6.0686020E+002 -1.2720760E+003 -8.8017646E+002 -1.8051338E+003 -9.3928630E+002 -2.1522802E+003 -9.2301381E+002 -2.1317689E+003 -5.1390639E+002 -1.1929837E+003 -1.7141364E+004 -1.1469811E+004 -1.6015872E+004 -1.3662864E+003 -2.5305329E+003 -1.5335036E+003 -1.9164657E+003 -1.7985545E+003 -1.8412964E+003 -1.9247975E+003 -1.6692972E+003 -2.4054331E+003 -1.3470349E+003 -1.7032312E+003 -6.1194811E+002  2.7875014E+002 -1.7648364E+002  8.3642284E+002  1.3079359E+002 -1.6595665E+003 -3.5939070E+003 -1.9119911E+003  2.2376853E+002 -1.6573422E+004 -1.4332362E+003 -2.0436580E+003  1.0678616E+002 -6.5132540E+003  7.3890943E+001  3.5256103E+002 -4.2363415E+002 -1.3221779E+004 -1.1339776E+003 -1.0176044E+004 -6.3875672E+003 -1.4600348E+004  2.6776644E+000 -1.8857133E+003  5.7274144E+002  2.7378119E+002 -1.0336154E+003 -3.4323452E+003 -2.8758738E+003 -6.7560807E+002 -7.9675395E+002 -3.2114738E+003 -2.4246068E+003 -6.6276214E+002 -2.5014739E+003 -2.3213058E+003 -2.1619376E+003 -1.2127173E+003 -2.1349127E+003 -1.9547693E+003 -3.1573434E+003 -1.8498274E+003 -1.9018328E+003 -1.7211395E+003 -2.0366720E+003 -6.7647693E+002 -3.0039245E+003 -3.1442184E+003 -6.1213444E+002 -2.0390086E+003 -2.9985915E+003 -1.9141398E+003 -5.7353629E+002 -2.6096292E+003 -2.9704291E+003 -5.5275330E+002 -2.7199549E+003 -2.1153771E+003 -4.6636481E+002 -3.2738514E+003 -1.6840718E+003 -2.1141221E+003 -5.3217828E+002 -3.3222971E+003 -4.7355193E+002 -3.7621409E+003 -7.3441768E+002 -2.6959016E+003 -2.1980989E+003 -2.0899780E+003 -2.7908865E+003 -2.4734329E+003 -2.5010130E+003 -1.5716285E+003 -2.3317234E+003 -2.3371027E+003 -2.1529679E+003 -1.4900714E+003 -2.1466395E+003 -1.9849500E+003 -2.2191375E+003 -1.3672317E+003 -2.2007420E+003 -1.9770938E+003 -1.5776299E+003 -1.6443622E+003 -1.7559609E+003 -2.8191138E+003 -1.3226141E+003 -1.0780583E+003 -1.0887923E+004 -5.0061778E+003 -1.3816689E+003 -2.0779290E+003 -2.0726814E+004 -4.2923839E+003 -1.7527985E+003 -2.3283639E+003 -2.9670346E+003 -1.7916119E+003 -1.6444044E+003 -1.5652367E+003 -1.4388425E+003 -1.2785956E+003 -1.3292632E+003 -1.1960518E+003 -2.1229035E+003 -1.9300046E+003 -1.2907294E+004 -2.9584235E+002 -1.2613762E+003 -1.5133369E+003 -2.2595563E+003 -6.1960038E+003 -1.2567968E+003 -4.2744495E+003  2.4024526E+002 -1.4216486E+003 -2.1183839E+002 -1.3938403E+004 -1.6166421E+003 -1.7143085E+003 -1.8210856E+003 -1.8992985E+003  5.8616860E+002 -8.1147919E+003 -2.5322129E+003 0.0 0.0 0.0 0.0 0.0 0.0 0.0 0.0 0.0 0.0 0.0 0.0 0.0 0.0 0.0 0.0 0.0 0.0 0.0 0.0 0.0 0.0 0.0 0.0 0.0 0.0 0.0 0.0 0.0 0.0 0.0 0.0 0.0 0.0 0.0 0.0 0.0 0.0 0.0 0.0 0.0 0.0 0.0 0.0 0.0 0.0 0.0 0.0 0.0 0.0 0.0 0.0 0.0 0.0 0.0 0.0 0.0 0.0 0.0 0.0 0.0 0.0 0.0 0.0 0.0 0.0 0.0 0.0 0.0 0.0 0.0 0.0 0.0 0.0 0.0 0.0 0.0 0.0 0.0 0.0 0.0 0.0 0.0 0.0 0.0 0.0 0.0 0.0 0.0 0.0 0.0 0.0 0.0 0.0 0.0 0.0 0.0 0.0 0.0 0.0 0.0 0.0 0.0 0.0 0.0 0.0 0.0 0.0 0.0 0.0 0.0 0.0 0.0 0.0 0.0 0.0 0.0 0.0 0.0 0.0 0.0 0.0 0.0 0.0 0.0 0.0 0.0 0.0 0.0 0.0 0.0 0.0 0.0 0.0 0.0 0.0 0.0 0.0 0.0 0.0 0.0 0.0 0.0 0.0 0.0 0.0 0.0 0.0 0.0 0.0 0.0 0.0 0.0 0.0 0.0 0.0 0.0 0.0 0.0 0.0 0.0 0.0 0.0 0.0 0.0 0.0 0.0 0.0 0.0 0.0 0.0 0.0 0.0 0.0 0.0 0.0 0.0 0.0 0.0 0.0 0.0 0.0 0.0 0.0 0.0 0.0 0.0 0.0 0.0 0.0 0.0 0.0 0.0 0.0 0.0 0.0 0.0 0.0 0.0 0.0 0.0 0.0 0.0 0.0 0.0 0.0 0.0 0.0 0.0 0.0 0.0 0.0 0.0 0.0 0.0 0.0 0.0 0.0 0.0 0.0 0.0 0.0 0.0 0.0 0.0 0.0 0.0 0.0 0.0 0.0 0.0 0.0 0.0 0.0 0.0 0.0 0.0 0.0 0.0 0.0 0.0 0.0 0.0 0.0 0.0 0.0 0.0 0.0 0.0 0.0 0.0 0.0 0.0 0.0 0.0 0.0 0.0 0.0 0.0 0.0 0.0 0.0 0.0 0.0 0.0 0.0 0.0 0.0 0.0 0.0 0.0 0.0 0.0 0.0 0.0 0.0 0.0 0.0 0.0 0.0 0.0 0.0 0.0 0.0 0.0 0.0 0.0 0.0 0.0 0.0 0.0 0.0 0.0 0.0 0.0 0.0 0.0 0.0 0.0 0.0 0.0 0.0 0.0 0.0 0.0 0.0 0.0 0.0 0.0 0.0 0.0 0.0 0.0 0.0 0.0 0.0 0.0 0.0 0.0 0.0 0.0 0.0 0.0 0.0 0.0 0.0 0.0 0.0 0.0 0.0 0.0 0.0 0.0 0.0 0.0 0.0 0.0 0.0 0.0 0.0 0.0 0.0 0.0 0.0 0.0 0.0 0.0 0.0 0.0 0.0 0.0 0.0 0.0 0.0 0.0 0.0 0.0 0.0 0.0 0.0 0.0 0.0 0.0 0.0 0.0 0.0 0.0 0.0 0.0 0.0 0.0 0.0 0.0 0.0 0.0 0.0 0.0 0.0 0.0 0.0 0.0 0.0 0.0 0.0 0.0 0.0 0.0 0.0 0.0 0.0 0.0 0.0 0.0 0.0 0.0 0.0 0.0 0.0 0.0 0.0 0.0 0.0 0.0 0.0 0.0 0.0 0.0 0.0 0.0 0.0 0.0 0.0 0.0 0.0 0.0 0.0 0.0 0.0 0.0 0.0 0.0 0.0 0.0 0.0 0.0 0.0 0.0 0.0 0.0 0.0 0.0 0.0 0.0 0.0 0.0 0.0 0.0 0.0 0.0 0.0 0.0 0.0 0.0 0.0 0.0 0.0 0.0 0.0 0.0 0.0 0.0 0.0 0.0 0.0 0.0 0.0 0.0 0.0 0.0 0.0 0.0 0.0 0.0 0.0 0.0 0.0 0.0 0.0 0.0 0.0 0.0 0.0 0.0 0.0 0.0 0.0 0.0 0.0 0.0 0.0 0.0 0.0 0.0 0.0 0.0 0.0 0.0 0.0 0.0 0.0 0.0 0.0 0.0 0.0 0.0 0.0 0.0 0.0 0.0 0.0 0.0 0.0 0.0 0.0 0.0 0.0 0.0 0.0 0.0 0.0 0.0 0.0 0.0 0.0 0.0 0.0 0.0 0.0 0.0 0.0 0.0 0.0 0.0 0.0 0.0 0.0 0.0 0.0 0.0 0.0 0.0 0.0 0.0 0.0 0.0 0.0 0.0 0.0 0.0 0.0 0.0 0.0 0.0 0.0 0.0 0.0 0.0 0.0 0.0 0.0 0.0 0.0 0.0 0.0 0.0 0.0 0.0 0.0 0.0 0.0 0.0 0.0 0.0 0.0 0.0 0.0 0.0 0.0 0.0 0.0 0.0 0.0 0.0 0.0 0.0 0.0 0.0 0.0 0.0 0.0 0.0 0.0 0.0 0.0 0.0 0.0 0.0 0.0 0.0 0.0 0.0 0.0 0.0 0.0 0.0 0.0 0.0 0.0 0.0 0.0 0.0 0.0 0.0 0.0 0.0 0.0 0.0 0.0 0.0 0.0 0.0 0.0 0.0 0.0 0.0 0.0 0.0 0.0 0.0 0.0 0.0 0.0 0.0 0.0 0.0 0.0 0.0 0.0 0.0 0.0 0.0 0.0 0.0 0.0 0.0 0.0 0.0 0.0 0.0 0.0 0.0 0.0 0.0 0.0 0.0 0.0 0.0 0.0 0.0 0.0 0.0 0.0 0.0 0.0 0.0 0.0 0.0 0.0 0.0 0.0 0.0 0.0 0.0 0.0 0.0 0.0 0.0 0.0 0.0 0.0 0.0 0.0 0.0 0.0 0.0 0.0 0.0 0.0 0.0 0.0 0.0 0.0 0.0 0.0 0.0 0.0 0.0 0.0 0.0 0.0 0.0 0.0 0.0 0.0 0.0 0.0 0.0 0.0 0.0 0.0 0.0 0.0 0.0 0.0 0.0 0.0 0.0 0.0 0.0 0.0 0.0 0.0 0.0 0.0 0.0 0.0 0.0 0.0 0.0 0.0 0.0 0.0 0.0 0.0 0.0 0.0 0.0 0.0 0.0 0.0 0.0 0.0 0.0 0.0 0.0 0.0 0.0 0.0 0.0 0.0 0.0 0.0 0.0 0.0 0.0 0.0 0.0 0.0 0.0 0.0 0.0 0.0 0.0 0.0 0.0 0.0 0.0 0.0 0.0 0.0 0.0 0.0 0.0 0.0 0.0 0.0 0.0 0.0 0.0 0.0 0.0 0.0 0.0 0.0 0.0 0.0 0.0 0.0 0.0 0.0 0.0 0.0 0.0 0.0 0.0 0.0 0.0 0.0 0.0 0.0 0.0 0.0 0.0 0.0 0.0 0.0 0.0 0.0 0.0 0.0 0.0 0.0 0.0 0.0 0.0 0.0 0.0 0.0 0.0 0.0 0.0 0.0 0.0 0.0 0.0 0.0 0.0 0.0 0.0 0.0 0.0 0.0 0.0 0.0 0.0 0.0 0.0 0.0 0.0 0.0 0.0 0.0 0.0 0.0 0.0 0.0 0.0 0.0 0.0 0.0 0.0 0.0 0.0 0.0 0.0 0.0 0.0 0.0 0.0 0.0 0.0 0.0 0.0 0.0 0.0 0.0 0.0 0.0 0.0 0.0 0.0 0.0 0.0 0.0 0.0 0.0 0.0 0.0 0.0 0.0 0.0 0.0 0.0 0.0 0.0 0.0 0.0 0.0 0.0 0.0 0.0 0.0 0.0 0.0 0.0 0.0 0.0 0.0 0.0 0.0 0.0 0.0 0.0 0.0 0.0 0.0 0.0 0.0 0.0 0.0 0.0 0.0 0.0 0.0 0.0 0.0 0.0 0.0 0.0 0.0 0.0 0.0 0.0 0.0 0.0 0.0 0.0 0.0 0.0 0.0 0.0 0.0 0.0 0.0 0.0 0.0 0.0 0.0 0.0 0.0 0.0 0.0 0.0 0.0 0.0 0.0 0.0 0.0 0.0 0.0 0.0 0.0 0.0 0.0 0.0 0.0 0.0 0.0 0.0 0.0 0.0 0.0 0.0 0.0 0.0 0.0 0.0 0.0 0.0 0.0 0.0 0.0 0.0 0.0 0.0 0.0 0.0 0.0 0.0 0.0 0.0 0.0 0.0 0.0 0.0 0.0 0.0 0.0 0.0 0.0 0.0 0.0 0.0 0.0 0.0 0.0 0.0 0.0 0.0 0.0 0.0 0.0 0.0 0.0 0.0 0.0 0.0 0.0 0.0 0.0 0.0 0.0 0.0 0.0 0.0 0.0 0.0 0.0 0.0 0.0 0.0 0.0 0.0 0.0 0.0 0.0 0.0 0.0 0.0 0.0 0.0 0.0 0.0 0.0 0.0 0.0 0.0 0.0 0.0 0.0 0.0 0.0 0.0 0.0 0.0 0.0 0.0 0.0 0.0 0.0 0.0 0.0 0.0 0.0 0.0 0.0 0.0 0.0 0.0 0.0 0.0 0.0 0.0 0.0 0.0 0.0 0.0 0.0 0.0 0.0 0.0 0.0 0.0 0.0 0.0 0.0 0.0 0.0 0.0 0.0 0.0 0.0 0.0 0.0 0.0 0.0 0.0 0.0 0.0 0.0 0.0 0.0 0.0 0.0 0.0 0.0 0.0 0.0 0.0 0.0 0.0 0.0 0.0 0.0 0.0 0.0 0.0 0.0 0.0 0.0 0.0 0.0 0.0 0.0 0.0 0.0 0.0 0.0 0.0 0.0 0.0 0.0 0.0 0.0 0.0 0.0 0.0 0.0 0.0 0.0 0.0 0.0 0.0 0.0 0.0 0.0 0.0 0.0 0.0 0.0 0.0 0.0 0.0 0.0 0.0 0.0 0.0 0.0 0.0 0.0 0.0 0.0 0.0 0.0 0.0 0.0 0.0 0.0 0.0 0.0 0.0 0.0 0.0 0.0 0.0 0.0 0.0 0.0 0.0 0.0 0.0 0.0 0.0 0.0 0.0 0.0 0.0 0.0 0.0 0.0 0.0 0.0 0.0 0.0 0.0 0.0 0.0 0.0 0.0 0.0 0.0 0.0 0.0 0.0 0.0 0.0 0.0 0.0 0.0 0.0 0.0 0.0 0.0 0.0 0.0 0.0 0.0 0.0 0.0 0.0 0.0 0.0 0.0 0.0 0.0 0.0 0.0 0.0 0.0 0.0 0.0 0.0 0.0 0.0 0.0 0.0 0.0 0.0 0.0 0.0 0.0 0.0 0.0 0.0 0.0 0.0 0.0 0.0 0.0 0.0 0.0 0.0 0.0 0.0 0.0 0.0 0.0 0.0 0.0 0.0 0.0 0.0 0.0 0.0 0.0 0.0 0.0 0.0 0.0 0.0 0.0 0.0 0.0 0.0
        </DataArray>
        <DataArray type="Float64" Name="stress_yy" NumberOfComponents="1" format="ascii">
 0.0 0.0 0.0 0.0 -3.2229039E+002 -3.4018702E+004 -3.2896784E+003 -2.0399005E+003 0.0 0.0 0.0 0.0 0.0 0.0 0.0 0.0 0.0 0.0 0.0 0.0 0.0 -1.3538469E+002 0.0 0.0 0.0 0.0 0.0 0.0 0.0 0.0 0.0 0.0 0.0 0.0 0.0 0.0 0.0 0.0 0.0 0.0 0.0 0.0 0.0 0.0 0.0 0.0 0.0 0.0 0.0 0.0 -2.3046968E+003 -3.8463838E+002  6.5520236E+002  9.0822539E+002  1.1813311E+003  1.4810751E+003  2.2773385E+003  1.9565434E+003  2.1333446E+003  2.2043542E+003  2.3502535E+003  2.4687419E+003  2.3110037E+003  2.0212097E+003  9.2637330E+002 -5.4787132E+002  4.3372355E+003  1.2490152E+003  5.2691901E+002  1.4234437E+002  3.4414787E+001  3.6874047E+002 -7.6458379E+001 -1.1001846E+003 -8.6262627E+002 -1.9277118E+002 -5.2891713E+002 -1.4055464E+003 -2.3381385E+003 -3.2865941E+003 -3.8750221E+003 -4.2030067E+003 -4.4855004E+003 -4.5009087E+003 -4.4646035E+003 -4.3814453E+003 -4.2035208E+003 -3.9480151E+003 -3.6095448E+003 -3.8520681E+003 -3.5453929E+003 -2.6570033E+003 -2.7088954E+003 -3.8345314E+003 -4.6205729E+003 -5.0733372E+003 -5.1189325E+003 -5.1588883E+003 -5.3069576E+003 -5.5385074E+003 -5.4739091E+003 -5.5001244E+003 -5.5323700E+003 -5.6049081E+003 -5.5468240E+003 -5.8189436E+003 -5.9155124E+003 -6.0860497E+003 -6.0983099E+003 -6.1860479E+003 -6.1892228E+003 -6.3176340E+003 -6.2951344E+003 -6.3963126E+003 -6.2993739E+003 -6.3506793E+003 -6.1519038E+003 -6.0925576E+003 -5.8224028E+003 -5.3299054E+003 -4.1657881E+003 -3.0810643E+003 -2.7254662E+003 -2.5189291E+003 -2.2876665E+003 -3.1153559E+003 -3.9529449E+003 -4.3567359E+003 -4.8444242E+003 -5.4381872E+003 -5.5232747E+003 -4.8924609E+003 -5.0843623E+003 -6.3508911E+003 -7.0325511E+003 -7.3375236E+003 -7.4114474E+003 -7.5522220E+003 -7.6200147E+003 -7.5672853E+003 -7.5245460E+003 -7.1961422E+003 -6.7437120E+003 -6.6586888E+003 -6.7905054E+003 -7.3029838E+003 -7.5769502E+003 -7.4670835E+003 -6.7283942E+003 0.0 0.0 0.0 0.0 0.0 0.0 0.0 0.0 0.0 0.0 0.0 0.0 0.0 0.0 0.0 0.0 0.0 0.0 0.0 0.0 0.0 0.0 0.0 0.0 0.0 0.0 0.0 0.0 0.0 0.0 0.0 0.0 0.0 0.0 0.0 0.0 0.0 0.0 0.0 0.0 0.0 0.0 0.0 0.0 0.0 0.0 0.0 0.0 0.0 0.0 0.0 0.0 0.0 0.0 0.0 0.0 0.0 0.0 0.0 0.0 0.0 0.0 0.0 0.0 0.0 0.0 0.0 0.0 0.0 0.0 0.0 0.0 0.0 0.0 0.0 0.0 0.0 0.0 0.0 0.0 0.0 0.0 0.0 0.0 0.0 0.0 0.0 0.0 0.0 0.0 0.0 0.0 0.0 0.0 0.0 0.0 0.0 0.0 0.0 0.0 0.0 0.0 0.0 0.0 0.0 0.0 0.0 0.0 0.0 0.0 0.0 0.0 0.0 0.0 0.0 0.0 0.0 0.0 0.0 0.0 0.0 0.0 0.0 0.0 0.0 0.0 0.0 0.0 0.0 0.0 0.0 0.0 0.0 0.0 0.0 0.0 0.0 0.0 0.0 0.0 0.0 0.0 0.0 0.0 0.0 0.0 0.0 0.0 0.0 0.0 0.0 0.0 0.0 0.0 0.0 0.0 0.0 0.0 0.0 0.0 0.0 0.0 0.0 0.0 0.0 0.0 0.0 0.0 0.0 0.0 0.0 0.0 0.0 0.0 0.0 0.0 0.0 0.0 0.0 0.0 0.0 0.0 0.0 0.0 0.0 0.0 0.0 0.0 0.0 0.0 0.0 0.0 0.0 0.0 0.0 0.0 0.0 0.0 0.0 0.0 0.0 0.0 0.0 0.0 0.0 0.0 0.0 0.0 0.0 0.0 0.0 0.0 0.0 0.0 0.0 0.0 0.0 0.0 0.0 0.0 0.0 0.0 0.0 0.0 0.0 0.0 0.0 0.0 0.0 0.0 0.0 0.0 0.0 0.0 0.0 0.0 0.0 0.0 0.0 0.0 0.0 0.0 0.0 0.0 0.0 0.0 0.0 0.0 0.0 0.0 0.0 0.0 0.0 0.0 0.0 0.0 0.0 0.0 0.0 0.0 0.0 0.0 0.0 0.0 0.0 0.0 0.0 0.0 0.0 0.0 0.0 0.0 0.0 0.0 0.0 0.0 0.0 0.0 0.0 0.0 0.0 0.0 0.0 0.0 0.0 0.0 0.0 0.0 0.0 0.0 0.0 0.0 0.0 0.0 0.0 0.0 0.0 -3.3631039E+002 -9.5267738E+001 -1.2175482E+002 -8.5987171E+001 -7.1698200E+001 -6.1041074E+001 -6.5278279E+001 -6.5766470E+001 -5.7505092E+001 0.0 0.0 0.0 0.0 0.0 0.0 0.0 0.0 0.0 0.0 0.0 0.0 0.0 0.0 0.0 0.0 0.0 0.0 0.0 0.0 0.0 0.0 0.0 0.0 0.0 0.0 0.0 0.0 0.0 0.0 0.0 0.0 0.0 0.0 0.0 0.0 0.0 0.0 0.0 0.0 0.0 0.0 0.0 0.0 0.0 0.0 0.0 0.0 0.0  3.8509238E+003 -2.1334864E+002 -5.5909571E+001 -3.0857385E+002 -5.1739444E+002 -6.9034192E+002 -9.8778598E+002 -1.2260362E+003 -1.2697317E+003 -1.4690554E+003 -1.5312811E+003 -1.4722482E+003 -1.0833415E+003 -2.6079985E+002  9.5059873E+002  2.3950941E+003  3.7793688E+003  4.8105154E+003  5.4659082E+003  5.7245499E+003  5.9006955E+003  5.8133774E+003  5.6050933E+003  5.4133215E+003  5.2471411E+003  5.5587520E+003  5.8945678E+003  5.9110747E+003  5.9130238E+003  5.7241833E+003  5.5073872E+003  5.3142481E+003  5.1689378E+003  4.8938893E+003  4.6226499E+003  4.2860538E+003  4.0592636E+003  3.6113970E+003  3.1784778E+003  2.9207110E+003  2.7852904E+003  2.5553770E+003  2.5983673E+003  2.7620211E+003  3.3014098E+003  3.7122506E+003  4.0492667E+003  4.1101149E+003  3.9999917E+003  4.4693353E+003  4.8592072E+003  5.0197561E+003  5.0454669E+003  5.0281338E+003  5.0742949E+003  4.9951223E+003  4.9382916E+003  4.8752285E+003  4.7917415E+003  4.7134402E+003  4.7128131E+003  4.6117766E+003  4.5564848E+003  4.5172533E+003  4.4587373E+003  4.3937128E+003  4.3902447E+003  4.2603653E+003  4.1163198E+003  3.9266027E+003  3.6845719E+003  3.4845283E+003  3.4287643E+003  3.2763484E+003  3.1214029E+003  3.0223466E+003  2.9299718E+003  2.8244621E+003  2.9549533E+003  3.1780886E+003  3.3624200E+003  3.4376473E+003  3.3436675E+003  3.1029574E+003  2.7402880E+003  2.1487780E+003  1.6259087E+003  1.2528013E+003  9.9439450E+002  9.5219001E+002  8.1722331E+002  7.0931553E+002  6.4171153E+002  5.6435870E+002  4.0700246E+002  2.1920327E+002  6.1567404E+001 -1.6899023E+002 -3.1778774E+002 0.0 0.0 0.0 0.0 0.0 0.0 0.0 0.0 0.0 0.0 0.0 0.0 0.0 0.0 0.0 0.0 0.0 0.0 0.0 0.0 0.0 0.0 0.0 0.0 0.0 0.0 0.0 0.0 0.0 0.0 0.0 0.0 0.0 0.0 0.0 0.0 0.0 0.0 0.0 0.0 0.0 0.0 0.0 0.0 0.0 0.0 0.0 0.0 0.0 0.0 0.0 0.0 0.0 0.0 0.0 0.0 0.0 0.0 0.0 0.0 0.0 0.0 0.0 0.0 0.0 0.0 0.0 0.0 0.0 0.0 0.0 0.0 0.0 0.0 0.0 0.0 0.0 0.0 0.0 0.0 0.0 0.0 0.0 0.0 0.0 0.0 0.0 0.0 0.0 0.0 0.0 0.0 0.0 0.0 0.0 0.0 0.0 0.0 0.0 0.0 0.0 0.0 0.0 0.0 0.0 0.0 0.0 0.0 0.0 0.0 0.0 0.0 0.0 0.0 0.0 0.0 0.0 0.0 0.0 0.0 0.0 0.0 0.0 0.0 0.0 0.0 0.0 0.0 0.0 0.0 0.0 0.0 0.0 0.0 0.0 0.0 0.0 0.0 0.0 0.0 0.0 0.0 0.0 0.0 0.0 0.0 0.0 0.0 0.0 0.0 0.0 0.0 0.0 0.0 0.0 0.0 0.0 0.0 0.0 0.0 0.0 0.0 0.0 0.0 0.0 0.0 0.0 0.0 0.0 0.0 0.0 0.0 0.0 0.0 0.0 0.0 0.0 0.0 0.0 0.0 0.0 0.0 0.0 0.0 0.0 0.0 0.0 0.0 0.0 0.0 0.0 0.0 0.0 0.0 0.0 0.0 0.0 0.0 0.0 0.0 0.0 0.0 0.0 0.0 0.0 0.0 0.0 0.0 0.0 0.0 0.0 0.0 0.0 0.0 0.0 0.0 0.0 0.0 0.0 0.0 0.0 0.0 0.0 0.0 0.0 0.0 0.0 0.0 0.0 0.0 0.0 0.0 0.0 0.0 0.0 0.0 0.0 0.0 0.0 0.0 0.0 0.0 0.0 0.0 0.0 0.0 0.0 0.0 0.0 0.0 0.0 0.0 0.0 0.0 0.0 0.0 0.0 0.0 0.0 0.0 0.0 0.0 0.0 0.0 0.0 0.0 0.0 0.0 0.0 0.0 0.0 0.0 0.0 0.0 0.0 0.0 0.0 0.0 0.0 0.0 0.0 0.0 0.0 0.0 0.0 0.0 0.0 0.0 0.0 0.0 0.0 0.0 0.0 0.0 0.0 0.0 0.0 0.0 0.0 0.0 0.0 0.0 0.0 0.0 0.0 0.0 0.0 0.0 0.0 0.0 0.0 0.0 0.0 0.0 0.0 0.0 0.0 0.0 0.0 0.0 0.0 0.0 0.0 0.0 0.0 0.0 0.0 0.0 0.0 0.0 0.0 0.0 0.0 0.0 0.0 0.0 0.0 0.0 0.0 0.0 0.0 0.0 0.0 0.0 0.0 0.0 0.0 0.0 0.0 0.0 0.0 0.0 0.0 0.0 0.0 0.0 0.0 0.0 0.0 0.0 0.0 0.0 0.0 0.0 0.0 0.0 0.0 0.0 0.0 0.0 0.0 0.0 0.0 0.0 0.0 0.0 0.0 0.0 0.0 0.0 0.0 0.0 0.0 0.0 0.0 0.0 0.0 0.0 0.0 0.0 0.0 0.0 0.0 0.0 0.0 0.0 0.0 0.0 0.0 0.0 0.0 0.0 0.0 0.0 0.0 0.0 0.0 0.0 0.0 0.0 0.0 0.0 0.0 0.0 0.0 0.0 0.0 0.0 0.0 0.0 0.0 0.0 0.0 0.0 0.0 0.0 0.0 0.0 0.0 0.0 0.0 0.0 0.0 0.0 0.0 0.0 0.0 0.0 0.0 0.0 0.0 0.0 0.0 0.0 0.0 0.0 0.0 0.0 0.0 0.0 0.0 0.0 0.0 0.0 0.0 0.0 0.0 0.0 0.0 0.0 0.0 0.0 0.0 0.0 0.0 0.0 0.0 0.0 0.0 0.0 0.0 0.0 0.0 0.0 0.0 0.0 0.0 0.0 0.0 0.0 0.0 0.0 0.0 0.0 0.0 0.0 0.0 0.0 0.0 0.0 0.0 0.0 0.0 0.0 0.0 0.0 0.0 0.0 0.0 0.0 0.0 0.0 0.0 0.0 0.0 0.0 0.0 0.0 0.0 0.0 0.0 0.0 0.0 0.0 0.0 0.0 0.0 0.0 0.0 0.0 0.0 0.0 0.0 0.0 0.0 0.0 0.0 0.0 0.0 0.0 0.0 0.0 0.0 0.0 0.0 0.0 0.0 0.0 0.0 0.0 0.0 0.0 0.0 0.0 0.0 0.0 0.0 0.0 0.0 0.0 0.0 0.0 0.0 0.0 0.0 0.0 0.0 0.0 0.0 0.0 0.0 0.0 0.0 0.0 0.0 0.0 0.0 0.0 0.0 0.0 0.0 0.0 0.0 0.0 0.0 0.0 0.0 0.0 0.0 0.0 0.0 0.0 0.0 0.0 0.0 0.0 0.0 0.0 0.0 0.0 0.0 0.0 0.0 0.0 0.0 0.0 0.0 0.0 0.0 0.0 0.0 0.0 0.0 0.0 0.0 0.0 0.0 0.0 0.0 0.0 0.0 0.0 0.0 0.0 0.0 0.0 0.0 0.0 0.0 0.0 0.0 0.0 0.0 0.0 0.0 0.0 0.0 0.0 0.0 0.0 0.0 0.0 0.0 0.0 0.0 0.0 0.0 0.0 0.0 0.0 0.0 0.0 0.0 0.0 0.0 0.0 0.0 0.0 0.0 0.0 0.0 0.0 0.0 0.0 0.0 0.0 0.0 0.0 0.0 0.0 0.0 0.0 0.0 0.0 0.0 0.0 0.0 0.0 0.0 0.0 0.0 0.0 0.0 0.0 0.0 0.0 0.0 0.0 0.0 0.0 0.0 0.0 0.0 0.0 0.0 0.0 0.0 0.0 0.0 0.0 0.0 0.0 0.0 0.0 0.0 0.0 0.0 0.0 0.0 0.0 0.0 0.0 0.0 0.0 0.0 0.0 0.0 0.0 0.0 0.0 0.0 0.0 0.0 0.0 0.0 0.0 0.0 0.0 0.0 0.0 0.0 0.0 0.0 0.0 0.0 0.0 0.0 0.0 0.0 0.0 0.0 0.0 0.0 0.0 0.0 0.0 0.0 0.0 0.0 0.0 0.0 0.0 0.0 0.0 0.0 0.0 0.0 0.0 0.0 0.0 0.0 0.0 0.0 0.0 0.0 0.0 0.0 0.0 0.0 0.0 0.0 0.0 0.0 0.0 0.0 0.0 0.0 0.0 0.0 0.0 0.0 0.0 0.0 0.0 0.0 0.0 0.0 0.0 0.0 0.0 0.0 0.0 0.0 0.0 0.0 0.0 0.0 0.0 0.0 0.0 0.0 0.0 0.0 0.0 0.0 0.0 0.0 0.0 0.0 0.0 0.0 0.0 0.0 0.0 0.0 0.0 0.0 0.0 0.0 0.0 0.0 0.0 0.0 0.0 0.0 0.0 0.0 0.0 0.0 0.0 0.0 0.0 0.0 0.0 0.0 0.0 0.0 0.0 0.0 0.0 0.0 0.0 0.0 0.0 0.0 0.0 0.0 0.0 0.0 0.0 0.0 0.0 0.0 0.0 0.0 0.0 0.0 0.0 0.0 0.0 0.0 0.0 0.0 0.0 0.0 0.0 0.0 0.0 0.0 0.0 0.0 0.0 0.0 0.0 0.0 0.0 0.0 0.0 0.0 0.0 0.0 0.0 0.0 0.0 0.0 0.0 0.0 0.0 0.0 0.0 0.0 0.0 0.0 0.0 0.0 0.0 0.0 0.0 0.0 0.0 0.0 0.0 0.0 0.0 0.0 0.0 0.0 0.0 0.0 0.0 0.0 0.0 0.0 0.0 0.0 0.0 0.0 0.0 0.0 0.0 0.0 0.0 0.0 0.0 0.0 0.0 0.0 0.0 0.0 0.0 0.0 0.0 0.0 0.0 0.0 0.0 0.0 0.0 0.0 0.0 0.0 0.0 0.0 0.0 0.0 0.0 0.0 0.0 0.0 0.0 0.0 0.0 0.0 0.0 0.0 0.0 0.0 0.0 0.0 0.0 0.0 0.0 0.0 0.0 0.0 0.0 0.0 0.0 0.0 0.0 0.0 0.0 0.0 0.0 0.0 0.0 0.0 0.0 0.0 0.0 0.0 0.0 0.0 0.0 0.0 0.0 0.0 0.0 0.0 0.0 0.0 0.0 0.0 0.0 0.0 0.0 0.0 0.0 0.0 0.0 0.0 0.0 0.0 0.0 0.0 0.0 0.0 0.0 0.0 0.0 0.0 0.0 0.0 0.0 0.0 0.0 0.0 0.0 0.0 0.0 0.0 0.0 0.0 0.0 0.0 0.0 0.0 0.0 0.0 0.0 0.0 0.0 0.0 0.0 0.0 0.0 0.0 0.0 0.0 0.0 0.0 0.0 0.0 0.0 0.0 0.0 0.0 0.0 0.0 0.0 0.0 0.0 0.0 0.0 0.0 0.0 0.0 0.0 0.0 0.0 0.0 0.0 0.0 0.0 0.0 0.0 0.0 0.0 0.0 0.0 0.0 0.0 0.0 0.0 0.0 0.0 0.0 0.0 0.0 0.0 0.0 0.0 0.0 0.0 0.0 0.0 0.0 0.0 0.0 0.0 0.0 0.0 0.0 0.0 0.0 0.0 0.0 0.0 0.0 0.0 0.0 0.0 0.0 0.0 0.0 0.0 0.0 0.0 0.0 0.0 0.0 0.0 0.0 0.0 0.0 0.0 0.0 0.0 0.0 0.0 0.0 0.0 0.0 0.0 0.0 0.0 0.0 0.0 0.0 0.0 0.0 0.0 0.0 0.0 0.0 0.0 0.0 0.0 0.0 0.0 0.0 0.0 0.0 0.0 0.0 0.0 0.0 0.0 0.0 0.0 0.0 0.0 0.0 0.0 0.0 0.0 0.0 0.0 0.0 0.0 0.0 0.0 0.0 0.0 0.0 0.0 0.0 0.0 0.0 0.0 0.0 0.0 0.0 0.0 0.0 0.0 0.0 0.0 0.0 0.0 0.0 0.0 0.0 0.0 0.0 0.0 0.0 0.0 0.0 0.0 0.0 0.0 0.0 0.0 0.0 0.0 0.0 0.0 0.0 0.0 0.0 0.0 0.0 0.0 0.0 0.0 0.0 0.0 0.0 0.0 0.0 0.0 0.0 0.0 0.0 0.0 0.0 0.0 0.0 0.0 0.0 0.0 0.0 0.0 0.0 0.0 0.0 0.0 0.0 0.0 0.0 0.0 0.0 0.0 0.0 0.0 0.0 0.0 0.0 0.0 0.0 0.0 0.0 0.0 0.0 0.0 0.0 0.0 0.0 0.0 0.0 0.0 0.0 0.0 0.0 0.0 0.0 0.0 0.0 0.0 0.0 0.0 0.0 0.0 0.0 0.0 0.0 0.0 0.0 0.0 0.0 0.0 0.0 0.0 0.0 0.0 0.0 0.0 0.0 0.0 0.0 0.0 0.0 0.0 0.0 0.0 0.0 0.0 0.0 0.0 0.0 0.0 0.0 0.0 0.0 0.0 0.0 0.0 0.0 0.0 0.0 0.0 0.0 0.0 0.0 0.0 0.0 0.0 0.0 0.0 0.0 0.0 0.0 0.0 0.0 0.0 0.0 0.0 0.0 0.0 0.0 0.0 0.0 0.0 0.0 0.0 0.0 0.0 0.0 0.0 0.0 0.0 0.0 0.0 0.0 0.0 0.0 0.0 0.0 0.0 0.0 0.0 0.0 0.0 0.0 0.0 0.0 0.0 0.0 0.0 0.0 0.0 0.0 0.0 0.0 0.0 0.0 0.0 0.0 0.0 0.0 0.0 0.0 0.0 0.0 0.0 0.0 0.0 0.0 0.0 0.0 0.0 0.0 0.0 0.0 0.0 0.0 0.0 0.0 0.0 0.0 0.0 0.0 0.0 0.0 0.0 0.0 0.0 0.0 0.0 0.0 0.0 0.0 0.0 0.0 0.0 0.0 0.0 0.0 0.0 0.0 0.0 0.0 0.0 0.0 0.0 0.0 0.0 0.0 0.0 0.0 0.0 0.0 0.0 0.0 0.0 0.0 0.0 0.0 0.0 0.0 0.0 0.0 0.0 0.0 0.0 0.0 0.0 0.0 0.0 0.0 0.0 0.0 0.0 0.0 0.0 0.0 0.0 0.0 0.0 0.0 0.0 0.0 0.0 -2.2614099E+002  6.1071985E+002  1.3237146E+001  8.4595934E+002 -1.3280782E+002 -3.5686718E+002 -7.0085810E+002 -3.0961418E+002 -1.2070070E+003 -2.0447258E+002 -2.6218146E+002 -8.2240003E+002 -9.3205121E+002 -1.0054887E+003 -1.0870331E+003 -1.2515324E+003 -9.7897551E+002 -1.4772572E+003 -1.3857153E+003 -1.1719839E+003 -1.4886707E+003 -1.6292897E+003 -1.3529133E+003 -1.6003872E+003 -1.7505970E+003 -1.4202809E+003 -1.6780273E+003 -1.8519746E+003  1.9556532E+002 -1.4540783E+003 -1.7698871E+003 -1.2994090E+003 -1.2010462E+003 -9.7969181E+002 -9.5518901E+002 -7.8167228E+002 -1.2450714E+003 -1.4916244E+003 -2.0298731E+003 -1.9782092E+003 -2.2380358E+003 -2.0142289E+003 -1.9668196E+003 -2.1743950E+003 -2.0866323E+003 -1.9057617E+003 -1.7312482E+002  5.3735054E+003 -8.3093525E+002  3.0619570E+002  9.4420247E+002  8.8951081E+002  1.9813236E+003  3.0770390E+003  3.4676165E+003  3.4145983E+003  3.0137062E+003  3.0655769E+003  3.2244496E+003  3.4833251E+003  3.8425992E+003  4.2653146E+003  4.4688272E+003  4.5065358E+003  4.6558422E+003  4.8004794E+003  4.8546329E+003  5.0531881E+003  5.1571748E+003  5.0837469E+003  4.9953693E+003  4.5653567E+003  4.1622462E+003  3.3129137E+003  2.7159139E+003  2.7445291E+003  3.4819766E+003  4.3248604E+003  4.8697358E+003  5.3062222E+003  5.6940972E+003  6.0493190E+003  6.0324952E+003  5.7621350E+003  5.7495378E+003  5.9180131E+003  3.1809092E+003  2.0522537E+002 -1.4567693E+003 -5.3540141E+001 -8.0557208E+001 -1.1047358E+003 -2.4414180E+002  8.6676321E+002  7.0710429E+002  6.6474201E+002  6.0029252E+002  3.4725889E+002  9.4904053E+001 -1.6894223E+002 -3.6147956E+002 -1.0818219E+002 -5.6160407E+002 -1.8677649E+002  3.3526433E+002  1.7311797E+002 -4.4602220E+002 -2.6252392E+002  4.4996531E+002  2.0554814E+002 -2.3569287E+002 -2.3357307E+002 -5.1717229E+001  5.1024965E+000 -3.3530868E+002  4.6668390E+002  2.6624138E+002 -5.5734164E+002  7.1524609E+002 -2.8258584E+002  4.8599323E+002 -1.2426037E+003  3.3253477E+003  2.4492236E+003  2.4873277E+003  6.6273170E+002 -1.4520744E+003 -7.0786932E+002 -2.3236060E+002  1.6237252E+003  1.7550966E+003  2.9909110E+003  3.0012565E+003  2.2229715E+003  2.1288440E+003  6.0638765E+002  4.7020215E+003  3.4884507E+003  3.3508310E+003  1.0251637E+003  4.4644269E+003  3.1253210E+003  3.1686662E+003  8.8223542E+002 -1.6173490E+003 -8.0313164E+002  5.4843897E+003  4.1270438E+003  4.4046964E+003  1.3406016E+003  5.1115361E+003  3.6457485E+003  2.7205337E+003  1.2629055E+003  1.4937694E+003 -8.3049824E+001  4.5689017E+003  3.2492666E+003  3.6029499E+003  2.5525395E+003  2.7834452E+003  7.6961629E+002  4.7874293E+003  3.3593942E+003  3.4328112E+003  9.2007182E+002  2.9523610E+003  2.9204842E+003  1.5202968E+003  5.0920762E+003  3.5652707E+003  3.5812580E+003  9.8684241E+002  5.1223689E+003  3.6677291E+003  4.9402366E+003  5.7383483E+003  4.1720748E+003  4.1144957E+003  1.0340909E+003  5.8414972E+003  4.3836083E+003  5.0553592E+003  4.7346934E+003  3.3867028E+003  4.3988433E+003  3.0926104E+003  4.5249956E+003  6.0847920E+003  4.4229124E+003  3.9735027E+003  2.7202012E+003  3.7506466E+003  2.2275950E+003  4.5617823E+003  4.0669038E+003  2.5970920E+003  2.0261263E+003  5.7854960E+003  4.1487918E+003  5.9219997E+003  4.4074086E+003  2.0425599E+002  3.0991240E+003  3.4830153E+003  5.9203758E+003  3.2060686E+003  2.2956883E+003  8.9047542E+002 -4.2703539E+001  3.5020359E+002 -8.7899636E+001  1.3085453E+003  3.3664128E+003  2.1790579E+003 -1.4571724E+003 -9.6371521E+002  9.5959125E+002 -1.8369310E+003  2.1395158E+003 -1.1832969E+003  7.4128170E+002 -1.4251749E+003  1.3166666E+003 -1.2344219E+003  1.4457114E+003 -9.0744861E+002  2.0108124E+002 -1.1317427E+003  1.2533103E+003 -1.0926791E+003  4.1601565E+002 -1.8913828E+003  2.3625902E+003 -2.3962857E+002 -2.8560246E+002 -5.3619484E+002 -1.6877060E+003  1.7406580E+003 -1.7667646E+003  1.8903664E+003 -1.5109069E+003  1.8565615E+003 -5.2120033E+002  8.7819852E+002 -1.9991021E+003  1.3216437E+003 -1.3211689E+003  1.5815619E+003 -1.4124524E+003  1.6838326E+003 -2.0488496E+003  2.1825056E+003 -1.4934244E+003  1.9096292E+003 -1.5432523E+003  1.6315436E+003 -1.4012915E+003  1.0783820E+003 -1.0206580E+003  1.3161339E+003 -1.8235590E+003  1.8682643E+003 -1.7952755E+003  1.3243476E+003 -2.0664613E+003  1.7274354E+003 -1.0053984E+003  1.2588353E+003 -1.0097858E+002 -2.6658163E+002 -1.5636820E+002  9.0480440E+002  7.9939193E+002  1.4735272E+003  1.6965408E+003  1.7829519E+003  1.9534652E+003  1.8591711E+003  1.6183040E+003  1.5677238E+003  1.2917307E+003  4.8739766E+002  5.6765244E+002 -4.4367392E+002  4.1405582E+001 -1.3419529E+003 -2.5666505E+002 -2.2112302E+002 -2.8425919E+002 -2.2472449E+002  1.6828639E+002 -4.0146444E+000  2.4999072E+002  8.8605127E+002  3.9161284E+002  5.6129090E+002 -1.8894305E+002 -4.2465381E+001 -7.2821324E+002  1.4965455E+001  8.7529663E+001 -3.6037815E+002 -5.1161015E+002  1.2406640E+002  2.4281726E+001  4.8814052E+002 -1.1254468E+003  1.9970084E+002  1.0852070E+003  4.3897351E+003  4.6708515E+003  4.4937594E+002 -2.7852380E+003  2.2661693E+003  3.4738690E+003 -2.5711474E+003  4.0289883E+003  3.9425951E+003  3.6217588E+003 -1.0713136E+003  4.0621217E+003  3.2724970E+003  4.8002601E+003  2.3590817E+003  1.3465141E+003  2.7378832E+003  1.2411368E+003 -2.2342745E+003  4.4948189E+003  4.9683660E+003 -2.3643607E+003  1.2342724E+003  5.0262414E+003  1.3999194E+003 -2.2487840E+003  4.0714726E+003  3.9965499E+003 -2.1148539E+003  3.5086209E+003  5.8149582E+002 -1.7754555E+003  2.8394865E+003  7.8626424E+002  6.2971028E+002 -1.5534270E+003  1.9097542E+003 -1.8017002E+003  2.2155623E+003 -2.5744651E+002  3.2160651E+003  1.1959276E+002  5.2062510E+002  4.1897446E+003  4.2450966E+003  4.1756394E+003  1.1304986E+003  3.9570818E+003  3.8406940E+003  3.6950656E+003  1.0109371E+003  3.5667384E+003  2.8508234E+003  2.6121578E+003  9.4892275E+002  2.6219613E+003  2.8125975E+003  2.3247000E+002  2.7198282E+003  1.9042897E+003  2.4200017E+002  8.0562937E+002  7.0982711E+002  3.6700877E+002  7.6602760E+002  1.4836569E+003  1.4815232E+003 -4.4970805E+001 -8.6440556E+002  1.4507542E+003  1.5201771E+002 -2.4238692E+002  1.1290981E+003  1.0830995E+003  1.0889215E+003  9.4167230E+002  7.8297782E+002  7.4981268E+002  1.0025110E+003 -3.2917742E+002  1.9693331E+002  1.6515294E+001  4.4532982E+002  1.0474894E+003 -4.8089381E+002 -2.3232705E+000 -2.8279338E+002  7.7598279E+002  7.5255374E+003  7.6168204E+002  1.1177436E+003 -7.6251561E+001  2.2791719E+000  1.2529636E+003  1.3673988E+003  1.4422251E+003  1.4126394E+003 -1.1380296E+003  6.6526296E+002  4.0780634E+002 0.0 0.0 0.0 0.0 0.0 0.0 0.0 0.0 0.0 0.0 0.0 0.0 0.0 0.0 0.0 0.0 0.0 0.0 0.0 0.0 0.0 0.0 0.0 0.0 0.0 0.0 0.0 0.0 0.0 0.0 0.0 0.0 0.0 0.0 0.0 0.0 0.0 0.0 0.0 0.0 0.0 0.0 0.0 0.0 0.0 0.0 0.0 0.0 0.0 0.0 0.0 0.0 0.0 0.0 0.0 0.0 0.0 0.0 0.0 0.0 0.0 0.0 0.0 0.0 0.0 0.0 0.0 0.0 0.0 0.0 0.0 0.0 0.0 0.0 0.0 0.0 0.0 0.0 0.0 0.0 0.0 0.0 0.0 0.0 0.0 0.0 0.0 0.0 0.0 0.0 0.0 0.0 0.0 0.0 0.0 0.0 0.0 0.0 0.0 0.0 0.0 0.0 0.0 0.0 0.0 0.0 0.0 0.0 0.0 0.0 0.0 0.0 0.0 0.0 0.0 0.0 0.0 0.0 0.0 0.0 0.0 0.0 0.0 0.0 0.0 0.0 0.0 0.0 0.0 0.0 0.0 0.0 0.0 0.0 0.0 0.0 0.0 0.0 0.0 0.0 0.0 0.0 0.0 0.0 0.0 0.0 0.0 0.0 0.0 0.0 0.0 0.0 0.0 0.0 0.0 0.0 0.0 0.0 0.0 0.0 0.0 0.0 0.0 0.0 0.0 0.0 0.0 0.0 0.0 0.0 0.0 0.0 0.0 0.0 0.0 0.0 0.0 0.0 0.0 0.0 0.0 0.0 0.0 0.0 0.0 0.0 0.0 0.0 0.0 0.0 0.0 0.0 0.0 0.0 0.0 0.0 0.0 0.0 0.0 0.0 0.0 0.0 0.0 0.0 0.0 0.0 0.0 0.0 0.0 0.0 0.0 0.0 0.0 0.0 0.0 0.0 0.0 0.0 0.0 0.0 0.0 0.0 0.0 0.0 0.0 0.0 0.0 0.0 0.0 0.0 0.0 0.0 0.0 0.0 0.0 0.0 0.0 0.0 0.0 0.0 0.0 0.0 0.0 0.0 0.0 0.0 0.0 0.0 0.0 0.0 0.0 0.0 0.0 0.0 0.0 0.0 0.0 0.0 0.0 0.0 0.0 0.0 0.0 0.0 0.0 0.0 0.0 0.0 0.0 0.0 0.0 0.0 0.0 0.0 0.0 0.0 0.0 0.0 0.0 0.0 0.0 0.0 0.0 0.0 0.0 0.0 0.0 0.0 0.0 0.0 0.0 0.0 0.0 0.0 0.0 0.0 0.0 0.0 0.0 0.0 0.0 0.0 0.0 0.0 0.0 0.0 0.0 0.0 0.0 0.0 0.0 0.0 0.0 0.0 0.0 0.0 0.0 0.0 0.0 0.0 0.0 0.0 0.0 0.0 0.0 0.0 0.0 0.0 0.0 0.0 0.0 0.0 0.0 0.0 0.0 0.0 0.0 0.0 0.0 0.0 0.0 0.0 0.0 0.0 0.0 0.0 0.0 0.0 0.0 0.0 0.0 0.0 0.0 0.0 0.0 0.0 0.0 0.0 0.0 0.0 0.0 0.0 0.0 0.0 0.0 0.0 0.0 0.0 0.0 0.0 0.0 0.0 0.0 0.0 0.0 0.0 0.0 0.0 0.0 0.0 0.0 0.0 0.0 0.0 0.0 0.0 0.0 0.0 0.0 0.0 0.0 0.0 0.0 0.0 0.0 0.0 0.0 0.0 0.0 0.0 0.0 0.0 0.0 0.0 0.0 0.0 0.0 0.0 0.0 0.0 0.0 0.0 0.0 0.0 0.0 0.0 0.0 0.0 0.0 0.0 0.0 0.0 0.0 0.0 0.0 0.0 0.0 0.0 0.0 0.0 0.0 0.0 0.0 0.0 0.0 0.0 0.0 0.0 0.0 0.0 0.0 0.0 0.0 0.0 0.0 0.0 0.0 0.0 0.0 0.0 0.0 0.0 0.0 0.0 0.0 0.0 0.0 0.0 0.0 0.0 0.0 0.0 0.0 0.0 0.0 0.0 0.0 0.0 0.0 0.0 0.0 0.0 0.0 0.0 0.0 0.0 0.0 0.0 0.0 0.0 0.0 0.0 0.0 0.0 0.0 0.0 0.0 0.0 0.0 0.0 0.0 0.0 0.0 0.0 0.0 0.0 0.0 0.0 0.0 0.0 0.0 0.0 0.0 0.0 0.0 0.0 0.0 0.0 0.0 0.0 0.0 0.0 0.0 0.0 0.0 0.0 0.0 0.0 0.0 0.0 0.0 0.0 0.0 0.0 0.0 0.0 0.0 0.0 0.0 0.0 0.0 0.0 0.0 0.0 0.0 0.0 0.0 0.0 0.0 0.0 0.0 0.0 0.0 0.0 0.0 0.0 0.0 0.0 0.0 0.0 0.0 0.0 0.0 0.0 0.0 0.0 0.0 0.0 0.0 0.0 0.0 0.0 0.0 0.0 0.0 0.0 0.0 0.0 0.0 0.0 0.0 0.0 0.0 0.0 0.0 0.0 0.0 0.0 0.0 0.0 0.0 0.0 0.0 0.0 0.0 0.0 0.0 0.0 0.0 0.0 0.0 0.0 0.0 0.0 0.0 0.0 0.0 0.0 0.0 0.0 0.0 0.0 0.0 0.0 0.0 0.0 0.0 0.0 0.0 0.0 0.0 0.0 0.0 0.0 0.0 0.0 0.0 0.0 0.0 0.0 0.0 0.0 0.0 0.0 0.0 0.0 0.0 0.0 0.0 0.0 0.0 0.0 0.0 0.0 0.0 0.0 0.0 0.0 0.0 0.0 0.0 0.0 0.0 0.0 0.0 0.0 0.0 0.0 0.0 0.0 0.0 0.0 0.0 0.0 0.0 0.0 0.0 0.0 0.0 0.0 0.0 0.0 0.0 0.0 0.0 0.0 0.0 0.0 0.0 0.0 0.0 0.0 0.0 0.0 0.0 0.0 0.0 0.0 0.0 0.0 0.0 0.0 0.0 0.0 0.0 0.0 0.0 0.0 0.0 0.0 0.0 0.0 0.0 0.0 0.0 0.0 0.0 0.0 0.0 0.0 0.0 0.0 0.0 0.0 0.0 0.0 0.0 0.0 0.0 0.0 0.0 0.0 0.0 0.0 0.0 0.0 0.0 0.0 0.0 0.0 0.0 0.0 0.0 0.0 0.0 0.0 0.0 0.0 0.0 0.0 0.0 0.0 0.0 0.0 0.0 0.0 0.0 0.0 0.0 0.0 0.0 0.0 0.0 0.0 0.0 0.0 0.0 0.0 0.0 0.0 0.0 0.0 0.0 0.0 0.0 0.0 0.0 0.0 0.0 0.0 0.0 0.0 0.0 0.0 0.0 0.0 0.0 0.0 0.0 0.0 0.0 0.0 0.0 0.0 0.0 0.0 0.0 0.0 0.0 0.0 0.0 0.0 0.0 0.0 0.0 0.0 0.0 0.0 0.0 0.0 0.0 0.0 0.0 0.0 0.0 0.0 0.0 0.0 0.0 0.0 0.0 0.0 0.0 0.0 0.0 0.0 0.0 0.0 0.0 0.0 0.0 0.0 0.0 0.0 0.0 0.0 0.0 0.0 0.0 0.0 0.0 0.0 0.0 0.0 0.0 0.0 0.0 0.0 0.0 0.0 0.0 0.0 0.0 0.0 0.0 0.0 0.0 0.0 0.0 0.0 0.0 0.0 0.0 0.0 0.0 0.0 0.0 0.0 0.0 0.0 0.0 0.0 0.0 0.0 0.0 0.0 0.0 0.0 0.0 0.0 0.0 0.0 0.0 0.0 0.0 0.0 0.0 0.0 0.0 0.0 0.0 0.0 0.0 0.0 0.0 0.0 0.0 0.0 0.0 0.0 0.0 0.0 0.0 0.0 0.0 0.0 0.0 0.0 0.0 0.0 0.0 0.0 0.0 0.0 0.0 0.0 0.0 0.0 0.0 0.0 0.0 0.0 0.0 0.0 0.0 0.0 0.0 0.0 0.0 0.0 0.0 0.0 0.0 0.0 0.0 0.0 0.0 0.0 0.0 0.0 0.0 0.0 0.0 0.0 0.0 0.0 0.0 0.0 0.0 0.0 0.0 0.0 0.0 0.0 0.0 0.0 0.0 0.0 0.0 0.0 0.0 0.0 0.0 0.0 0.0 0.0 0.0 0.0 0.0 0.0 0.0 0.0 0.0 0.0 0.0 0.0 0.0 0.0 0.0 0.0 0.0 0.0 0.0 0.0 0.0 0.0 0.0 0.0 0.0 0.0 0.0 0.0 0.0 0.0 0.0 0.0 0.0 0.0 0.0 0.0 0.0 0.0 0.0 0.0 0.0 0.0 0.0 0.0 0.0 0.0 0.0 0.0 0.0 0.0 0.0 0.0 0.0 0.0 0.0 0.0 0.0 0.0 0.0 0.0 0.0 0.0 0.0 0.0 0.0 0.0 0.0 0.0 0.0 0.0 0.0 0.0 0.0 0.0 0.0 0.0 0.0 0.0 0.0 0.0 0.0 0.0 0.0 0.0 0.0 0.0 0.0 0.0 0.0 0.0 0.0 0.0 0.0 0.0 0.0 0.0 0.0 0.0 0.0 0.0 0.0 0.0 0.0 0.0 0.0 0.0 0.0 0.0 0.0 0.0 0.0 0.0 0.0 0.0 0.0 0.0 0.0 0.0 0.0 0.0 0.0 0.0 0.0 0.0 0.0 0.0 0.0 0.0 0.0 0.0 0.0 0.0 0.0 0.0 0.0 0.0 0.0 0.0 0.0 0.0 0.0 0.0 0.0 0.0 0.0 0.0 0.0 0.0 0.0 0.0 0.0 0.0 0.0 0.0 0.0 0.0 0.0 0.0 0.0 0.0 0.0 0.0 0.0 0.0 0.0 0.0 0.0 0.0 0.0 0.0 0.0 0.0 0.0 0.0 0.0 0.0 0.0 0.0 0.0 0.0 0.0 0.0 0.0 0.0 0.0 0.0 0.0 0.0 0.0 0.0 0.0 0.0 0.0 0.0 0.0 0.0 0.0 0.0 0.0 0.0 0.0 0.0 0.0 0.0 0.0 0.0 0.0 0.0 0.0 0.0 0.0 0.0 0.0 0.0 0.0 0.0 0.0 0.0 0.0 0.0 0.0 0.0 0.0 0.0 0.0 0.0 0.0 0.0 0.0 0.0 0.0 0.0 0.0 0.0 0.0 0.0 0.0 0.0 0.0 0.0 0.0 0.0 0.0 0.0 0.0 0.0 0.0 0.0 0.0 0.0 0.0 0.0 0.0 0.0 0.0 0.0 0.0 0.0 0.0 0.0 0.0 0.0 0.0 0.0 0.0 0.0 0.0 0.0 0.0 0.0 0.0 0.0 0.0 0.0 0.0 0.0 0.0 0.0 0.0 0.0 0.0 0.0 0.0 0.0 0.0 0.0 0.0 0.0 0.0 0.0 0.0 0.0 0.0 0.0 0.0 0.0 0.0 0.0 0.0 0.0 0.0 0.0 0.0 0.0 0.0 0.0 0.0 0.0 0.0 0.0
        </DataArray>
        <DataArray type="Float64" Name="stress_zz" NumberOfComponents="1" format="ascii">
 0.0 0.0 0.0 0.0  8.1659594E+003  9.9504805E+003  4.7261884E+003  7.3263187E+004 0.0 0.0 0.0 0.0 0.0 0.0 0.0 0.0 0.0 0.0 0.0 0.0 0.0 -2.5144270E+004 0.0 0.0 0.0 0.0 0.0 0.0 0.0 0.0 0.0 0.0 0.0 0.0 0.0 0.0 0.0 0.0 0.0 0.0 0.0 0.0 0.0 0.0 0.0 0.0 0.0 0.0 0.0 0.0  5.6066336E+002  6.4723222E+002 -7.4353159E+002 -9.6281876E+002 -1.3173654E+003 -1.3269914E+003 -2.1631857E+003 -1.9929619E+003 -2.1491378E+003 -2.1530074E+003 -2.2738974E+003 -2.5589568E+003 -2.5876675E+003 -2.7987302E+003 -2.7908577E+003 -1.3197507E+003  3.6747362E+004  2.2117644E+004  1.5118454E+004  1.0925322E+004  8.2874764E+003  6.4886582E+003  5.5483276E+003  5.5083817E+003  5.7238005E+003  6.0230300E+003  5.9979017E+003  5.7493322E+003  5.4116218E+003  5.1049973E+003  4.8870067E+003  4.7733847E+003  4.7466222E+003  4.7954778E+003  4.8942531E+003  5.0090638E+003  5.1247127E+003  5.0949589E+003  4.9801676E+003  5.2634503E+003  5.4995708E+003  5.4909858E+003  5.5254872E+003  5.5545302E+003  5.6120964E+003  5.6102112E+003  5.5871283E+003  5.5663667E+003  5.6580234E+003  5.7766375E+003  5.8265274E+003  5.8237801E+003  5.8742189E+003  5.9612560E+003  5.9829064E+003  6.1143609E+003  6.1835894E+003  6.2708934E+003  6.3152383E+003  6.3745830E+003  6.4038365E+003  6.4808258E+003  6.5600175E+003  6.6468575E+003  6.6912980E+003  6.8316250E+003  6.9673811E+003  7.0783736E+003  7.2564606E+003  7.6602047E+003  8.1340990E+003  8.4834371E+003  8.5753952E+003  8.8032449E+003  9.1170701E+003  8.9667013E+003  8.7627097E+003  8.5224061E+003  8.4153962E+003  8.1787269E+003  8.0346612E+003  7.8217849E+003  7.7151672E+003  7.8580691E+003  7.8053911E+003  7.8182195E+003  7.8505371E+003  7.8165949E+003  8.0025196E+003  8.1372437E+003  8.3351657E+003  8.3474985E+003  8.3350493E+003  8.6995930E+003  8.9677586E+003  8.9815456E+003  8.9776128E+003  9.0904144E+003  8.4065447E+003 0.0 0.0 0.0 0.0 0.0 0.0 0.0 0.0 0.0 0.0 0.0 0.0 0.0 0.0 0.0 0.0 0.0 0.0 0.0 0.0 0.0 0.0 0.0 0.0 0.0 0.0 0.0 0.0 0.0 0.0 0.0 0.0 0.0 0.0 0.0 0.0 0.0 0.0 0.0 0.0 0.0 0.0 0.0 0.0 0.0 0.0 0.0 0.0 0.0 0.0 0.0 0.0 0.0 0.0 0.0 0.0 0.0 0.0 0.0 0.0 0.0 0.0 0.0 0.0 0.0 0.0 0.0 0.0 0.0 0.0 0.0 0.0 0.0 0.0 0.0 0.0 0.0 0.0 0.0 0.0 0.0 0.0 0.0 0.0 0.0 0.0 0.0 0.0 0.0 0.0 0.0 0.0 0.0 0.0 0.0 0.0 0.0 0.0 0.0 0.0 0.0 0.0 0.0 0.0 0.0 0.0 0.0 0.0 0.0 0.0 0.0 0.0 0.0 0.0 0.0 0.0 0.0 0.0 0.0 0.0 0.0 0.0 0.0 0.0 0.0 0.0 0.0 0.0 0.0 0.0 0.0 0.0 0.0 0.0 0.0 0.0 0.0 0.0 0.0 0.0 0.0 0.0 0.0 0.0 0.0 0.0 0.0 0.0 0.0 0.0 0.0 0.0 0.0 0.0 0.0 0.0 0.0 0.0 0.0 0.0 0.0 0.0 0.0 0.0 0.0 0.0 0.0 0.0 0.0 0.0 0.0 0.0 0.0 0.0 0.0 0.0 0.0 0.0 0.0 0.0 0.0 0.0 0.0 0.0 0.0 0.0 0.0 0.0 0.0 0.0 0.0 0.0 0.0 0.0 0.0 0.0 0.0 0.0 0.0 0.0 0.0 0.0 0.0 0.0 0.0 0.0 0.0 0.0 0.0 0.0 0.0 0.0 0.0 0.0 0.0 0.0 0.0 0.0 0.0 0.0 0.0 0.0 0.0 0.0 0.0 0.0 0.0 0.0 0.0 0.0 0.0 0.0 0.0 0.0 0.0 0.0 0.0 0.0 0.0 0.0 0.0 0.0 0.0 0.0 0.0 0.0 0.0 0.0 0.0 0.0 0.0 0.0 0.0 0.0 0.0 0.0 0.0 0.0 0.0 0.0 0.0 0.0 0.0 0.0 0.0 0.0 0.0 0.0 0.0 0.0 0.0 0.0 0.0 0.0 0.0 0.0 0.0 0.0 0.0 0.0 0.0 0.0 0.0 0.0 0.0 0.0 0.0 0.0 0.0 0.0 0.0 0.0 0.0 0.0 0.0 0.0 0.0  4.0022285E+004  2.0832468E+004  7.7975430E+003 -1.9267201E+003 -9.5149067E+003 -1.5426627E+004 -1.9746987E+004 -2.2769727E+004 -2.4671569E+004 0.0 0.0 0.0 0.0 0.0 0.0 0.0 0.0 0.0 0.0 0.0 0.0 0.0 0.0 0.0 0.0 0.0 0.0 0.0 0.0 0.0 0.0 0.0 0.0 0.0 0.0 0.0 0.0 0.0 0.0 0.0 0.0 0.0 0.0 0.0 0.0 0.0 0.0 0.0 0.0 0.0 0.0 0.0 0.0 0.0 0.0 0.0 0.0 0.0  5.2155341E+002 -1.4791554E+002  4.0702937E+002  4.4652567E+002  7.6159594E+002  9.0496199E+002  9.6995817E+002  1.2427695E+003  1.2319797E+003  1.1976811E+003  1.1700626E+003  9.5673457E+002  5.1876473E+002 -6.2922365E+001 -8.1918479E+002 -1.6269764E+003 -2.4074247E+003 -3.1351068E+003 -3.6442414E+003 -4.1664443E+003 -4.4611879E+003 -4.4928432E+003 -4.3092998E+003 -4.4562109E+003 -4.7986620E+003 -4.4001877E+003 -4.0374810E+003 -4.0137878E+003 -3.9271331E+003 -3.8655811E+003 -3.7696715E+003 -3.8028387E+003 -3.8405605E+003 -3.8588036E+003 -3.6828163E+003 -3.7572827E+003 -3.8633901E+003 -4.0922274E+003 -4.2947126E+003 -4.5678648E+003 -4.5368639E+003 -4.3415349E+003 -4.3954392E+003 -4.7924593E+003 -4.1650757E+003 -3.6153489E+003 -3.3841483E+003 -3.6799520E+003 -4.2069209E+003 -3.7404324E+003 -3.4186687E+003 -3.3610392E+003 -3.3207932E+003 -3.3552884E+003 -3.3012520E+003 -3.3232943E+003 -3.2346714E+003 -3.1904023E+003 -3.1384015E+003 -3.1536217E+003 -3.0957863E+003 -3.1062931E+003 -3.0160126E+003 -2.9727803E+003 -2.9183786E+003 -2.9210236E+003 -2.8555240E+003 -2.8413560E+003 -2.7176508E+003 -2.6551613E+003 -2.6015796E+003 -2.6745798E+003 -2.7300919E+003 -2.7317815E+003 -2.5410729E+003 -2.4606823E+003 -2.5675577E+003 -3.0097179E+003 -3.0068550E+003 -2.6169579E+003 -2.3782243E+003 -2.3062219E+003 -2.2250736E+003 -2.2063544E+003 -2.1785593E+003 -2.3763826E+003 -2.8451494E+003 -3.3507088E+003 -3.3908629E+003 -3.0853926E+003 -2.5818836E+003 -2.2822830E+003 -2.6172508E+003 -3.7100476E+003 -5.3748318E+003 -7.6387881E+003 -1.0627926E+004 -1.4564793E+004 -1.9402354E+004 0.0 0.0 0.0 0.0 0.0 0.0 0.0 0.0 0.0 0.0 0.0 0.0 0.0 0.0 0.0 0.0 0.0 0.0 0.0 0.0 0.0 0.0 0.0 0.0 0.0 0.0 0.0 0.0 0.0 0.0 0.0 0.0 0.0 0.0 0.0 0.0 0.0 0.0 0.0 0.0 0.0 0.0 0.0 0.0 0.0 0.0 0.0 0.0 0.0 0.0 0.0 0.0 0.0 0.0 0.0 0.0 0.0 0.0 0.0 0.0 0.0 0.0 0.0 0.0 0.0 0.0 0.0 0.0 0.0 0.0 0.0 0.0 0.0 0.0 0.0 0.0 0.0 0.0 0.0 0.0 0.0 0.0 0.0 0.0 0.0 0.0 0.0 0.0 0.0 0.0 0.0 0.0 0.0 0.0 0.0 0.0 0.0 0.0 0.0 0.0 0.0 0.0 0.0 0.0 0.0 0.0 0.0 0.0 0.0 0.0 0.0 0.0 0.0 0.0 0.0 0.0 0.0 0.0 0.0 0.0 0.0 0.0 0.0 0.0 0.0 0.0 0.0 0.0 0.0 0.0 0.0 0.0 0.0 0.0 0.0 0.0 0.0 0.0 0.0 0.0 0.0 0.0 0.0 0.0 0.0 0.0 0.0 0.0 0.0 0.0 0.0 0.0 0.0 0.0 0.0 0.0 0.0 0.0 0.0 0.0 0.0 0.0 0.0 0.0 0.0 0.0 0.0 0.0 0.0 0.0 0.0 0.0 0.0 0.0 0.0 0.0 0.0 0.0 0.0 0.0 0.0 0.0 0.0 0.0 0.0 0.0 0.0 0.0 0.0 0.0 0.0 0.0 0.0 0.0 0.0 0.0 0.0 0.0 0.0 0.0 0.0 0.0 0.0 0.0 0.0 0.0 0.0 0.0 0.0 0.0 0.0 0.0 0.0 0.0 0.0 0.0 0.0 0.0 0.0 0.0 0.0 0.0 0.0 0.0 0.0 0.0 0.0 0.0 0.0 0.0 0.0 0.0 0.0 0.0 0.0 0.0 0.0 0.0 0.0 0.0 0.0 0.0 0.0 0.0 0.0 0.0 0.0 0.0 0.0 0.0 0.0 0.0 0.0 0.0 0.0 0.0 0.0 0.0 0.0 0.0 0.0 0.0 0.0 0.0 0.0 0.0 0.0 0.0 0.0 0.0 0.0 0.0 0.0 0.0 0.0 0.0 0.0 0.0 0.0 0.0 0.0 0.0 0.0 0.0 0.0 0.0 0.0 0.0 0.0 0.0 0.0 0.0 0.0 0.0 0.0 0.0 0.0 0.0 0.0 0.0 0.0 0.0 0.0 0.0 0.0 0.0 0.0 0.0 0.0 0.0 0.0 0.0 0.0 0.0 0.0 0.0 0.0 0.0 0.0 0.0 0.0 0.0 0.0 0.0 0.0 0.0 0.0 0.0 0.0 0.0 0.0 0.0 0.0 0.0 0.0 0.0 0.0 0.0 0.0 0.0 0.0 0.0 0.0 0.0 0.0 0.0 0.0 0.0 0.0 0.0 0.0 0.0 0.0 0.0 0.0 0.0 0.0 0.0 0.0 0.0 0.0 0.0 0.0 0.0 0.0 0.0 0.0 0.0 0.0 0.0 0.0 0.0 0.0 0.0 0.0 0.0 0.0 0.0 0.0 0.0 0.0 0.0 0.0 0.0 0.0 0.0 0.0 0.0 0.0 0.0 0.0 0.0 0.0 0.0 0.0 0.0 0.0 0.0 0.0 0.0 0.0 0.0 0.0 0.0 0.0 0.0 0.0 0.0 0.0 0.0 0.0 0.0 0.0 0.0 0.0 0.0 0.0 0.0 0.0 0.0 0.0 0.0 0.0 0.0 0.0 0.0 0.0 0.0 0.0 0.0 0.0 0.0 0.0 0.0 0.0 0.0 0.0 0.0 0.0 0.0 0.0 0.0 0.0 0.0 0.0 0.0 0.0 0.0 0.0 0.0 0.0 0.0 0.0 0.0 0.0 0.0 0.0 0.0 0.0 0.0 0.0 0.0 0.0 0.0 0.0 0.0 0.0 0.0 0.0 0.0 0.0 0.0 0.0 0.0 0.0 0.0 0.0 0.0 0.0 0.0 0.0 0.0 0.0 0.0 0.0 0.0 0.0 0.0 0.0 0.0 0.0 0.0 0.0 0.0 0.0 0.0 0.0 0.0 0.0 0.0 0.0 0.0 0.0 0.0 0.0 0.0 0.0 0.0 0.0 0.0 0.0 0.0 0.0 0.0 0.0 0.0 0.0 0.0 0.0 0.0 0.0 0.0 0.0 0.0 0.0 0.0 0.0 0.0 0.0 0.0 0.0 0.0 0.0 0.0 0.0 0.0 0.0 0.0 0.0 0.0 0.0 0.0 0.0 0.0 0.0 0.0 0.0 0.0 0.0 0.0 0.0 0.0 0.0 0.0 0.0 0.0 0.0 0.0 0.0 0.0 0.0 0.0 0.0 0.0 0.0 0.0 0.0 0.0 0.0 0.0 0.0 0.0 0.0 0.0 0.0 0.0 0.0 0.0 0.0 0.0 0.0 0.0 0.0 0.0 0.0 0.0 0.0 0.0 0.0 0.0 0.0 0.0 0.0 0.0 0.0 0.0 0.0 0.0 0.0 0.0 0.0 0.0 0.0 0.0 0.0 0.0 0.0 0.0 0.0 0.0 0.0 0.0 0.0 0.0 0.0 0.0 0.0 0.0 0.0 0.0 0.0 0.0 0.0 0.0 0.0 0.0 0.0 0.0 0.0 0.0 0.0 0.0 0.0 0.0 0.0 0.0 0.0 0.0 0.0 0.0 0.0 0.0 0.0 0.0 0.0 0.0 0.0 0.0 0.0 0.0 0.0 0.0 0.0 0.0 0.0 0.0 0.0 0.0 0.0 0.0 0.0 0.0 0.0 0.0 0.0 0.0 0.0 0.0 0.0 0.0 0.0 0.0 0.0 0.0 0.0 0.0 0.0 0.0 0.0 0.0 0.0 0.0 0.0 0.0 0.0 0.0 0.0 0.0 0.0 0.0 0.0 0.0 0.0 0.0 0.0 0.0 0.0 0.0 0.0 0.0 0.0 0.0 0.0 0.0 0.0 0.0 0.0 0.0 0.0 0.0 0.0 0.0 0.0 0.0 0.0 0.0 0.0 0.0 0.0 0.0 0.0 0.0 0.0 0.0 0.0 0.0 0.0 0.0 0.0 0.0 0.0 0.0 0.0 0.0 0.0 0.0 0.0 0.0 0.0 0.0 0.0 0.0 0.0 0.0 0.0 0.0 0.0 0.0 0.0 0.0 0.0 0.0 0.0 0.0 0.0 0.0 0.0 0.0 0.0 0.0 0.0 0.0 0.0 0.0 0.0 0.0 0.0 0.0 0.0 0.0 0.0 0.0 0.0 0.0 0.0 0.0 0.0 0.0 0.0 0.0 0.0 0.0 0.0 0.0 0.0 0.0 0.0 0.0 0.0 0.0 0.0 0.0 0.0 0.0 0.0 0.0 0.0 0.0 0.0 0.0 0.0 0.0 0.0 0.0 0.0 0.0 0.0 0.0 0.0 0.0 0.0 0.0 0.0 0.0 0.0 0.0 0.0 0.0 0.0 0.0 0.0 0.0 0.0 0.0 0.0 0.0 0.0 0.0 0.0 0.0 0.0 0.0 0.0 0.0 0.0 0.0 0.0 0.0 0.0 0.0 0.0 0.0 0.0 0.0 0.0 0.0 0.0 0.0 0.0 0.0 0.0 0.0 0.0 0.0 0.0 0.0 0.0 0.0 0.0 0.0 0.0 0.0 0.0 0.0 0.0 0.0 0.0 0.0 0.0 0.0 0.0 0.0 0.0 0.0 0.0 0.0 0.0 0.0 0.0 0.0 0.0 0.0 0.0 0.0 0.0 0.0 0.0 0.0 0.0 0.0 0.0 0.0 0.0 0.0 0.0 0.0 0.0 0.0 0.0 0.0 0.0 0.0 0.0 0.0 0.0 0.0 0.0 0.0 0.0 0.0 0.0 0.0 0.0 0.0 0.0 0.0 0.0 0.0 0.0 0.0 0.0 0.0 0.0 0.0 0.0 0.0 0.0 0.0 0.0 0.0 0.0 0.0 0.0 0.0 0.0 0.0 0.0 0.0 0.0 0.0 0.0 0.0 0.0 0.0 0.0 0.0 0.0 0.0 0.0 0.0 0.0 0.0 0.0 0.0 0.0 0.0 0.0 0.0 0.0 0.0 0.0 0.0 0.0 0.0 0.0 0.0 0.0 0.0 0.0 0.0 0.0 0.0 0.0 0.0 0.0 0.0 0.0 0.0 0.0 0.0 0.0 0.0 0.0 0.0 0.0 0.0 0.0 0.0 0.0 0.0 0.0 0.0 0.0 0.0 0.0 0.0 0.0 0.0 0.0 0.0 0.0 0.0 0.0 0.0 0.0 0.0 0.0 0.0 0.0 0.0 0.0 0.0 0.0 0.0 0.0 0.0 0.0 0.0 0.0 0.0 0.0 0.0 0.0 0.0 0.0 0.0 0.0 0.0 0.0 0.0 0.0 0.0 0.0 0.0 0.0 0.0 0.0 0.0 0.0 0.0 0.0 0.0 0.0 0.0 0.0 0.0 0.0 0.0 0.0 0.0 0.0 0.0 0.0 0.0 0.0 0.0 0.0 0.0 0.0 0.0 0.0 0.0 0.0 0.0 0.0 0.0 0.0 0.0 0.0 0.0 0.0 0.0 0.0 0.0 0.0 0.0 0.0 0.0 0.0 0.0 0.0 0.0 0.0 0.0 0.0 0.0 0.0 0.0 0.0 0.0 0.0 0.0 0.0 0.0 0.0 0.0 0.0 0.0 0.0 0.0 0.0 0.0 0.0 0.0 0.0 0.0 0.0 0.0 0.0 0.0 0.0 0.0 0.0 0.0 0.0 0.0 0.0 0.0 0.0 0.0 0.0 0.0 0.0 0.0 0.0 0.0 0.0 0.0 0.0 0.0 0.0 0.0 0.0 0.0 0.0 0.0 0.0 0.0 0.0 0.0 0.0 0.0 0.0 0.0 0.0 0.0 0.0 0.0 0.0 0.0 0.0 0.0 0.0 0.0 0.0 0.0 0.0 0.0 0.0 0.0 0.0 0.0 0.0 0.0 0.0 0.0 0.0 0.0 0.0 0.0 0.0 0.0 0.0 0.0 0.0 0.0 0.0 0.0 0.0 0.0 0.0 0.0 0.0 0.0 0.0 0.0 0.0 0.0 0.0 0.0 0.0 0.0 0.0 0.0 0.0 0.0 0.0 0.0 0.0 0.0 0.0 0.0 0.0 0.0 0.0 0.0 0.0 0.0 0.0 0.0 0.0 0.0 0.0 0.0 0.0 0.0 0.0 0.0 0.0 0.0 0.0 0.0 0.0 0.0 0.0 0.0 0.0 0.0 0.0 0.0 0.0 0.0 0.0 0.0 0.0 0.0 0.0 0.0 0.0 0.0 0.0 0.0 0.0 0.0 0.0 0.0 0.0 0.0 0.0 0.0 0.0 0.0 0.0 0.0 0.0 0.0 0.0 0.0 0.0 0.0 0.0 0.0 0.0 0.0 0.0 0.0 0.0 0.0 0.0 0.0 0.0 0.0 0.0 0.0 0.0 0.0 0.0 0.0 0.0 0.0 0.0 0.0 0.0 0.0 0.0 0.0 0.0 0.0 0.0 0.0 0.0 0.0 0.0 0.0 0.0 0.0 0.0 0.0 0.0 0.0 0.0 0.0 0.0 0.0 0.0 0.0 0.0 0.0 0.0 0.0 0.0 0.0 0.0 0.0 0.0 0.0 0.0 0.0 0.0 0.0 0.0 0.0 0.0 0.0 0.0 0.0 0.0 0.0 0.0 0.0 0.0 0.0 0.0 0.0 0.0 0.0 0.0 0.0 0.0 0.0 0.0 0.0 0.0 0.0 0.0 0.0 0.0 0.0 0.0 0.0 0.0 0.0 0.0 0.0 0.0 0.0 0.0 0.0 0.0 0.0 0.0 0.0 0.0 0.0 0.0 0.0 0.0 0.0 0.0 0.0 0.0 0.0 0.0 0.0 0.0 0.0 0.0 0.0 0.0 0.0 0.0 0.0 0.0 0.0 0.0 0.0 0.0 0.0 0.0 0.0 0.0 0.0 0.0 0.0 0.0 0.0 0.0 0.0 0.0 0.0 0.0 0.0 0.0 0.0 0.0 0.0 0.0 0.0 0.0 0.0 0.0 0.0 0.0 0.0 0.0 0.0 0.0 0.0 0.0 0.0 0.0 0.0 0.0 0.0 0.0 0.0 0.0 0.0 0.0 0.0 0.0 0.0 0.0 0.0 -3.1154223E+003 -5.9577302E+003  7.6862068E+003 -2.6099709E+003 -1.2992671E+004  1.2707090E+004  2.9067951E+003  2.9490513E+003  3.4113124E+003  2.3804153E+003  2.7292844E+003  2.6511195E+003  2.3269415E+003  2.3460344E+003  2.5414588E+003  2.3388828E+003  2.4937695E+003  1.5506107E+003  2.6883847E+003  2.6712373E+003  2.6448443E+003  2.9206271E+003  2.6462968E+003  2.7893492E+003  3.0858527E+003  2.9457532E+003  3.1146256E+003  3.2910385E+003 -1.2134265E+004  3.1541014E+003  3.5453211E+003  3.4724302E+003  3.9857605E+003  3.7389601E+003  4.0242973E+003  4.2006336E+003  4.0301581E+003  4.0494989E+003  2.7543402E+003  3.9386894E+003  4.1439864E+003  3.9413060E+003  4.0969281E+003  3.9935655E+003  4.2061195E+003  4.5452359E+003 -1.3396817E+003 -2.4581793E+003 -5.7899467E+001  1.6136173E+004 -2.4364486E+003 -3.0999836E+003 -1.9123034E+003 -1.5907700E+003 -1.6781253E+003 -1.7737867E+003 -2.4419371E+003 -1.8652167E+003 -2.0348480E+003 -2.1245351E+003 -1.9650554E+003 -2.0246424E+003 -2.1698545E+003 -2.2281871E+003 -2.2531880E+003 -2.3582284E+003 -2.3873105E+003 -2.4048898E+003 -2.4979549E+003 -2.5110351E+003 -2.5193513E+003 -2.7827177E+003 -2.4573923E+003 -3.6342249E+003 -3.4293633E+003 -3.9482179E+003 -3.2415244E+003 -2.9132548E+003 -2.9076211E+003 -2.9896322E+003 -2.8119890E+003 -2.8803447E+003 -3.0902238E+003 -3.4150890E+003 -3.3429209E+003 -3.2683426E+003 -1.4437279E+003 -1.1667748E+003  6.6026611E+002 -6.4471634E+002 -1.8924561E+004  1.7071074E+002 -6.0815331E+002 -1.8743550E+003 -1.2863912E+003 -9.6827429E+002 -2.3564672E+003 -3.6973873E+002 -9.3214119E+002  1.2266391E+003  1.1199987E+003 -1.9296110E+003  6.2857193E+002 -3.0208942E+003 -4.6832954E+003 -6.8041039E+003  5.5363129E+002  5.2703807E+003 -7.6348369E+003 -1.0514485E+004  7.1100131E+003 -4.7486974E+003  1.1739681E+004  8.9881532E+003  2.0231210E+004 -3.2383905E+003  8.3590882E+001  2.3030463E+003 -3.9462758E+003  5.1289752E+003 -8.7823178E+003  4.6937308E+002 -1.6023862E+003 -4.2499506E+002 -4.4206650E+002  8.5407321E+002  3.3805951E+002 -5.6413486E+002 -6.3793721E+002 -1.0076576E+003 -6.1670388E+002 -6.4492336E+002 -2.0927932E+003 -6.3426587E+002 -5.3897556E+002  6.7822617E+002 -2.8324314E+003 -8.0931529E+002 -6.7743152E+002  1.1128966E+003 -2.1779620E+003 -7.4625143E+002 -7.5357430E+002  7.2173962E+002  5.5933141E+002 -3.0009843E+002 -2.8348604E+003 -1.2170300E+003 -1.3999637E+003  1.2799503E+003 -3.0237354E+003 -1.4903572E+003 -3.6563135E+003 -2.4789108E+003 -1.9407435E+003  3.7298385E+002 -2.7871793E+003 -1.1892328E+003 -1.9722262E+003 -6.1054330E+002 -5.4317104E+002  8.2157096E+002 -2.3536777E+003 -7.9719518E+002 -7.8538847E+002  8.4096862E+002 -3.7395985E+003 -3.7321396E+003 -2.0398588E+003 -2.4878539E+003 -8.2628334E+002 -8.0064048E+002  9.1781978E+002 -2.5182589E+003 -1.0965218E+003 -2.4571788E+003 -3.2311614E+003 -1.5598352E+003 -2.0291421E+003  1.0742686E+003 -3.3388419E+003 -1.2464944E+003 -2.5758410E+003 -2.3697440E+003 -1.0664803E+003 -2.1757422E+003 -8.8837540E+002 -1.9800471E+003 -2.9959959E+003 -1.2165030E+003 -3.1501508E+003 -1.5628523E+003 -2.9510350E+003 -1.7822676E+003 -2.2969984E+003 -2.0442334E+003 -1.6650633E+003 -4.7008569E+002 -2.8799690E+003 -8.6293042E+002 -2.9387963E+003 -2.5386587E+003 -5.0403015E+002 -1.9175621E+003 -1.7665039E+003 -3.6437365E+003 -2.1548111E+003 -8.6501261E+002 -2.8848094E+003 -1.9815207E+003 -1.7112108E+003  5.9086143E+002 -2.7962294E+003 -2.2508016E+003 -1.2262908E+003  4.2716115E+003  4.0947814E+003  2.0440139E+001  4.1254047E+003  5.1956217E+002  2.0679338E+003 -5.3655617E+002  4.0865440E+003  5.7700532E+002  3.7306624E+003  6.4036543E+002  4.1808557E+003 -3.7433384E+002  2.5583428E+003  1.7439589E+002  3.8481566E+003 -6.3458494E+002  3.8068746E+003  5.7854641E+002  2.4609679E+003 -1.9893864E+002 -1.2619268E+003  2.8932018E+003  1.9591992E+002  3.2058826E+003  2.5825762E+002  2.9690661E+003  2.9043663E+002  2.6725176E+003  5.0099598E+002  3.4600569E+003  5.4772599E+002  2.5297140E+003  2.6135034E+002  2.7468527E+003  2.2905333E+002  4.0789802E+003  6.4361358E+002  3.2151120E+003  3.3823676E+002  2.8405882E+003  2.2626276E+002  2.1836748E+003  3.3223753E+001  2.4007040E+003  3.3389832E+002  4.7004626E+003  1.1244133E+003  3.5609784E+003 -1.3894255E+002  4.2138283E+003  8.2725195E+002  2.5510911E+003  3.5928011E+002 -1.5153472E+004  4.0679319E+003 -8.8028731E+003  1.2411820E+002  6.7274816E+001  2.7060254E+002  5.7141542E+002  2.1550963E+002  9.0086089E+002  2.7870650E+002  1.7153607E+002  3.7756818E+002  3.1631952E+002  1.5056314E+002 -7.0944496E+002 -1.5671906E+001 -1.6430734E+003  5.6966712E+002 -1.3951963E+002  1.0879880E+003  4.3341124E+003  4.1783625E+003 -8.2173243E+002 -1.6368390E+004  1.1117123E+004 -1.8484441E+003 -1.6661960E+003 -5.4432703E+003 -1.5963296E+002 -5.8868338E+002  8.5992469E+002 -9.8365463E+003  4.5301219E+002  2.3743225E+002  2.3656066E+004 -1.3770532E+004  2.9567959E+001 -1.3464409E+003 -2.8058345E+001 -8.1413763E+002  6.3052475E+002 -2.2603159E+003 -1.6424921E+003 -3.9225119E+002  4.6694379E+003 -2.2024465E+003 -1.2377893E+003  4.4822669E+003 -1.4282391E+003 -1.3782649E+003 -1.3014738E+003  4.8550086E+003 -9.6518079E+002 -1.0968976E+003 -2.1057008E+003 -1.1838887E+003  1.6424663E+003 -9.1022717E+002 -1.3001938E+003  4.0990095E+003 -1.6305868E+003 -1.9741980E+003  3.8216910E+003  1.3089932E+003 -1.9819842E+003  1.2817736E+003  3.5884481E+003 -1.5021373E+003 -2.1043248E+003  3.2818689E+003 -1.8027245E+003  3.9336092E+002  3.2761548E+003 -2.4408240E+003  1.1829905E+003  9.3919942E+002  2.7393366E+003 -2.5027431E+003  2.9304969E+003 -2.9848976E+003  3.5824921E+003 -1.7764993E+003  7.6907726E+002  9.0642427E+002 -1.7311124E+003 -1.5878550E+003 -1.7198163E+003  9.1027260E+002 -1.5167502E+003 -1.6243730E+003 -1.3702537E+003  7.7722416E+002 -1.4411251E+003 -1.3424382E+003 -1.6935635E+003  8.1742100E+002 -1.3940659E+003 -1.2526337E+003 -5.3664930E+001 -9.3003108E+002 -1.0891780E+003 -2.4367076E+003  8.0901470E+002  9.7530283E+002 -1.0075953E+004 -4.2493543E+003  1.2317472E+003  8.6102851E+002 -2.0534369E+004  3.4926957E+004  9.6631045E+002  2.5021482E+004 -1.6884955E+002  1.0437789E+003  8.9188243E+002  7.4331908E+002  7.6664988E+002  7.0378843E+002  5.9000567E+002  5.5686344E+002 -3.2540176E+002  1.5816127E+002 -4.8826925E+003  1.5877594E+002  4.9945255E+002  2.6068104E+003  7.1690232E+003  1.4156560E+004  4.8146877E+002  1.0040213E+003 -1.4059252E+003  5.3957174E+002 -9.3313753E+002 -8.1797885E+003  4.0298979E+002  4.9345684E+002  5.6209489E+002  7.9475780E+002  3.8086122E+002 -7.3413251E+003  3.7295049E+002 0.0 0.0 0.0 0.0 0.0 0.0 0.0 0.0 0.0 0.0 0.0 0.0 0.0 0.0 0.0 0.0 0.0 0.0 0.0 0.0 0.0 0.0 0.0 0.0 0.0 0.0 0.0 0.0 0.0 0.0 0.0 0.0 0.0 0.0 0.0 0.0 0.0 0.0 0.0 0.0 0.0 0.0 0.0 0.0 0.0 0.0 0.0 0.0 0.0 0.0 0.0 0.0 0.0 0.0 0.0 0.0 0.0 0.0 0.0 0.0 0.0 0.0 0.0 0.0 0.0 0.0 0.0 0.0 0.0 0.0 0.0 0.0 0.0 0.0 0.0 0.0 0.0 0.0 0.0 0.0 0.0 0.0 0.0 0.0 0.0 0.0 0.0 0.0 0.0 0.0 0.0 0.0 0.0 0.0 0.0 0.0 0.0 0.0 0.0 0.0 0.0 0.0 0.0 0.0 0.0 0.0 0.0 0.0 0.0 0.0 0.0 0.0 0.0 0.0 0.0 0.0 0.0 0.0 0.0 0.0 0.0 0.0 0.0 0.0 0.0 0.0 0.0 0.0 0.0 0.0 0.0 0.0 0.0 0.0 0.0 0.0 0.0 0.0 0.0 0.0 0.0 0.0 0.0 0.0 0.0 0.0 0.0 0.0 0.0 0.0 0.0 0.0 0.0 0.0 0.0 0.0 0.0 0.0 0.0 0.0 0.0 0.0 0.0 0.0 0.0 0.0 0.0 0.0 0.0 0.0 0.0 0.0 0.0 0.0 0.0 0.0 0.0 0.0 0.0 0.0 0.0 0.0 0.0 0.0 0.0 0.0 0.0 0.0 0.0 0.0 0.0 0.0 0.0 0.0 0.0 0.0 0.0 0.0 0.0 0.0 0.0 0.0 0.0 0.0 0.0 0.0 0.0 0.0 0.0 0.0 0.0 0.0 0.0 0.0 0.0 0.0 0.0 0.0 0.0 0.0 0.0 0.0 0.0 0.0 0.0 0.0 0.0 0.0 0.0 0.0 0.0 0.0 0.0 0.0 0.0 0.0 0.0 0.0 0.0 0.0 0.0 0.0 0.0 0.0 0.0 0.0 0.0 0.0 0.0 0.0 0.0 0.0 0.0 0.0 0.0 0.0 0.0 0.0 0.0 0.0 0.0 0.0 0.0 0.0 0.0 0.0 0.0 0.0 0.0 0.0 0.0 0.0 0.0 0.0 0.0 0.0 0.0 0.0 0.0 0.0 0.0 0.0 0.0 0.0 0.0 0.0 0.0 0.0 0.0 0.0 0.0 0.0 0.0 0.0 0.0 0.0 0.0 0.0 0.0 0.0 0.0 0.0 0.0 0.0 0.0 0.0 0.0 0.0 0.0 0.0 0.0 0.0 0.0 0.0 0.0 0.0 0.0 0.0 0.0 0.0 0.0 0.0 0.0 0.0 0.0 0.0 0.0 0.0 0.0 0.0 0.0 0.0 0.0 0.0 0.0 0.0 0.0 0.0 0.0 0.0 0.0 0.0 0.0 0.0 0.0 0.0 0.0 0.0 0.0 0.0 0.0 0.0 0.0 0.0 0.0 0.0 0.0 0.0 0.0 0.0 0.0 0.0 0.0 0.0 0.0 0.0 0.0 0.0 0.0 0.0 0.0 0.0 0.0 0.0 0.0 0.0 0.0 0.0 0.0 0.0 0.0 0.0 0.0 0.0 0.0 0.0 0.0 0.0 0.0 0.0 0.0 0.0 0.0 0.0 0.0 0.0 0.0 0.0 0.0 0.0 0.0 0.0 0.0 0.0 0.0 0.0 0.0 0.0 0.0 0.0 0.0 0.0 0.0 0.0 0.0 0.0 0.0 0.0 0.0 0.0 0.0 0.0 0.0 0.0 0.0 0.0 0.0 0.0 0.0 0.0 0.0 0.0 0.0 0.0 0.0 0.0 0.0 0.0 0.0 0.0 0.0 0.0 0.0 0.0 0.0 0.0 0.0 0.0 0.0 0.0 0.0 0.0 0.0 0.0 0.0 0.0 0.0 0.0 0.0 0.0 0.0 0.0 0.0 0.0 0.0 0.0 0.0 0.0 0.0 0.0 0.0 0.0 0.0 0.0 0.0 0.0 0.0 0.0 0.0 0.0 0.0 0.0 0.0 0.0 0.0 0.0 0.0 0.0 0.0 0.0 0.0 0.0 0.0 0.0 0.0 0.0 0.0 0.0 0.0 0.0 0.0 0.0 0.0 0.0 0.0 0.0 0.0 0.0 0.0 0.0 0.0 0.0 0.0 0.0 0.0 0.0 0.0 0.0 0.0 0.0 0.0 0.0 0.0 0.0 0.0 0.0 0.0 0.0 0.0 0.0 0.0 0.0 0.0 0.0 0.0 0.0 0.0 0.0 0.0 0.0 0.0 0.0 0.0 0.0 0.0 0.0 0.0 0.0 0.0 0.0 0.0 0.0 0.0 0.0 0.0 0.0 0.0 0.0 0.0 0.0 0.0 0.0 0.0 0.0 0.0 0.0 0.0 0.0 0.0 0.0 0.0 0.0 0.0 0.0 0.0 0.0 0.0 0.0 0.0 0.0 0.0 0.0 0.0 0.0 0.0 0.0 0.0 0.0 0.0 0.0 0.0 0.0 0.0 0.0 0.0 0.0 0.0 0.0 0.0 0.0 0.0 0.0 0.0 0.0 0.0 0.0 0.0 0.0 0.0 0.0 0.0 0.0 0.0 0.0 0.0 0.0 0.0 0.0 0.0 0.0 0.0 0.0 0.0 0.0 0.0 0.0 0.0 0.0 0.0 0.0 0.0 0.0 0.0 0.0 0.0 0.0 0.0 0.0 0.0 0.0 0.0 0.0 0.0 0.0 0.0 0.0 0.0 0.0 0.0 0.0 0.0 0.0 0.0 0.0 0.0 0.0 0.0 0.0 0.0 0.0 0.0 0.0 0.0 0.0 0.0 0.0 0.0 0.0 0.0 0.0 0.0 0.0 0.0 0.0 0.0 0.0 0.0 0.0 0.0 0.0 0.0 0.0 0.0 0.0 0.0 0.0 0.0 0.0 0.0 0.0 0.0 0.0 0.0 0.0 0.0 0.0 0.0 0.0 0.0 0.0 0.0 0.0 0.0 0.0 0.0 0.0 0.0 0.0 0.0 0.0 0.0 0.0 0.0 0.0 0.0 0.0 0.0 0.0 0.0 0.0 0.0 0.0 0.0 0.0 0.0 0.0 0.0 0.0 0.0 0.0 0.0 0.0 0.0 0.0 0.0 0.0 0.0 0.0 0.0 0.0 0.0 0.0 0.0 0.0 0.0 0.0 0.0 0.0 0.0 0.0 0.0 0.0 0.0 0.0 0.0 0.0 0.0 0.0 0.0 0.0 0.0 0.0 0.0 0.0 0.0 0.0 0.0 0.0 0.0 0.0 0.0 0.0 0.0 0.0 0.0 0.0 0.0 0.0 0.0 0.0 0.0 0.0 0.0 0.0 0.0 0.0 0.0 0.0 0.0 0.0 0.0 0.0 0.0 0.0 0.0 0.0 0.0 0.0 0.0 0.0 0.0 0.0 0.0 0.0 0.0 0.0 0.0 0.0 0.0 0.0 0.0 0.0 0.0 0.0 0.0 0.0 0.0 0.0 0.0 0.0 0.0 0.0 0.0 0.0 0.0 0.0 0.0 0.0 0.0 0.0 0.0 0.0 0.0 0.0 0.0 0.0 0.0 0.0 0.0 0.0 0.0 0.0 0.0 0.0 0.0 0.0 0.0 0.0 0.0 0.0 0.0 0.0 0.0 0.0 0.0 0.0 0.0 0.0 0.0 0.0 0.0 0.0 0.0 0.0 0.0 0.0 0.0 0.0 0.0 0.0 0.0 0.0 0.0 0.0 0.0 0.0 0.0 0.0 0.0 0.0 0.0 0.0 0.0 0.0 0.0 0.0 0.0 0.0 0.0 0.0 0.0 0.0 0.0 0.0 0.0 0.0 0.0 0.0 0.0 0.0 0.0 0.0 0.0 0.0 0.0 0.0 0.0 0.0 0.0 0.0 0.0 0.0 0.0 0.0 0.0 0.0 0.0 0.0 0.0 0.0 0.0 0.0 0.0 0.0 0.0 0.0 0.0 0.0 0.0 0.0 0.0 0.0 0.0 0.0 0.0 0.0 0.0 0.0 0.0 0.0 0.0 0.0 0.0 0.0 0.0 0.0 0.0 0.0 0.0 0.0 0.0 0.0 0.0 0.0 0.0 0.0 0.0 0.0 0.0 0.0 0.0 0.0 0.0 0.0 0.0 0.0 0.0 0.0 0.0 0.0 0.0 0.0 0.0 0.0 0.0 0.0 0.0 0.0 0.0 0.0 0.0 0.0 0.0 0.0 0.0 0.0 0.0 0.0 0.0 0.0 0.0 0.0 0.0 0.0 0.0 0.0 0.0 0.0 0.0 0.0 0.0 0.0 0.0 0.0 0.0 0.0 0.0 0.0 0.0 0.0 0.0 0.0 0.0 0.0 0.0 0.0 0.0 0.0 0.0 0.0 0.0 0.0 0.0 0.0 0.0 0.0 0.0 0.0 0.0 0.0 0.0 0.0 0.0 0.0 0.0 0.0 0.0 0.0 0.0 0.0 0.0 0.0 0.0 0.0 0.0 0.0 0.0 0.0 0.0 0.0 0.0 0.0 0.0 0.0 0.0 0.0 0.0 0.0 0.0 0.0 0.0 0.0 0.0 0.0 0.0 0.0 0.0 0.0 0.0 0.0 0.0 0.0 0.0 0.0 0.0 0.0 0.0 0.0 0.0 0.0 0.0 0.0 0.0 0.0 0.0 0.0 0.0 0.0 0.0 0.0 0.0 0.0 0.0 0.0 0.0 0.0 0.0 0.0 0.0 0.0 0.0 0.0 0.0 0.0 0.0 0.0 0.0 0.0 0.0 0.0 0.0 0.0 0.0 0.0 0.0 0.0 0.0 0.0 0.0 0.0 0.0 0.0 0.0 0.0 0.0 0.0 0.0 0.0 0.0 0.0 0.0 0.0 0.0 0.0 0.0 0.0 0.0 0.0 0.0 0.0 0.0 0.0 0.0 0.0 0.0 0.0 0.0 0.0 0.0 0.0 0.0 0.0 0.0 0.0 0.0 0.0 0.0 0.0 0.0 0.0 0.0 0.0 0.0 0.0 0.0 0.0 0.0 0.0 0.0 0.0 0.0 0.0 0.0 0.0 0.0 0.0 0.0 0.0 0.0 0.0 0.0 0.0 0.0 0.0 0.0 0.0 0.0 0.0 0.0 0.0 0.0 0.0 0.0 0.0 0.0 0.0 0.0 0.0 0.0 0.0 0.0 0.0 0.0 0.0 0.0 0.0 0.0 0.0 0.0 0.0 0.0 0.0 0.0 0.0 0.0 0.0 0.0 0.0 0.0 0.0 0.0 0.0 0.0 0.0 0.0 0.0 0.0 0.0 0.0 0.0 0.0 0.0 0.0 0.0 0.0 0.0 0.0 0.0 0.0 0.0 0.0 0.0 0.0 0.0 0.0 0.0 0.0 0.0 0.0 0.0 0.0 0.0 0.0 0.0
        </DataArray>
        <DataArray type="Float64" Name="stress_xy" NumberOfComponents="1" format="ascii">
 0.0 0.0 0.0 0.0  1.7804382E+003 -1.8297333E+003 -2.3750682E+002 -2.5838464E+003 0.0 0.0 0.0 0.0 0.0 0.0 0.0 0.0 0.0 0.0 0.0 0.0 0.0  2.5076919E+001 0.0 0.0 0.0 0.0 0.0 0.0 0.0 0.0 0.0 0.0 0.0 0.0 0.0 0.0 0.0 0.0 0.0 0.0 0.0 0.0 0.0 0.0 0.0 0.0 0.0 0.0 0.0 0.0  1.5357440E+003  2.4268744E+002  1.2157820E+001 -1.1289369E+002 -1.6058848E+002 -1.7137222E+002 -3.8258486E+002 -3.9857914E+002 -4.3778264E+002 -4.3605309E+002 -4.4362868E+002 -4.9825065E+002 -4.6825769E+002 -4.3289089E+002 -2.3843851E+002 -2.2756262E+002 -1.1595537E+003 -1.1018179E+002 -1.0741958E+002 -4.0511212E+001 -3.3645375E+001  1.1673916E+000 -3.8293736E+001  2.4379965E+001  3.2006085E+001  1.6126527E+001 -4.8047991E+000 -1.0474814E+001 -2.3038845E+000  5.6013365E+000  3.4970594E+000  2.0331369E+001  2.3350000E+001 -9.8283749E+000  4.1904133E+000  8.2384604E+000 -3.4823259E-001 -1.0536031E+001 -4.4632212E+000 -9.3112652E+000  1.0337503E+001  2.3071980E+001 -9.9182305E+000  7.6386066E+000  3.8733427E+000 -1.4854096E+001  1.1439244E+000  7.3442807E+000  1.0913910E+001  3.9177065E+000 -6.3594594E+000 -1.4938904E+001  6.9481115E-001  1.1891660E+001  8.5930534E+000  2.6985313E+000 -2.5288320E+000 -1.2687966E+001  2.2256691E+000  6.5368477E+000  5.8534182E+000  1.7477632E+000 -5.0359467E+000 -1.7075632E+001  2.6345036E+000  5.4076113E+000 -6.7685920E+000 -1.7699477E+001  2.6036590E+000  1.6592344E+001  1.7576562E+001  8.9650373E-001 -1.4634018E+001  3.2410559E+001  4.4860724E-001 -3.4808589E+001  3.0289169E+000  1.1038716E+001  1.9965024E+000 -1.0434214E+001  4.4986343E-001  1.3722482E+001 -7.8401305E+000  1.3370511E+001 -4.2602347E+000 -1.0635347E+001 -1.2154255E+001  8.4970914E+000  1.3688693E+001  1.2374617E+001  4.0937179E+000 -4.9363296E+000 -5.5271943E+000  1.3928151E+001  9.3064485E+000 -2.2967459E+000  1.3781012E+001 -3.9993885E-001 -2.0291647E+002 0.0 0.0 0.0 0.0 0.0 0.0 0.0 0.0 0.0 0.0 0.0 0.0 0.0 0.0 0.0 0.0 0.0 0.0 0.0 0.0 0.0 0.0 0.0 0.0 0.0 0.0 0.0 0.0 0.0 0.0 0.0 0.0 0.0 0.0 0.0 0.0 0.0 0.0 0.0 0.0 0.0 0.0 0.0 0.0 0.0 0.0 0.0 0.0 0.0 0.0 0.0 0.0 0.0 0.0 0.0 0.0 0.0 0.0 0.0 0.0 0.0 0.0 0.0 0.0 0.0 0.0 0.0 0.0 0.0 0.0 0.0 0.0 0.0 0.0 0.0 0.0 0.0 0.0 0.0 0.0 0.0 0.0 0.0 0.0 0.0 0.0 0.0 0.0 0.0 0.0 0.0 0.0 0.0 0.0 0.0 0.0 0.0 0.0 0.0 0.0 0.0 0.0 0.0 0.0 0.0 0.0 0.0 0.0 0.0 0.0 0.0 0.0 0.0 0.0 0.0 0.0 0.0 0.0 0.0 0.0 0.0 0.0 0.0 0.0 0.0 0.0 0.0 0.0 0.0 0.0 0.0 0.0 0.0 0.0 0.0 0.0 0.0 0.0 0.0 0.0 0.0 0.0 0.0 0.0 0.0 0.0 0.0 0.0 0.0 0.0 0.0 0.0 0.0 0.0 0.0 0.0 0.0 0.0 0.0 0.0 0.0 0.0 0.0 0.0 0.0 0.0 0.0 0.0 0.0 0.0 0.0 0.0 0.0 0.0 0.0 0.0 0.0 0.0 0.0 0.0 0.0 0.0 0.0 0.0 0.0 0.0 0.0 0.0 0.0 0.0 0.0 0.0 0.0 0.0 0.0 0.0 0.0 0.0 0.0 0.0 0.0 0.0 0.0 0.0 0.0 0.0 0.0 0.0 0.0 0.0 0.0 0.0 0.0 0.0 0.0 0.0 0.0 0.0 0.0 0.0 0.0 0.0 0.0 0.0 0.0 0.0 0.0 0.0 0.0 0.0 0.0 0.0 0.0 0.0 0.0 0.0 0.0 0.0 0.0 0.0 0.0 0.0 0.0 0.0 0.0 0.0 0.0 0.0 0.0 0.0 0.0 0.0 0.0 0.0 0.0 0.0 0.0 0.0 0.0 0.0 0.0 0.0 0.0 0.0 0.0 0.0 0.0 0.0 0.0 0.0 0.0 0.0 0.0 0.0 0.0 0.0 0.0 0.0 0.0 0.0 0.0 0.0 0.0 0.0 0.0 0.0 0.0 0.0 0.0 0.0 0.0 0.0 0.0 0.0 0.0 0.0 0.0 -1.3055620E+003 -4.2271077E+002 -2.5511241E+002 -1.4272069E+002 -8.5948552E+001 -6.0420444E+001 -8.0960338E+000 -6.7650908E+001 -8.4653946E+000 0.0 0.0 0.0 0.0 0.0 0.0 0.0 0.0 0.0 0.0 0.0 0.0 0.0 0.0 0.0 0.0 0.0 0.0 0.0 0.0 0.0 0.0 0.0 0.0 0.0 0.0 0.0 0.0 0.0 0.0 0.0 0.0 0.0 0.0 0.0 0.0 0.0 0.0 0.0 0.0 0.0 0.0 0.0 0.0 0.0 0.0 0.0 0.0 0.0  8.8232059E+002  1.1934507E+002 -5.7145360E+000  6.1385866E+000  1.4926867E+001 -2.8848772E+001  3.3286459E+001 -2.0020028E+000 -9.6089903E+000  6.0882130E+000 -3.5848106E+000 -1.8592781E+000  3.8701290E+000 -1.2942797E+001  7.6042983E+000  5.9549252E+000 -1.4739765E+001  1.1023875E+000 -8.2297278E+000  4.4991459E+000  1.5632404E+001  2.0687871E+000  1.7447886E+000 -3.4961153E+000 -3.3280608E+000  1.3150231E+001  1.0295700E+000  5.3867351E+000  1.1523477E+001  8.0853389E+000  9.6097497E+000  5.7665264E+000 -1.9204280E+000  2.4054607E+000 -1.3814490E+000  2.2899057E+000 -1.2974077E+000  6.0649577E+000  1.7062115E+001  1.7010999E+000 -8.3894329E+000 -5.6214137E-001 -4.9738882E+000  1.5742072E+000 -1.1353019E+000  4.6914810E+000  5.5149197E+000 -5.6173630E+000 -2.3082330E+000  1.3222197E+001  1.6957767E+001  6.9083442E+000 -2.3563985E+000  1.0263010E+000 -1.0982401E+000  3.4979290E+000  1.1183880E+001  5.2412006E+000 -2.0850261E+000  7.3296843E-001 -6.7245296E-001  3.1394942E+000  1.0313883E+001  5.1225150E+000 -2.0114863E+000  1.2063023E+000 -7.9428650E-001  2.9583714E+000  1.1037841E+001  3.8699916E+000 -4.2388246E-001  1.3290721E+000  4.8371721E-001  6.0111866E-001  6.7623797E+000  3.4692336E+000 -2.4948015E+000 -1.0281271E-001 -2.8334618E+000  2.7362148E+000  1.0437993E+001  4.7602202E+000 -2.0727694E+000  2.9785009E-001 -4.1171664E-001  5.2984507E+000  1.8247934E+001  3.1727003E+000 -7.5592617E+000 -5.0741643E+000  5.1662744E+000  5.0493527E+000  1.3482510E-001 -3.3827354E+000 -1.0973532E+000  1.4366882E+001  3.5192837E+000 -4.2932068E+000 -1.1510653E+001 0.0 0.0 0.0 0.0 0.0 0.0 0.0 0.0 0.0 0.0 0.0 0.0 0.0 0.0 0.0 0.0 0.0 0.0 0.0 0.0 0.0 0.0 0.0 0.0 0.0 0.0 0.0 0.0 0.0 0.0 0.0 0.0 0.0 0.0 0.0 0.0 0.0 0.0 0.0 0.0 0.0 0.0 0.0 0.0 0.0 0.0 0.0 0.0 0.0 0.0 0.0 0.0 0.0 0.0 0.0 0.0 0.0 0.0 0.0 0.0 0.0 0.0 0.0 0.0 0.0 0.0 0.0 0.0 0.0 0.0 0.0 0.0 0.0 0.0 0.0 0.0 0.0 0.0 0.0 0.0 0.0 0.0 0.0 0.0 0.0 0.0 0.0 0.0 0.0 0.0 0.0 0.0 0.0 0.0 0.0 0.0 0.0 0.0 0.0 0.0 0.0 0.0 0.0 0.0 0.0 0.0 0.0 0.0 0.0 0.0 0.0 0.0 0.0 0.0 0.0 0.0 0.0 0.0 0.0 0.0 0.0 0.0 0.0 0.0 0.0 0.0 0.0 0.0 0.0 0.0 0.0 0.0 0.0 0.0 0.0 0.0 0.0 0.0 0.0 0.0 0.0 0.0 0.0 0.0 0.0 0.0 0.0 0.0 0.0 0.0 0.0 0.0 0.0 0.0 0.0 0.0 0.0 0.0 0.0 0.0 0.0 0.0 0.0 0.0 0.0 0.0 0.0 0.0 0.0 0.0 0.0 0.0 0.0 0.0 0.0 0.0 0.0 0.0 0.0 0.0 0.0 0.0 0.0 0.0 0.0 0.0 0.0 0.0 0.0 0.0 0.0 0.0 0.0 0.0 0.0 0.0 0.0 0.0 0.0 0.0 0.0 0.0 0.0 0.0 0.0 0.0 0.0 0.0 0.0 0.0 0.0 0.0 0.0 0.0 0.0 0.0 0.0 0.0 0.0 0.0 0.0 0.0 0.0 0.0 0.0 0.0 0.0 0.0 0.0 0.0 0.0 0.0 0.0 0.0 0.0 0.0 0.0 0.0 0.0 0.0 0.0 0.0 0.0 0.0 0.0 0.0 0.0 0.0 0.0 0.0 0.0 0.0 0.0 0.0 0.0 0.0 0.0 0.0 0.0 0.0 0.0 0.0 0.0 0.0 0.0 0.0 0.0 0.0 0.0 0.0 0.0 0.0 0.0 0.0 0.0 0.0 0.0 0.0 0.0 0.0 0.0 0.0 0.0 0.0 0.0 0.0 0.0 0.0 0.0 0.0 0.0 0.0 0.0 0.0 0.0 0.0 0.0 0.0 0.0 0.0 0.0 0.0 0.0 0.0 0.0 0.0 0.0 0.0 0.0 0.0 0.0 0.0 0.0 0.0 0.0 0.0 0.0 0.0 0.0 0.0 0.0 0.0 0.0 0.0 0.0 0.0 0.0 0.0 0.0 0.0 0.0 0.0 0.0 0.0 0.0 0.0 0.0 0.0 0.0 0.0 0.0 0.0 0.0 0.0 0.0 0.0 0.0 0.0 0.0 0.0 0.0 0.0 0.0 0.0 0.0 0.0 0.0 0.0 0.0 0.0 0.0 0.0 0.0 0.0 0.0 0.0 0.0 0.0 0.0 0.0 0.0 0.0 0.0 0.0 0.0 0.0 0.0 0.0 0.0 0.0 0.0 0.0 0.0 0.0 0.0 0.0 0.0 0.0 0.0 0.0 0.0 0.0 0.0 0.0 0.0 0.0 0.0 0.0 0.0 0.0 0.0 0.0 0.0 0.0 0.0 0.0 0.0 0.0 0.0 0.0 0.0 0.0 0.0 0.0 0.0 0.0 0.0 0.0 0.0 0.0 0.0 0.0 0.0 0.0 0.0 0.0 0.0 0.0 0.0 0.0 0.0 0.0 0.0 0.0 0.0 0.0 0.0 0.0 0.0 0.0 0.0 0.0 0.0 0.0 0.0 0.0 0.0 0.0 0.0 0.0 0.0 0.0 0.0 0.0 0.0 0.0 0.0 0.0 0.0 0.0 0.0 0.0 0.0 0.0 0.0 0.0 0.0 0.0 0.0 0.0 0.0 0.0 0.0 0.0 0.0 0.0 0.0 0.0 0.0 0.0 0.0 0.0 0.0 0.0 0.0 0.0 0.0 0.0 0.0 0.0 0.0 0.0 0.0 0.0 0.0 0.0 0.0 0.0 0.0 0.0 0.0 0.0 0.0 0.0 0.0 0.0 0.0 0.0 0.0 0.0 0.0 0.0 0.0 0.0 0.0 0.0 0.0 0.0 0.0 0.0 0.0 0.0 0.0 0.0 0.0 0.0 0.0 0.0 0.0 0.0 0.0 0.0 0.0 0.0 0.0 0.0 0.0 0.0 0.0 0.0 0.0 0.0 0.0 0.0 0.0 0.0 0.0 0.0 0.0 0.0 0.0 0.0 0.0 0.0 0.0 0.0 0.0 0.0 0.0 0.0 0.0 0.0 0.0 0.0 0.0 0.0 0.0 0.0 0.0 0.0 0.0 0.0 0.0 0.0 0.0 0.0 0.0 0.0 0.0 0.0 0.0 0.0 0.0 0.0 0.0 0.0 0.0 0.0 0.0 0.0 0.0 0.0 0.0 0.0 0.0 0.0 0.0 0.0 0.0 0.0 0.0 0.0 0.0 0.0 0.0 0.0 0.0 0.0 0.0 0.0 0.0 0.0 0.0 0.0 0.0 0.0 0.0 0.0 0.0 0.0 0.0 0.0 0.0 0.0 0.0 0.0 0.0 0.0 0.0 0.0 0.0 0.0 0.0 0.0 0.0 0.0 0.0 0.0 0.0 0.0 0.0 0.0 0.0 0.0 0.0 0.0 0.0 0.0 0.0 0.0 0.0 0.0 0.0 0.0 0.0 0.0 0.0 0.0 0.0 0.0 0.0 0.0 0.0 0.0 0.0 0.0 0.0 0.0 0.0 0.0 0.0 0.0 0.0 0.0 0.0 0.0 0.0 0.0 0.0 0.0 0.0 0.0 0.0 0.0 0.0 0.0 0.0 0.0 0.0 0.0 0.0 0.0 0.0 0.0 0.0 0.0 0.0 0.0 0.0 0.0 0.0 0.0 0.0 0.0 0.0 0.0 0.0 0.0 0.0 0.0 0.0 0.0 0.0 0.0 0.0 0.0 0.0 0.0 0.0 0.0 0.0 0.0 0.0 0.0 0.0 0.0 0.0 0.0 0.0 0.0 0.0 0.0 0.0 0.0 0.0 0.0 0.0 0.0 0.0 0.0 0.0 0.0 0.0 0.0 0.0 0.0 0.0 0.0 0.0 0.0 0.0 0.0 0.0 0.0 0.0 0.0 0.0 0.0 0.0 0.0 0.0 0.0 0.0 0.0 0.0 0.0 0.0 0.0 0.0 0.0 0.0 0.0 0.0 0.0 0.0 0.0 0.0 0.0 0.0 0.0 0.0 0.0 0.0 0.0 0.0 0.0 0.0 0.0 0.0 0.0 0.0 0.0 0.0 0.0 0.0 0.0 0.0 0.0 0.0 0.0 0.0 0.0 0.0 0.0 0.0 0.0 0.0 0.0 0.0 0.0 0.0 0.0 0.0 0.0 0.0 0.0 0.0 0.0 0.0 0.0 0.0 0.0 0.0 0.0 0.0 0.0 0.0 0.0 0.0 0.0 0.0 0.0 0.0 0.0 0.0 0.0 0.0 0.0 0.0 0.0 0.0 0.0 0.0 0.0 0.0 0.0 0.0 0.0 0.0 0.0 0.0 0.0 0.0 0.0 0.0 0.0 0.0 0.0 0.0 0.0 0.0 0.0 0.0 0.0 0.0 0.0 0.0 0.0 0.0 0.0 0.0 0.0 0.0 0.0 0.0 0.0 0.0 0.0 0.0 0.0 0.0 0.0 0.0 0.0 0.0 0.0 0.0 0.0 0.0 0.0 0.0 0.0 0.0 0.0 0.0 0.0 0.0 0.0 0.0 0.0 0.0 0.0 0.0 0.0 0.0 0.0 0.0 0.0 0.0 0.0 0.0 0.0 0.0 0.0 0.0 0.0 0.0 0.0 0.0 0.0 0.0 0.0 0.0 0.0 0.0 0.0 0.0 0.0 0.0 0.0 0.0 0.0 0.0 0.0 0.0 0.0 0.0 0.0 0.0 0.0 0.0 0.0 0.0 0.0 0.0 0.0 0.0 0.0 0.0 0.0 0.0 0.0 0.0 0.0 0.0 0.0 0.0 0.0 0.0 0.0 0.0 0.0 0.0 0.0 0.0 0.0 0.0 0.0 0.0 0.0 0.0 0.0 0.0 0.0 0.0 0.0 0.0 0.0 0.0 0.0 0.0 0.0 0.0 0.0 0.0 0.0 0.0 0.0 0.0 0.0 0.0 0.0 0.0 0.0 0.0 0.0 0.0 0.0 0.0 0.0 0.0 0.0 0.0 0.0 0.0 0.0 0.0 0.0 0.0 0.0 0.0 0.0 0.0 0.0 0.0 0.0 0.0 0.0 0.0 0.0 0.0 0.0 0.0 0.0 0.0 0.0 0.0 0.0 0.0 0.0 0.0 0.0 0.0 0.0 0.0 0.0 0.0 0.0 0.0 0.0 0.0 0.0 0.0 0.0 0.0 0.0 0.0 0.0 0.0 0.0 0.0 0.0 0.0 0.0 0.0 0.0 0.0 0.0 0.0 0.0 0.0 0.0 0.0 0.0 0.0 0.0 0.0 0.0 0.0 0.0 0.0 0.0 0.0 0.0 0.0 0.0 0.0 0.0 0.0 0.0 0.0 0.0 0.0 0.0 0.0 0.0 0.0 0.0 0.0 0.0 0.0 0.0 0.0 0.0 0.0 0.0 0.0 0.0 0.0 0.0 0.0 0.0 0.0 0.0 0.0 0.0 0.0 0.0 0.0 0.0 0.0 0.0 0.0 0.0 0.0 0.0 0.0 0.0 0.0 0.0 0.0 0.0 0.0 0.0 0.0 0.0 0.0 0.0 0.0 0.0 0.0 0.0 0.0 0.0 0.0 0.0 0.0 0.0 0.0 0.0 0.0 0.0 0.0 0.0 0.0 0.0 0.0 0.0 0.0 0.0 0.0 0.0 0.0 0.0 0.0 0.0 0.0 0.0 0.0 0.0 0.0 0.0 0.0 0.0 0.0 0.0 0.0 0.0 0.0 0.0 0.0 0.0 0.0 0.0 0.0 0.0 0.0 0.0 0.0 0.0 0.0 0.0 0.0 0.0 0.0 0.0 0.0 0.0 0.0 0.0 0.0 0.0 0.0 0.0 0.0 0.0 0.0 0.0 0.0 0.0 0.0 0.0 0.0 0.0 0.0 0.0 0.0 0.0 0.0 0.0 0.0 0.0 0.0 0.0 0.0 0.0 0.0 0.0 0.0 0.0 0.0 0.0 0.0 0.0 0.0 0.0 0.0 0.0 0.0 0.0 0.0 0.0 0.0 0.0 0.0 0.0 0.0 0.0 0.0 0.0 0.0 0.0 0.0 0.0 0.0 0.0 0.0 0.0 0.0 0.0 0.0 0.0 0.0 0.0 0.0 0.0 0.0 0.0 0.0 0.0 0.0 0.0 0.0 0.0 0.0 0.0 0.0 0.0 0.0 0.0 0.0 0.0 0.0 0.0 0.0 0.0 0.0 0.0 0.0 0.0 0.0 0.0 0.0 0.0 0.0 0.0 0.0 0.0 0.0 0.0 0.0 0.0 0.0 0.0 0.0 0.0 0.0 0.0 0.0 0.0 0.0 0.0 0.0 0.0 0.0 0.0 0.0 0.0 0.0 0.0 0.0 0.0 0.0 0.0 0.0 0.0 0.0 0.0 0.0 0.0 0.0 0.0 0.0 0.0 0.0 0.0 0.0 0.0 0.0 0.0 0.0 0.0 0.0 0.0 0.0 0.0 0.0 0.0 0.0 0.0 0.0 0.0 0.0 0.0 0.0 0.0 0.0 0.0 0.0 0.0 0.0 0.0 0.0 0.0 0.0 0.0 0.0 0.0 0.0 0.0 0.0 0.0 0.0 0.0 0.0 0.0 0.0 0.0 0.0 0.0 0.0 0.0 0.0 0.0 0.0 0.0 0.0 0.0 0.0 0.0 0.0 0.0 0.0 0.0 0.0 0.0 0.0 0.0 0.0 0.0 0.0 0.0 0.0 0.0 0.0 0.0 0.0 0.0 0.0 0.0 0.0 0.0 0.0 0.0 0.0 0.0 0.0 0.0 0.0 0.0 0.0 0.0 0.0 0.0 0.0 0.0 0.0 0.0 0.0 0.0 0.0 0.0 0.0 0.0 0.0 0.0 0.0 0.0 0.0 0.0 0.0 0.0 0.0 0.0 -2.9819657E+002 -9.7099145E+001 -1.4926668E+002 -4.8323237E+001 -2.4529707E+002 -3.9692165E+002 -1.8162381E+002  2.1052199E+002  8.4507666E+002 -1.8243201E+002 -5.7920114E+002 -3.6293600E+002 -8.7647882E+001  9.9865748E+000  1.1964474E+002  3.4436058E+001  1.3537452E+002 -5.2934401E+001 -3.1734658E+002 -1.2294873E+002 -4.2956120E+001 -2.1108404E+001 -2.4916605E+001 -2.0692513E+001 -6.3532346E+001 -4.9084777E+001 -1.3397151E+001 -1.1594257E+001 -1.0993079E+002  7.5851602E+000  5.6335125E+001  1.5717006E+002  6.1045965E+002  2.0636129E+002  1.6069456E+002 -4.5069721E+002 -2.7144618E+002 -8.8061254E+001 -1.2098505E+002 -3.7367491E+002 -1.0640880E+002  4.4744489E+001  1.1571347E+002  4.0017204E+001 -1.3176747E+001 -2.4436235E+001  8.7556061E+002  2.2687556E+002  3.1537204E+002 -4.0206921E+002 -9.5457424E+001 -7.9398397E+001 -2.7733326E+002 -1.8829216E+002 -2.2597541E+001  6.4230747E+001  1.1942226E+001 -2.1087149E+001 -8.3257869E+001 -6.0939993E+001 -8.4383311E+001 -8.0902441E+001 -4.7814539E+001 -6.3212674E+000 -4.7926057E+001 -4.5346488E+001 -1.5870349E+001 -5.0993531E+001 -3.0457823E+001  2.7449361E+001  1.0144899E+002  2.6719265E+001  1.3244714E+002  1.4009759E+002 -1.0376058E+001  1.1214233E+001 -2.4596286E+002 -1.3438251E+002 -1.7137346E+002 -8.8939635E+001 -1.2822927E+002 -3.8973412E+001  5.2690336E+001 -6.1318740E+001 -8.4489643E+001  2.8312144E+001  5.6845422E+002 -7.6536889E+001 -8.9094639E+001 -2.4996240E+002 -2.5764160E+001 -5.2735977E+001 -1.4840590E+002 -1.5269202E+001 -9.9216194E+001  3.6597113E+001 -1.7279066E+002 -2.7502060E+002 -3.3376370E+002 -4.9595419E+002 -4.6312767E+002 -3.0371158E+002 -3.9932018E+002 -4.4440319E+002 -3.1642540E+002 -4.5287878E+002 -4.0715122E+002 -2.2899037E+002 -2.9634180E+002 -3.1803429E+002 -3.6527948E+002 -5.1009048E+002 -1.8397941E+002 -3.0720758E+002 -3.1596958E+002 -1.6049044E+002 -2.3548427E+001 -8.6273776E+001 -5.1178521E+001 -9.3808067E+001 -1.0489757E+002 -8.1950489E+001 -4.8598086E+001 -8.2582007E+001 -8.1276640E+000 -5.8548477E+001  1.7130941E+002  3.6895388E+002  7.6111230E+002  5.9796094E+002  1.1291839E+003  9.0635087E+002 -1.9483190E-001 -1.0439473E+001  4.8008527E+000 -3.9245676E+000  2.0846914E+002  1.6000103E+002  1.1908378E+002  3.5228820E+001  2.6862747E+001 -3.4081652E+000 -3.5770001E+001 -1.0725130E+002  1.2416482E+000 -7.1867456E+001 -8.5506899E+001 -1.6985550E+002 -1.5211806E+002 -2.0860058E+002 -3.3711751E+001 -9.3432678E+001 -3.6868121E+001  2.0532533E+001 -1.9838941E+002 -3.4124913E+002 -6.5914887E+001 -2.2523898E+002 -3.6547946E+001 -1.6562363E+002 -1.7314592E+002 -3.0787516E+002  2.6960750E+001 -2.0976677E+001 -6.0179601E+001 -1.5043231E+002 -1.9526554E+002  1.7001939E+002  1.4619780E+002  5.4355368E+001  3.7258457E+001  2.3412857E+001 -8.0878600E+001  3.6981238E+001 -3.3029883E+001 -9.5156280E+001 -5.1700058E+001  2.2923296E+001 -5.9065172E+001  8.4063585E+001  1.6767447E+002  1.2228040E+002 -2.7326815E+001  2.2257137E+001 -5.5742572E+001  8.4158412E+000 -5.9374086E+001  3.9640849E+002  8.9944813E+001  5.7305737E+001 -1.0789339E+002 -2.8443158E+002  2.3019652E+002  4.0384716E+002 -8.0436311E+001 -1.4983528E+002 -1.9790189E+002 -3.9101125E+002  1.8603076E+002  2.7256800E+002 -1.1491378E+002 -1.4045908E+001  4.9952638E+002 -9.6870347E+001 -3.7436855E+001 -7.9827162E+001  1.4196227E+002  1.2833321E+002  6.6002824E+001  2.8650960E+001 -4.3493100E+002 -4.0353336E+002 -2.3944187E+002 -9.4366792E+000 -9.2628628E+001  6.8348591E+002 -3.5599868E+002 -4.4191060E+002 -2.0866349E+002 -2.3733326E+001  1.6047801E+002 -7.4271143E+001 -3.3933985E+002 -2.7822020E+002  3.4173139E+002  5.5778365E+002  1.0967398E+002  3.8110543E+001  5.4722157E+001 -1.1417796E+001  5.2148046E+002  4.0444280E+002 -8.1774395E+001  4.1391226E-001  3.2336275E+002  2.6228340E+002  1.1758309E+002 -9.3711641E+001 -7.1531447E+001 -6.6639637E+001 -4.4144876E+001 -5.4434425E+001 -1.5546658E+001 -5.7983991E+002 -6.0093606E+002 -3.9842201E+002 -3.2662762E+002 -9.2272539E+001 -5.5584853E+001 -4.2358928E+001 -3.2553152E+001  1.2655165E+001  7.9383007E+001  1.0060729E+001  1.0076984E+002 -8.5018359E+001 -6.4983541E+001 -3.8082379E+002 -2.2870308E+002  5.5536683E+001  1.6810518E+002  2.4482300E+002  4.6226490E+002  5.7181610E+000 -2.4891415E+002  6.9087182E+001 -2.7643542E-001 -2.3282938E+002 -2.8030606E+002 -2.3337433E+002 -3.5247277E+002 -2.6184413E+002  3.6813131E+001 -4.6220990E+002 -1.4755643E+002  3.1819029E+002 -4.8521603E+001 -8.3915448E+001  5.5478249E+001 -2.3601434E+001 -2.7366830E+001  6.1758192E+001 -7.3525251E+002  1.0692127E+003 -1.7242956E+002  5.4439181E+002 -7.7933955E+001 -4.4948763E+001 -2.4577222E+002 -4.1830535E+002 -4.9282259E+002 -2.4528339E+002 -2.4752388E+001 -1.5563975E+002 -3.1262038E+001  1.0304565E+002 -2.0427564E+002 -4.9882161E+001 -1.9610836E+002  8.2376850E+002 -3.8127839E+002  1.7965544E+002 -2.5467698E+002 -6.2176385E+002 -2.0005155E+002  1.1889318E+002 -5.6700252E+000  8.9790260E+001 -2.4110241E+002  1.2195536E+003 -1.0243584E+002 -1.7068026E+002  1.2553420E+003  1.1642051E+002 -3.8223346E+002  2.5348189E+002 -1.7427492E+002  6.6371898E+001 -5.2431427E+001 -4.2170776E+001 -2.7911466E+002  5.8976578E+002 -1.3427162E+002 -2.1736720E+001 -1.0335139E+002  7.7068506E+001  6.6327482E+001 -5.5329734E+002  1.0197734E+002 -3.5760534E+001  9.4558668E+001  2.9938597E+001 -2.8281237E+000 -1.0247757E+002  9.0764215E+000 -1.1461339E+001 -1.9784412E+002 -1.9216876E+002  1.6492285E+001 -2.0568869E+002 -3.0650091E+002 -1.5931685E+002 -4.1227658E+002 -1.7552075E+002 -4.1445889E+002  5.5214315E+001 -3.8673312E+001 -2.8639513E+001  2.7447377E+002 -3.6135191E+002  2.5443548E+002  2.0018656E+002  6.2039086E+002  1.1326873E+002 -1.5209380E+001 -9.7896689E+001 -5.8031259E+001 -4.5323545E+001 -9.8473919E+001 -3.3088284E+001 -7.6942142E+001 -1.3752026E+002 -1.3243346E+002 -1.2616021E+002 -7.5125432E+001  1.5197091E+000  8.9526929E+001 -1.7425621E+002 -1.9721354E+002 -4.9122716E+002 -2.3766673E+001  1.0646747E+002 -4.1405597E+002 -2.3935820E+002 -1.4917511E+002  9.6051736E+002  4.1589836E+001  1.5783030E+001 -1.9887314E+003 -3.2530383E+002 -3.1087202E+002 -1.8344065E+002 -1.9054541E+001 -1.2825429E+002 -1.8685676E+002 -1.3893580E+002 -3.7957012E+002 -4.7017263E+001 -2.9565891E+002 -3.0299990E+002 -4.8269052E+002 -2.4465256E+002 -2.0840893E+002  1.5657338E+002 -3.0333875E+002 -2.5342294E+002 -1.6128960E+002  2.2386756E+002 -3.4569990E+002 -2.6888872E+002 -2.0078917E+001  1.0920768E+003 -4.1551832E+002  1.4601465E+002  1.3349936E+002  2.2551062E+002  3.9399410E+002 -8.6482236E+001 -1.3865989E+002 -1.7110590E+002 0.0 0.0 0.0 0.0 0.0 0.0 0.0 0.0 0.0 0.0 0.0 0.0 0.0 0.0 0.0 0.0 0.0 0.0 0.0 0.0 0.0 0.0 0.0 0.0 0.0 0.0 0.0 0.0 0.0 0.0 0.0 0.0 0.0 0.0 0.0 0.0 0.0 0.0 0.0 0.0 0.0 0.0 0.0 0.0 0.0 0.0 0.0 0.0 0.0 0.0 0.0 0.0 0.0 0.0 0.0 0.0 0.0 0.0 0.0 0.0 0.0 0.0 0.0 0.0 0.0 0.0 0.0 0.0 0.0 0.0 0.0 0.0 0.0 0.0 0.0 0.0 0.0 0.0 0.0 0.0 0.0 0.0 0.0 0.0 0.0 0.0 0.0 0.0 0.0 0.0 0.0 0.0 0.0 0.0 0.0 0.0 0.0 0.0 0.0 0.0 0.0 0.0 0.0 0.0 0.0 0.0 0.0 0.0 0.0 0.0 0.0 0.0 0.0 0.0 0.0 0.0 0.0 0.0 0.0 0.0 0.0 0.0 0.0 0.0 0.0 0.0 0.0 0.0 0.0 0.0 0.0 0.0 0.0 0.0 0.0 0.0 0.0 0.0 0.0 0.0 0.0 0.0 0.0 0.0 0.0 0.0 0.0 0.0 0.0 0.0 0.0 0.0 0.0 0.0 0.0 0.0 0.0 0.0 0.0 0.0 0.0 0.0 0.0 0.0 0.0 0.0 0.0 0.0 0.0 0.0 0.0 0.0 0.0 0.0 0.0 0.0 0.0 0.0 0.0 0.0 0.0 0.0 0.0 0.0 0.0 0.0 0.0 0.0 0.0 0.0 0.0 0.0 0.0 0.0 0.0 0.0 0.0 0.0 0.0 0.0 0.0 0.0 0.0 0.0 0.0 0.0 0.0 0.0 0.0 0.0 0.0 0.0 0.0 0.0 0.0 0.0 0.0 0.0 0.0 0.0 0.0 0.0 0.0 0.0 0.0 0.0 0.0 0.0 0.0 0.0 0.0 0.0 0.0 0.0 0.0 0.0 0.0 0.0 0.0 0.0 0.0 0.0 0.0 0.0 0.0 0.0 0.0 0.0 0.0 0.0 0.0 0.0 0.0 0.0 0.0 0.0 0.0 0.0 0.0 0.0 0.0 0.0 0.0 0.0 0.0 0.0 0.0 0.0 0.0 0.0 0.0 0.0 0.0 0.0 0.0 0.0 0.0 0.0 0.0 0.0 0.0 0.0 0.0 0.0 0.0 0.0 0.0 0.0 0.0 0.0 0.0 0.0 0.0 0.0 0.0 0.0 0.0 0.0 0.0 0.0 0.0 0.0 0.0 0.0 0.0 0.0 0.0 0.0 0.0 0.0 0.0 0.0 0.0 0.0 0.0 0.0 0.0 0.0 0.0 0.0 0.0 0.0 0.0 0.0 0.0 0.0 0.0 0.0 0.0 0.0 0.0 0.0 0.0 0.0 0.0 0.0 0.0 0.0 0.0 0.0 0.0 0.0 0.0 0.0 0.0 0.0 0.0 0.0 0.0 0.0 0.0 0.0 0.0 0.0 0.0 0.0 0.0 0.0 0.0 0.0 0.0 0.0 0.0 0.0 0.0 0.0 0.0 0.0 0.0 0.0 0.0 0.0 0.0 0.0 0.0 0.0 0.0 0.0 0.0 0.0 0.0 0.0 0.0 0.0 0.0 0.0 0.0 0.0 0.0 0.0 0.0 0.0 0.0 0.0 0.0 0.0 0.0 0.0 0.0 0.0 0.0 0.0 0.0 0.0 0.0 0.0 0.0 0.0 0.0 0.0 0.0 0.0 0.0 0.0 0.0 0.0 0.0 0.0 0.0 0.0 0.0 0.0 0.0 0.0 0.0 0.0 0.0 0.0 0.0 0.0 0.0 0.0 0.0 0.0 0.0 0.0 0.0 0.0 0.0 0.0 0.0 0.0 0.0 0.0 0.0 0.0 0.0 0.0 0.0 0.0 0.0 0.0 0.0 0.0 0.0 0.0 0.0 0.0 0.0 0.0 0.0 0.0 0.0 0.0 0.0 0.0 0.0 0.0 0.0 0.0 0.0 0.0 0.0 0.0 0.0 0.0 0.0 0.0 0.0 0.0 0.0 0.0 0.0 0.0 0.0 0.0 0.0 0.0 0.0 0.0 0.0 0.0 0.0 0.0 0.0 0.0 0.0 0.0 0.0 0.0 0.0 0.0 0.0 0.0 0.0 0.0 0.0 0.0 0.0 0.0 0.0 0.0 0.0 0.0 0.0 0.0 0.0 0.0 0.0 0.0 0.0 0.0 0.0 0.0 0.0 0.0 0.0 0.0 0.0 0.0 0.0 0.0 0.0 0.0 0.0 0.0 0.0 0.0 0.0 0.0 0.0 0.0 0.0 0.0 0.0 0.0 0.0 0.0 0.0 0.0 0.0 0.0 0.0 0.0 0.0 0.0 0.0 0.0 0.0 0.0 0.0 0.0 0.0 0.0 0.0 0.0 0.0 0.0 0.0 0.0 0.0 0.0 0.0 0.0 0.0 0.0 0.0 0.0 0.0 0.0 0.0 0.0 0.0 0.0 0.0 0.0 0.0 0.0 0.0 0.0 0.0 0.0 0.0 0.0 0.0 0.0 0.0 0.0 0.0 0.0 0.0 0.0 0.0 0.0 0.0 0.0 0.0 0.0 0.0 0.0 0.0 0.0 0.0 0.0 0.0 0.0 0.0 0.0 0.0 0.0 0.0 0.0 0.0 0.0 0.0 0.0 0.0 0.0 0.0 0.0 0.0 0.0 0.0 0.0 0.0 0.0 0.0 0.0 0.0 0.0 0.0 0.0 0.0 0.0 0.0 0.0 0.0 0.0 0.0 0.0 0.0 0.0 0.0 0.0 0.0 0.0 0.0 0.0 0.0 0.0 0.0 0.0 0.0 0.0 0.0 0.0 0.0 0.0 0.0 0.0 0.0 0.0 0.0 0.0 0.0 0.0 0.0 0.0 0.0 0.0 0.0 0.0 0.0 0.0 0.0 0.0 0.0 0.0 0.0 0.0 0.0 0.0 0.0 0.0 0.0 0.0 0.0 0.0 0.0 0.0 0.0 0.0 0.0 0.0 0.0 0.0 0.0 0.0 0.0 0.0 0.0 0.0 0.0 0.0 0.0 0.0 0.0 0.0 0.0 0.0 0.0 0.0 0.0 0.0 0.0 0.0 0.0 0.0 0.0 0.0 0.0 0.0 0.0 0.0 0.0 0.0 0.0 0.0 0.0 0.0 0.0 0.0 0.0 0.0 0.0 0.0 0.0 0.0 0.0 0.0 0.0 0.0 0.0 0.0 0.0 0.0 0.0 0.0 0.0 0.0 0.0 0.0 0.0 0.0 0.0 0.0 0.0 0.0 0.0 0.0 0.0 0.0 0.0 0.0 0.0 0.0 0.0 0.0 0.0 0.0 0.0 0.0 0.0 0.0 0.0 0.0 0.0 0.0 0.0 0.0 0.0 0.0 0.0 0.0 0.0 0.0 0.0 0.0 0.0 0.0 0.0 0.0 0.0 0.0 0.0 0.0 0.0 0.0 0.0 0.0 0.0 0.0 0.0 0.0 0.0 0.0 0.0 0.0 0.0 0.0 0.0 0.0 0.0 0.0 0.0 0.0 0.0 0.0 0.0 0.0 0.0 0.0 0.0 0.0 0.0 0.0 0.0 0.0 0.0 0.0 0.0 0.0 0.0 0.0 0.0 0.0 0.0 0.0 0.0 0.0 0.0 0.0 0.0 0.0 0.0 0.0 0.0 0.0 0.0 0.0 0.0 0.0 0.0 0.0 0.0 0.0 0.0 0.0 0.0 0.0 0.0 0.0 0.0 0.0 0.0 0.0 0.0 0.0 0.0 0.0 0.0 0.0 0.0 0.0 0.0 0.0 0.0 0.0 0.0 0.0 0.0 0.0 0.0 0.0 0.0 0.0 0.0 0.0 0.0 0.0 0.0 0.0 0.0 0.0 0.0 0.0 0.0 0.0 0.0 0.0 0.0 0.0 0.0 0.0 0.0 0.0 0.0 0.0 0.0 0.0 0.0 0.0 0.0 0.0 0.0 0.0 0.0 0.0 0.0 0.0 0.0 0.0 0.0 0.0 0.0 0.0 0.0 0.0 0.0 0.0 0.0 0.0 0.0 0.0 0.0 0.0 0.0 0.0 0.0 0.0 0.0 0.0 0.0 0.0 0.0 0.0 0.0 0.0 0.0 0.0 0.0 0.0 0.0 0.0 0.0 0.0 0.0 0.0 0.0 0.0 0.0 0.0 0.0 0.0 0.0 0.0 0.0 0.0 0.0 0.0 0.0 0.0 0.0 0.0 0.0 0.0 0.0 0.0 0.0 0.0 0.0 0.0 0.0 0.0 0.0 0.0 0.0 0.0 0.0 0.0 0.0 0.0 0.0 0.0 0.0 0.0 0.0 0.0 0.0 0.0 0.0 0.0 0.0 0.0 0.0 0.0 0.0 0.0 0.0 0.0 0.0 0.0 0.0 0.0 0.0 0.0 0.0 0.0 0.0 0.0 0.0 0.0 0.0 0.0 0.0 0.0 0.0 0.0 0.0 0.0 0.0 0.0 0.0 0.0 0.0 0.0 0.0 0.0 0.0 0.0 0.0 0.0 0.0 0.0 0.0 0.0 0.0 0.0 0.0 0.0 0.0 0.0 0.0 0.0 0.0 0.0 0.0 0.0 0.0 0.0 0.0 0.0 0.0 0.0 0.0 0.0 0.0 0.0 0.0 0.0 0.0 0.0 0.0 0.0 0.0 0.0 0.0 0.0 0.0 0.0 0.0 0.0 0.0 0.0 0.0 0.0 0.0 0.0 0.0 0.0 0.0 0.0 0.0 0.0 0.0 0.0 0.0 0.0 0.0 0.0 0.0 0.0 0.0 0.0 0.0 0.0 0.0 0.0 0.0 0.0 0.0 0.0 0.0 0.0 0.0 0.0 0.0 0.0 0.0 0.0 0.0 0.0 0.0 0.0 0.0 0.0 0.0 0.0 0.0 0.0 0.0 0.0 0.0 0.0 0.0 0.0 0.0 0.0 0.0 0.0 0.0 0.0 0.0 0.0 0.0 0.0 0.0 0.0 0.0 0.0 0.0 0.0 0.0 0.0 0.0 0.0 0.0 0.0 0.0 0.0 0.0 0.0 0.0 0.0 0.0 0.0 0.0 0.0 0.0 0.0 0.0 0.0 0.0 0.0 0.0 0.0 0.0 0.0 0.0 0.0 0.0 0.0 0.0 0.0 0.0 0.0 0.0 0.0 0.0 0.0 0.0 0.0 0.0 0.0 0.0 0.0 0.0 0.0 0.0 0.0 0.0 0.0 0.0 0.0 0.0 0.0 0.0 0.0 0.0 0.0 0.0 0.0 0.0 0.0 0.0 0.0 0.0 0.0 0.0 0.0 0.0 0.0 0.0 0.0 0.0 0.0 0.0 0.0 0.0 0.0 0.0 0.0 0.0 0.0 0.0 0.0 0.0 0.0 0.0 0.0 0.0 0.0 0.0 0.0
        </DataArray>
        <DataArray type="Float64" Name="stress_yz" NumberOfComponents="1" format="ascii">
 0.0 0.0 0.0 0.0 0.0 0.0 0.0 0.0 0.0 0.0 0.0 0.0 0.0 0.0 0.0 0.0 0.0 0.0 0.0 0.0 0.0 0.0 0.0 0.0 0.0 0.0 0.0 0.0 0.0 0.0 0.0 0.0 0.0 0.0 0.0 0.0 0.0 0.0 0.0 0.0 0.0 0.0 0.0 0.0 0.0 0.0 0.0 0.0 0.0 0.0 0.0 0.0 0.0 0.0 0.0 0.0 0.0 0.0 0.0 0.0 0.0 0.0 0.0 0.0 0.0 0.0 0.0 0.0 0.0 0.0 0.0 0.0 0.0 0.0 0.0 0.0 0.0 0.0 0.0 0.0 0.0 0.0 0.0 0.0 0.0 0.0 0.0 0.0 0.0 0.0 0.0 0.0 0.0 0.0 0.0 0.0 0.0 0.0 0.0 0.0 0.0 0.0 0.0 0.0 0.0 0.0 0.0 0.0 0.0 0.0 0.0 0.0 0.0 0.0 0.0 0.0 0.0 0.0 0.0 0.0 0.0 0.0 0.0 0.0 0.0 0.0 0.0 0.0 0.0 0.0 0.0 0.0 0.0 0.0 0.0 0.0 0.0 0.0 0.0 0.0 0.0 0.0 0.0 0.0 0.0 0.0 0.0 0.0 0.0 0.0 0.0 0.0 0.0 0.0 0.0 0.0 0.0 0.0 0.0 0.0 0.0 0.0 0.0 0.0 0.0 0.0 0.0 0.0 0.0 0.0 0.0 0.0 0.0 0.0 0.0 0.0 0.0 0.0 0.0 0.0 0.0 0.0 0.0 0.0 0.0 0.0 0.0 0.0 0.0 0.0 0.0 0.0 0.0 0.0 0.0 0.0 0.0 0.0 0.0 0.0 0.0 0.0 0.0 0.0 0.0 0.0 0.0 0.0 0.0 0.0 0.0 0.0 0.0 0.0 0.0 0.0 0.0 0.0 0.0 0.0 0.0 0.0 0.0 0.0 0.0 0.0 0.0 0.0 0.0 0.0 0.0 0.0 0.0 0.0 0.0 0.0 0.0 0.0 0.0 0.0 0.0 0.0 0.0 0.0 0.0 0.0 0.0 0.0 0.0 0.0 0.0 0.0 0.0 0.0 0.0 0.0 0.0 0.0 0.0 0.0 0.0 0.0 0.0 0.0 0.0 0.0 0.0 0.0 0.0 0.0 0.0 0.0 0.0 0.0 0.0 0.0 0.0 0.0 0.0 0.0 0.0 0.0 0.0 0.0 0.0 0.0 0.0 0.0 0.0 0.0 0.0 0.0 0.0 0.0 0.0 0.0 0.0 0.0 0.0 0.0 0.0 0.0 0.0 0.0 0.0 0.0 0.0 0.0 0.0 0.0 0.0 0.0 0.0 0.0 0.0 0.0 0.0 0.0 0.0 0.0 0.0 0.0 0.0 0.0 0.0 0.0 0.0 0.0 0.0 0.0 0.0 0.0 0.0 0.0 0.0 0.0 0.0 0.0 0.0 0.0 0.0 0.0 0.0 0.0 0.0 0.0 0.0 0.0 0.0 0.0 0.0 0.0 0.0 0.0 0.0 0.0 0.0 0.0 0.0 0.0 0.0 0.0 0.0 0.0 0.0 0.0 0.0 0.0 0.0 0.0 0.0 0.0 0.0 0.0 0.0 0.0 0.0 0.0 0.0 0.0 0.0 0.0 0.0 0.0 0.0 0.0 0.0 0.0 0.0 0.0 0.0 0.0 0.0 0.0 0.0 0.0 0.0 0.0 0.0 0.0 0.0 0.0 0.0 0.0 0.0 0.0 0.0 0.0 0.0 0.0 0.0 0.0 0.0 0.0 0.0 0.0 0.0 0.0 0.0 0.0 0.0 0.0 0.0 0.0 0.0 0.0 0.0 0.0 0.0 0.0 0.0 0.0 0.0 0.0 0.0 0.0 0.0 0.0 0.0 0.0 0.0 0.0 0.0 0.0 0.0 0.0 0.0 0.0 0.0 0.0 0.0 0.0 0.0 0.0 0.0 0.0 0.0 0.0 0.0 0.0 0.0 0.0 0.0 0.0 0.0 0.0 0.0 0.0 0.0 0.0 0.0 0.0 0.0 0.0 0.0 0.0 0.0 0.0 0.0 0.0 0.0 0.0 0.0 0.0 0.0 0.0 0.0 0.0 0.0 0.0 0.0 0.0 0.0 0.0 0.0 0.0 0.0 0.0 0.0 0.0 0.0 0.0 0.0 0.0 0.0 0.0 0.0 0.0 0.0 0.0 0.0 0.0 0.0 0.0 0.0 0.0 0.0 0.0 0.0 0.0 0.0 0.0 0.0 0.0 0.0 0.0 0.0 0.0 0.0 0.0 0.0 0.0 0.0 0.0 0.0 0.0 0.0 0.0 0.0 0.0 0.0 0.0 0.0 0.0 0.0 0.0 0.0 0.0 0.0 0.0 0.0 0.0 0.0 0.0 0.0 0.0 0.0 0.0 0.0 0.0 0.0 0.0 0.0 0.0 0.0 0.0 0.0 0.0 0.0 0.0 0.0 0.0 0.0 0.0 0.0 0.0 0.0 0.0 0.0 0.0 0.0 0.0 0.0 0.0 0.0 0.0 0.0 0.0 0.0 0.0 0.0 0.0 0.0 0.0 0.0 0.0 0.0 0.0 0.0 0.0 0.0 0.0 0.0 0.0 0.0 0.0 0.0 0.0 0.0 0.0 0.0 0.0 0.0 0.0 0.0 0.0 0.0 0.0 0.0 0.0 0.0 0.0 0.0 0.0 0.0 0.0 0.0 0.0 0.0 0.0 0.0 0.0 0.0 0.0 0.0 0.0 0.0 0.0 0.0 0.0 0.0 0.0 0.0 0.0 0.0 0.0 0.0 0.0 0.0 0.0 0.0 0.0 0.0 0.0 0.0 0.0 0.0 0.0 0.0 0.0 0.0 0.0 0.0 0.0 0.0 0.0 0.0 0.0 0.0 0.0 0.0 0.0 0.0 0.0 0.0 0.0 0.0 0.0 0.0 0.0 0.0 0.0 0.0 0.0 0.0 0.0 0.0 0.0 0.0 0.0 0.0 0.0 0.0 0.0 0.0 0.0 0.0 0.0 0.0 0.0 0.0 0.0 0.0 0.0 0.0 0.0 0.0 0.0 0.0 0.0 0.0 0.0 0.0 0.0 0.0 0.0 0.0 0.0 0.0 0.0 0.0 0.0 0.0 0.0 0.0 0.0 0.0 0.0 0.0 0.0 0.0 0.0 0.0 0.0 0.0 0.0 0.0 0.0 0.0 0.0 0.0 0.0 0.0 0.0 0.0 0.0 0.0 0.0 0.0 0.0 0.0 0.0 0.0 0.0 0.0 0.0 0.0 0.0 0.0 0.0 0.0 0.0 0.0 0.0 0.0 0.0 0.0 0.0 0.0 0.0 0.0 0.0 0.0 0.0 0.0 0.0 0.0 0.0 0.0 0.0 0.0 0.0 0.0 0.0 0.0 0.0 0.0 0.0 0.0 0.0 0.0 0.0 0.0 0.0 0.0 0.0 0.0 0.0 0.0 0.0 0.0 0.0 0.0 0.0 0.0 0.0 0.0 0.0 0.0 0.0 0.0 0.0 0.0 0.0 0.0 0.0 0.0 0.0 0.0 0.0 0.0 0.0 0.0 0.0 0.0 0.0 0.0 0.0 0.0 0.0 0.0 0.0 0.0 0.0 0.0 0.0 0.0 0.0 0.0 0.0 0.0 0.0 0.0 0.0 0.0 0.0 0.0 0.0 0.0 0.0 0.0 0.0 0.0 0.0 0.0 0.0 0.0 0.0 0.0 0.0 0.0 0.0 0.0 0.0 0.0 0.0 0.0 0.0 0.0 0.0 0.0 0.0 0.0 0.0 0.0 0.0 0.0 0.0 0.0 0.0 0.0 0.0 0.0 0.0 0.0 0.0 0.0 0.0 0.0 0.0 0.0 0.0 0.0 0.0 0.0 0.0 0.0 0.0 0.0 0.0 0.0 0.0 0.0 0.0 0.0 0.0 0.0 0.0 0.0 0.0 0.0 0.0 0.0 0.0 0.0 0.0 0.0 0.0 0.0 0.0 0.0 0.0 0.0 0.0 0.0 0.0 0.0 0.0 0.0 0.0 0.0 0.0 0.0 0.0 0.0 0.0 0.0 0.0 0.0 0.0 0.0 0.0 0.0 0.0 0.0 0.0 0.0 0.0 0.0 0.0 0.0 0.0 0.0 0.0 0.0 0.0 0.0 0.0 0.0 0.0 0.0 0.0 0.0 0.0 0.0 0.0 0.0 0.0 0.0 0.0 0.0 0.0 0.0 0.0 0.0 0.0 0.0 0.0 0.0 0.0 0.0 0.0 0.0 0.0 0.0 0.0 0.0 0.0 0.0 0.0 0.0 0.0 0.0 0.0 0.0 0.0 0.0 0.0 0.0 0.0 0.0 0.0 0.0 0.0 0.0 0.0 0.0 0.0 0.0 0.0 0.0 0.0 0.0 0.0 0.0 0.0 0.0 0.0 0.0 0.0 0.0 0.0 0.0 0.0 0.0 0.0 0.0 0.0 0.0 0.0 0.0 0.0 0.0 0.0 0.0 0.0 0.0 0.0 0.0 0.0 0.0 0.0 0.0 0.0 0.0 0.0 0.0 0.0 0.0 0.0 0.0 0.0 0.0 0.0 0.0 0.0 0.0 0.0 0.0 0.0 0.0 0.0 0.0 0.0 0.0 0.0 0.0 0.0 0.0 0.0 0.0 0.0 0.0 0.0 0.0 0.0 0.0 0.0 0.0 0.0 0.0 0.0 0.0 0.0 0.0 0.0 0.0 0.0 0.0 0.0 0.0 0.0 0.0 0.0 0.0 0.0 0.0 0.0 0.0 0.0 0.0 0.0 0.0 0.0 0.0 0.0 0.0 0.0 0.0 0.0 0.0 0.0 0.0 0.0 0.0 0.0 0.0 0.0 0.0 0.0 0.0 0.0 0.0 0.0 0.0 0.0 0.0 0.0 0.0 0.0 0.0 0.0 0.0 0.0 0.0 0.0 0.0 0.0 0.0 0.0 0.0 0.0 0.0 0.0 0.0 0.0 0.0 0.0 0.0 0.0 0.0 0.0 0.0 0.0 0.0 0.0 0.0 0.0 0.0 0.0 0.0 0.0 0.0 0.0 0.0 0.0 0.0 0.0 0.0 0.0 0.0 0.0 0.0 0.0 0.0 0.0 0.0 0.0 0.0 0.0 0.0 0.0 0.0 0.0 0.0 0.0 0.0 0.0 0.0 0.0 0.0 0.0 0.0 0.0 0.0 0.0 0.0 0.0 0.0 0.0 0.0 0.0 0.0 0.0 0.0 0.0 0.0 0.0 0.0 0.0 0.0 0.0 0.0 0.0 0.0 0.0 0.0 0.0 0.0 0.0 0.0 0.0 0.0 0.0 0.0 0.0 0.0 0.0 0.0 0.0 0.0 0.0 0.0 0.0 0.0 0.0 0.0 0.0 0.0 0.0 0.0 0.0 0.0 0.0 0.0 0.0 0.0 0.0 0.0 0.0 0.0 0.0 0.0 0.0 0.0 0.0 0.0 0.0 0.0 0.0 0.0 0.0 0.0 0.0 0.0 0.0 0.0 0.0 0.0 0.0 0.0 0.0 0.0 0.0 0.0 0.0 0.0 0.0 0.0 0.0 0.0 0.0 0.0 0.0 0.0 0.0 0.0 0.0 0.0 0.0 0.0 0.0 0.0 0.0 0.0 0.0 0.0 0.0 0.0 0.0 0.0 0.0 0.0 0.0 0.0 0.0 0.0 0.0 0.0 0.0 0.0 0.0 0.0 0.0 0.0 0.0 0.0 0.0 0.0 0.0 0.0 0.0 0.0 0.0 0.0 0.0 0.0 0.0 0.0 0.0 0.0 0.0 0.0 0.0 0.0 0.0 0.0 0.0 0.0 0.0 0.0 0.0 0.0 0.0 0.0 0.0 0.0 0.0 0.0 0.0 0.0 0.0 0.0 0.0 0.0 0.0 0.0 0.0 0.0 0.0 0.0 0.0 0.0 0.0 0.0 0.0 0.0 0.0 0.0 0.0 0.0 0.0 0.0 0.0 0.0 0.0 0.0 0.0 0.0 0.0 0.0 0.0 0.0 0.0 0.0 0.0 0.0 0.0 0.0 0.0 0.0 0.0 0.0 0.0 0.0 0.0 0.0 0.0 0.0 0.0 0.0 0.0 0.0 0.0 0.0 0.0 0.0 0.0 0.0 0.0 0.0 0.0 0.0 0.0 0.0 0.0 0.0 0.0 0.0 0.0 0.0 0.0 0.0 0.0 0.0 0.0 0.0 0.0 0.0 0.0 0.0 0.0 0.0 0.0 0.0 0.0 0.0 0.0 0.0 0.0 0.0 0.0 0.0 0.0 0.0 0.0 0.0 0.0 0.0 0.0 0.0 0.0 0.0 0.0 0.0 0.0 0.0 0.0 0.0 0.0 0.0 0.0 0.0 0.0 0.0 0.0 0.0 0.0 0.0 0.0 0.0 0.0 0.0 0.0 0.0 0.0 0.0 0.0 0.0 0.0 0.0 0.0 0.0 0.0 0.0 0.0 0.0 0.0 0.0 0.0 0.0 0.0 0.0 0.0 0.0 0.0 0.0 0.0 0.0 0.0 0.0 0.0 0.0 0.0 0.0 0.0 0.0 0.0 0.0 0.0 0.0 0.0 0.0 0.0 0.0 0.0 0.0 0.0 0.0 0.0 0.0 0.0 0.0 0.0 0.0 0.0 0.0 0.0 0.0 0.0 0.0 0.0 0.0 0.0 0.0 0.0 0.0 0.0 0.0 0.0 0.0 0.0 0.0 0.0 0.0 0.0 0.0 0.0 0.0 0.0 0.0 0.0 0.0 0.0 0.0 0.0 0.0 0.0 0.0 0.0 0.0 0.0 0.0 0.0 0.0 0.0 0.0 0.0 0.0 0.0 0.0 0.0 0.0 0.0 0.0 0.0 0.0 0.0 0.0 0.0 0.0 0.0 0.0 0.0 0.0 0.0 0.0 0.0 0.0 0.0 0.0 0.0 0.0 0.0 0.0 0.0 0.0 0.0 0.0 0.0 0.0 0.0 0.0 0.0 0.0 0.0 0.0 0.0 0.0 0.0 0.0 0.0 0.0 0.0 0.0 0.0 0.0 0.0 0.0 0.0 0.0 0.0 0.0 0.0 0.0 0.0 0.0 0.0 0.0 0.0 0.0 0.0 0.0 0.0 0.0 0.0 0.0 0.0 0.0 0.0 0.0 0.0 0.0 0.0 0.0 0.0 0.0 0.0 0.0 0.0 0.0 0.0 0.0 0.0 0.0 0.0 0.0 0.0 0.0 0.0 0.0 0.0 0.0 0.0 0.0 0.0 0.0 0.0 0.0 0.0 0.0 0.0 0.0 0.0 0.0 0.0 0.0 0.0 0.0 0.0 0.0 0.0 0.0 0.0 0.0 0.0 0.0 0.0 0.0 0.0 0.0 0.0 0.0 0.0 0.0 0.0 0.0 0.0 0.0 0.0 0.0 0.0 0.0 0.0 0.0 0.0 0.0 0.0 0.0 0.0 0.0 0.0 0.0 0.0 0.0 0.0 0.0 0.0 0.0 0.0 0.0 0.0 0.0 0.0 0.0 0.0 0.0 0.0 0.0 0.0 0.0 0.0 0.0 0.0 0.0 0.0 0.0 0.0 0.0 0.0 0.0 0.0 0.0 0.0 0.0 0.0 0.0 0.0 0.0 0.0 0.0 0.0 0.0 0.0 0.0 0.0 0.0 0.0 0.0 0.0 0.0 0.0 0.0 0.0 0.0 0.0 0.0 0.0 0.0 0.0 0.0 0.0 0.0 0.0 0.0 0.0 0.0 0.0 0.0 0.0 0.0 0.0 0.0 0.0 0.0 0.0 0.0 0.0 0.0 0.0 0.0 0.0 0.0 0.0 0.0 0.0 0.0 0.0 0.0 0.0 0.0 0.0 0.0 0.0 0.0 0.0 0.0 0.0 0.0 0.0 0.0 0.0 0.0 0.0 0.0 0.0 0.0 0.0 0.0 0.0 0.0 0.0 0.0 0.0 0.0 0.0 0.0 0.0 0.0 0.0 0.0 0.0 0.0 0.0 0.0 0.0 0.0 0.0 0.0 0.0 0.0 0.0 0.0 0.0 0.0 0.0 0.0 0.0 0.0 0.0 0.0 0.0 0.0 0.0 0.0 0.0 0.0 0.0 0.0 0.0 0.0 0.0 0.0 0.0 0.0 0.0 0.0 0.0 0.0 0.0 0.0 0.0 0.0 0.0 0.0 0.0 0.0 0.0 0.0 0.0 0.0 0.0 0.0 0.0 0.0 0.0 0.0 0.0 0.0 0.0 0.0 0.0 0.0 0.0 0.0 0.0 0.0 0.0 0.0 0.0 0.0 0.0 0.0 0.0 0.0 0.0 0.0 0.0 0.0 0.0 0.0 0.0 0.0 0.0 0.0 0.0 0.0 0.0 0.0 0.0 0.0 0.0 0.0 0.0 0.0 0.0 0.0 0.0 0.0 0.0 0.0 0.0 0.0 0.0 0.0 0.0 0.0 0.0 0.0 0.0 0.0 0.0 0.0 0.0 0.0 0.0 0.0 0.0 0.0 0.0 0.0 0.0 0.0 0.0 0.0 0.0 0.0 0.0 0.0 0.0 0.0 0.0 0.0 0.0 0.0 0.0 0.0 0.0 0.0 0.0 0.0 0.0 0.0 0.0 0.0 0.0 0.0 0.0 0.0 0.0 0.0 0.0 0.0 0.0 0.0 0.0 0.0 0.0 0.0 0.0 0.0 0.0 0.0 0.0 0.0 0.0 0.0 0.0 0.0 0.0 0.0 0.0 0.0 0.0 0.0 0.0 0.0 0.0 0.0 0.0 0.0 0.0 0.0 0.0 0.0 0.0 0.0 0.0 0.0 0.0 0.0 0.0 0.0 0.0 0.0 0.0 0.0 0.0 0.0 0.0 0.0 0.0 0.0 0.0 0.0 0.0 0.0 0.0 0.0 0.0 0.0 0.0 0.0 0.0 0.0 0.0 0.0 0.0 0.0 0.0 0.0 0.0 0.0 0.0 0.0 0.0 0.0 0.0 0.0 0.0 0.0 0.0 0.0 0.0 0.0 0.0 0.0 0.0 0.0 0.0 0.0 0.0 0.0 0.0 0.0 0.0 0.0 0.0 0.0 0.0 0.0 0.0 0.0 0.0 0.0 0.0 0.0 0.0 0.0 0.0 0.0 0.0 0.0 0.0 0.0 0.0 0.0 0.0 0.0 0.0 0.0 0.0 0.0 0.0 0.0 0.0 0.0 0.0 0.0 0.0 0.0 0.0 0.0 0.0 0.0 0.0 0.0 0.0 0.0 0.0 0.0 0.0 0.0 0.0 0.0 0.0 0.0 0.0 0.0 0.0 0.0 0.0 0.0 0.0 0.0 0.0 0.0 0.0 0.0 0.0 0.0 0.0 0.0 0.0 0.0 0.0 0.0 0.0 0.0 0.0 0.0 0.0 0.0 0.0 0.0 0.0 0.0 0.0 0.0 0.0 0.0 0.0 0.0 0.0 0.0 0.0 0.0 0.0 0.0 0.0 0.0 0.0 0.0 0.0 0.0 0.0 0.0 0.0 0.0 0.0 0.0 0.0 0.0 0.0 0.0 0.0 0.0 0.0 0.0 0.0 0.0 0.0 0.0 0.0 0.0 0.0 0.0 0.0 0.0 0.0 0.0 0.0 0.0 0.0 0.0 0.0 0.0 0.0 0.0 0.0 0.0 0.0 0.0 0.0 0.0 0.0 0.0 0.0 0.0 0.0 0.0 0.0 0.0 0.0 0.0 0.0 0.0 0.0 0.0 0.0 0.0 0.0 0.0 0.0 0.0 0.0 0.0 0.0 0.0 0.0 0.0 0.0 0.0 0.0 0.0 0.0 0.0 0.0 0.0 0.0 0.0 0.0 0.0 0.0 0.0 0.0 0.0 0.0 0.0 0.0 0.0 0.0 0.0 0.0 0.0 0.0 0.0 0.0 0.0 0.0 0.0 0.0 0.0 0.0 0.0 0.0 0.0 0.0 0.0 0.0 0.0 0.0 0.0 0.0 0.0 0.0 0.0 0.0 0.0 0.0 0.0 0.0 0.0 0.0 0.0 0.0 0.0 0.0 0.0 0.0 0.0 0.0 0.0 0.0 0.0 0.0 0.0 0.0 0.0 0.0 0.0 0.0 0.0 0.0 0.0 0.0 0.0 0.0 0.0 0.0 0.0 0.0 0.0 0.0 0.0 0.0 0.0 0.0 0.0 0.0 0.0 0.0 0.0 0.0 0.0 0.0 0.0 0.0 0.0 0.0 0.0 0.0 0.0 0.0 0.0 0.0 0.0 0.0 0.0 0.0 0.0 0.0 0.0 0.0 0.0 0.0 0.0 0.0 0.0 0.0 0.0 0.0 0.0 0.0 0.0 0.0 0.0 0.0 0.0 0.0 0.0 0.0 0.0 0.0 0.0 0.0 0.0 0.0 0.0 0.0 0.0 0.0 0.0 0.0 0.0 0.0 0.0 0.0 0.0 0.0 0.0 0.0 0.0 0.0 0.0 0.0 0.0 0.0 0.0 0.0 0.0 0.0 0.0 0.0 0.0 0.0 0.0 0.0 0.0 0.0 0.0 0.0 0.0 0.0 0.0 0.0 0.0 0.0 0.0 0.0 0.0 0.0 0.0 0.0 0.0 0.0 0.0 0.0 0.0 0.0 0.0 0.0 0.0 0.0 0.0 0.0 0.0 0.0 0.0 0.0 0.0 0.0 0.0 0.0 0.0 0.0 0.0 0.0 0.0 0.0 0.0 0.0 0.0 0.0 0.0 0.0 0.0 0.0 0.0 0.0 0.0 0.0 0.0 0.0 0.0 0.0 0.0 0.0 0.0 0.0 0.0 0.0 0.0 0.0 0.0 0.0 0.0 0.0 0.0 0.0 0.0 0.0 0.0 0.0 0.0 0.0 0.0 0.0 0.0 0.0 0.0 0.0 0.0 0.0 0.0 0.0 0.0 0.0 0.0 0.0 0.0 0.0 0.0 0.0 0.0 0.0 0.0 0.0 0.0 0.0 0.0 0.0 0.0 0.0 0.0 0.0 0.0 0.0 0.0 0.0 0.0 0.0 0.0 0.0 0.0 0.0 0.0 0.0 0.0 0.0 0.0 0.0 0.0 0.0 0.0 0.0 0.0 0.0 0.0 0.0 0.0 0.0 0.0 0.0 0.0 0.0 0.0 0.0 0.0 0.0 0.0 0.0 0.0 0.0 0.0 0.0 0.0 0.0 0.0 0.0 0.0 0.0 0.0 0.0 0.0 0.0 0.0 0.0 0.0 0.0 0.0 0.0 0.0 0.0 0.0 0.0 0.0 0.0 0.0 0.0 0.0 0.0 0.0 0.0 0.0 0.0 0.0 0.0 0.0 0.0 0.0 0.0 0.0 0.0 0.0 0.0 0.0 0.0 0.0 0.0 0.0 0.0 0.0 0.0 0.0 0.0 0.0 0.0 0.0 0.0 0.0 0.0 0.0 0.0 0.0 0.0 0.0 0.0 0.0 0.0 0.0 0.0 0.0 0.0 0.0 0.0 0.0 0.0 0.0 0.0 0.0 0.0 0.0 0.0 0.0 0.0 0.0 0.0 0.0 0.0 0.0 0.0 0.0 0.0 0.0 0.0 0.0 0.0 0.0 0.0 0.0 0.0 0.0 0.0 0.0 0.0 0.0 0.0 0.0 0.0 0.0 0.0 0.0 0.0 0.0 0.0 0.0 0.0 0.0 0.0 0.0 0.0 0.0 0.0 0.0 0.0 0.0 0.0 0.0 0.0 0.0 0.0 0.0 0.0 0.0 0.0 0.0 0.0 0.0 0.0 0.0 0.0 0.0 0.0 0.0 0.0 0.0 0.0 0.0 0.0 0.0 0.0 0.0 0.0 0.0 0.0 0.0 0.0 0.0 0.0 0.0 0.0 0.0 0.0 0.0 0.0 0.0 0.0 0.0 0.0 0.0 0.0 0.0 0.0 0.0 0.0 0.0 0.0 0.0 0.0 0.0 0.0 0.0 0.0 0.0 0.0 0.0 0.0 0.0 0.0 0.0 0.0 0.0 0.0 0.0 0.0 0.0 0.0 0.0 0.0 0.0 0.0 0.0 0.0 0.0 0.0 0.0 0.0 0.0 0.0 0.0 0.0 0.0 0.0 0.0 0.0 0.0 0.0 0.0 0.0 0.0 0.0 0.0 0.0 0.0 0.0 0.0 0.0 0.0 0.0 0.0 0.0 0.0 0.0 0.0 0.0 0.0 0.0 0.0 0.0 0.0 0.0 0.0 0.0 0.0 0.0 0.0 0.0 0.0 0.0 0.0 0.0 0.0 0.0 0.0 0.0 0.0 0.0 0.0 0.0 0.0 0.0 0.0 0.0 0.0 0.0 0.0 0.0 0.0 0.0 0.0 0.0 0.0 0.0 0.0 0.0 0.0 0.0 0.0 0.0 0.0 0.0 0.0 0.0 0.0 0.0 0.0 0.0 0.0 0.0 0.0 0.0 0.0 0.0 0.0 0.0 0.0 0.0 0.0 0.0 0.0 0.0 0.0 0.0 0.0 0.0 0.0 0.0 0.0 0.0 0.0 0.0 0.0 0.0 0.0 0.0 0.0 0.0 0.0 0.0 0.0 0.0 0.0 0.0 0.0 0.0 0.0 0.0 0.0 0.0 0.0 0.0 0.0 0.0 0.0 0.0 0.0 0.0 0.0 0.0 0.0 0.0 0.0 0.0 0.0 0.0 0.0 0.0 0.0 0.0 0.0 0.0 0.0 0.0 0.0 0.0 0.0 0.0 0.0 0.0 0.0 0.0 0.0 0.0 0.0 0.0 0.0 0.0 0.0 0.0 0.0 0.0 0.0 0.0 0.0 0.0 0.0 0.0 0.0 0.0 0.0 0.0 0.0 0.0 0.0 0.0 0.0 0.0 0.0 0.0 0.0 0.0 0.0 0.0 0.0 0.0 0.0 0.0 0.0 0.0 0.0 0.0 0.0 0.0 0.0 0.0 0.0 0.0 0.0 0.0 0.0 0.0 0.0 0.0 0.0 0.0 0.0 0.0 0.0 0.0 0.0 0.0 0.0 0.0 0.0 0.0 0.0 0.0 0.0 0.0 0.0 0.0 0.0 0.0 0.0 0.0 0.0 0.0 0.0 0.0 0.0 0.0 0.0 0.0 0.0 0.0 0.0 0.0 0.0 0.0 0.0 0.0 0.0 0.0 0.0 0.0 0.0 0.0 0.0 0.0 0.0 0.0 0.0 0.0 0.0 0.0 0.0 0.0 0.0 0.0 0.0 0.0 0.0 0.0 0.0 0.0 0.0 0.0 0.0 0.0 0.0 0.0 0.0 0.0 0.0 0.0 0.0 0.0 0.0 0.0 0.0 0.0 0.0 0.0 0.0 0.0 0.0 0.0 0.0 0.0 0.0 0.0 0.0 0.0 0.0 0.0 0.0 0.0 0.0 0.0 0.0 0.0 0.0 0.0 0.0 0.0 0.0 0.0 0.0 0.0 0.0 0.0 0.0 0.0 0.0 0.0 0.0 0.0 0.0 0.0 0.0 0.0 0.0 0.0 0.0 0.0 0.0 0.0 0.0 0.0 0.0 0.0 0.0 0.0 0.0 0.0 0.0 0.0 0.0 0.0 0.0 0.0 0.0 0.0 0.0 0.0 0.0 0.0 0.0 0.0 0.0 0.0 0.0 0.0 0.0 0.0 0.0 0.0 0.0 0.0 0.0 0.0 0.0 0.0 0.0 0.0 0.0 0.0 0.0 0.0 0.0 0.0 0.0 0.0 0.0 0.0 0.0 0.0 0.0 0.0 0.0 0.0 0.0 0.0 0.0 0.0 0.0 0.0 0.0 0.0 0.0 0.0 0.0 0.0 0.0 0.0 0.0 0.0 0.0 0.0 0.0 0.0 0.0 0.0 0.0 0.0 0.0 0.0 0.0 0.0 0.0 0.0 0.0 0.0 0.0 0.0 0.0 0.0 0.0 0.0 0.0 0.0 0.0 0.0 0.0 0.0 0.0 0.0 0.0 0.0 0.0 0.0 0.0 0.0 0.0 0.0 0.0 0.0 0.0 0.0 0.0 0.0 0.0 0.0 0.0 0.0 0.0 0.0 0.0 0.0 0.0 0.0 0.0 0.0 0.0 0.0 0.0 0.0 0.0 0.0 0.0 0.0 0.0 0.0 0.0 0.0 0.0 0.0 0.0 0.0 0.0 0.0 0.0 0.0 0.0 0.0 0.0 0.0 0.0 0.0 0.0 0.0 0.0 0.0 0.0 0.0 0.0 0.0 0.0 0.0 0.0 0.0 0.0 0.0 0.0 0.0 0.0 0.0 0.0 0.0 0.0 0.0 0.0 0.0 0.0 0.0 0.0 0.0 0.0 0.0 0.0 0.0 0.0 0.0 0.0 0.0 0.0 0.0 0.0 0.0 0.0 0.0 0.0 0.0 0.0 0.0 0.0 0.0 0.0 0.0 0.0 0.0 0.0 0.0 0.0 0.0 0.0 0.0 0.0 0.0 0.0 0.0 0.0 0.0 0.0 0.0 0.0 0.0 0.0 0.0 0.0 0.0 0.0 0.0 0.0 0.0 0.0 0.0 0.0 0.0 0.0 0.0 0.0 0.0 0.0 0.0 0.0 0.0 0.0 0.0 0.0 0.0 0.0 0.0 0.0 0.0 0.0 0.0 0.0 0.0 0.0 0.0 0.0 0.0 0.0 0.0 0.0 0.0 0.0 0.0 0.0 0.0 0.0 0.0 0.0 0.0 0.0 0.0 0.0 0.0 0.0 0.0 0.0 0.0 0.0 0.0 0.0 0.0 0.0 0.0 0.0 0.0 0.0 0.0 0.0 0.0 0.0 0.0 0.0 0.0 0.0 0.0 0.0 0.0 0.0 0.0 0.0 0.0 0.0 0.0 0.0 0.0 0.0 0.0 0.0 0.0 0.0 0.0 0.0 0.0 0.0 0.0 0.0 0.0 0.0 0.0 0.0 0.0 0.0 0.0 0.0 0.0 0.0 0.0 0.0 0.0 0.0 0.0 0.0 0.0 0.0 0.0 0.0 0.0 0.0 0.0 0.0 0.0 0.0 0.0 0.0 0.0 0.0 0.0 0.0 0.0 0.0 0.0 0.0 0.0 0.0 0.0 0.0 0.0 0.0 0.0 0.0 0.0 0.0 0.0 0.0 0.0 0.0 0.0 0.0 0.0 0.0 0.0 0.0 0.0 0.0 0.0 0.0 0.0 0.0 0.0 0.0 0.0 0.0 0.0 0.0 0.0 0.0 0.0 0.0 0.0 0.0 0.0 0.0 0.0 0.0 0.0 0.0 0.0 0.0 0.0 0.0 0.0 0.0 0.0 0.0 0.0 0.0 0.0 0.0 0.0 0.0 0.0 0.0 0.0 0.0 0.0 0.0 0.0 0.0 0.0 0.0 0.0 0.0 0.0 0.0 0.0 0.0 0.0 0.0 0.0 0.0 0.0 0.0 0.0 0.0 0.0 0.0 0.0 0.0 0.0 0.0 0.0 0.0 0.0 0.0 0.0 0.0 0.0 0.0 0.0 0.0 0.0 0.0 0.0 0.0 0.0 0.0 0.0 0.0 0.0 0.0 0.0 0.0 0.0 0.0 0.0 0.0 0.0 0.0 0.0 0.0 0.0 0.0 0.0 0.0 0.0 0.0 0.0 0.0 0.0 0.0 0.0 0.0 0.0 0.0 0.0 0.0 0.0 0.0 0.0 0.0 0.0 0.0 0.0 0.0 0.0 0.0 0.0 0.0 0.0 0.0 0.0 0.0 0.0 0.0 0.0 0.0 0.0 0.0 0.0 0.0 0.0 0.0 0.0 0.0 0.0 0.0 0.0 0.0 0.0 0.0 0.0 0.0 0.0 0.0 0.0 0.0 0.0 0.0 0.0 0.0 0.0 0.0 0.0 0.0 0.0 0.0 0.0 0.0 0.0 0.0 0.0 0.0 0.0 0.0 0.0 0.0 0.0 0.0 0.0 0.0 0.0 0.0 0.0 0.0 0.0 0.0 0.0 0.0 0.0 0.0 0.0 0.0 0.0 0.0 0.0 0.0 0.0 0.0 0.0 0.0 0.0 0.0 0.0 0.0 0.0 0.0 0.0 0.0 0.0 0.0 0.0 0.0 0.0 0.0 0.0 0.0 0.0 0.0 0.0 0.0 0.0 0.0 0.0 0.0 0.0 0.0 0.0 0.0 0.0 0.0 0.0 0.0 0.0 0.0 0.0 0.0 0.0 0.0 0.0 0.0 0.0 0.0 0.0 0.0
        </DataArray>
        <DataArray type="Float64" Name="stress_xz" NumberOfComponents="1" format="ascii">
 0.0 0.0 0.0 0.0 0.0 0.0 0.0 0.0 0.0 0.0 0.0 0.0 0.0 0.0 0.0 0.0 0.0 0.0 0.0 0.0 0.0 0.0 0.0 0.0 0.0 0.0 0.0 0.0 0.0 0.0 0.0 0.0 0.0 0.0 0.0 0.0 0.0 0.0 0.0 0.0 0.0 0.0 0.0 0.0 0.0 0.0 0.0 0.0 0.0 0.0 0.0 0.0 0.0 0.0 0.0 0.0 0.0 0.0 0.0 0.0 0.0 0.0 0.0 0.0 0.0 0.0 0.0 0.0 0.0 0.0 0.0 0.0 0.0 0.0 0.0 0.0 0.0 0.0 0.0 0.0 0.0 0.0 0.0 0.0 0.0 0.0 0.0 0.0 0.0 0.0 0.0 0.0 0.0 0.0 0.0 0.0 0.0 0.0 0.0 0.0 0.0 0.0 0.0 0.0 0.0 0.0 0.0 0.0 0.0 0.0 0.0 0.0 0.0 0.0 0.0 0.0 0.0 0.0 0.0 0.0 0.0 0.0 0.0 0.0 0.0 0.0 0.0 0.0 0.0 0.0 0.0 0.0 0.0 0.0 0.0 0.0 0.0 0.0 0.0 0.0 0.0 0.0 0.0 0.0 0.0 0.0 0.0 0.0 0.0 0.0 0.0 0.0 0.0 0.0 0.0 0.0 0.0 0.0 0.0 0.0 0.0 0.0 0.0 0.0 0.0 0.0 0.0 0.0 0.0 0.0 0.0 0.0 0.0 0.0 0.0 0.0 0.0 0.0 0.0 0.0 0.0 0.0 0.0 0.0 0.0 0.0 0.0 0.0 0.0 0.0 0.0 0.0 0.0 0.0 0.0 0.0 0.0 0.0 0.0 0.0 0.0 0.0 0.0 0.0 0.0 0.0 0.0 0.0 0.0 0.0 0.0 0.0 0.0 0.0 0.0 0.0 0.0 0.0 0.0 0.0 0.0 0.0 0.0 0.0 0.0 0.0 0.0 0.0 0.0 0.0 0.0 0.0 0.0 0.0 0.0 0.0 0.0 0.0 0.0 0.0 0.0 0.0 0.0 0.0 0.0 0.0 0.0 0.0 0.0 0.0 0.0 0.0 0.0 0.0 0.0 0.0 0.0 0.0 0.0 0.0 0.0 0.0 0.0 0.0 0.0 0.0 0.0 0.0 0.0 0.0 0.0 0.0 0.0 0.0 0.0 0.0 0.0 0.0 0.0 0.0 0.0 0.0 0.0 0.0 0.0 0.0 0.0 0.0 0.0 0.0 0.0 0.0 0.0 0.0 0.0 0.0 0.0 0.0 0.0 0.0 0.0 0.0 0.0 0.0 0.0 0.0 0.0 0.0 0.0 0.0 0.0 0.0 0.0 0.0 0.0 0.0 0.0 0.0 0.0 0.0 0.0 0.0 0.0 0.0 0.0 0.0 0.0 0.0 0.0 0.0 0.0 0.0 0.0 0.0 0.0 0.0 0.0 0.0 0.0 0.0 0.0 0.0 0.0 0.0 0.0 0.0 0.0 0.0 0.0 0.0 0.0 0.0 0.0 0.0 0.0 0.0 0.0 0.0 0.0 0.0 0.0 0.0 0.0 0.0 0.0 0.0 0.0 0.0 0.0 0.0 0.0 0.0 0.0 0.0 0.0 0.0 0.0 0.0 0.0 0.0 0.0 0.0 0.0 0.0 0.0 0.0 0.0 0.0 0.0 0.0 0.0 0.0 0.0 0.0 0.0 0.0 0.0 0.0 0.0 0.0 0.0 0.0 0.0 0.0 0.0 0.0 0.0 0.0 0.0 0.0 0.0 0.0 0.0 0.0 0.0 0.0 0.0 0.0 0.0 0.0 0.0 0.0 0.0 0.0 0.0 0.0 0.0 0.0 0.0 0.0 0.0 0.0 0.0 0.0 0.0 0.0 0.0 0.0 0.0 0.0 0.0 0.0 0.0 0.0 0.0 0.0 0.0 0.0 0.0 0.0 0.0 0.0 0.0 0.0 0.0 0.0 0.0 0.0 0.0 0.0 0.0 0.0 0.0 0.0 0.0 0.0 0.0 0.0 0.0 0.0 0.0 0.0 0.0 0.0 0.0 0.0 0.0 0.0 0.0 0.0 0.0 0.0 0.0 0.0 0.0 0.0 0.0 0.0 0.0 0.0 0.0 0.0 0.0 0.0 0.0 0.0 0.0 0.0 0.0 0.0 0.0 0.0 0.0 0.0 0.0 0.0 0.0 0.0 0.0 0.0 0.0 0.0 0.0 0.0 0.0 0.0 0.0 0.0 0.0 0.0 0.0 0.0 0.0 0.0 0.0 0.0 0.0 0.0 0.0 0.0 0.0 0.0 0.0 0.0 0.0 0.0 0.0 0.0 0.0 0.0 0.0 0.0 0.0 0.0 0.0 0.0 0.0 0.0 0.0 0.0 0.0 0.0 0.0 0.0 0.0 0.0 0.0 0.0 0.0 0.0 0.0 0.0 0.0 0.0 0.0 0.0 0.0 0.0 0.0 0.0 0.0 0.0 0.0 0.0 0.0 0.0 0.0 0.0 0.0 0.0 0.0 0.0 0.0 0.0 0.0 0.0 0.0 0.0 0.0 0.0 0.0 0.0 0.0 0.0 0.0 0.0 0.0 0.0 0.0 0.0 0.0 0.0 0.0 0.0 0.0 0.0 0.0 0.0 0.0 0.0 0.0 0.0 0.0 0.0 0.0 0.0 0.0 0.0 0.0 0.0 0.0 0.0 0.0 0.0 0.0 0.0 0.0 0.0 0.0 0.0 0.0 0.0 0.0 0.0 0.0 0.0 0.0 0.0 0.0 0.0 0.0 0.0 0.0 0.0 0.0 0.0 0.0 0.0 0.0 0.0 0.0 0.0 0.0 0.0 0.0 0.0 0.0 0.0 0.0 0.0 0.0 0.0 0.0 0.0 0.0 0.0 0.0 0.0 0.0 0.0 0.0 0.0 0.0 0.0 0.0 0.0 0.0 0.0 0.0 0.0 0.0 0.0 0.0 0.0 0.0 0.0 0.0 0.0 0.0 0.0 0.0 0.0 0.0 0.0 0.0 0.0 0.0 0.0 0.0 0.0 0.0 0.0 0.0 0.0 0.0 0.0 0.0 0.0 0.0 0.0 0.0 0.0 0.0 0.0 0.0 0.0 0.0 0.0 0.0 0.0 0.0 0.0 0.0 0.0 0.0 0.0 0.0 0.0 0.0 0.0 0.0 0.0 0.0 0.0 0.0 0.0 0.0 0.0 0.0 0.0 0.0 0.0 0.0 0.0 0.0 0.0 0.0 0.0 0.0 0.0 0.0 0.0 0.0 0.0 0.0 0.0 0.0 0.0 0.0 0.0 0.0 0.0 0.0 0.0 0.0 0.0 0.0 0.0 0.0 0.0 0.0 0.0 0.0 0.0 0.0 0.0 0.0 0.0 0.0 0.0 0.0 0.0 0.0 0.0 0.0 0.0 0.0 0.0 0.0 0.0 0.0 0.0 0.0 0.0 0.0 0.0 0.0 0.0 0.0 0.0 0.0 0.0 0.0 0.0 0.0 0.0 0.0 0.0 0.0 0.0 0.0 0.0 0.0 0.0 0.0 0.0 0.0 0.0 0.0 0.0 0.0 0.0 0.0 0.0 0.0 0.0 0.0 0.0 0.0 0.0 0.0 0.0 0.0 0.0 0.0 0.0 0.0 0.0 0.0 0.0 0.0 0.0 0.0 0.0 0.0 0.0 0.0 0.0 0.0 0.0 0.0 0.0 0.0 0.0 0.0 0.0 0.0 0.0 0.0 0.0 0.0 0.0 0.0 0.0 0.0 0.0 0.0 0.0 0.0 0.0 0.0 0.0 0.0 0.0 0.0 0.0 0.0 0.0 0.0 0.0 0.0 0.0 0.0 0.0 0.0 0.0 0.0 0.0 0.0 0.0 0.0 0.0 0.0 0.0 0.0 0.0 0.0 0.0 0.0 0.0 0.0 0.0 0.0 0.0 0.0 0.0 0.0 0.0 0.0 0.0 0.0 0.0 0.0 0.0 0.0 0.0 0.0 0.0 0.0 0.0 0.0 0.0 0.0 0.0 0.0 0.0 0.0 0.0 0.0 0.0 0.0 0.0 0.0 0.0 0.0 0.0 0.0 0.0 0.0 0.0 0.0 0.0 0.0 0.0 0.0 0.0 0.0 0.0 0.0 0.0 0.0 0.0 0.0 0.0 0.0 0.0 0.0 0.0 0.0 0.0 0.0 0.0 0.0 0.0 0.0 0.0 0.0 0.0 0.0 0.0 0.0 0.0 0.0 0.0 0.0 0.0 0.0 0.0 0.0 0.0 0.0 0.0 0.0 0.0 0.0 0.0 0.0 0.0 0.0 0.0 0.0 0.0 0.0 0.0 0.0 0.0 0.0 0.0 0.0 0.0 0.0 0.0 0.0 0.0 0.0 0.0 0.0 0.0 0.0 0.0 0.0 0.0 0.0 0.0 0.0 0.0 0.0 0.0 0.0 0.0 0.0 0.0 0.0 0.0 0.0 0.0 0.0 0.0 0.0 0.0 0.0 0.0 0.0 0.0 0.0 0.0 0.0 0.0 0.0 0.0 0.0 0.0 0.0 0.0 0.0 0.0 0.0 0.0 0.0 0.0 0.0 0.0 0.0 0.0 0.0 0.0 0.0 0.0 0.0 0.0 0.0 0.0 0.0 0.0 0.0 0.0 0.0 0.0 0.0 0.0 0.0 0.0 0.0 0.0 0.0 0.0 0.0 0.0 0.0 0.0 0.0 0.0 0.0 0.0 0.0 0.0 0.0 0.0 0.0 0.0 0.0 0.0 0.0 0.0 0.0 0.0 0.0 0.0 0.0 0.0 0.0 0.0 0.0 0.0 0.0 0.0 0.0 0.0 0.0 0.0 0.0 0.0 0.0 0.0 0.0 0.0 0.0 0.0 0.0 0.0 0.0 0.0 0.0 0.0 0.0 0.0 0.0 0.0 0.0 0.0 0.0 0.0 0.0 0.0 0.0 0.0 0.0 0.0 0.0 0.0 0.0 0.0 0.0 0.0 0.0 0.0 0.0 0.0 0.0 0.0 0.0 0.0 0.0 0.0 0.0 0.0 0.0 0.0 0.0 0.0 0.0 0.0 0.0 0.0 0.0 0.0 0.0 0.0 0.0 0.0 0.0 0.0 0.0 0.0 0.0 0.0 0.0 0.0 0.0 0.0 0.0 0.0 0.0 0.0 0.0 0.0 0.0 0.0 0.0 0.0 0.0 0.0 0.0 0.0 0.0 0.0 0.0 0.0 0.0 0.0 0.0 0.0 0.0 0.0 0.0 0.0 0.0 0.0 0.0 0.0 0.0 0.0 0.0 0.0 0.0 0.0 0.0 0.0 0.0 0.0 0.0 0.0 0.0 0.0 0.0 0.0 0.0 0.0 0.0 0.0 0.0 0.0 0.0 0.0 0.0 0.0 0.0 0.0 0.0 0.0 0.0 0.0 0.0 0.0 0.0 0.0 0.0 0.0 0.0 0.0 0.0 0.0 0.0 0.0 0.0 0.0 0.0 0.0 0.0 0.0 0.0 0.0 0.0 0.0 0.0 0.0 0.0 0.0 0.0 0.0 0.0 0.0 0.0 0.0 0.0 0.0 0.0 0.0 0.0 0.0 0.0 0.0 0.0 0.0 0.0 0.0 0.0 0.0 0.0 0.0 0.0 0.0 0.0 0.0 0.0 0.0 0.0 0.0 0.0 0.0 0.0 0.0 0.0 0.0 0.0 0.0 0.0 0.0 0.0 0.0 0.0 0.0 0.0 0.0 0.0 0.0 0.0 0.0 0.0 0.0 0.0 0.0 0.0 0.0 0.0 0.0 0.0 0.0 0.0 0.0 0.0 0.0 0.0 0.0 0.0 0.0 0.0 0.0 0.0 0.0 0.0 0.0 0.0 0.0 0.0 0.0 0.0 0.0 0.0 0.0 0.0 0.0 0.0 0.0 0.0 0.0 0.0 0.0 0.0 0.0 0.0 0.0 0.0 0.0 0.0 0.0 0.0 0.0 0.0 0.0 0.0 0.0 0.0 0.0 0.0 0.0 0.0 0.0 0.0 0.0 0.0 0.0 0.0 0.0 0.0 0.0 0.0 0.0 0.0 0.0 0.0 0.0 0.0 0.0 0.0 0.0 0.0 0.0 0.0 0.0 0.0 0.0 0.0 0.0 0.0 0.0 0.0 0.0 0.0 0.0 0.0 0.0 0.0 0.0 0.0 0.0 0.0 0.0 0.0 0.0 0.0 0.0 0.0 0.0 0.0 0.0 0.0 0.0 0.0 0.0 0.0 0.0 0.0 0.0 0.0 0.0 0.0 0.0 0.0 0.0 0.0 0.0 0.0 0.0 0.0 0.0 0.0 0.0 0.0 0.0 0.0 0.0 0.0 0.0 0.0 0.0 0.0 0.0 0.0 0.0 0.0 0.0 0.0 0.0 0.0 0.0 0.0 0.0 0.0 0.0 0.0 0.0 0.0 0.0 0.0 0.0 0.0 0.0 0.0 0.0 0.0 0.0 0.0 0.0 0.0 0.0 0.0 0.0 0.0 0.0 0.0 0.0 0.0 0.0 0.0 0.0 0.0 0.0 0.0 0.0 0.0 0.0 0.0 0.0 0.0 0.0 0.0 0.0 0.0 0.0 0.0 0.0 0.0 0.0 0.0 0.0 0.0 0.0 0.0 0.0 0.0 0.0 0.0 0.0 0.0 0.0 0.0 0.0 0.0 0.0 0.0 0.0 0.0 0.0 0.0 0.0 0.0 0.0 0.0 0.0 0.0 0.0 0.0 0.0 0.0 0.0 0.0 0.0 0.0 0.0 0.0 0.0 0.0 0.0 0.0 0.0 0.0 0.0 0.0 0.0 0.0 0.0 0.0 0.0 0.0 0.0 0.0 0.0 0.0 0.0 0.0 0.0 0.0 0.0 0.0 0.0 0.0 0.0 0.0 0.0 0.0 0.0 0.0 0.0 0.0 0.0 0.0 0.0 0.0 0.0 0.0 0.0 0.0 0.0 0.0 0.0 0.0 0.0 0.0 0.0 0.0 0.0 0.0 0.0 0.0 0.0 0.0 0.0 0.0 0.0 0.0 0.0 0.0 0.0 0.0 0.0 0.0 0.0 0.0 0.0 0.0 0.0 0.0 0.0 0.0 0.0 0.0 0.0 0.0 0.0 0.0 0.0 0.0 0.0 0.0 0.0 0.0 0.0 0.0 0.0 0.0 0.0 0.0 0.0 0.0 0.0 0.0 0.0 0.0 0.0 0.0 0.0 0.0 0.0 0.0 0.0 0.0 0.0 0.0 0.0 0.0 0.0 0.0 0.0 0.0 0.0 0.0 0.0 0.0 0.0 0.0 0.0 0.0 0.0 0.0 0.0 0.0 0.0 0.0 0.0 0.0 0.0 0.0 0.0 0.0 0.0 0.0 0.0 0.0 0.0 0.0 0.0 0.0 0.0 0.0 0.0 0.0 0.0 0.0 0.0 0.0 0.0 0.0 0.0 0.0 0.0 0.0 0.0 0.0 0.0 0.0 0.0 0.0 0.0 0.0 0.0 0.0 0.0 0.0 0.0 0.0 0.0 0.0 0.0 0.0 0.0 0.0 0.0 0.0 0.0 0.0 0.0 0.0 0.0 0.0 0.0 0.0 0.0 0.0 0.0 0.0 0.0 0.0 0.0 0.0 0.0 0.0 0.0 0.0 0.0 0.0 0.0 0.0 0.0 0.0 0.0 0.0 0.0 0.0 0.0 0.0 0.0 0.0 0.0 0.0 0.0 0.0 0.0 0.0 0.0 0.0 0.0 0.0 0.0 0.0 0.0 0.0 0.0 0.0 0.0 0.0 0.0 0.0 0.0 0.0 0.0 0.0 0.0 0.0 0.0 0.0 0.0 0.0 0.0 0.0 0.0 0.0 0.0 0.0 0.0 0.0 0.0 0.0 0.0 0.0 0.0 0.0 0.0 0.0 0.0 0.0 0.0 0.0 0.0 0.0 0.0 0.0 0.0 0.0 0.0 0.0 0.0 0.0 0.0 0.0 0.0 0.0 0.0 0.0 0.0 0.0 0.0 0.0 0.0 0.0 0.0 0.0 0.0 0.0 0.0 0.0 0.0 0.0 0.0 0.0 0.0 0.0 0.0 0.0 0.0 0.0 0.0 0.0 0.0 0.0 0.0 0.0 0.0 0.0 0.0 0.0 0.0 0.0 0.0 0.0 0.0 0.0 0.0 0.0 0.0 0.0 0.0 0.0 0.0 0.0 0.0 0.0 0.0 0.0 0.0 0.0 0.0 0.0 0.0 0.0 0.0 0.0 0.0 0.0 0.0 0.0 0.0 0.0 0.0 0.0 0.0 0.0 0.0 0.0 0.0 0.0 0.0 0.0 0.0 0.0 0.0 0.0 0.0 0.0 0.0 0.0 0.0 0.0 0.0 0.0 0.0 0.0 0.0 0.0 0.0 0.0 0.0 0.0 0.0 0.0 0.0 0.0 0.0 0.0 0.0 0.0 0.0 0.0 0.0 0.0 0.0 0.0 0.0 0.0 0.0 0.0 0.0 0.0 0.0 0.0 0.0 0.0 0.0 0.0 0.0 0.0 0.0 0.0 0.0 0.0 0.0 0.0 0.0 0.0 0.0 0.0 0.0 0.0 0.0 0.0 0.0 0.0 0.0 0.0 0.0 0.0 0.0 0.0 0.0 0.0 0.0 0.0 0.0 0.0 0.0 0.0 0.0 0.0 0.0 0.0 0.0 0.0 0.0 0.0 0.0 0.0 0.0 0.0 0.0 0.0 0.0 0.0 0.0 0.0 0.0 0.0 0.0 0.0 0.0 0.0 0.0 0.0 0.0 0.0 0.0 0.0 0.0 0.0 0.0 0.0 0.0 0.0 0.0 0.0 0.0 0.0 0.0 0.0 0.0 0.0 0.0 0.0 0.0 0.0 0.0 0.0 0.0 0.0 0.0 0.0 0.0 0.0 0.0 0.0 0.0 0.0 0.0 0.0 0.0 0.0 0.0 0.0 0.0 0.0 0.0 0.0 0.0 0.0 0.0 0.0 0.0 0.0 0.0 0.0 0.0 0.0 0.0 0.0 0.0 0.0 0.0 0.0 0.0 0.0 0.0 0.0 0.0 0.0 0.0 0.0 0.0 0.0 0.0 0.0 0.0 0.0 0.0 0.0 0.0 0.0 0.0 0.0 0.0 0.0 0.0 0.0 0.0 0.0 0.0 0.0 0.0 0.0 0.0 0.0 0.0 0.0 0.0 0.0 0.0 0.0 0.0 0.0 0.0 0.0 0.0 0.0 0.0 0.0 0.0 0.0 0.0 0.0 0.0 0.0 0.0 0.0 0.0 0.0 0.0 0.0 0.0 0.0 0.0 0.0 0.0 0.0 0.0 0.0 0.0 0.0 0.0 0.0 0.0 0.0 0.0 0.0 0.0 0.0 0.0 0.0 0.0 0.0 0.0 0.0 0.0 0.0 0.0 0.0 0.0 0.0 0.0 0.0 0.0 0.0 0.0 0.0 0.0 0.0 0.0 0.0 0.0 0.0 0.0 0.0 0.0 0.0 0.0 0.0 0.0 0.0 0.0 0.0 0.0 0.0 0.0 0.0 0.0 0.0 0.0 0.0 0.0 0.0 0.0 0.0 0.0 0.0 0.0 0.0 0.0 0.0 0.0 0.0 0.0 0.0 0.0 0.0 0.0 0.0 0.0 0.0 0.0 0.0 0.0 0.0 0.0 0.0 0.0 0.0 0.0 0.0 0.0 0.0 0.0 0.0 0.0 0.0 0.0 0.0 0.0 0.0 0.0 0.0 0.0 0.0 0.0 0.0 0.0 0.0 0.0 0.0 0.0 0.0 0.0 0.0 0.0 0.0 0.0 0.0 0.0 0.0 0.0 0.0 0.0 0.0 0.0 0.0 0.0 0.0 0.0 0.0 0.0 0.0 0.0 0.0 0.0 0.0 0.0 0.0 0.0 0.0 0.0 0.0 0.0 0.0 0.0 0.0 0.0 0.0 0.0 0.0 0.0 0.0 0.0 0.0 0.0 0.0 0.0 0.0 0.0 0.0 0.0 0.0 0.0 0.0 0.0 0.0 0.0 0.0 0.0 0.0 0.0 0.0 0.0 0.0 0.0 0.0 0.0 0.0 0.0 0.0 0.0 0.0 0.0 0.0 0.0 0.0 0.0 0.0 0.0 0.0 0.0 0.0 0.0 0.0 0.0 0.0 0.0 0.0 0.0 0.0 0.0 0.0 0.0 0.0 0.0 0.0 0.0 0.0 0.0 0.0 0.0 0.0 0.0 0.0 0.0 0.0 0.0 0.0 0.0 0.0 0.0 0.0 0.0 0.0 0.0 0.0 0.0 0.0 0.0 0.0 0.0 0.0 0.0 0.0 0.0 0.0 0.0 0.0 0.0 0.0 0.0 0.0 0.0 0.0 0.0 0.0 0.0 0.0 0.0 0.0 0.0 0.0 0.0 0.0 0.0 0.0 0.0 0.0 0.0 0.0 0.0 0.0 0.0 0.0 0.0 0.0 0.0 0.0 0.0 0.0 0.0 0.0 0.0 0.0 0.0 0.0 0.0 0.0 0.0 0.0 0.0 0.0 0.0 0.0 0.0 0.0 0.0 0.0 0.0 0.0 0.0 0.0 0.0 0.0 0.0 0.0 0.0 0.0 0.0 0.0 0.0 0.0 0.0 0.0 0.0 0.0 0.0 0.0 0.0 0.0 0.0 0.0 0.0 0.0 0.0 0.0 0.0 0.0 0.0 0.0 0.0 0.0 0.0 0.0 0.0 0.0 0.0 0.0 0.0 0.0 0.0 0.0 0.0 0.0 0.0 0.0 0.0 0.0 0.0 0.0 0.0 0.0 0.0 0.0 0.0 0.0 0.0 0.0 0.0 0.0 0.0 0.0 0.0 0.0 0.0 0.0 0.0 0.0 0.0 0.0 0.0 0.0 0.0 0.0 0.0 0.0 0.0 0.0 0.0 0.0 0.0 0.0 0.0 0.0 0.0 0.0 0.0 0.0 0.0 0.0 0.0 0.0 0.0 0.0 0.0 0.0 0.0 0.0 0.0 0.0 0.0 0.0 0.0 0.0 0.0 0.0 0.0 0.0 0.0 0.0 0.0 0.0 0.0 0.0 0.0 0.0 0.0 0.0 0.0 0.0 0.0 0.0 0.0 0.0 0.0 0.0 0.0 0.0 0.0 0.0 0.0 0.0 0.0 0.0 0.0 0.0 0.0 0.0 0.0 0.0 0.0 0.0 0.0 0.0 0.0 0.0 0.0 0.0 0.0 0.0 0.0 0.0 0.0 0.0 0.0 0.0 0.0 0.0 0.0 0.0 0.0 0.0 0.0 0.0 0.0 0.0 0.0 0.0 0.0 0.0 0.0 0.0 0.0 0.0 0.0 0.0 0.0 0.0 0.0 0.0 0.0 0.0 0.0 0.0 0.0 0.0 0.0 0.0 0.0 0.0 0.0 0.0 0.0 0.0 0.0 0.0 0.0 0.0 0.0 0.0 0.0 0.0 0.0 0.0 0.0 0.0 0.0 0.0 0.0 0.0 0.0 0.0 0.0 0.0 0.0 0.0 0.0 0.0 0.0 0.0 0.0 0.0 0.0 0.0 0.0 0.0 0.0 0.0 0.0 0.0 0.0 0.0 0.0 0.0 0.0 0.0 0.0 0.0 0.0 0.0 0.0 0.0 0.0 0.0 0.0 0.0 0.0 0.0 0.0 0.0 0.0 0.0 0.0 0.0 0.0 0.0 0.0 0.0 0.0 0.0 0.0 0.0 0.0 0.0 0.0 0.0 0.0 0.0 0.0 0.0 0.0 0.0 0.0 0.0 0.0 0.0 0.0 0.0 0.0 0.0 0.0 0.0 0.0 0.0 0.0 0.0 0.0 0.0 0.0 0.0 0.0 0.0 0.0 0.0 0.0 0.0 0.0 0.0 0.0 0.0 0.0 0.0 0.0 0.0 0.0 0.0 0.0 0.0 0.0 0.0 0.0 0.0 0.0 0.0 0.0 0.0 0.0 0.0 0.0 0.0 0.0 0.0 0.0 0.0 0.0 0.0 0.0 0.0 0.0 0.0 0.0 0.0 0.0 0.0 0.0 0.0 0.0 0.0 0.0 0.0 0.0 0.0 0.0 0.0 0.0 0.0 0.0 0.0 0.0 0.0 0.0 0.0 0.0 0.0 0.0 0.0 0.0 0.0 0.0 0.0 0.0 0.0 0.0 0.0 0.0 0.0 0.0 0.0 0.0 0.0 0.0 0.0 0.0 0.0 0.0 0.0 0.0 0.0 0.0 0.0 0.0 0.0 0.0 0.0 0.0 0.0 0.0 0.0 0.0 0.0 0.0 0.0 0.0 0.0 0.0 0.0 0.0 0.0 0.0 0.0 0.0 0.0 0.0 0.0 0.0 0.0 0.0 0.0 0.0 0.0 0.0 0.0 0.0 0.0 0.0 0.0 0.0 0.0 0.0 0.0 0.0 0.0 0.0 0.0 0.0 0.0 0.0 0.0 0.0 0.0 0.0 0.0 0.0 0.0 0.0 0.0 0.0 0.0 0.0 0.0 0.0 0.0 0.0 0.0 0.0 0.0 0.0 0.0 0.0 0.0 0.0 0.0 0.0 0.0 0.0 0.0 0.0 0.0 0.0 0.0 0.0 0.0 0.0 0.0 0.0 0.0 0.0 0.0 0.0 0.0 0.0 0.0 0.0 0.0 0.0 0.0 0.0 0.0 0.0 0.0 0.0 0.0 0.0 0.0 0.0 0.0 0.0 0.0 0.0 0.0 0.0 0.0 0.0 0.0 0.0 0.0 0.0 0.0 0.0 0.0 0.0 0.0 0.0 0.0 0.0 0.0 0.0 0.0 0.0 0.0 0.0 0.0 0.0 0.0 0.0 0.0 0.0 0.0 0.0 0.0 0.0 0.0 0.0 0.0 0.0 0.0 0.0 0.0 0.0 0.0 0.0 0.0 0.0 0.0 0.0 0.0 0.0 0.0 0.0 0.0 0.0 0.0 0.0 0.0 0.0 0.0 0.0 0.0 0.0 0.0 0.0 0.0 0.0 0.0 0.0 0.0 0.0 0.0 0.0 0.0 0.0 0.0 0.0 0.0 0.0 0.0 0.0 0.0 0.0 0.0 0.0 0.0 0.0 0.0 0.0 0.0 0.0 0.0 0.0 0.0 0.0 0.0 0.0 0.0 0.0 0.0 0.0 0.0 0.0 0.0 0.0 0.0 0.0 0.0 0.0 0.0 0.0 0.0 0.0 0.0 0.0 0.0 0.0 0.0 0.0 0.0 0.0 0.0 0.0 0.0 0.0 0.0 0.0 0.0 0.0 0.0 0.0 0.0 0.0 0.0 0.0 0.0 0.0 0.0 0.0 0.0 0.0 0.0 0.0 0.0 0.0 0.0 0.0 0.0 0.0 0.0 0.0 0.0 0.0 0.0 0.0 0.0 0.0 0.0 0.0 0.0 0.0 0.0 0.0 0.0 0.0 0.0 0.0 0.0 0.0 0.0 0.0 0.0 0.0 0.0 0.0 0.0 0.0 0.0 0.0 0.0 0.0 0.0 0.0 0.0 0.0 0.0 0.0 0.0 0.0 0.0 0.0 0.0 0.0 0.0 0.0 0.0 0.0 0.0 0.0 0.0 0.0 0.0 0.0 0.0 0.0 0.0 0.0 0.0 0.0 0.0 0.0 0.0 0.0 0.0 0.0 0.0 0.0 0.0 0.0 0.0 0.0 0.0 0.0 0.0 0.0 0.0 0.0 0.0 0.0 0.0 0.0 0.0 0.0 0.0 0.0 0.0 0.0 0.0 0.0 0.0 0.0 0.0 0.0 0.0 0.0 0.0 0.0 0.0 0.0 0.0 0.0 0.0 0.0 0.0 0.0 0.0 0.0 0.0 0.0 0.0 0.0 0.0 0.0 0.0 0.0 0.0 0.0 0.0 0.0 0.0 0.0 0.0 0.0 0.0 0.0 0.0 0.0 0.0 0.0 0.0 0.0 0.0 0.0 0.0 0.0 0.0 0.0 0.0 0.0 0.0 0.0 0.0 0.0 0.0 0.0 0.0 0.0 0.0 0.0 0.0 0.0 0.0 0.0 0.0 0.0 0.0 0.0 0.0 0.0 0.0 0.0 0.0 0.0 0.0 0.0 0.0 0.0 0.0 0.0 0.0 0.0 0.0 0.0 0.0 0.0 0.0 0.0 0.0 0.0 0.0 0.0 0.0 0.0 0.0 0.0 0.0 0.0 0.0 0.0 0.0 0.0 0.0 0.0 0.0 0.0 0.0 0.0 0.0 0.0 0.0 0.0 0.0 0.0 0.0 0.0 0.0 0.0 0.0 0.0 0.0 0.0 0.0 0.0 0.0 0.0 0.0 0.0 0.0 0.0 0.0 0.0 0.0 0.0 0.0 0.0 0.0 0.0 0.0 0.0 0.0 0.0 0.0 0.0 0.0 0.0 0.0 0.0 0.0 0.0 0.0 0.0 0.0 0.0 0.0 0.0 0.0 0.0 0.0 0.0 0.0 0.0 0.0 0.0 0.0 0.0 0.0 0.0 0.0 0.0 0.0 0.0 0.0 0.0 0.0 0.0 0.0 0.0 0.0 0.0 0.0 0.0 0.0 0.0 0.0 0.0 0.0 0.0 0.0 0.0 0.0 0.0 0.0 0.0 0.0 0.0 0.0 0.0 0.0 0.0 0.0 0.0 0.0 0.0 0.0 0.0 0.0 0.0 0.0 0.0 0.0 0.0 0.0 0.0 0.0 0.0 0.0 0.0 0.0 0.0 0.0 0.0 0.0 0.0 0.0 0.0 0.0 0.0 0.0 0.0 0.0 0.0 0.0 0.0 0.0 0.0 0.0 0.0 0.0 0.0 0.0 0.0 0.0 0.0 0.0 0.0 0.0 0.0 0.0 0.0 0.0 0.0 0.0 0.0 0.0 0.0 0.0 0.0 0.0 0.0 0.0 0.0 0.0 0.0 0.0 0.0 0.0 0.0 0.0 0.0 0.0 0.0 0.0 0.0 0.0 0.0 0.0 0.0 0.0 0.0 0.0 0.0 0.0 0.0 0.0 0.0 0.0 0.0 0.0 0.0 0.0 0.0 0.0 0.0 0.0 0.0 0.0 0.0 0.0 0.0 0.0 0.0 0.0 0.0 0.0 0.0 0.0 0.0 0.0 0.0 0.0 0.0 0.0 0.0 0.0 0.0 0.0 0.0 0.0 0.0 0.0 0.0 0.0 0.0 0.0 0.0 0.0 0.0 0.0 0.0 0.0 0.0 0.0 0.0 0.0 0.0 0.0 0.0 0.0 0.0 0.0 0.0 0.0 0.0 0.0 0.0 0.0 0.0 0.0 0.0 0.0 0.0 0.0 0.0 0.0 0.0 0.0 0.0 0.0 0.0 0.0 0.0 0.0 0.0 0.0 0.0 0.0 0.0 0.0 0.0 0.0 0.0 0.0 0.0 0.0 0.0 0.0 0.0 0.0 0.0 0.0 0.0 0.0 0.0 0.0 0.0 0.0 0.0 0.0 0.0 0.0 0.0 0.0 0.0 0.0 0.0 0.0 0.0 0.0 0.0 0.0 0.0 0.0 0.0 0.0 0.0 0.0 0.0 0.0 0.0 0.0 0.0 0.0 0.0 0.0 0.0 0.0 0.0 0.0 0.0 0.0 0.0 0.0 0.0 0.0 0.0 0.0 0.0 0.0 0.0 0.0 0.0 0.0 0.0 0.0 0.0 0.0 0.0 0.0 0.0 0.0 0.0 0.0 0.0 0.0 0.0 0.0 0.0 0.0 0.0 0.0 0.0 0.0 0.0 0.0 0.0 0.0 0.0 0.0 0.0 0.0 0.0 0.0 0.0 0.0 0.0 0.0 0.0 0.0 0.0 0.0 0.0 0.0 0.0 0.0 0.0 0.0 0.0 0.0 0.0 0.0 0.0 0.0 0.0 0.0 0.0 0.0 0.0 0.0 0.0 0.0 0.0 0.0 0.0 0.0 0.0 0.0 0.0 0.0 0.0 0.0 0.0 0.0 0.0 0.0 0.0 0.0 0.0 0.0 0.0 0.0 0.0 0.0 0.0 0.0 0.0 0.0 0.0 0.0 0.0 0.0 0.0 0.0 0.0 0.0 0.0 0.0 0.0 0.0 0.0 0.0 0.0 0.0 0.0 0.0 0.0 0.0 0.0 0.0 0.0 0.0 0.0 0.0 0.0 0.0 0.0 0.0 0.0 0.0 0.0 0.0 0.0 0.0 0.0 0.0 0.0 0.0 0.0 0.0 0.0 0.0
        </DataArray>
        <DataArray type="Float64" Name="vonmises" NumberOfComponents="1" format="ascii">
 0.0 0.0 0.0 0.0  8.2776772E+003  4.1279371E+004  6.9674401E+003  7.5496494E+004 0.0 0.0 0.0 0.0 0.0 0.0 0.0 0.0 0.0 0.0 0.0 0.0 0.0  2.4999728E+004 0.0 0.0 0.0 0.0 0.0 0.0 0.0 0.0 0.0 0.0 0.0 0.0 0.0 0.0 0.0 0.0 0.0 0.0 0.0 0.0 0.0 0.0 0.0 0.0 0.0 0.0 0.0 0.0  3.6807410E+003  9.9578077E+002  1.2130372E+003  1.6349345E+003  2.1842060E+003  2.4630940E+003  3.9054147E+003  3.4893762E+003  3.7856212E+003  3.8489555E+003  4.0780506E+003  4.4390683E+003  4.3212543E+003  4.2573065E+003  3.3646931E+003  1.2934570E+003  3.5119561E+004  2.1598638E+004  1.4928432E+004  1.0876369E+004  8.2816029E+003  6.3111904E+003  5.5702048E+003  6.1095242E+003  6.1669624E+003  6.0742485E+003  6.2416168E+003  6.5365088E+003  6.8613668E+003  7.3109922E+003  7.5982884E+003  7.7754744E+003  7.9953719E+003  8.0509939E+003  8.1054181E+003  8.1345581E+003  8.0856831E+003  7.8447409E+003  7.4615178E+003  7.9164468E+003  7.8790891E+003  7.1750967E+003  7.2480282E+003  8.1646993E+003  8.8697365E+003  9.2531560E+003  9.2720510E+003  9.2885271E+003  9.4960349E+003  9.7992386E+003  9.7865621E+003  9.8068334E+003  9.8783982E+003  1.0016638E+004  9.9852886E+003  1.0334547E+004  1.0478135E+004  1.0701664E+004  1.0750681E+004  1.0878095E+004  1.0906048E+004  1.1084096E+004  1.1132908E+004  1.1295838E+004  1.1250256E+004  1.1416404E+004  1.1364455E+004  1.1410964E+004  1.1339027E+004  1.1293429E+004  1.0807193E+004  1.0333254E+004  1.0173830E+004  1.0252956E+004  1.0405871E+004  1.0823468E+004  1.1234404E+004  1.1315204E+004  1.1596004E+004  1.1852719E+004  1.1791507E+004  1.1086557E+004  1.1143472E+004  1.2318717E+004  1.2851746E+004  1.3125408E+004  1.3217296E+004  1.3309999E+004  1.3529535E+004  1.3600758E+004  1.3736394E+004  1.3466430E+004  1.3073087E+004  1.3327037E+004  1.3675060E+004  1.4116260E+004  1.4344425E+004  1.4350259E+004  1.3124700E+004 0.0 0.0 0.0 0.0 0.0 0.0 0.0 0.0 0.0 0.0 0.0 0.0 0.0 0.0 0.0 0.0 0.0 0.0 0.0 0.0 0.0 0.0 0.0 0.0 0.0 0.0 0.0 0.0 0.0 0.0 0.0 0.0 0.0 0.0 0.0 0.0 0.0 0.0 0.0 0.0 0.0 0.0 0.0 0.0 0.0 0.0 0.0 0.0 0.0 0.0 0.0 0.0 0.0 0.0 0.0 0.0 0.0 0.0 0.0 0.0 0.0 0.0 0.0 0.0 0.0 0.0 0.0 0.0 0.0 0.0 0.0 0.0 0.0 0.0 0.0 0.0 0.0 0.0 0.0 0.0 0.0 0.0 0.0 0.0 0.0 0.0 0.0 0.0 0.0 0.0 0.0 0.0 0.0 0.0 0.0 0.0 0.0 0.0 0.0 0.0 0.0 0.0 0.0 0.0 0.0 0.0 0.0 0.0 0.0 0.0 0.0 0.0 0.0 0.0 0.0 0.0 0.0 0.0 0.0 0.0 0.0 0.0 0.0 0.0 0.0 0.0 0.0 0.0 0.0 0.0 0.0 0.0 0.0 0.0 0.0 0.0 0.0 0.0 0.0 0.0 0.0 0.0 0.0 0.0 0.0 0.0 0.0 0.0 0.0 0.0 0.0 0.0 0.0 0.0 0.0 0.0 0.0 0.0 0.0 0.0 0.0 0.0 0.0 0.0 0.0 0.0 0.0 0.0 0.0 0.0 0.0 0.0 0.0 0.0 0.0 0.0 0.0 0.0 0.0 0.0 0.0 0.0 0.0 0.0 0.0 0.0 0.0 0.0 0.0 0.0 0.0 0.0 0.0 0.0 0.0 0.0 0.0 0.0 0.0 0.0 0.0 0.0 0.0 0.0 0.0 0.0 0.0 0.0 0.0 0.0 0.0 0.0 0.0 0.0 0.0 0.0 0.0 0.0 0.0 0.0 0.0 0.0 0.0 0.0 0.0 0.0 0.0 0.0 0.0 0.0 0.0 0.0 0.0 0.0 0.0 0.0 0.0 0.0 0.0 0.0 0.0 0.0 0.0 0.0 0.0 0.0 0.0 0.0 0.0 0.0 0.0 0.0 0.0 0.0 0.0 0.0 0.0 0.0 0.0 0.0 0.0 0.0 0.0 0.0 0.0 0.0 0.0 0.0 0.0 0.0 0.0 0.0 0.0 0.0 0.0 0.0 0.0 0.0 0.0 0.0 0.0 0.0 0.0 0.0 0.0 0.0 0.0 0.0 0.0 0.0 0.0 0.0 0.0 0.0 0.0 0.0 0.0  4.1900269E+004  2.6947874E+004  1.8734407E+004  1.5832039E+004  1.6741511E+004  1.9109331E+004  2.1550680E+004  2.3461387E+004  2.4762132E+004 0.0 0.0 0.0 0.0 0.0 0.0 0.0 0.0 0.0 0.0 0.0 0.0 0.0 0.0 0.0 0.0 0.0 0.0 0.0 0.0 0.0 0.0 0.0 0.0 0.0 0.0 0.0 0.0 0.0 0.0 0.0 0.0 0.0 0.0 0.0 0.0 0.0 0.0 0.0 0.0 0.0 0.0 0.0 0.0 0.0 0.0 0.0 0.0 0.0  4.6394528E+003  3.2561345E+002  4.2729111E+002  7.2950339E+002  1.2300943E+003  1.5933194E+003  1.9566005E+003  2.4659079E+003  2.4933729E+003  2.6355920E+003  2.6968909E+003  2.4288493E+003  1.5872840E+003  1.9698351E+002  1.7681830E+003  4.0066279E+003  6.1777105E+003  7.9290769E+003  9.0950718E+003  9.8914784E+003  1.0357796E+004  1.0279366E+004  9.9049241E+003  9.8444383E+003  1.0033175E+004  9.9544905E+003  9.9190324E+003  9.9263269E+003  9.8363106E+003  9.5668964E+003  9.2683407E+003  9.0950206E+003  8.9975189E+003  8.7491076E+003  8.2939552E+003  8.0401926E+003  7.9115544E+003  7.7056230E+003  7.4711166E+003  7.4492788E+003  7.3105130E+003  6.8942170E+003  6.9829438E+003  7.5553846E+003  7.4562210E+003  7.3281282E+003  7.4304118E+003  7.7510731E+003  8.1953485E+003  8.2094423E+003  8.2761133E+003  8.3428803E+003  8.3522490E+003  8.3803908E+003  8.3652101E+003  8.3190953E+003  8.1708897E+003  8.0298503E+003  7.9170496E+003  7.8642630E+003  7.7990974E+003  7.7187118E+003  7.5706389E+003  7.4569565E+003  7.3648613E+003  7.3119621E+003  7.2352437E+003  7.1016234E+003  6.8311742E+003  6.5491716E+003  6.2753424E+003  6.1565659E+003  6.1502000E+003  6.0074666E+003  5.6602542E+003  5.4544411E+003  5.4867155E+003  5.8304344E+003  5.9512571E+003  5.7940676E+003  5.7382845E+003  5.7148379E+003  5.5587403E+003  5.3067032E+003  4.9093985E+003  4.5259813E+003  4.4686054E+003  4.5787754E+003  4.3766939E+003  4.0337042E+003  3.3970982E+003  2.9821224E+003  3.2431898E+003  4.2671720E+003  5.7806345E+003  7.8550992E+003  1.0681798E+004  1.4390146E+004  1.9081299E+004 0.0 0.0 0.0 0.0 0.0 0.0 0.0 0.0 0.0 0.0 0.0 0.0 0.0 0.0 0.0 0.0 0.0 0.0 0.0 0.0 0.0 0.0 0.0 0.0 0.0 0.0 0.0 0.0 0.0 0.0 0.0 0.0 0.0 0.0 0.0 0.0 0.0 0.0 0.0 0.0 0.0 0.0 0.0 0.0 0.0 0.0 0.0 0.0 0.0 0.0 0.0 0.0 0.0 0.0 0.0 0.0 0.0 0.0 0.0 0.0 0.0 0.0 0.0 0.0 0.0 0.0 0.0 0.0 0.0 0.0 0.0 0.0 0.0 0.0 0.0 0.0 0.0 0.0 0.0 0.0 0.0 0.0 0.0 0.0 0.0 0.0 0.0 0.0 0.0 0.0 0.0 0.0 0.0 0.0 0.0 0.0 0.0 0.0 0.0 0.0 0.0 0.0 0.0 0.0 0.0 0.0 0.0 0.0 0.0 0.0 0.0 0.0 0.0 0.0 0.0 0.0 0.0 0.0 0.0 0.0 0.0 0.0 0.0 0.0 0.0 0.0 0.0 0.0 0.0 0.0 0.0 0.0 0.0 0.0 0.0 0.0 0.0 0.0 0.0 0.0 0.0 0.0 0.0 0.0 0.0 0.0 0.0 0.0 0.0 0.0 0.0 0.0 0.0 0.0 0.0 0.0 0.0 0.0 0.0 0.0 0.0 0.0 0.0 0.0 0.0 0.0 0.0 0.0 0.0 0.0 0.0 0.0 0.0 0.0 0.0 0.0 0.0 0.0 0.0 0.0 0.0 0.0 0.0 0.0 0.0 0.0 0.0 0.0 0.0 0.0 0.0 0.0 0.0 0.0 0.0 0.0 0.0 0.0 0.0 0.0 0.0 0.0 0.0 0.0 0.0 0.0 0.0 0.0 0.0 0.0 0.0 0.0 0.0 0.0 0.0 0.0 0.0 0.0 0.0 0.0 0.0 0.0 0.0 0.0 0.0 0.0 0.0 0.0 0.0 0.0 0.0 0.0 0.0 0.0 0.0 0.0 0.0 0.0 0.0 0.0 0.0 0.0 0.0 0.0 0.0 0.0 0.0 0.0 0.0 0.0 0.0 0.0 0.0 0.0 0.0 0.0 0.0 0.0 0.0 0.0 0.0 0.0 0.0 0.0 0.0 0.0 0.0 0.0 0.0 0.0 0.0 0.0 0.0 0.0 0.0 0.0 0.0 0.0 0.0 0.0 0.0 0.0 0.0 0.0 0.0 0.0 0.0 0.0 0.0 0.0 0.0 0.0 0.0 0.0 0.0 0.0 0.0 0.0 0.0 0.0 0.0 0.0 0.0 0.0 0.0 0.0 0.0 0.0 0.0 0.0 0.0 0.0 0.0 0.0 0.0 0.0 0.0 0.0 0.0 0.0 0.0 0.0 0.0 0.0 0.0 0.0 0.0 0.0 0.0 0.0 0.0 0.0 0.0 0.0 0.0 0.0 0.0 0.0 0.0 0.0 0.0 0.0 0.0 0.0 0.0 0.0 0.0 0.0 0.0 0.0 0.0 0.0 0.0 0.0 0.0 0.0 0.0 0.0 0.0 0.0 0.0 0.0 0.0 0.0 0.0 0.0 0.0 0.0 0.0 0.0 0.0 0.0 0.0 0.0 0.0 0.0 0.0 0.0 0.0 0.0 0.0 0.0 0.0 0.0 0.0 0.0 0.0 0.0 0.0 0.0 0.0 0.0 0.0 0.0 0.0 0.0 0.0 0.0 0.0 0.0 0.0 0.0 0.0 0.0 0.0 0.0 0.0 0.0 0.0 0.0 0.0 0.0 0.0 0.0 0.0 0.0 0.0 0.0 0.0 0.0 0.0 0.0 0.0 0.0 0.0 0.0 0.0 0.0 0.0 0.0 0.0 0.0 0.0 0.0 0.0 0.0 0.0 0.0 0.0 0.0 0.0 0.0 0.0 0.0 0.0 0.0 0.0 0.0 0.0 0.0 0.0 0.0 0.0 0.0 0.0 0.0 0.0 0.0 0.0 0.0 0.0 0.0 0.0 0.0 0.0 0.0 0.0 0.0 0.0 0.0 0.0 0.0 0.0 0.0 0.0 0.0 0.0 0.0 0.0 0.0 0.0 0.0 0.0 0.0 0.0 0.0 0.0 0.0 0.0 0.0 0.0 0.0 0.0 0.0 0.0 0.0 0.0 0.0 0.0 0.0 0.0 0.0 0.0 0.0 0.0 0.0 0.0 0.0 0.0 0.0 0.0 0.0 0.0 0.0 0.0 0.0 0.0 0.0 0.0 0.0 0.0 0.0 0.0 0.0 0.0 0.0 0.0 0.0 0.0 0.0 0.0 0.0 0.0 0.0 0.0 0.0 0.0 0.0 0.0 0.0 0.0 0.0 0.0 0.0 0.0 0.0 0.0 0.0 0.0 0.0 0.0 0.0 0.0 0.0 0.0 0.0 0.0 0.0 0.0 0.0 0.0 0.0 0.0 0.0 0.0 0.0 0.0 0.0 0.0 0.0 0.0 0.0 0.0 0.0 0.0 0.0 0.0 0.0 0.0 0.0 0.0 0.0 0.0 0.0 0.0 0.0 0.0 0.0 0.0 0.0 0.0 0.0 0.0 0.0 0.0 0.0 0.0 0.0 0.0 0.0 0.0 0.0 0.0 0.0 0.0 0.0 0.0 0.0 0.0 0.0 0.0 0.0 0.0 0.0 0.0 0.0 0.0 0.0 0.0 0.0 0.0 0.0 0.0 0.0 0.0 0.0 0.0 0.0 0.0 0.0 0.0 0.0 0.0 0.0 0.0 0.0 0.0 0.0 0.0 0.0 0.0 0.0 0.0 0.0 0.0 0.0 0.0 0.0 0.0 0.0 0.0 0.0 0.0 0.0 0.0 0.0 0.0 0.0 0.0 0.0 0.0 0.0 0.0 0.0 0.0 0.0 0.0 0.0 0.0 0.0 0.0 0.0 0.0 0.0 0.0 0.0 0.0 0.0 0.0 0.0 0.0 0.0 0.0 0.0 0.0 0.0 0.0 0.0 0.0 0.0 0.0 0.0 0.0 0.0 0.0 0.0 0.0 0.0 0.0 0.0 0.0 0.0 0.0 0.0 0.0 0.0 0.0 0.0 0.0 0.0 0.0 0.0 0.0 0.0 0.0 0.0 0.0 0.0 0.0 0.0 0.0 0.0 0.0 0.0 0.0 0.0 0.0 0.0 0.0 0.0 0.0 0.0 0.0 0.0 0.0 0.0 0.0 0.0 0.0 0.0 0.0 0.0 0.0 0.0 0.0 0.0 0.0 0.0 0.0 0.0 0.0 0.0 0.0 0.0 0.0 0.0 0.0 0.0 0.0 0.0 0.0 0.0 0.0 0.0 0.0 0.0 0.0 0.0 0.0 0.0 0.0 0.0 0.0 0.0 0.0 0.0 0.0 0.0 0.0 0.0 0.0 0.0 0.0 0.0 0.0 0.0 0.0 0.0 0.0 0.0 0.0 0.0 0.0 0.0 0.0 0.0 0.0 0.0 0.0 0.0 0.0 0.0 0.0 0.0 0.0 0.0 0.0 0.0 0.0 0.0 0.0 0.0 0.0 0.0 0.0 0.0 0.0 0.0 0.0 0.0 0.0 0.0 0.0 0.0 0.0 0.0 0.0 0.0 0.0 0.0 0.0 0.0 0.0 0.0 0.0 0.0 0.0 0.0 0.0 0.0 0.0 0.0 0.0 0.0 0.0 0.0 0.0 0.0 0.0 0.0 0.0 0.0 0.0 0.0 0.0 0.0 0.0 0.0 0.0 0.0 0.0 0.0 0.0 0.0 0.0 0.0 0.0 0.0 0.0 0.0 0.0 0.0 0.0 0.0 0.0 0.0 0.0 0.0 0.0 0.0 0.0 0.0 0.0 0.0 0.0 0.0 0.0 0.0 0.0 0.0 0.0 0.0 0.0 0.0 0.0 0.0 0.0 0.0 0.0 0.0 0.0 0.0 0.0 0.0 0.0 0.0 0.0 0.0 0.0 0.0 0.0 0.0 0.0 0.0 0.0 0.0 0.0 0.0 0.0 0.0 0.0 0.0 0.0 0.0 0.0 0.0 0.0 0.0 0.0 0.0 0.0 0.0 0.0 0.0 0.0 0.0 0.0 0.0 0.0 0.0 0.0 0.0 0.0 0.0 0.0 0.0 0.0 0.0 0.0 0.0 0.0 0.0 0.0 0.0 0.0 0.0 0.0 0.0 0.0 0.0 0.0 0.0 0.0 0.0 0.0 0.0 0.0 0.0 0.0 0.0 0.0 0.0 0.0 0.0 0.0 0.0 0.0 0.0 0.0 0.0 0.0 0.0 0.0 0.0 0.0 0.0 0.0 0.0 0.0 0.0 0.0 0.0 0.0 0.0 0.0 0.0 0.0 0.0 0.0 0.0 0.0 0.0 0.0 0.0 0.0 0.0 0.0 0.0 0.0 0.0 0.0 0.0 0.0 0.0 0.0 0.0 0.0 0.0 0.0 0.0 0.0 0.0 0.0 0.0 0.0 0.0 0.0 0.0 0.0 0.0 0.0 0.0 0.0 0.0 0.0 0.0 0.0 0.0 0.0 0.0 0.0 0.0 0.0 0.0 0.0 0.0 0.0 0.0 0.0 0.0 0.0 0.0 0.0 0.0 0.0 0.0 0.0 0.0 0.0 0.0 0.0 0.0 0.0 0.0 0.0 0.0 0.0 0.0 0.0 0.0 0.0 0.0 0.0 0.0 0.0 0.0 0.0 0.0 0.0 0.0 0.0 0.0 0.0 0.0 0.0 0.0 0.0 0.0 0.0 0.0 0.0 0.0 0.0 0.0 0.0 0.0 0.0 0.0 0.0 0.0 0.0 0.0 0.0 0.0 0.0 0.0 0.0 0.0 0.0 0.0 0.0 0.0 0.0 0.0 0.0 0.0 0.0 0.0 0.0 0.0 0.0 0.0 0.0 0.0 0.0 0.0 0.0 0.0 0.0 0.0 0.0 0.0 0.0 0.0 0.0 0.0 0.0 0.0 0.0 0.0 0.0 0.0 0.0 0.0 0.0 0.0 0.0 0.0 0.0 0.0 0.0 0.0 0.0 0.0 0.0 0.0 0.0 0.0 0.0 0.0 0.0 0.0 0.0 0.0 0.0 0.0 0.0 0.0 0.0 0.0 0.0 0.0 0.0 0.0 0.0 0.0 0.0 0.0 0.0 0.0 0.0 0.0 0.0 0.0 0.0 0.0 0.0 0.0 0.0 0.0 0.0 0.0 0.0 0.0 0.0 0.0 0.0 0.0 0.0 0.0 0.0 0.0 0.0 0.0 0.0 0.0 0.0 0.0 0.0 0.0 0.0 0.0 0.0 0.0 0.0 0.0 0.0 0.0 0.0 0.0 0.0 0.0 0.0 0.0 0.0 0.0 0.0 0.0 0.0 0.0 0.0 0.0 0.0 0.0 0.0 0.0 0.0 0.0 0.0 0.0 0.0 0.0 0.0 0.0 0.0 0.0 0.0 0.0 0.0 0.0 0.0 0.0 0.0 0.0 0.0 0.0 0.0 0.0 0.0 0.0 0.0 0.0 0.0 0.0 0.0 0.0 0.0 0.0 0.0 0.0 0.0 0.0 0.0 0.0 0.0 0.0 0.0 0.0 0.0 0.0 0.0 0.0 0.0 0.0 0.0 0.0 0.0 0.0 0.0 0.0 0.0 0.0 0.0 0.0 0.0 0.0 0.0 0.0 0.0 0.0 0.0 0.0 0.0 0.0 0.0 0.0 0.0 0.0 0.0 0.0 0.0 0.0 0.0 0.0 0.0 0.0 0.0 0.0 0.0 0.0 0.0 0.0 0.0 0.0 0.0 0.0 0.0 0.0 0.0 0.0 0.0 0.0 0.0 0.0 0.0 0.0 0.0 0.0 0.0 0.0 0.0 0.0 0.0 0.0 0.0 0.0 0.0 0.0 0.0 0.0 0.0 0.0 0.0 0.0 0.0 0.0 0.0 0.0 0.0 0.0 0.0 0.0 0.0 0.0 0.0 0.0 0.0 0.0 0.0 0.0 0.0 0.0 0.0 0.0 0.0 0.0 0.0 0.0 0.0 0.0 0.0 0.0 0.0 0.0 0.0 0.0 0.0 0.0 0.0 0.0 0.0 0.0 0.0 0.0 0.0 0.0 0.0 0.0 0.0 0.0 0.0 0.0 0.0 0.0 0.0 0.0 0.0 0.0 0.0 0.0 0.0 0.0 0.0 0.0 0.0 0.0 0.0 0.0 0.0 0.0 0.0 0.0 0.0 0.0 0.0 0.0 0.0 0.0 0.0 0.0 0.0 0.0 0.0 0.0  1.2654977E+004  6.6991945E+003  8.2652143E+003  3.5816439E+003  1.5533626E+004  1.8977935E+004  3.8334494E+003  3.3905400E+003  4.5371985E+003  3.2092180E+003  3.4781687E+003  3.4136068E+003  3.0787653E+003  3.1437065E+003  3.4266128E+003  3.3328675E+003  3.2575953E+003  2.8365620E+003  3.7653753E+003  3.5950662E+003  3.8015045E+003  4.1366525E+003  3.7150339E+003  4.0327026E+003  4.3939700E+003  4.0620706E+003  4.4099562E+003  4.6807948E+003  1.2443941E+004  4.3077913E+003  4.8995775E+003  4.5644372E+003  5.1713446E+003  4.9386176E+003  5.2096074E+003  5.2251288E+003  5.2684647E+003  5.2472978E+003  4.4713334E+003  5.4709727E+003  5.8060096E+003  5.4889908E+003  5.6386266E+003  5.6920808E+003  5.8771766E+003  6.0362898E+003  1.8536194E+003  8.0541707E+003  1.0234500E+003  1.7300072E+004  3.4737261E+003  4.0470337E+003  4.0410899E+003  4.8048373E+003  5.2865410E+003  5.3276287E+003  5.5786477E+003  5.0732944E+003  5.3703354E+003  5.7172863E+003  5.9577398E+003  6.4335124E+003  6.7773309E+003  6.8934071E+003  7.0603126E+003  7.3068868E+003  7.4129966E+003  7.6235820E+003  7.8163596E+003  7.7807285E+003  7.7321993E+003  7.6213993E+003  6.8269003E+003  7.1328612E+003  6.3054193E+003  6.8339326E+003  6.9083149E+003  7.4168805E+003  7.9522145E+003  8.4732933E+003  8.7104079E+003  9.1349225E+003  9.3510250E+003  9.4429936E+003  9.3008953E+003  9.3936793E+003  4.8518551E+003  1.3966956E+003  2.2425700E+003  9.2662362E+002  1.9187735E+004  1.4345692E+003  7.2869394E+002  2.8561385E+003  2.4746494E+003  2.0544289E+003  3.4663778E+003  2.3342732E+003  3.0122732E+003  3.0605573E+003  4.0926038E+003  4.4893680E+003  5.7519916E+003  6.5465107E+003  6.5902134E+003  8.9605761E+003  7.8420960E+003  9.1665887E+003  8.9126793E+003  1.1738970E+004  1.2589283E+004  9.0429887E+003  1.4745026E+004  1.0924811E+004  2.2869253E+004  4.7536049E+003  1.6805494E+003  2.9540471E+003  4.7706815E+003  5.7445043E+003  9.3913582E+003  1.8601857E+003  5.0446969E+003  3.4186381E+003  3.4817572E+003  1.8524635E+003  1.9200440E+003  9.9315355E+002  1.3893555E+003  2.8607025E+003  3.3174128E+003  4.4982162E+003  5.2187917E+003  3.4402706E+003  3.2031934E+003  1.9196196E+003  7.7694947E+003  5.1869898E+003  4.9272973E+003  2.8740698E+003  6.7717827E+003  4.4590593E+003  4.5238498E+003  2.3074760E+003  2.2846559E+003  1.1395989E+003  8.4975064E+003  6.0806205E+003  6.5386487E+003  3.0256631E+003  8.2952729E+003  5.7580100E+003  6.5148865E+003  4.3351330E+003  4.1504136E+003  2.9176372E+003  7.5223879E+003  5.1002912E+003  5.6855828E+003  3.7156295E+003  3.9322659E+003  2.1793423E+003  7.2780470E+003  4.7879522E+003  4.8733569E+003  2.4741914E+003  6.8258435E+003  6.8280063E+003  4.1380040E+003  7.7295265E+003  5.0739717E+003  5.0978870E+003  2.6380113E+003  7.7908571E+003  5.3368056E+003  7.5473211E+003  9.1882497E+003  6.4965994E+003  6.8562396E+003  3.0950511E+003  9.4353709E+003  6.5195468E+003  7.7997024E+003  7.2417753E+003  4.9764001E+003  6.7048854E+003  4.5031993E+003  6.7116225E+003  9.2781049E+003  6.4160131E+003  7.2886284E+003  4.9598263E+003  6.8902055E+003  4.6789776E+003  6.9960045E+003  6.2459859E+003  4.3952433E+003  3.1079098E+003  8.8729782E+003  5.8808608E+003  9.0639657E+003  7.1542673E+003  1.0976806E+003  5.1273237E+003  5.3715797E+003  9.7490307E+003  5.4934229E+003  3.7510417E+003  3.8376016E+003  2.2606701E+003  2.6118300E+003  2.1775502E+003  4.1869561E+003  5.7141428E+003  3.7904351E+003  5.5538323E+003  5.2036029E+003  3.0326301E+003  5.6813803E+003  3.6878467E+003  3.0568203E+003  2.0719424E+003  5.3560338E+003  2.8893206E+003  4.8209469E+003  3.0121959E+003  5.1923791E+003  2.4039662E+003  3.4610880E+003  2.3820921E+003  5.1054983E+003  2.9453331E+003  5.2903703E+003  3.6876902E+003  3.2304542E+003  1.4581665E+003  1.7630218E+003  4.1925182E+003  2.9009220E+003  4.5551359E+003  3.1085125E+003  4.1634710E+003  3.0178356E+003  3.4339740E+003  2.1553477E+003  5.0597258E+003  2.9622943E+003  3.5868521E+003  2.5868551E+003  3.8530777E+003  2.7761258E+003  5.6580380E+003  3.7116225E+003  4.4279596E+003  3.2515230E+003  4.0155023E+003  2.6965538E+003  3.3643851E+003  2.1472624E+003  3.2358071E+003  2.2817019E+003  6.1219274E+003  3.4577121E+003  4.9837110E+003  3.0539677E+003  5.7950537E+003  3.4971126E+003  3.3622648E+003  2.2024495E+003  1.6143587E+004  1.3900850E+004  1.3760898E+004  1.9995951E+003  3.1348706E+003  2.6338848E+003  3.2493650E+003  3.1108394E+003  3.3963119E+003  3.2931888E+003  2.8542484E+003  3.5321407E+003  2.3134545E+003  2.4075344E+003  2.2238745E+003  6.9647623E+002  1.8458067E+003  2.0624273E+003  3.5287309E+002  2.4180954E+003  6.9349294E+003  5.5128802E+003  1.1039183E+003  1.6467905E+004  1.1802218E+004  2.8376604E+003  1.9394432E+003  6.6143471E+003  2.6401097E+002  8.8631031E+002  2.0413281E+003  1.1928867E+004  1.4727271E+003  1.0137414E+004  2.7600208E+004  1.4331730E+004  2.0740214E+002  2.1554441E+003  1.4995731E+003  1.1326310E+003  2.8626363E+003  7.3090605E+003  7.0180977E+003  2.3989078E+003  6.6890522E+003  5.0925362E+003  5.4215216E+003  6.3263790E+003  6.0665695E+003  5.8503772E+003  5.4055727E+003  6.0177245E+003  5.7936267E+003  4.8610719E+003  7.4874741E+003  3.9226980E+003  3.4085950E+003  4.1155539E+003  3.1290270E+003  5.7186049E+003  6.9153987E+003  7.5972303E+003  5.5227582E+003  3.3112774E+003  7.5699957E+003  3.2566320E+003  5.2058926E+003  6.2114265E+003  6.5852555E+003  4.8099238E+003  5.8352680E+003  2.6613851E+003  4.5492433E+003  5.7865511E+003  2.7078445E+003  2.9981518E+003  3.8853488E+003  4.8746864E+003  4.2278917E+003  5.6495062E+003  4.1467935E+003  5.5276928E+003  2.7237940E+003  3.0209125E+003  6.5186601E+003  6.3224836E+003  6.3246286E+003  2.6009642E+003  5.9240364E+003  5.8565474E+003  5.4989165E+003  2.3964364E+003  5.4005836E+003  4.5544594E+003  4.5963233E+003  2.2570373E+003  4.4742419E+003  4.4743815E+003  1.7121617E+003  4.0688610E+003  3.4821478E+003  2.8892489E+003  2.1379061E+003  2.0630024E+003  1.0879614E+004  5.4396099E+003  3.2124022E+003  3.2941283E+003  2.0586313E+004  3.7780019E+004  3.0435115E+003  2.6203401E+004  2.7803647E+003  2.8791879E+003  2.6464398E+003  2.5202102E+003  2.3105734E+003  2.1272803E+003  2.0056111E+003  2.0771949E+003  1.8707397E+003  2.2675698E+003  1.1308856E+004  7.4119255E+002  2.1069901E+003  3.7501704E+003  8.5383476E+003  1.8136206E+004  1.9418031E+003  1.0255466E+004  2.0142122E+003  2.3056018E+003  2.0528883E+003  1.2154967E+004  2.5655337E+003  2.7606027E+003  2.9502970E+003  3.1257029E+003  1.6381262E+003  8.4234324E+003  2.9377343E+003 0.0 0.0 0.0 0.0 0.0 0.0 0.0 0.0 0.0 0.0 0.0 0.0 0.0 0.0 0.0 0.0 0.0 0.0 0.0 0.0 0.0 0.0 0.0 0.0 0.0 0.0 0.0 0.0 0.0 0.0 0.0 0.0 0.0 0.0 0.0 0.0 0.0 0.0 0.0 0.0 0.0 0.0 0.0 0.0 0.0 0.0 0.0 0.0 0.0 0.0 0.0 0.0 0.0 0.0 0.0 0.0 0.0 0.0 0.0 0.0 0.0 0.0 0.0 0.0 0.0 0.0 0.0 0.0 0.0 0.0 0.0 0.0 0.0 0.0 0.0 0.0 0.0 0.0 0.0 0.0 0.0 0.0 0.0 0.0 0.0 0.0 0.0 0.0 0.0 0.0 0.0 0.0 0.0 0.0 0.0 0.0 0.0 0.0 0.0 0.0 0.0 0.0 0.0 0.0 0.0 0.0 0.0 0.0 0.0 0.0 0.0 0.0 0.0 0.0 0.0 0.0 0.0 0.0 0.0 0.0 0.0 0.0 0.0 0.0 0.0 0.0 0.0 0.0 0.0 0.0 0.0 0.0 0.0 0.0 0.0 0.0 0.0 0.0 0.0 0.0 0.0 0.0 0.0 0.0 0.0 0.0 0.0 0.0 0.0 0.0 0.0 0.0 0.0 0.0 0.0 0.0 0.0 0.0 0.0 0.0 0.0 0.0 0.0 0.0 0.0 0.0 0.0 0.0 0.0 0.0 0.0 0.0 0.0 0.0 0.0 0.0 0.0 0.0 0.0 0.0 0.0 0.0 0.0 0.0 0.0 0.0 0.0 0.0 0.0 0.0 0.0 0.0 0.0 0.0 0.0 0.0 0.0 0.0 0.0 0.0 0.0 0.0 0.0 0.0 0.0 0.0 0.0 0.0 0.0 0.0 0.0 0.0 0.0 0.0 0.0 0.0 0.0 0.0 0.0 0.0 0.0 0.0 0.0 0.0 0.0 0.0 0.0 0.0 0.0 0.0 0.0 0.0 0.0 0.0 0.0 0.0 0.0 0.0 0.0 0.0 0.0 0.0 0.0 0.0 0.0 0.0 0.0 0.0 0.0 0.0 0.0 0.0 0.0 0.0 0.0 0.0 0.0 0.0 0.0 0.0 0.0 0.0 0.0 0.0 0.0 0.0 0.0 0.0 0.0 0.0 0.0 0.0 0.0 0.0 0.0 0.0 0.0 0.0 0.0 0.0 0.0 0.0 0.0 0.0 0.0 0.0 0.0 0.0 0.0 0.0 0.0 0.0 0.0 0.0 0.0 0.0 0.0 0.0 0.0 0.0 0.0 0.0 0.0 0.0 0.0 0.0 0.0 0.0 0.0 0.0 0.0 0.0 0.0 0.0 0.0 0.0 0.0 0.0 0.0 0.0 0.0 0.0 0.0 0.0 0.0 0.0 0.0 0.0 0.0 0.0 0.0 0.0 0.0 0.0 0.0 0.0 0.0 0.0 0.0 0.0 0.0 0.0 0.0 0.0 0.0 0.0 0.0 0.0 0.0 0.0 0.0 0.0 0.0 0.0 0.0 0.0 0.0 0.0 0.0 0.0 0.0 0.0 0.0 0.0 0.0 0.0 0.0 0.0 0.0 0.0 0.0 0.0 0.0 0.0 0.0 0.0 0.0 0.0 0.0 0.0 0.0 0.0 0.0 0.0 0.0 0.0 0.0 0.0 0.0 0.0 0.0 0.0 0.0 0.0 0.0 0.0 0.0 0.0 0.0 0.0 0.0 0.0 0.0 0.0 0.0 0.0 0.0 0.0 0.0 0.0 0.0 0.0 0.0 0.0 0.0 0.0 0.0 0.0 0.0 0.0 0.0 0.0 0.0 0.0 0.0 0.0 0.0 0.0 0.0 0.0 0.0 0.0 0.0 0.0 0.0 0.0 0.0 0.0 0.0 0.0 0.0 0.0 0.0 0.0 0.0 0.0 0.0 0.0 0.0 0.0 0.0 0.0 0.0 0.0 0.0 0.0 0.0 0.0 0.0 0.0 0.0 0.0 0.0 0.0 0.0 0.0 0.0 0.0 0.0 0.0 0.0 0.0 0.0 0.0 0.0 0.0 0.0 0.0 0.0 0.0 0.0 0.0 0.0 0.0 0.0 0.0 0.0 0.0 0.0 0.0 0.0 0.0 0.0 0.0 0.0 0.0 0.0 0.0 0.0 0.0 0.0 0.0 0.0 0.0 0.0 0.0 0.0 0.0 0.0 0.0 0.0 0.0 0.0 0.0 0.0 0.0 0.0 0.0 0.0 0.0 0.0 0.0 0.0 0.0 0.0 0.0 0.0 0.0 0.0 0.0 0.0 0.0 0.0 0.0 0.0 0.0 0.0 0.0 0.0 0.0 0.0 0.0 0.0 0.0 0.0 0.0 0.0 0.0 0.0 0.0 0.0 0.0 0.0 0.0 0.0 0.0 0.0 0.0 0.0 0.0 0.0 0.0 0.0 0.0 0.0 0.0 0.0 0.0 0.0 0.0 0.0 0.0 0.0 0.0 0.0 0.0 0.0 0.0 0.0 0.0 0.0 0.0 0.0 0.0 0.0 0.0 0.0 0.0 0.0 0.0 0.0 0.0 0.0 0.0 0.0 0.0 0.0 0.0 0.0 0.0 0.0 0.0 0.0 0.0 0.0 0.0 0.0 0.0 0.0 0.0 0.0 0.0 0.0 0.0 0.0 0.0 0.0 0.0 0.0 0.0 0.0 0.0 0.0 0.0 0.0 0.0 0.0 0.0 0.0 0.0 0.0 0.0 0.0 0.0 0.0 0.0 0.0 0.0 0.0 0.0 0.0 0.0 0.0 0.0 0.0 0.0 0.0 0.0 0.0 0.0 0.0 0.0 0.0 0.0 0.0 0.0 0.0 0.0 0.0 0.0 0.0 0.0 0.0 0.0 0.0 0.0 0.0 0.0 0.0 0.0 0.0 0.0 0.0 0.0 0.0 0.0 0.0 0.0 0.0 0.0 0.0 0.0 0.0 0.0 0.0 0.0 0.0 0.0 0.0 0.0 0.0 0.0 0.0 0.0 0.0 0.0 0.0 0.0 0.0 0.0 0.0 0.0 0.0 0.0 0.0 0.0 0.0 0.0 0.0 0.0 0.0 0.0 0.0 0.0 0.0 0.0 0.0 0.0 0.0 0.0 0.0 0.0 0.0 0.0 0.0 0.0 0.0 0.0 0.0 0.0 0.0 0.0 0.0 0.0 0.0 0.0 0.0 0.0 0.0 0.0 0.0 0.0 0.0 0.0 0.0 0.0 0.0 0.0 0.0 0.0 0.0 0.0 0.0 0.0 0.0 0.0 0.0 0.0 0.0 0.0 0.0 0.0 0.0 0.0 0.0 0.0 0.0 0.0 0.0 0.0 0.0 0.0 0.0 0.0 0.0 0.0 0.0 0.0 0.0 0.0 0.0 0.0 0.0 0.0 0.0 0.0 0.0 0.0 0.0 0.0 0.0 0.0 0.0 0.0 0.0 0.0 0.0 0.0 0.0 0.0 0.0 0.0 0.0 0.0 0.0 0.0 0.0 0.0 0.0 0.0 0.0 0.0 0.0 0.0 0.0 0.0 0.0 0.0 0.0 0.0 0.0 0.0 0.0 0.0 0.0 0.0 0.0 0.0 0.0 0.0 0.0 0.0 0.0 0.0 0.0 0.0 0.0 0.0 0.0 0.0 0.0 0.0 0.0 0.0 0.0 0.0 0.0 0.0 0.0 0.0 0.0 0.0 0.0 0.0 0.0 0.0 0.0 0.0 0.0 0.0 0.0 0.0 0.0 0.0 0.0 0.0 0.0 0.0 0.0 0.0 0.0 0.0 0.0 0.0 0.0 0.0 0.0 0.0 0.0 0.0 0.0 0.0 0.0 0.0 0.0 0.0 0.0 0.0 0.0 0.0 0.0 0.0 0.0 0.0 0.0 0.0 0.0 0.0 0.0 0.0 0.0 0.0 0.0 0.0 0.0 0.0 0.0 0.0 0.0 0.0 0.0 0.0 0.0 0.0 0.0 0.0 0.0 0.0 0.0 0.0 0.0 0.0 0.0 0.0 0.0 0.0 0.0 0.0 0.0 0.0 0.0 0.0 0.0 0.0 0.0 0.0 0.0 0.0 0.0 0.0 0.0 0.0 0.0 0.0 0.0 0.0 0.0 0.0 0.0 0.0 0.0 0.0 0.0 0.0 0.0 0.0 0.0 0.0 0.0 0.0 0.0 0.0 0.0 0.0 0.0 0.0 0.0 0.0 0.0 0.0 0.0 0.0 0.0 0.0 0.0 0.0 0.0 0.0 0.0 0.0 0.0 0.0 0.0 0.0 0.0 0.0 0.0 0.0 0.0 0.0 0.0 0.0 0.0 0.0 0.0 0.0 0.0 0.0 0.0 0.0 0.0 0.0 0.0 0.0 0.0 0.0 0.0 0.0 0.0 0.0 0.0 0.0 0.0 0.0 0.0 0.0 0.0 0.0 0.0 0.0 0.0 0.0 0.0 0.0 0.0 0.0 0.0 0.0 0.0 0.0 0.0 0.0 0.0 0.0 0.0 0.0 0.0 0.0 0.0 0.0 0.0 0.0 0.0 0.0 0.0 0.0 0.0 0.0 0.0 0.0 0.0 0.0 0.0 0.0 0.0 0.0 0.0 0.0 0.0 0.0 0.0 0.0 0.0 0.0 0.0 0.0 0.0 0.0 0.0 0.0 0.0 0.0 0.0 0.0 0.0 0.0 0.0 0.0 0.0 0.0 0.0 0.0 0.0 0.0 0.0 0.0 0.0 0.0 0.0 0.0 0.0 0.0 0.0 0.0 0.0 0.0 0.0 0.0 0.0 0.0 0.0 0.0 0.0 0.0 0.0 0.0 0.0 0.0 0.0 0.0 0.0 0.0 0.0 0.0 0.0 0.0 0.0 0.0 0.0 0.0 0.0 0.0 0.0 0.0 0.0 0.0 0.0 0.0 0.0 0.0 0.0 0.0 0.0 0.0 0.0 0.0 0.0 0.0 0.0 0.0 0.0 0.0 0.0 0.0 0.0 0.0 0.0 0.0 0.0 0.0 0.0 0.0 0.0 0.0 0.0 0.0 0.0 0.0 0.0 0.0 0.0 0.0 0.0 0.0 0.0 0.0 0.0 0.0 0.0 0.0 0.0 0.0 0.0 0.0 0.0 0.0 0.0 0.0 0.0 0.0 0.0 0.0 0.0 0.0 0.0 0.0 0.0 0.0 0.0 0.0 0.0 0.0 0.0 0.0 0.0 0.0 0.0 0.0 0.0 0.0 0.0 0.0 0.0 0.0 0.0 0.0 0.0 0.0 0.0 0.0 0.0 0.0 0.0 0.0 0.0 0.0 0.0 0.0 0.0 0.0 0.0 0.0 0.0 0.0 0.0 0.0 0.0 0.0 0.0 0.0 0.0 0.0 0.0 0.0 0.0 0.0 0.0 0.0 0.0 0.0 0.0 0.0 0.0 0.0 0.0 0.0 0.0 0.0 0.0 0.0 0.0 0.0 0.0 0.0
        </DataArray>
        <DataArray type="Float64" Name="pressure" NumberOfComponents="1" format="ascii">
 -1.6347454E-002  1.0584822E-002  4.6048189E-002 -4.5560016E-002 -7.9347124E-001 -1.5227090E-002  2.6212689E-001 -1.2487887E-002  2.7575234E-001  1.8232046E-001 -2.2923004E-002  2.1398115E-001  2.1228238E-001  8.1506487E-002  2.1301142E-001  1.4038818E-001  1.8212673E-001  3.1574577E-001  6.3937961E-001 0.0 0.0 0.0 0.0 -1.1575691E-001 -5.7053709E-002 -3.0441045E-002 -1.7083064E-002 -8.7896765E-003 -5.8381265E-004 -2.8264370E-003  1.3045997E-003  3.3421407E-003  6.2531727E-003  6.9333852E-003  7.8060231E-003  9.1279497E-003  9.8938283E-003  1.0289679E-002  1.0651073E-002 -3.1297010E-002 -1.4837310E-002  4.9557550E-003  2.6324298E-002  4.9282970E-002  6.8722366E-002  8.2496252E-002  1.0618776E-001  1.2295619E-001  1.5937793E-001  1.8601104E-001  2.1047959E-001  2.1354389E-001  2.1467322E-001  2.0110015E-001  2.0568235E-001  2.2712796E-001  2.3760192E-001  2.2816391E-001  2.2125204E-001  2.2298077E-001  2.3903445E-001  2.1571045E-001  2.0909134E-001  2.3284833E-001  2.2354369E-001  1.8727753E-001 -9.4681684E-003 -6.3082087E-003 -2.9347525E-003  5.5218631E-004  4.8400369E-003  1.0010357E-002  1.5900309E-002  2.3075948E-002  3.0784988E-002  3.8561839E-002  4.6446380E-002  5.4262451E-002  6.2426281E-002  7.0105923E-002  7.8669272E-002  8.6810978E-002  9.4125699E-002  1.0291933E-001  1.1025993E-001  1.1925152E-001  1.2670300E-001  1.3356461E-001  1.4221234E-001  1.4863396E-001  1.5663393E-001  1.6331148E-001  1.7256496E-001  1.7800028E-001  1.8514170E-001  1.9503115E-001  2.0193815E-001  2.0414626E-001  2.1169018E-001  2.1533120E-001  2.2351089E-001  2.2523017E-001  2.3626743E-001  2.3888682E-001  2.4794482E-001  2.4601976E-001  2.5226667E-001  2.5777370E-001  2.6446687E-001  2.5975100E-001  2.6483839E-001  2.7268885E-001  2.8189926E-001  2.7584097E-001  2.7952382E-001  2.8445482E-001  2.8887232E-001  2.8139362E-001  2.8173462E-001  2.8672046E-001  2.9576761E-001  2.8925328E-001  2.9002246E-001  2.9285707E-001  2.9885653E-001  3.0835841E-001  2.9937156E-001  3.0036854E-001  3.0254067E-001  3.0859178E-001  3.0199972E-001  3.0099541E-001  2.9664485E-001  2.9998165E-001  3.0931042E-001  3.0259355E-001  2.9797604E-001  2.9333791E-001  2.9663481E-001  3.0454844E-001  2.8122215E-001  3.1474780E-001  2.9826344E-001  3.1880826E-001  3.0359445E-001  2.9912057E-001  2.9352959E-001  2.9377776E-001  3.2174309E-001  2.7275821E-001  2.7304399E-001  2.7028582E-001  2.6862041E-001  2.6481527E-001  2.5930633E-001  2.5261213E-001  2.4375726E-001  2.3704307E-001  2.2942034E-001  2.2511893E-001  2.2045204E-001  2.1650116E-001  2.1192729E-001  2.0867029E-001  2.0392195E-001  2.0182367E-001  1.9864660E-001  1.9542495E-001  1.9301942E-001  1.9059973E-001  1.8759370E-001  1.8565155E-001  1.8297638E-001  1.8099386E-001  1.7864075E-001  1.7678557E-001  1.7509428E-001  1.7285552E-001  1.7132208E-001  1.6921914E-001  1.6497261E-001  1.6314912E-001  1.7157841E-001  2.0171502E-001  1.3579391E-001  1.5950186E-001  1.8301887E-001  2.1382750E-001  2.1173209E-001  2.1082617E-001  2.1040964E-001  2.1029914E-001  2.0998735E-001  2.1004599E-001  2.0990920E-001  2.1001991E-001  2.1009511E-001  2.1025285E-001  2.1034156E-001  2.1031220E-001  2.1076578E-001  2.1106046E-001  2.1161986E-001  2.1215333E-001  2.1308549E-001  2.1441885E-001  2.1592191E-001  2.1738318E-001  2.1956476E-001  2.2267927E-001  2.2734823E-001  2.3948853E-001  2.5596254E-001  2.9027550E-001  1.1151265E-001  1.0154064E-001  1.2648429E-001  1.3216979E-001  1.2967397E-001  1.3242484E-001  1.3375758E-001  1.3516974E-001  1.3710544E-001  1.3872788E-001  1.4111006E-001  1.4316717E-001  1.4511115E-001  1.4683668E-001  1.4997950E-001  1.5250981E-001  1.5486583E-001  1.5718562E-001  1.6064731E-001  1.6370485E-001  1.6713242E-001  1.7063356E-001  1.7437904E-001  1.7760762E-001  1.8257462E-001  1.8683681E-001  1.9177856E-001  1.9509164E-001  2.2019755E-001 -2.1640748E-001 -1.5584601E-001 -1.0602335E-001 -8.0280084E-002 -7.7158059E-002 -6.7489937E-002 -6.0498311E-002 -5.2966073E-002 -5.0013186E-002 -4.6928039E-002 -4.5074055E-002 -1.3564938E-002 -1.0660117E-002 -7.5515446E-003 -4.2522385E-003 -7.4765612E-004  3.0458486E-003  6.7131948E-003 -1.6408844E-002 -1.6476022E-002 -1.6510221E-002 -1.6491268E-002 -1.6419458E-002 -1.6309941E-002 -1.6122972E-002 -1.5932424E-002 -1.5744459E-002 -1.5523471E-002 -1.5309375E-002 -1.5098632E-002 -1.4870127E-002 -1.4658003E-002 -1.4456258E-002 -1.4264085E-002 -1.4062401E-002 -1.3885498E-002 -1.3686249E-002 -1.3541035E-002 -1.3381989E-002 -1.3230875E-002 -1.3088076E-002 -1.2956320E-002 -1.2837761E-002 -1.2728644E-002 -1.2631372E-002 -1.2539611E-002 -1.2471590E-002 -1.2428050E-002 -1.2446308E-002 -1.2648833E-002 -1.2849761E-002  3.9361129E-007 -1.3032679E-002 -1.2635677E-002 -1.2487547E-002 -1.2475523E-002 -1.2478856E-002  2.5527849E-001  2.3767506E-001  2.1966047E-001  2.0340791E-001  1.8974834E-001  1.7483460E-001  1.5840169E-001  1.4606570E-001  1.4006310E-001  1.4052231E-001  1.4009063E-001  1.3987525E-001  1.3791150E-001  1.3755827E-001  1.3902600E-001  1.4337849E-001  1.5044157E-001  1.5886379E-001  1.6739044E-001  1.7519778E-001  1.8088980E-001  1.8361602E-001  1.8374807E-001  1.7684074E-001  1.7346236E-001  1.7169186E-001  1.7173935E-001  1.7299225E-001  1.7554826E-001  1.7882196E-001  1.8227294E-001  1.8590191E-001  1.8942277E-001  1.9262795E-001  1.9537243E-001  1.9799730E-001  2.0151116E-001  2.0535279E-001  2.1215337E-001  2.2314977E-001  2.4068481E-001  2.6417677E-001  2.9113003E-001  3.1500117E-001  3.2881119E-001  3.3002706E-001  3.2453325E-001  3.1138465E-001  3.0825140E-001  2.9989743E-001  2.9778769E-001  3.0034902E-001  3.1243715E-001  3.3505326E-001  3.7362388E-001  4.1925379E-001  4.7600366E-001  5.2700580E-001  5.7364408E-001  6.0792465E-001  6.3049190E-001  6.1582190E-001  5.8493536E-001  5.3421383E-001  4.7571662E-001  4.1955967E-001  3.7131635E-001  3.3430857E-001  3.1016243E-001  2.9560383E-001  2.9365270E-001  2.8579005E-001  3.0372894E-001  2.9374345E-001  2.7100918E-001  2.7064492E-001  2.1522290E-001 -1.5045434E-001 0.0 0.0 0.0 0.0 0.0 0.0 0.0 0.0 0.0 0.0 0.0 0.0 0.0 0.0 0.0 0.0 0.0 0.0 0.0 0.0 0.0 0.0 0.0 0.0 0.0 0.0 0.0 0.0 0.0 0.0 0.0 0.0 0.0 0.0 0.0 0.0 0.0 0.0 0.0 0.0 0.0 0.0 0.0 0.0 0.0 0.0 0.0 0.0 0.0 0.0 0.0 0.0 0.0 0.0 0.0 0.0 0.0 0.0 0.0 0.0 0.0 0.0 0.0 0.0 0.0 0.0 0.0 0.0 0.0 0.0 0.0 0.0 0.0 0.0 0.0 0.0 0.0 0.0 0.0 0.0 0.0 0.0 0.0 0.0 0.0 0.0 0.0 0.0 0.0 0.0 0.0 0.0 0.0 0.0 0.0 0.0 0.0 0.0 0.0 0.0 0.0 0.0 0.0 0.0 0.0 0.0 0.0 0.0 0.0 0.0 0.0 0.0 0.0 0.0 0.0 0.0 0.0 0.0 0.0 0.0 0.0 0.0 0.0 0.0 0.0 0.0 0.0 0.0 0.0 0.0 0.0 0.0 0.0 0.0 0.0 0.0 0.0 0.0 0.0 0.0 0.0 0.0 0.0 0.0 0.0 0.0 0.0 0.0 0.0 0.0 0.0 0.0 0.0 0.0 0.0 0.0 0.0 0.0 0.0 0.0 0.0 0.0 0.0 0.0 0.0 0.0 0.0 0.0 0.0 0.0 0.0 0.0 0.0 0.0 0.0 0.0 0.0 0.0 0.0 0.0 0.0 0.0 0.0 0.0 0.0 0.0 0.0 0.0 0.0 0.0 0.0 0.0 0.0 0.0 0.0 0.0 0.0 0.0 0.0 0.0 0.0 0.0 0.0 0.0 0.0 0.0 0.0 0.0 0.0 0.0 0.0 0.0 0.0 0.0 0.0 0.0 0.0 0.0 0.0 0.0 0.0 0.0 0.0 0.0 0.0 0.0 0.0 0.0 0.0 0.0 0.0 0.0 0.0 0.0 0.0 0.0 0.0 0.0 0.0 0.0 0.0 0.0 0.0 0.0 0.0 0.0 0.0 0.0 0.0 0.0 0.0 0.0 0.0 0.0 0.0 0.0 0.0 0.0 0.0 0.0 0.0 0.0 0.0 0.0 0.0 0.0 0.0 0.0 0.0 0.0 0.0 0.0 0.0 0.0 0.0 0.0 0.0 0.0 0.0 0.0 0.0 0.0 0.0 0.0 0.0 0.0 0.0 0.0 0.0 0.0 0.0 0.0 0.0 0.0 0.0 0.0 0.0 0.0 0.0 0.0 0.0 0.0 0.0 0.0 0.0 0.0 0.0 0.0 0.0 0.0 0.0 0.0 0.0 0.0 0.0 0.0 0.0 0.0 0.0 0.0 0.0 0.0 0.0 0.0 0.0 0.0 0.0 0.0 0.0 0.0 0.0 0.0 0.0 0.0 0.0 0.0 0.0 0.0 0.0 0.0 0.0 0.0 0.0 0.0 0.0 0.0 0.0 0.0 0.0 0.0 0.0 0.0 0.0 0.0 0.0 0.0 0.0 0.0 0.0 0.0 0.0 0.0 0.0 0.0 0.0 0.0 0.0 0.0 0.0 0.0 0.0 0.0 0.0 0.0 0.0 0.0 0.0 0.0 0.0 0.0 0.0 0.0 0.0 0.0 0.0 0.0 0.0 0.0 0.0 0.0 0.0 0.0 0.0 0.0 0.0 0.0 0.0 0.0 0.0 0.0 0.0 0.0 0.0 0.0 0.0 0.0 0.0 0.0 0.0 0.0 0.0 0.0 0.0 0.0 0.0 0.0 0.0 0.0 0.0 0.0 0.0 0.0 0.0 0.0 0.0 0.0 0.0 0.0 0.0 0.0 0.0 0.0 0.0 0.0 0.0 0.0 0.0 0.0 0.0 0.0 0.0 0.0 0.0 0.0 0.0 0.0 0.0 0.0 0.0 0.0 0.0 0.0 0.0 0.0 0.0 0.0 0.0 0.0 0.0 0.0 0.0 0.0 0.0 0.0 0.0 0.0 0.0 0.0 0.0 0.0 0.0 0.0 0.0 0.0 0.0 0.0 0.0 0.0 0.0 0.0 0.0 0.0 0.0 0.0 0.0 0.0 0.0 0.0 0.0 0.0 0.0 0.0 0.0 0.0 0.0 0.0 0.0 0.0 0.0 0.0 0.0 0.0 0.0 0.0 0.0 0.0 0.0 0.0 0.0 0.0 0.0 0.0 0.0 0.0 0.0 0.0 0.0 0.0 0.0 0.0 0.0 0.0 0.0 0.0 0.0 0.0 0.0 0.0 0.0 0.0 0.0 0.0 0.0 0.0 0.0 0.0 0.0 0.0 0.0 0.0 0.0 0.0 0.0 0.0 0.0 0.0 0.0 0.0 0.0 0.0 0.0 0.0 0.0 0.0 0.0 0.0 0.0 0.0 0.0 0.0 0.0 0.0 0.0 0.0 0.0 0.0 0.0 0.0 0.0 0.0 0.0 0.0 0.0 0.0 0.0 0.0 0.0 0.0 0.0 0.0 0.0 0.0 0.0 0.0 0.0 0.0 0.0 0.0 0.0 0.0 0.0 0.0 0.0 0.0 0.0 0.0 0.0 0.0 0.0 0.0 0.0 0.0 0.0 0.0 0.0 0.0 0.0 0.0 0.0 0.0 0.0 0.0 0.0 0.0 0.0 0.0 0.0 0.0 0.0 0.0 0.0 0.0 0.0 0.0 0.0 0.0 0.0 0.0 0.0 0.0 0.0 0.0 0.0 0.0 0.0 0.0 0.0 0.0 0.0 0.0 0.0 0.0 0.0 0.0 0.0 0.0 0.0 0.0 0.0 0.0 0.0 0.0 0.0 0.0 0.0 0.0 0.0 0.0 0.0 0.0 0.0 0.0 0.0 0.0 0.0 0.0 0.0 0.0 0.0 0.0 0.0 0.0 0.0 0.0 0.0 0.0 0.0 0.0 0.0 0.0 0.0 0.0 0.0 0.0 0.0 0.0 0.0 0.0 0.0 0.0 0.0 0.0 0.0 0.0 0.0 0.0 0.0 0.0 0.0 0.0 0.0 0.0 0.0 0.0 0.0 0.0 0.0 0.0 0.0 0.0 0.0 0.0 0.0 0.0 0.0 0.0 0.0 0.0 0.0 0.0 0.0 0.0 0.0 0.0 0.0 0.0 0.0 0.0 0.0 0.0 0.0 0.0 0.0 0.0 0.0 0.0 0.0 0.0 0.0 0.0 0.0 0.0 0.0 0.0 0.0 0.0 0.0 0.0 0.0 0.0 0.0 0.0 0.0 0.0 0.0 0.0 0.0 0.0 0.0 0.0 0.0 0.0 0.0 0.0 0.0 0.0 0.0 0.0 0.0 0.0 0.0 0.0 0.0 0.0 0.0 0.0 0.0 0.0 0.0 0.0 0.0 0.0 0.0 0.0 0.0 0.0 0.0 0.0 0.0 0.0 0.0 0.0 0.0 0.0 0.0 0.0 0.0 0.0 0.0 0.0 0.0 0.0 0.0 0.0 0.0 0.0 0.0 0.0 0.0 0.0 0.0 0.0 0.0 0.0 0.0 0.0 0.0 0.0 0.0 0.0 0.0 0.0 0.0 0.0 0.0 0.0 0.0 0.0 0.0 0.0 0.0 0.0 0.0 0.0 0.0 0.0 0.0 0.0 0.0 0.0 0.0 0.0 0.0 0.0 0.0 0.0 0.0 0.0 0.0 0.0 0.0 0.0 0.0 0.0 0.0 0.0 0.0 0.0 0.0 0.0 0.0 0.0 0.0 0.0 0.0 0.0 0.0 0.0 0.0 0.0 0.0 0.0 0.0 0.0 0.0 0.0 0.0 0.0 0.0 0.0 0.0 0.0 0.0 0.0 0.0 0.0 0.0 0.0 0.0 0.0 0.0 0.0 0.0 0.0 0.0 0.0 0.0 0.0 0.0 0.0 0.0 0.0 0.0 0.0 0.0 0.0 0.0 0.0 0.0 0.0 0.0 0.0 0.0 0.0 0.0 0.0 0.0 0.0 0.0 0.0 0.0 0.0 0.0 0.0 0.0 0.0 0.0 0.0 0.0 0.0 0.0 0.0 0.0 0.0 0.0 0.0 0.0 0.0 0.0 0.0 0.0 0.0 0.0 0.0 0.0 0.0 0.0 0.0 0.0 0.0 0.0 0.0 0.0 0.0 0.0 0.0 0.0 0.0 0.0 0.0 0.0 0.0 0.0 0.0 0.0 0.0 0.0 0.0 0.0 0.0 0.0 0.0 0.0 0.0 0.0 0.0 0.0 0.0 0.0 0.0 0.0 0.0 0.0 0.0 0.0 0.0 0.0 0.0 0.0 0.0 0.0 0.0 0.0 0.0 0.0 0.0 0.0 0.0 0.0 0.0 0.0 0.0 0.0 0.0 0.0 0.0 0.0 0.0 0.0 0.0 0.0 0.0 0.0 0.0 0.0 0.0 0.0 0.0 0.0 0.0 0.0 0.0 0.0 0.0 0.0 0.0 0.0 0.0 0.0 0.0 0.0 0.0 0.0 0.0 0.0 0.0 0.0 0.0 0.0 0.0 0.0 0.0 0.0 0.0 0.0 0.0 0.0 0.0 0.0 0.0 0.0 0.0 0.0 0.0 0.0 0.0 0.0 0.0 0.0 0.0 0.0 0.0 0.0 0.0 0.0 0.0 0.0 0.0 0.0 0.0 0.0 0.0 0.0 0.0 0.0 0.0 0.0 0.0 0.0 0.0 0.0 0.0 0.0 0.0 0.0 0.0 0.0 0.0 0.0 0.0 0.0 0.0 0.0 0.0 0.0 0.0 0.0 0.0 0.0 0.0 0.0 0.0 0.0 0.0 0.0 0.0 0.0 0.0 0.0 0.0 0.0 0.0 0.0 0.0 0.0 0.0 0.0 0.0 0.0 0.0 0.0 0.0 0.0 0.0 0.0 0.0 0.0 0.0 0.0 0.0 0.0 0.0 0.0 0.0 0.0 0.0 0.0 0.0 0.0 0.0 0.0 0.0 0.0 0.0 0.0 0.0 0.0 0.0 0.0 0.0 0.0 0.0 0.0 0.0 0.0 0.0 0.0 0.0 0.0 0.0 0.0 0.0 0.0 0.0 0.0 0.0 0.0 0.0 0.0 0.0 0.0 0.0 0.0 0.0 0.0 0.0 0.0 0.0 0.0 0.0 0.0 0.0 0.0 0.0 0.0 0.0 0.0 0.0 0.0 0.0 0.0 0.0 0.0 0.0 0.0 0.0 0.0 0.0 0.0 0.0 0.0 0.0 0.0 0.0 0.0 0.0 0.0 0.0 0.0 0.0 0.0 0.0 0.0 0.0 0.0 0.0 0.0 0.0 0.0 0.0 0.0 0.0 0.0 0.0 0.0 0.0 0.0 0.0 0.0 0.0 0.0 0.0 0.0 0.0 0.0 0.0 0.0 0.0 0.0 0.0 0.0 0.0 0.0 0.0 0.0 0.0 0.0 0.0 0.0 0.0 0.0 0.0 0.0 0.0 0.0 0.0 0.0 0.0 0.0 0.0 0.0 0.0 0.0 0.0 0.0 0.0 0.0 0.0 0.0 0.0 0.0 0.0 0.0 0.0 0.0 0.0 0.0 0.0 0.0 0.0 0.0 0.0 0.0 0.0 0.0 0.0 0.0 0.0 0.0 0.0 0.0 0.0 0.0 0.0 0.0 0.0 0.0 0.0 0.0 0.0 0.0 0.0 0.0 0.0 0.0 0.0 0.0 0.0 0.0 0.0 0.0 0.0 0.0 0.0 0.0 0.0 0.0 0.0 0.0 0.0 0.0 0.0 0.0 0.0 0.0 0.0 0.0 0.0 0.0 0.0 0.0 0.0 0.0 0.0 0.0 0.0 0.0 0.0 0.0 0.0 0.0 0.0 0.0 0.0 0.0 0.0 0.0 0.0 0.0 0.0 0.0 0.0 0.0 0.0 0.0 0.0 0.0 0.0 0.0 0.0 0.0 0.0 0.0 0.0 0.0 0.0 0.0 0.0 0.0 0.0 0.0 0.0 0.0 0.0 0.0 0.0 0.0 0.0 0.0 0.0 0.0 0.0 0.0 0.0 0.0 0.0 0.0 0.0 0.0 0.0 0.0 0.0 0.0 0.0 0.0 0.0 0.0 0.0 0.0 0.0 0.0 0.0 0.0 0.0 0.0 0.0 0.0 0.0 0.0 0.0 0.0 0.0 0.0 0.0 0.0 0.0 0.0 0.0 0.0 0.0 0.0 0.0 0.0 0.0 0.0 0.0 0.0 0.0 0.0 0.0 0.0 0.0 0.0 0.0 0.0 0.0 0.0 0.0 0.0 0.0 0.0 0.0 0.0 0.0 0.0 0.0 0.0 0.0 0.0 0.0 0.0 0.0 0.0 0.0 0.0 0.0 0.0 0.0 0.0 0.0 0.0 0.0 0.0 0.0 0.0 0.0 0.0 0.0 0.0 0.0 0.0 0.0 0.0 0.0 0.0 0.0 0.0 0.0 0.0 0.0 0.0 0.0 0.0 0.0 0.0 0.0 0.0 0.0 0.0 0.0 0.0 0.0 0.0 0.0 0.0 0.0 0.0 0.0 0.0 0.0 0.0 0.0 0.0 0.0 0.0 0.0 0.0 0.0 0.0 0.0 0.0 0.0 0.0 0.0 0.0 0.0 0.0 0.0 0.0 0.0 0.0 0.0 0.0 0.0 0.0 0.0 0.0 0.0 0.0 0.0 0.0 0.0 0.0 0.0 0.0 0.0 0.0 0.0 0.0 0.0 0.0 0.0 0.0 0.0 0.0 0.0 0.0 0.0 0.0 0.0 0.0 0.0 0.0 0.0 0.0 0.0 0.0 0.0 0.0 0.0 0.0 0.0 0.0 0.0 0.0 0.0 0.0 0.0 0.0 0.0 0.0 0.0 0.0 0.0 0.0 0.0 0.0 0.0 0.0 0.0 0.0 0.0 0.0 0.0 0.0 0.0 0.0 0.0 0.0 0.0 0.0 0.0 0.0 0.0 0.0 0.0 0.0 0.0 0.0 0.0 0.0 0.0 0.0 0.0 0.0 0.0 0.0 0.0 0.0 0.0 0.0 0.0 0.0 0.0 0.0 0.0 0.0 0.0 0.0 0.0 0.0 0.0 0.0 0.0 0.0 0.0 0.0 0.0 0.0 0.0 0.0 0.0 0.0 0.0 0.0 0.0 0.0 0.0 0.0 0.0 0.0 0.0 0.0 0.0 0.0 0.0 0.0 0.0 0.0 0.0 0.0 0.0 0.0 0.0 0.0 0.0 0.0 0.0 0.0 0.0 0.0 0.0 0.0 0.0 0.0 0.0 0.0 0.0 0.0 0.0 0.0 0.0 0.0 0.0 0.0 0.0 0.0 0.0 0.0 0.0 0.0 0.0 0.0 0.0 0.0 0.0 0.0 0.0 0.0 0.0 0.0 0.0 0.0 0.0 0.0 0.0 0.0 0.0 0.0 0.0 0.0 0.0 0.0 0.0 0.0 0.0 0.0 0.0 0.0 0.0 0.0 0.0 0.0 0.0 0.0 0.0 0.0 0.0 0.0 0.0 0.0 0.0 0.0 0.0 0.0 0.0 0.0 0.0 0.0 0.0 0.0 0.0 0.0 0.0 0.0 0.0 0.0 0.0 0.0 0.0 0.0 0.0 0.0 0.0 0.0 0.0 0.0 0.0 0.0 0.0 0.0 0.0 0.0 0.0 0.0 0.0 0.0 0.0 0.0 0.0 0.0 0.0 0.0 0.0 0.0 0.0 0.0 0.0 0.0 0.0 0.0 0.0 0.0 0.0 0.0 0.0 0.0 0.0 0.0 0.0 0.0 0.0 0.0 0.0 0.0 0.0 0.0 0.0 0.0 0.0 0.0 0.0 0.0 0.0 0.0 0.0 0.0 0.0 0.0 0.0 0.0 0.0 0.0 0.0 0.0 0.0 0.0 0.0 0.0 0.0 0.0 0.0 0.0 0.0 0.0 0.0 0.0 0.0 0.0 0.0 0.0 0.0 0.0 0.0 0.0 0.0 0.0 0.0 0.0 0.0 0.0 0.0 0.0 0.0 0.0 0.0 0.0 0.0 0.0 0.0 0.0 0.0 0.0 0.0 0.0 0.0 0.0 0.0 0.0 0.0 0.0 0.0 0.0 0.0 0.0 0.0 0.0 0.0 0.0 0.0 0.0 0.0 0.0 0.0 0.0 0.0 0.0 0.0 0.0 0.0 0.0 0.0 0.0 0.0 0.0 0.0 0.0 0.0 0.0 0.0 0.0 0.0 0.0 0.0 0.0 0.0 0.0 0.0 0.0 0.0 0.0 0.0 0.0 0.0 0.0 0.0 0.0 0.0 0.0 0.0 0.0 0.0 0.0 0.0 0.0 0.0 0.0 0.0 0.0 0.0 0.0 0.0 0.0 0.0 0.0 0.0 0.0 0.0 0.0 0.0 0.0 0.0 0.0 0.0 0.0 0.0 0.0 0.0 0.0 0.0 0.0 0.0 0.0 0.0 0.0 0.0 0.0 0.0 0.0 0.0 0.0 0.0 0.0 0.0 0.0 0.0 0.0 0.0 0.0 0.0 0.0 0.0 0.0 0.0 0.0 0.0 0.0 0.0 0.0 0.0 0.0 0.0 0.0 0.0 0.0 0.0 0.0 0.0 0.0 0.0 0.0 0.0 0.0 0.0 0.0 0.0 0.0 0.0 0.0 0.0 0.0 0.0 0.0 0.0 0.0 0.0 0.0 0.0 0.0 0.0 0.0 0.0 0.0 0.0 0.0 0.0 0.0 0.0 0.0 0.0 0.0 0.0 0.0 0.0 0.0 0.0 0.0 0.0 0.0 0.0 0.0 0.0 0.0 0.0 0.0 0.0 0.0 0.0 0.0 0.0 0.0 0.0 0.0 0.0 0.0 0.0 0.0 0.0 0.0 0.0 0.0 0.0 0.0 0.0 0.0 0.0 0.0 0.0 0.0 0.0 0.0 0.0 0.0 0.0 0.0 0.0 0.0 0.0 0.0 0.0 0.0 0.0 0.0 0.0 0.0 0.0 0.0 0.0 0.0 0.0 0.0 0.0 0.0 0.0 0.0 0.0 0.0 0.0 0.0 0.0 0.0 0.0 0.0 0.0 0.0 0.0 0.0 0.0 0.0 0.0 0.0 0.0 0.0 0.0 0.0 0.0 0.0 0.0 0.0 0.0 0.0 0.0 0.0 0.0 0.0 0.0 0.0 0.0 0.0 0.0 0.0 0.0 0.0 0.0 0.0 0.0 0.0 0.0 0.0 0.0 0.0 0.0 0.0 0.0 0.0 0.0 0.0 0.0 0.0 0.0 0.0 0.0 0.0 0.0 0.0 0.0 0.0 0.0 0.0 0.0 0.0 0.0 0.0 0.0 0.0 0.0 0.0 0.0 0.0 0.0 0.0 0.0 0.0 0.0 0.0 0.0 0.0 0.0 0.0 0.0 0.0 0.0 0.0 0.0 0.0 0.0 0.0 0.0 0.0 0.0 0.0 0.0 0.0 0.0 0.0 0.0 0.0 0.0 0.0 0.0 0.0 0.0 0.0 0.0 0.0 0.0 0.0 0.0 0.0 0.0 0.0 0.0 0.0 0.0 0.0 0.0 0.0 0.0 0.0 0.0 0.0 0.0 0.0 0.0 0.0 0.0 0.0 0.0 0.0 0.0 0.0 0.0 0.0 0.0 0.0 0.0 0.0 0.0 0.0 0.0 0.0 0.0 0.0 0.0 0.0 0.0 0.0 0.0 0.0 0.0 0.0 0.0 0.0 0.0 0.0 0.0 0.0 0.0 0.0 0.0 0.0 0.0 0.0 0.0 0.0 0.0 0.0 0.0 0.0 0.0 0.0 0.0 0.0 0.0 0.0 0.0 0.0 0.0 0.0 0.0  2.7947863E-001  2.3476083E-001  2.9092289E-001  2.9620329E-001  2.7997855E-001  2.6245584E-001  2.3157300E-001 -2.8946933E-002  1.8987673E-001  2.9057631E-001  1.5983656E-002  2.2795297E-001 -1.1210569E-002  1.5028442E-002  1.3848374E-001 -1.0519569E-002  1.2284080E-001  1.8053208E-001  1.2152986E-001  3.0032911E-001  2.9404159E-001  1.4419496E-001  6.1534207E-002  1.7632507E-002  2.4040961E-002  1.0226898E-001  5.0230780E-002 -1.0289727E-002 -1.2003080E-002  1.9875491E-001  1.8085163E-002 -1.2044902E-001  2.9731063E-001  1.8459320E-001  2.9021781E-001  2.0835629E-001  2.4720595E-001  2.7295912E-001 -1.0023763E-002  2.3236457E-001  1.7548321E-001  3.5247652E-001 -5.4482288E-002  2.0591018E-001  2.0781741E-001  2.1176758E-001  2.2750109E-001  2.0656592E-001  2.0684090E-001 -1.3448544E-002  2.6896639E-002  2.5825156E-002  3.3989170E-002  1.0252242E-001  1.0162358E-001 -1.0599118E-002 -1.3070459E-002  1.5394637E-001  3.8890329E-001  3.5702759E-002  4.6756008E-002  4.9358283E-003  7.0959232E-002  2.9682565E-001  1.4451197E-001 -8.7008073E-003  6.2132749E-002  4.7921946E-002  1.0466522E-001  1.0841384E-001  1.3870978E-001  1.4786904E-001  4.4371148E-003  7.2211097E-002  2.9616020E-001  1.6778104E-001  2.2374810E-001  2.3274611E-001  7.4604472E-003  1.5478834E-001  1.6345586E-001  4.7100772E-002  5.9650595E-002  4.8520826E-001  1.6379069E-001  1.7172958E-001  1.7402937E-001  1.8040471E-001  1.8414791E-001  1.8855512E-001  1.9277649E-001  1.9522850E-001  1.9879600E-001  1.9952137E-001  1.9924469E-001  2.0202795E-001  2.0089512E-001  2.0242964E-001  1.9919006E-001  2.0029368E-001  1.9494318E-001  1.9674163E-001  1.8956664E-001  1.9377684E-001  1.8539661E-001  1.9398296E-001  1.8534386E-001  3.1006655E-001  3.5228647E-002  4.7543318E-002  3.5164256E-002  1.4005467E-001  2.4873815E-001  1.5470974E-002  2.0667131E-001  2.0020134E-001  1.9293030E-001 -1.3465866E-002  1.9664691E-001  1.7327729E-001 -9.9370709E-003  2.1146643E-001  1.7078971E-001  1.6415364E-001  1.9238473E-001  1.3929666E-001  1.8137832E-001  4.7469238E-002  3.5576962E-002  2.3980306E-001  2.2579156E-001  2.1328105E-001  1.5037729E-001  1.7071908E-001  1.6524387E-001  5.6665800E-002  7.7243677E-002  7.4305516E-002  9.6600461E-002  9.4960891E-002  1.2836063E-001  1.1300027E-001  1.6884265E-001  1.9114585E-001  2.3884246E-001 -6.0075139E-003  1.8589669E-001  2.7125878E-002  2.5673896E-002  2.6280387E-001  3.4408123E-002  2.5073857E-002  1.8160670E-002  1.6363217E-002  2.3314371E-002  1.6042197E-002  1.6776830E-001  1.6529494E-001  2.2494984E-001  2.0367037E-001  2.5245546E-001  2.8894023E-001  2.8409731E-001  2.0069346E-001  2.0375306E-001  1.8433654E-001  2.0638746E-001  1.9221043E-001  1.7338884E-001 -1.0797115E-003  9.9022566E-002  1.1597672E-002  1.2017906E-002  2.0116496E-001 -1.0893693E-002 -1.0422917E-002 -1.1738158E-002 -9.9664674E-003  5.0358816E-001  2.1482982E-002  1.4640150E-002  2.4985732E-001  3.1373874E-001  1.7972759E-001  1.7567649E-002  9.9896084E-003  7.9819950E-003  1.2758878E-002  7.2386169E-003  1.1008524E-002  1.6622293E-002  1.7152488E-001  1.6729556E-001  1.7690502E-001  1.6128785E-001  2.8925610E-002  5.8708016E-003  1.6447113E-001  2.0723356E-001  2.1176137E-001  2.7628086E-001  2.5237986E-001  3.1083949E-001  6.8546726E-003  6.9711283E-003  1.8369158E-002  1.4771184E-002  2.4152346E-001  2.0335222E-001  1.9155309E-001  2.2673789E-001  2.0737732E-001  2.2559282E-001 -3.2135659E-002  1.7700159E-001  1.8193623E-001  4.6915093E-003  2.6452169E-003  2.0007990E-003  6.6532131E-003  2.4185720E-003  6.5500887E-003  1.6216221E-003  6.2730664E-003  2.0083781E-003  6.1538317E-003  1.2303386E-003  5.8663020E-003  1.5951549E-003  2.3782668E-003  2.5794903E-001  1.0153826E-002  2.0824025E-001  2.0396159E-001  1.4217896E-001  2.0620851E-001  1.0028682E-001  7.6078862E-002 -5.9870604E-002 -3.8444414E-002  2.0681747E-001  2.0085253E-001  2.4128028E-001  1.9719557E-001  2.1694693E-001  1.8591883E-001  1.9136127E-001  1.7160190E-001  1.5996373E-001  1.6964509E-001  2.1753096E-001  2.0648965E-001  2.0200390E-001  1.5896612E-001  2.3023872E-002  2.8302367E-001  2.8129249E-001  1.5870266E-001  5.7771828E-001  3.0274870E-001  2.9781961E-001  2.9937112E-001  2.9609548E-001  3.0248831E-001  2.9819956E-001  1.9996564E-001  2.0159989E-001  2.4416688E-001  2.3301221E-001  2.2058942E-001  2.7518038E-001  2.7487945E-001  2.6033166E-001  2.5456499E-001  1.2104507E-001  1.1082825E-001  9.0388880E-002  7.9493650E-002  2.8400363E-001  2.7415428E-001  2.8790478E-001  5.6332344E-003  1.4125388E-003  2.1432079E-001  2.0386086E-001  1.5947641E-001  1.4563398E-001  2.0470457E-001  2.1516237E-001  1.3377245E-001  1.5079890E-001  1.4319284E-001  2.0909554E-001  1.9011494E-001  1.3782103E-001  1.8404083E-001  1.9851312E-001  1.8330528E-001  2.6329843E-003  1.3481502E-003  4.2475047E-003  2.8833597E-001  2.6507459E-001  1.1046017E-001  1.3185723E-001  1.6981087E-001  1.6802383E-001  2.3851244E-001  2.1033696E-002  5.7829033E-003  1.2037195E-003  5.3918609E-004 -1.3304974E-002  2.3006227E-001  2.5448990E-001 -2.1368969E-003 -2.2799116E-003 -2.5239148E-003  1.0055447E-003 -2.9264763E-003  3.4215798E-002 -1.5359032E-003  2.7736469E-005  2.5275336E-003 -1.4513904E-003  1.3833574E-003  5.1829509E-003 -1.2716128E-003 -1.5463673E-003  2.9731282E-001  3.2421738E-001  1.8300216E-001  1.8729319E-001  5.4139367E-004 -3.1610320E-003  4.5213712E-003  1.7201869E-001  1.7118970E-001  1.6740208E-001  1.8105538E-001  3.2993882E-001  2.7693797E-001  2.6734290E-001  2.4473997E-001  2.5453130E-001  2.7082344E-001  2.3419379E-001  2.4256579E-001 -2.6875194E-003  1.8655061E-003  2.7582377E-001  2.5113213E-001  2.6364163E-001  1.6311068E-001 -1.9285420E-003 -6.5128962E-003  2.4427413E-001  2.0976129E-001  1.7636873E-001 -2.3488371E-002 -9.4349624E-003  3.7461614E-002  1.5603660E-001  1.5457807E-001 -2.8224497E-003  1.5293168E-001  1.5164145E-001  1.0704172E-002  1.5661191E-001  1.8919736E-001  1.9255269E-001  1.9002653E-001  1.9434983E-001  1.9719677E-001  1.9826397E-001  2.0084430E-001  2.0150343E-001  2.0306587E-001  2.0405936E-001  2.0370164E-001  2.0586610E-001  2.0281806E-001  2.0783444E-001  2.0242054E-001  1.9934812E-001  2.0126410E-001  2.1039597E-001  1.9626350E-001  1.7713098E-001  1.7987790E-001  1.5789006E-001  1.8877351E-001  2.2693957E-001  2.4561928E-001  2.0074562E-001  1.9727389E-001  2.4913409E-002  8.0192152E-002  1.2346933E-001  6.1798524E-002  6.0551812E-002  1.7531417E-001  1.6995025E-001  1.5890874E-001  1.8111514E-001  1.8985932E-001  1.7281694E-001  1.6141188E-001  1.5687544E-001  1.6785047E-001  1.6174824E-001  1.0588015E-001  1.6734402E-001  1.4243265E-001 -4.0752859E-004 -1.1989539E-002  5.9982224E-001 -1.5577098E-003  5.5128857E-002  2.5811707E-001 -4.2678436E-003  2.1394670E-001  4.2748171E-002 -4.8094879E-003 -4.8023806E-003 -4.6127809E-003 -4.6994000E-003  2.6147711E-001  2.6839594E-001  2.6812967E-001  2.7808286E-001  2.8636822E-001  2.2333098E-001  2.1567691E-001  1.7963497E-004 -5.3045068E-003  1.7158199E-001  1.8646180E-001  2.0766134E-001  6.1425286E-003  2.5222774E-001 -4.8884603E-003  1.8432991E-001  2.3040955E-001  2.2773014E-001  1.8763136E-002  2.6000319E-002  2.8691591E-002  3.5044152E-002  3.8903427E-002  8.6758928E-002  4.4908145E-002  2.2472456E-001  4.5589189E-002  2.6645587E-001  2.3742729E-002  7.7830796E-002 -3.5609324E-003 -6.6871439E-003  1.2520611E-001  1.2627058E-001  3.3027564E-001  2.7428110E-001  2.1670645E-001  3.8392877E-002  5.5880323E-002  2.0067961E-001  1.9259146E-001  2.0381696E-001  1.9374999E-001  1.5556554E-001  1.7338395E-001  1.7445066E-001  1.4995194E-003  1.7676798E-001  2.8230392E-001 -8.2496036E-003  3.3677951E-003 -5.8037957E-004  1.8352150E-001  7.5672986E-002  1.0072016E-001  5.7408091E-002 -7.8113327E-003 -4.7677883E-003  2.4502035E-001  2.4007683E-001  2.4590952E-001  2.6514379E-001  2.6438078E-001  1.6840755E-001  1.2876398E-001  1.2150566E-002  1.6044194E-002 -2.4137708E-003 -5.8496836E-003 -5.6033635E-003 -8.8924730E-003  2.8450602E-001  3.0428008E-001  2.8970148E-001  2.0938035E-001  1.7353817E-002  6.2787700E-002  2.9232086E-001  2.9175583E-001  2.9531870E-001  1.2667156E-001  1.4452448E-001  1.6600688E-001  2.8020692E-001  2.9246464E-001  2.8257569E-001  3.7411851E-001  3.7447466E-001  4.2544345E-001  4.2767619E-001  4.8496192E-001  4.8521361E-001  4.2029160E-001  4.7035873E-001  4.0537027E-001  5.3612003E-001  1.9138180E-001 -8.9957025E-003 -7.3606993E-003  1.8521297E-001  1.6554981E-001  2.9659008E-001 -1.0094281E-003  2.2734468E-001  2.7634337E-001 -5.9218644E-003 -9.0761368E-003 -8.8586343E-003 -9.6560315E-003 -6.2850646E-003 -1.1285435E-002 -2.0370318E-003 -4.2678845E-003 -3.3989847E-003 -4.8433051E-003 -6.3768069E-003 -7.7350877E-003 -6.6894385E-003 -8.2782452E-003  1.9457770E-001  2.0953091E-001  1.8554854E-001 -1.0880278E-002  1.8085645E-001 -4.1491014E-003  1.9859387E-001 -9.8492628E-003 -9.9720557E-003 -1.9800602E-003 -5.4125206E-003 -5.4617953E-003 -1.7997983E-003 -5.0189963E-003 -8.5322624E-003 -8.9355022E-003 -8.8625260E-003 -2.4510543E-003 -5.8756250E-003  7.0590089E-002  4.8367011E-002  1.0421464E-002  1.3021235E-001  2.0504941E-001  8.6450369E-002  2.4846337E-001  1.5190212E-001  1.4995950E-001  1.4875325E-001  1.4944073E-001  1.4599857E-001  1.8988842E-001  1.6522760E-001  1.5343989E-001  1.5192282E-001  1.4307042E-001  1.4313373E-001 -7.1283796E-003 -1.0334384E-002  7.5539112E-002  9.2393195E-003  2.7867772E-001  1.9308676E-002  1.7419767E-001  1.9474488E-001  1.6408621E-001  1.3280646E-001  2.2174688E-001 -4.5798981E-003  2.7981947E-001  1.5439344E-001  2.2961017E-001 -3.2928076E-003 -6.7140786E-003  5.4442859E-004  3.9361129E-007  1.8729973E-001 -1.0853306E-002  1.2341069E-002  2.1096924E-001 -9.8559338E-003 -8.2463416E-003  5.7167086E-003 -6.8168325E-003 -5.8150328E-003 -7.4795889E-003  1.1911893E-002  1.1882686E-002  2.1992831E-001  7.3971135E-003 -4.7183438E-003 -7.5393099E-003 -1.1080392E-002  1.8832355E-001  1.9510844E-001  1.9555740E-001  2.0186891E-001  2.0213712E-001  2.0904524E-001  2.7721905E-001  2.1595348E-001  2.3005697E-001  2.0054475E-001  1.9106087E-001  1.9148117E-001  1.8895182E-001  1.9522158E-001  2.7581832E-001  2.7137346E-001  1.8606247E-001  1.9670416E-001  1.8489803E-002  1.4795776E-002  2.7423116E-001  1.5770504E-001  1.7837714E-001  2.2585272E-001  1.9808877E-001  2.0045810E-001  2.0162366E-001  2.0203633E-001  1.7404076E-001  1.7444823E-001  1.7334124E-001  1.7392192E-001  1.7730327E-001  1.7283441E-001  2.0462458E-001  1.5915045E-001  1.6294612E-001  1.6243381E-001  1.5745548E-001  1.8537618E-001  2.0686782E-001  1.6300189E-001  1.7764713E-001  1.9486264E-001  2.0505100E-001  2.1491632E-001  2.0498768E-001  1.8013622E-001  3.0105515E-001  3.2894506E-001  2.3460899E-001  2.6422590E-001  2.6081633E-001  2.9442977E-001  2.9262785E-001  2.6658422E-001  3.1199043E-001  3.1528935E-001  3.0341299E-001  2.8418917E-001  3.1030982E-001  3.1719443E-001  2.7516022E-001  3.1546815E-001  2.7514954E-001  3.2648039E-001  3.6882779E-001  3.8668884E-001  4.2287823E-001  2.8414956E-001  2.3656195E-001  2.3985590E-001  2.0896214E-001  2.9715834E-001  2.8295425E-001  5.3756179E-001  3.2229205E-001  3.1557415E-001  2.9771297E-001  2.4480039E-001  2.2878501E-001  2.2437479E-001  2.1499142E-001  1.7708934E-001  3.1269397E-001  2.4224100E-001  3.2253380E-001  1.8090379E-001  2.1497282E-001  2.3783243E-001  3.6746849E-001  1.8308411E-001  3.5532059E-001  3.4035897E-001  2.1729170E-001  1.9076029E-001  2.0021792E-001  2.0035411E-001 -1.3049784E-002  1.9981930E-001  1.1110720E-002 -1.0624906E-002 -1.0401595E-002 -1.0092740E-002 -1.0493090E-002 -1.1961806E-002 -1.2421053E-002 -9.8907094E-003 -9.8810572E-003 -1.4101532E-002 -1.3148981E-002 -9.6969150E-003  2.3415120E-001 -1.1312502E-003 -7.6381096E-003  1.9533635E-002  2.5052111E-001 -1.2761997E-002  5.4968914E-002  1.9936880E-001  1.8757655E-001  1.7679364E-001  2.0020432E-001  2.1692875E-001  2.0804486E-001  1.9818571E-001  5.3582081E-001 -2.6013624E-003  4.4425551E-001  5.5937115E-001  4.5712297E-002  4.3840925E-002  3.6093938E-003  2.8803509E-001  1.4717012E-001  3.9155493E-001  2.2012289E-002  2.6238479E-002  1.7744587E-002  2.7657113E-002  2.5361004E-002  3.3706712E-002 -9.1089630E-003 -9.4317731E-003  1.1613127E-002  1.5121309E-002  2.7308433E-001  2.7010160E-001  2.4973868E-001  1.7338433E-002  2.5773851E-001  2.3254946E-001  4.4909103E-001 -7.7732609E-003  1.5280635E-001  1.4801647E-001  2.9986788E-001  2.1172412E-001  3.2271349E-001  2.5848319E-001  2.4402201E-001  1.5348466E-001 -1.1442022E-002  3.1776918E-001  1.7871235E-001  1.7011611E-002  3.4086085E-002  1.6082366E-001  3.1713291E-001  6.0368381E-001  5.3119634E-002 -7.2388523E-003 -7.8471950E-003  1.1181075E-001  2.8865668E-001  1.9034554E-001  1.3937281E-001 -7.7548160E-003  1.0410932E-001  1.5162288E-001  1.8996093E-002  6.9002684E-003  5.3331615E-003  2.0809184E-001 -1.3869097E-002 -1.3207213E-002  3.2495574E-002  3.9226582E-003  1.9156868E-001  3.2853390E-001 -9.8645823E-003  1.3915876E-001  2.7617115E-001  2.2751402E-001  2.1012803E-001  2.1001507E-001  2.9761511E-001  9.6469248E-002  2.8573535E-001  1.8977223E-001  2.6636721E-001  2.4210277E-001  2.0744308E-001  2.5661372E-002  1.6777582E-001  2.2682385E-001 -2.8789549E-003  4.9836720E-002  2.1439515E-001  1.0338868E-002  1.0104955E-002  8.9223992E-003  1.0047002E-002  1.0171580E-002  1.9562150E-001 -1.1040288E-002  1.5525385E-001  1.0125134E-002  3.7780579E-002  1.4451283E-001  1.9729331E-001  2.2966945E-002  2.1796812E-001  1.4030114E-001  1.3292921E-001  1.6504569E-001  1.2508874E-001  2.7126927E-001  1.5982104E-001 -4.7576104E-003 -9.1542759E-003 -1.0228087E-002  2.5169358E-001 -7.1017876E-003 -5.9975059E-003  2.6151928E-002  9.9202344E-004  2.2742160E-001  3.0237727E-003  1.7318511E-001  3.0975844E-001  3.1481091E-001  4.1114876E-002  1.3891052E-001 -1.5420172E-003  1.3691855E-001  1.4127814E-001  3.1759638E-001  1.4843002E-001  1.2568859E-001  1.8397609E-003  1.5082061E-001 -8.1092664E-003 -5.8382973E-005 -4.6494821E-003 -8.1144959E-003  2.6209065E-001  4.2812875E-002  1.6367925E-001  2.8640414E-001  4.0588394E-002  5.8720662E-002  1.4039099E-001 -1.0916540E-002  1.1307638E-001  2.0873754E-001  1.2423607E-001  1.4727764E-001  1.5526452E-001  1.6988381E-001 -9.5313894E-002 -1.4100973E-001 -4.9172975E-002 -3.4618222E-002  5.1986872E-002 -4.9089607E-003  1.9426424E-001  1.3241964E-001  1.4067487E-001  1.8572264E-001  1.7430324E-001  2.0172969E-001 -3.2911946E-002  1.5844342E-001  2.4850287E-001  3.7763112E-002  1.6665794E-001  2.0829945E-001  1.9840162E-001  1.3911616E-001  2.0685103E-001  2.0729356E-001  1.5797621E-001  2.1020559E-001  1.7665206E-001  2.1402107E-001  1.4251689E-001  2.2514030E-001  1.5813793E-001  1.7070079E-001  2.5619966E-001  1.5683654E-002  1.5307478E-001  7.8619790E-002  2.6089594E-001  1.4083670E-001  1.8883225E-001  1.6779819E-001  1.5843280E-001  1.8459982E-001 -1.6073534E-002  1.8648664E-002  1.6354447E-002  1.4247759E-001  5.9985770E-002  1.0224605E-001  8.0977740E-003 -7.5019632E-003  1.7394725E-001  1.4491995E-001  2.8071483E-001 -7.1299109E-003  1.6404886E-001  1.5274395E-001  3.0408154E-001  2.9513053E-001  3.0463996E-001  2.9007473E-001  4.2083581E-002  3.0329180E-001  3.0833213E-001  2.8658504E-001  2.8369683E-001  1.7767653E-001  1.9426476E-001  8.1532661E-002  2.9921257E-001  2.5829911E-001  2.3929248E-001  2.9884427E-001  2.1658043E-001  2.7390053E-001  1.1286756E-001  2.9147782E-001  1.7269277E-001  1.5736388E-001  2.9755958E-001  2.8850177E-001  1.4980948E-001  1.2956077E-001  3.0067576E-001 -8.0668312E-003  2.9435859E-001  2.2475519E-001  1.3622235E-001  3.1292955E-001  2.2504419E-001  2.2535919E-001  2.3817866E-001  2.4525175E-001  2.3988348E-001  2.2122160E-001  2.3392324E-001  1.7369464E-001  1.5910078E-001  3.5367657E-001  7.1229139E-003  4.9926384E-001  3.1866764E-001  1.7934335E-001  5.6285952E-002  3.4666376E-001  1.7361504E-001 -9.5450143E-003 -1.0311295E-002  7.3368282E-002 -3.6030065E-002  2.8590209E-001  2.2028205E-001  2.1444674E-002  1.7644885E-001  5.2719427E-001  5.7295297E-001  2.8995093E-002  6.1848752E-001  2.2206349E-002  4.6880905E-001  1.2085658E-001 -9.8091080E-003 -7.7441182E-003 -2.4156863E-001  1.7564696E-001  4.1462649E-001 -2.1029192E-003  2.5415890E-001  3.9873010E-002  3.2994212E-003  3.5448107E-001  2.8519113E-001  5.7402952E-001  1.6433150E-001  4.4044215E-001  7.0939193E-003  8.2181621E-003  2.8738650E-001 -6.3775183E-003  1.3966540E-001  1.7799218E-001 -6.0926827E-003 -7.1201165E-003  1.5808964E-001  1.5275901E-001  1.6852917E-001  2.0022702E-001  1.8779493E-001  1.4670688E-001  1.7738932E-001  7.5628675E-003 -1.4361691E-002  1.9984647E-001 -1.1524951E-002  2.9928983E-001  2.2553617E-001 -2.6892589E-003  1.5843764E-001  2.0022835E-001  2.8710209E-003  1.8124275E-001  2.0626735E-001 -1.3648287E-002 -1.2322304E-002  1.4628631E-001  2.0860692E-002  7.0236596E-002 -5.5016946E-002 -2.6016908E-002 -8.6588327E-003  1.4430280E-002  1.4166030E-002  1.4549536E-002  2.8881049E-001 -1.1144393E-002  2.6310755E-001  2.8772211E-002  9.4382333E-002 -5.3136370E-003  1.7809393E-001 -8.5718564E-003  1.5708968E-001 -1.3293134E-002 -3.0972670E-003  3.2550691E-002 -6.3435585E-003 -3.6282157E-002
        </DataArray>
        <DataArray type="Float64" Name="pressurem" NumberOfComponents="1" format="ascii">
  6.9055218E+000 0.0 0.0 0.0 0.0 0.0 0.0  6.9127439E+000 0.0 0.0 0.0 0.0 0.0 0.0 0.0 0.0 0.0 0.0 0.0 -7.1123851E+000 -7.1076717E+000  6.9155222E+000 0.0 0.0 0.0 0.0 0.0 0.0 0.0 0.0 0.0 0.0 0.0 0.0 0.0 0.0 0.0 0.0 0.0 0.0 0.0 0.0 0.0 0.0 0.0 0.0 0.0 0.0 0.0 0.0 0.0 0.0 0.0 0.0 0.0 0.0 0.0 0.0 0.0 0.0 0.0 0.0 0.0 0.0 0.0 0.0 0.0 0.0 0.0 0.0 0.0 0.0 0.0 0.0 0.0 0.0 0.0 0.0 0.0 0.0 0.0 0.0 0.0 0.0 0.0 0.0 0.0 0.0 0.0 0.0 0.0 0.0 0.0 0.0 0.0 0.0 0.0 0.0 0.0 0.0 0.0 0.0 0.0 0.0 0.0 0.0 0.0 0.0 0.0 0.0 0.0 0.0 0.0 0.0 0.0 0.0 0.0 0.0 0.0 0.0 0.0 0.0 0.0 0.0 0.0 0.0 0.0 0.0 0.0 0.0 0.0 0.0 0.0 0.0 0.0 0.0 0.0 0.0 0.0 0.0 0.0 0.0 0.0 0.0 0.0 0.0 0.0 0.0 0.0 0.0 0.0 0.0 0.0 0.0 0.0 0.0 0.0 0.0 0.0 0.0 0.0 0.0 0.0 0.0 0.0 0.0 0.0 0.0 0.0 0.0 0.0 0.0 0.0 0.0 0.0 0.0 0.0 0.0 0.0 0.0 0.0 0.0 0.0 0.0 0.0 0.0 0.0 0.0 0.0 0.0 0.0 0.0 0.0 0.0 0.0 0.0 0.0 0.0 0.0 0.0 0.0 0.0 0.0 0.0 0.0 0.0 0.0 0.0 0.0 0.0 0.0 0.0 0.0 0.0 0.0 0.0 0.0 0.0 0.0 0.0 0.0 0.0 0.0 0.0 0.0 0.0 0.0 0.0 0.0 0.0 0.0 0.0 0.0 0.0 0.0 0.0 0.0 0.0 0.0 0.0 0.0 0.0 0.0 0.0 0.0 0.0 0.0 0.0 0.0 0.0 0.0 0.0 0.0 0.0 0.0 0.0 0.0 0.0 0.0 0.0 0.0  6.9055095E+000  6.9054906E+000  6.9054708E+000  6.9054642E+000  6.9054661E+000  6.9054775E+000  6.9055027E+000  6.9055342E+000  6.9055754E+000  6.9056234E+000  6.9056793E+000  6.9057388E+000  6.9058121E+000  6.9058804E+000  6.9059618E+000  6.9060444E+000  6.9061373E+000  6.9062346E+000  6.9063384E+000  6.9064502E+000  6.9065690E+000  6.9067067E+000  6.9068433E+000  6.9069894E+000  6.9071543E+000  6.9073256E+000  6.9075246E+000  6.9077287E+000  6.9079586E+000  6.9082175E+000  6.9084864E+000  6.9087898E+000  6.9090996E+000  6.9094778E+000  6.9098950E+000  6.9103540E+000  6.9108514E+000  6.9114210E+000  6.9120560E+000 0.0 0.0 0.0 0.0 0.0 0.0 0.0 0.0 0.0 0.0 0.0 0.0 0.0 0.0 0.0 0.0 0.0 0.0 0.0 0.0 0.0 0.0 0.0 0.0 0.0 0.0 0.0 0.0 0.0 0.0 0.0 0.0 0.0 0.0 0.0 0.0 0.0 0.0 0.0 0.0 0.0 0.0 0.0 0.0 0.0 0.0 0.0 0.0 0.0 0.0 0.0 0.0 0.0 0.0 0.0 0.0 0.0 0.0 0.0 0.0 0.0 0.0 0.0 0.0 0.0 0.0 0.0 0.0 0.0 0.0 0.0 0.0 0.0 0.0 0.0 0.0 0.0 0.0 -7.1123413E+000 -7.1122888E+000 -7.1122454E+000 -7.1121869E+000 -7.1120977E+000 -7.1120089E+000 -7.1118934E+000 -7.1117692E+000 -7.1116365E+000 -7.1114994E+000 -7.1113442E+000 -7.1111902E+000 -7.1110367E+000 -7.1108791E+000 -7.1107145E+000 -7.1105602E+000 -7.1104133E+000 -7.1102623E+000 -7.1101189E+000 -7.1099786E+000 -7.1098520E+000 -7.1097212E+000 -7.1096065E+000 -7.1094858E+000 -7.1093703E+000 -7.1092642E+000 -7.1091616E+000 -7.1090681E+000 -7.1089730E+000 -7.1088821E+000 -7.1087939E+000 -7.1087093E+000 -7.1086280E+000 -7.1085448E+000 -7.1084669E+000 -7.1083899E+000 -7.1083167E+000 -7.1082438E+000 -7.1081680E+000 -7.1080972E+000 -7.1080294E+000 -7.1079607E+000 -7.1078995E+000 -7.1078401E+000 -7.1077812E+000 -7.1077386E+000 -7.1077041E+000 -7.1076759E+000 -7.1076631E+000 -6.4069534E+000 -5.7062325E+000 -5.0055092E+000 -4.3047800E+000 -3.6040567E+000 -2.9033360E+000 -2.2026197E+000 -1.5019104E+000 -8.0121187E-001 -1.0052306E-001  6.0015393E-001  1.3008151E+000  2.0014619E+000  2.7020916E+000  3.4027037E+000  4.1032953E+000  4.8038682E+000  5.5044255E+000  6.2049743E+000  6.9133462E+000  6.9138073E+000  6.9142333E+000  6.9145650E+000  6.9148222E+000  6.9150849E+000  6.9152283E+000  6.9153556E+000  6.9154743E+000  6.2344877E+000  5.5215104E+000  4.7551605E+000  3.9130699E+000  2.9683926E+000  1.8864233E+000  6.2050019E-001 -8.2234794E-001 -2.0880416E+000 -3.1695574E+000 -4.1136726E+000 -4.9550242E+000 -5.7204910E+000 -6.4325015E+000 0.0 0.0 0.0 0.0 0.0 0.0 0.0 0.0 0.0 0.0 0.0 0.0 0.0 0.0 0.0 0.0 0.0 0.0 0.0 0.0 0.0 0.0 0.0 0.0 0.0 0.0 0.0 0.0 0.0 0.0 0.0 0.0 0.0 0.0 0.0 0.0 0.0 0.0 0.0 0.0 0.0 0.0 0.0 0.0 0.0 0.0 0.0 0.0 0.0 0.0 0.0 0.0 0.0 0.0 0.0 0.0 0.0 0.0 0.0 0.0 0.0 0.0 0.0 0.0 0.0 0.0 0.0 0.0 0.0 0.0 0.0 0.0 0.0 0.0 0.0 0.0 0.0 0.0 0.0 0.0 0.0 0.0 0.0 0.0 0.0 0.0 0.0 0.0 0.0 0.0 0.0 0.0 0.0 0.0 0.0 0.0 0.0 0.0 0.0 0.0 0.0 0.0 0.0 0.0 0.0 0.0 0.0 0.0 0.0 0.0 0.0 0.0 0.0 0.0 0.0 0.0 0.0 0.0 0.0 0.0 0.0 0.0 0.0 0.0 0.0 0.0 0.0 0.0 0.0 0.0 0.0 0.0 0.0 0.0 0.0 0.0 0.0 -6.5338332E+000 -6.5074639E+000 -6.4971211E+000  6.2991593E+000 -6.6197458E+000 -6.4760782E+000  6.2372568E+000  6.2732362E+000  6.3107969E+000  6.3277328E+000  3.3697835E-001  6.3182422E+000 -6.4461662E+000  6.3139815E+000 -6.4895359E+000 -6.5009731E+000 -1.5664952E-001 -2.5529672E+000  3.0450318E+000  6.3125968E+000 -6.5690247E+000  6.2085512E+000  6.3345358E+000 -6.4576518E+000  6.2372982E+000 -6.4505201E+000  6.2513858E+000 -3.6741379E+000 -4.6551236E+000  3.4541062E+000  6.2999868E+000 -6.4829117E+000 -6.5274199E+000  6.2879502E+000  6.2810760E+000 -1.1677916E+000  6.2993004E+000  4.4731944E+000  1.6777544E+000  6.3206683E+000 -6.5075698E+000 -6.5041327E+000 -6.4267703E+000  6.2512060E+000 -6.5543096E+000 -6.5203204E+000 -6.5064952E+000  6.3070651E+000 -5.3510204E+000  5.1300977E+000 -6.5050348E+000  6.3149477E+000 -6.5781752E+000  1.1876966E+000  6.4065296E-001 -1.1184655E+000 -3.8692374E-001  1.1107435E+000  4.4884929E-001 -1.2332446E+000 -5.5861399E-001  8.7341365E-001  3.9249242E-004  1.3779600E+000  5.3620815E-001 -8.3039458E-001 -2.8431505E-001  1.0909725E+000  5.0992885E-001 -1.2162602E+000 -5.7328961E-001  9.1313864E-001 -3.8151402E-002  1.5238113E+000  5.4159964E-001 -9.2729910E-001 -3.4858532E-001  1.0646285E+000  1.8945404E-001  1.5609976E+000  7.0122414E-001 -6.3595560E-001 -3.5823173E-001  1.1725133E+000  3.4346814E-001 -1.0915037E+000 -4.6893107E-001  9.5427219E-001  8.6149172E-002  1.4510120E+000  5.9999961E-001 -8.1261129E-001 -2.8700100E-001  1.0839688E+000  2.6416156E-001 -1.1576481E+000 -5.8495434E-001  7.3355973E-001 -1.8733705E+000 -2.2936693E+000 -1.9102882E+000 -2.0986499E+000 -1.4589734E+000 -2.0322667E+000 -2.4111945E+000 -2.3870513E+000 -2.5489845E+000  2.2293598E+000  2.1791343E+000  2.6387340E+000 -2.6591428E+000  2.2511473E+000  2.6953262E+000  2.7413750E+000 -2.1587312E+000 -1.0342798E+000 -3.0578223E+000 -3.4601482E+000 -3.2861070E+000 -3.1234840E+000 -3.2283090E+000  3.4665909E+000 -3.6965131E+000  3.3490326E+000 -3.8244261E+000  3.7638166E+000 -2.8272901E+000 -3.8392156E+000 -3.8012998E+000  3.3912280E+000  3.8147641E+000 -3.1656400E+000 -4.1828985E+000  3.7871245E+000 -4.0703367E+000 -3.7500885E+000  2.3824525E+000  2.7788467E+000  3.4905598E+000  3.8546337E+000  3.0793949E+000 -3.4573461E+000 -4.4449580E+000 -3.9029041E+000  2.9742345E+000  3.9664208E+000  3.6476953E+000  3.2224291E+000 -4.2628298E+000 -3.8665021E+000  2.9307186E+000 -2.9667973E+000 -4.0241367E+000 -2.5137666E+000 -3.4705001E+000  4.0464866E+000  3.7534981E+000  3.3028325E+000  4.2538011E+000 -4.1690479E+000 -3.7964280E+000  3.9768664E+000  3.6225905E+000  4.1902154E+000  3.2476232E+000 -4.3698615E+000  4.2081909E+000  3.6871870E+000 -4.4444512E+000 -4.6605292E+000 -4.7813948E+000 -4.7229294E+000 -4.5459714E+000 -3.4981219E+000 -4.1320931E+000  4.4442592E+000  4.1531949E+000  4.6071907E+000  4.1201985E+000 -3.7024736E+000 -4.6205318E+000 -4.8339588E+000 -4.3517758E+000 -3.3936500E+000 -3.8717908E+000 -4.7803785E+000 -4.3233816E+000 -4.3100911E+000  4.5367468E+000  4.2340816E+000  4.8854172E+000  5.0811434E+000  4.8034159E+000  3.9484983E+000  4.5298359E+000  4.5578242E+000  4.3076669E+000 -3.4726989E+000  3.3894032E+000  3.6444334E+000 -3.1594148E+000 -3.8119625E+000 -4.7175707E+000 -4.4449332E+000 -4.7880355E+000 -4.4457533E+000 -3.5329001E+000 -4.1183865E+000 -5.1469582E+000 -3.1609428E+000 -3.7675048E+000 -4.6952519E+000  4.6575479E+000 -2.7640416E+000  4.6541701E+000  4.3891422E+000  3.4809998E+000 -5.0824093E+000 -5.0649102E+000  4.8726051E+000 -4.9232230E+000 -3.4098803E+000  4.7207096E+000  5.0776213E+000 -3.9969538E+000 -4.8522059E+000 -4.3347562E+000  3.1934338E+000  3.1823456E+000  3.6166115E+000  4.5507284E+000  4.0799727E+000  2.9451342E+000  3.6174039E+000  4.5357014E+000  4.1179516E+000  3.2060364E+000  3.7039409E+000  2.7244134E+000  3.2268865E+000  2.2057046E+000  4.2110292E+000  3.8793777E+000  4.7316152E+000  5.0921903E+000  4.9912345E+000  1.6991082E+000  1.2561615E+000  1.7289296E+000  8.4875618E-001 -2.8807868E+000 -5.1941485E+000  4.9272913E+000 -5.2744894E+000  4.3610836E+000  3.5854713E+000  3.0224989E+000  2.6388998E+000 -5.3048283E+000 -4.1848328E+000 -3.1904806E+000 -5.0729204E+000 -4.9188467E+000  4.9818834E+000  4.7205495E+000 -5.3086670E+000 -5.2820429E+000 -5.0270258E+000 -4.2043423E+000 -4.8026457E+000 -4.0051002E+000 -4.6243266E+000  6.7370484E-001  5.1553827E+000 -5.2311814E+000 -5.5041684E+000 -5.2036907E+000 -2.6043465E+000 -2.6476351E+000  4.5940637E+000 -5.3527709E+000 -5.5582413E+000  4.2284041E+000  5.1245892E+000  5.1653690E+000  4.9554214E+000  5.2137737E+000 -5.3565701E+000 -5.2490112E+000  2.6986164E+000  1.3717886E+000  2.2086015E+000  4.8163126E-001  7.2933257E-003 -3.5908665E-001 -8.1916776E-001  5.3873231E+000 -5.6467129E+000 -5.6163575E+000  5.4012887E+000 -2.4382344E+000 -1.8682335E+000 -4.7480548E+000  5.5646754E+000  5.2277189E+000 -3.1434124E+000 -1.0431341E+000 -4.9364175E+000 -5.1242513E+000  1.9774688E+000 -5.5780576E+000 -5.0329686E+000 -5.8210580E+000 -5.7616337E+000  4.7185397E+000  4.3512328E+000  5.2097545E+000  4.7506829E+000  5.6288755E+000 -5.2771865E+000  1.8215430E+000 -5.7351952E+000 -5.9295538E+000 -5.3544319E+000  4.4040283E+000  5.0465832E+000  5.4542105E+000 -5.4381212E+000 -5.9083778E+000  5.4004112E+000  5.7073889E+000  5.1530481E+000  4.4093621E+000 -1.5695942E+000 -5.5065202E+000  5.8533536E+000  5.5537236E+000  4.9394229E+000  5.3851920E+000  5.0824798E+000 -4.6780954E+000 -5.4479979E+000  5.5535727E+000  5.8546187E+000 -3.1430234E+000 -3.6142333E+000 -2.3064455E+000  5.7902144E+000  4.7481485E+000  5.1161808E+000  5.1284385E+000  2.0019152E+000  4.4833005E+000  5.2583040E+000  1.8586379E+000 -1.6974614E+000 -5.0836977E+000 -4.2936286E+000 -5.1817402E+000 -5.5910701E+000 -4.7701995E+000 -5.6730923E+000  2.5756424E+000  1.9695954E+000  5.6156661E+000  5.3899695E+000  5.7323242E+000 -1.7374272E-001 -6.5785704E-001 -5.2151095E+000  5.5111325E+000  5.8214085E+000  5.6036771E+000 -6.0552075E+000  2.1327479E+000 -5.7086352E+000 -5.7348282E+000 -5.3675487E+000  5.9497500E+000 -4.7859116E+000  4.8313230E+000 -1.9183395E+000 -3.9593506E+000  3.2545763E+000  3.6944578E+000  5.4051381E+000  5.7323993E+000  8.5164872E-001 -1.6369111E+000 -4.0147201E+000 -2.9468529E+000  6.1363745E+000 -1.7895397E+000 -5.9511146E+000 -6.2959885E+000 -5.9793406E+000 -5.4211825E+000  5.5377869E+000  3.7942243E+000  6.1892772E+000  5.6529889E+000  5.1867493E+000 -6.4055042E+000  4.0604420E+000 -5.7323616E+000 -1.5523066E+000 -2.7960734E+000  2.4684626E+000  5.8549860E+000  5.5539937E+000  1.7061856E+000  1.9866530E+000 -5.8955245E+000 -2.9399041E+000 -2.3693410E+000  4.3340676E+000  5.6236635E+000  5.7908076E+000  5.5480531E+000 -5.9941502E+000 -6.3868254E+000 -4.4922729E+000 -6.4795899E+000  2.4167051E+000 -5.7026643E+000 -6.0630252E+000 -6.1087337E+000 -5.4191949E+000 -6.0584520E+000 -1.5419038E+000 -3.2553811E+000  6.2995584E+000  6.3115800E+000  6.3120337E+000 -6.5440009E+000 -6.5444854E+000 -5.3908333E+000  6.2931218E+000  6.2774347E+000  6.3148875E+000  6.2832484E+000  3.7440967E+000  2.3549751E+000  2.6360789E+000 -4.0561270E-001  6.2940400E+000  6.1815258E+000 -6.4739117E+000 -1.8711958E+000  6.2267575E+000 -6.5155561E+000 -6.5104383E+000 -6.4566694E+000 -6.3984166E+000 -6.5036955E+000  6.3133505E+000 -6.5483878E+000 -6.4627452E+000 -6.5195290E+000 -5.8744161E+000 -6.5241298E+000 -4.5152472E+000  3.9451529E+000 -1.6472738E+000  2.6322985E+000 -5.8717263E+000 -5.8473050E+000  5.0161523E+000  2.3076418E+000  1.6924876E+000  5.6785120E+000 -1.6033021E+000 -3.5719431E+000  6.3353061E+000 -1.1532366E+000 -3.9543983E+000  2.9104396E+000  2.6962553E+000 -6.4952118E+000 -5.9169111E+000 -4.4224752E+000 -6.5082750E+000 -1.7210514E+000 -1.8377114E+000 -2.1339360E+000 -2.8656822E+000  6.3133155E+000  2.7852783E+000 -2.8457741E+000 -6.0565737E+000 -6.1008203E+000  6.3197583E+000  1.9929163E+000  3.5432244E-001 -6.5533018E+000 -5.9994979E+000  3.3959226E+000  4.6756292E+000  5.6957462E+000  6.3276636E+000 -6.5595400E+000  3.3160068E+000  6.3732883E+000 -3.3807024E+000  5.6335686E+000 -6.0155572E+000  6.3288918E+000 -2.9470245E+000  5.7270002E+000 -2.8781620E+000  6.3398945E+000 -5.5458634E+000  4.7334200E+000  2.2713618E+000 -2.1314241E+000 -2.1089353E+000  3.3198290E+000 -3.3748136E+000  6.3101287E+000  2.2266178E+000 -5.9723339E+000 -1.5840814E-001  5.6520085E+000  5.7242030E+000 -5.8667365E+000 -2.9447453E+000  1.1797065E+000  2.0014390E+000  5.6587970E+000 -5.8543537E+000  5.7005985E+000  6.3693262E+000 -5.8775115E+000  5.7697833E+000  1.7976183E+000 -6.6065208E+000  6.4118196E+000 -5.9569213E+000  5.8769139E+000 -5.5612958E+000 -3.7084934E+000 -2.4022591E+000 -5.9051502E+000 -4.6986847E+000 -6.6158825E+000  5.7071970E+000 -2.9046591E+000 -2.4266891E+000  4.2093203E+000 -2.7089717E+000  2.8995633E+000  5.7344526E+000 -2.2351347E+000  5.8354419E+000  6.3365446E+000  6.4404856E+000  5.8050795E+000 -5.9640949E+000 -7.7294486E-001  4.4380957E-002  6.4186181E+000  2.9269204E+000  9.9512463E-001  5.0642588E+000 -5.9302006E+000  4.2590885E+000 -5.9394058E+000 -5.9947483E+000 -1.5993043E+000  5.7994236E+000  5.8223625E+000  1.6926813E+000 -6.6585091E+000  6.4622069E+000 -3.1555872E+000 -6.6055442E+000 -2.8292112E+000 -2.4357137E+000 -5.9792734E+000 -1.3982284E+000  5.7534413E+000 -5.9667526E+000 -6.5873785E+000 -6.6676537E+000 -6.0211315E+000 -6.0472816E+000  2.3389020E+000  1.7348038E+000 -3.9070416E+000 -5.9778199E+000  5.1423829E+000  3.0045535E+000  6.3973824E+000 -6.5982667E+000 -6.6745752E+000 -5.3085353E+000  6.4049489E+000  6.4962421E+000 -6.6855980E+000  5.8691804E+000  5.8251154E+000 -6.0191539E+000 -6.6116864E+000  3.9624074E+000  2.3590212E+000 -4.7746920E+000 -4.9906638E+000 -5.7767740E+000  3.2388621E+000 -2.0781854E+000  2.8348238E+000 -1.2028486E+000  1.4192287E+000  5.4332495E+000  5.7699473E+000  5.8100991E+000  5.2268893E+000  4.3883209E+000 -4.5857997E+000  5.9945680E+000 -6.1022734E+000 -4.6834039E+000 -6.1411236E+000 -2.5622275E+000 -4.1101995E+000 -5.3438971E+000 0.0 0.0 0.0 0.0 0.0 0.0 0.0 0.0 0.0 0.0 0.0 0.0 0.0 0.0 0.0 0.0 0.0 0.0 0.0 0.0 0.0 0.0 0.0 0.0 0.0 0.0 0.0 0.0 0.0 0.0 0.0 0.0 0.0 0.0 0.0 0.0 0.0 0.0 0.0 0.0 0.0 0.0 0.0 0.0 0.0 0.0 0.0 0.0 0.0 0.0 0.0 0.0 0.0 0.0 0.0 0.0 0.0 0.0 0.0 0.0 0.0 0.0 0.0 0.0 0.0 0.0 0.0 0.0 0.0 0.0 0.0 0.0 0.0 0.0 0.0 0.0 0.0 0.0 0.0 0.0 0.0 0.0 0.0 0.0 0.0 0.0 0.0 0.0 0.0 0.0 0.0 0.0 0.0 0.0 0.0 0.0 0.0 0.0 0.0 0.0 0.0 0.0 0.0 0.0 0.0 0.0 0.0 0.0 0.0 0.0 0.0 0.0 0.0 0.0 0.0 0.0 0.0 0.0 0.0 0.0 0.0 0.0 0.0 0.0 0.0 0.0 0.0 0.0 0.0 0.0 0.0 0.0 0.0 0.0 0.0 0.0 0.0 0.0 0.0 0.0 0.0 0.0 0.0 0.0 0.0 0.0 0.0 0.0 0.0 0.0 0.0 0.0 0.0 0.0 0.0 0.0 0.0 0.0 0.0 0.0 0.0 0.0 0.0 0.0 0.0 0.0 0.0 0.0 0.0 0.0 0.0 0.0 0.0 0.0 0.0 0.0 0.0 0.0 0.0 0.0 0.0 0.0 0.0 0.0 0.0 0.0 0.0 0.0 0.0 0.0 0.0 0.0 0.0 0.0 0.0 0.0 0.0 0.0 0.0 0.0 0.0 0.0 0.0 0.0 0.0 0.0 0.0 0.0 0.0 0.0 0.0 0.0 0.0 0.0 0.0 0.0 0.0 0.0 0.0 0.0 0.0 0.0 0.0 0.0 0.0 0.0 0.0 0.0 0.0 0.0 0.0 0.0 0.0 0.0 0.0 0.0 0.0 0.0 0.0 0.0 0.0 0.0 0.0 0.0 0.0 0.0 0.0 0.0 0.0 0.0 0.0 0.0 0.0 0.0 0.0 0.0 0.0 0.0 0.0 0.0 0.0 0.0 0.0 0.0 0.0 0.0 0.0 0.0 0.0 0.0 0.0 0.0 0.0 0.0 0.0 0.0 0.0 0.0 0.0 0.0 0.0 0.0 0.0 0.0 0.0 0.0 0.0 0.0 0.0 0.0 0.0 0.0 0.0 0.0 0.0 0.0 0.0 0.0 0.0 0.0 0.0 0.0 0.0 0.0 0.0 0.0 0.0 0.0 0.0 0.0 0.0 0.0 0.0 0.0 0.0 0.0 0.0 0.0 0.0 0.0 0.0 0.0 0.0 0.0 0.0 0.0 0.0 0.0 0.0 0.0 0.0 0.0 0.0 0.0 0.0 0.0 0.0 0.0 0.0 0.0 0.0 0.0 0.0 0.0 0.0 0.0 0.0 0.0 0.0 0.0 0.0 0.0 0.0 0.0 0.0 0.0 0.0 0.0 0.0 0.0 0.0 0.0 0.0 0.0 0.0 0.0 0.0 0.0 0.0 0.0 0.0 0.0 0.0 0.0 0.0 0.0 0.0 0.0 0.0 0.0 0.0 0.0 0.0 0.0 0.0 0.0 0.0 0.0 0.0 0.0 0.0 0.0 0.0 0.0 0.0 0.0 0.0 0.0 0.0 0.0 0.0 0.0 0.0 0.0 0.0 0.0 0.0 0.0 0.0 0.0 0.0 0.0 0.0 0.0 0.0 0.0 0.0 0.0 0.0 0.0 0.0 0.0 0.0 0.0 0.0 0.0 0.0 0.0 0.0 0.0 0.0 0.0 0.0 0.0 0.0 0.0 0.0 0.0 0.0 0.0 0.0 0.0 0.0 0.0 0.0 0.0 0.0 0.0 0.0 0.0 0.0 0.0 0.0 0.0 0.0 0.0 0.0 0.0 0.0 0.0 0.0 0.0 0.0 0.0 0.0 0.0 0.0 0.0 0.0 0.0 0.0 0.0 0.0 0.0 0.0 0.0 0.0 0.0 0.0 0.0 0.0 0.0 0.0 0.0 0.0 0.0 0.0 0.0 0.0 0.0 0.0 0.0 0.0 0.0 0.0 0.0 0.0 0.0 0.0 0.0 0.0 0.0 0.0 0.0 0.0 0.0 0.0 0.0 0.0 0.0 0.0 0.0 0.0 0.0 0.0 0.0 0.0 0.0 0.0 0.0 0.0 0.0 0.0 0.0 0.0 0.0 0.0 0.0 0.0 0.0 0.0 0.0 0.0 0.0 0.0 0.0 0.0 0.0 0.0 0.0 0.0 0.0 0.0 0.0 0.0 0.0 0.0 0.0 0.0 0.0 0.0 0.0 0.0 0.0 0.0 0.0 0.0 0.0 0.0 0.0 0.0 0.0 0.0 0.0 0.0 0.0 0.0 0.0 0.0 0.0 0.0 0.0 0.0 0.0 0.0 0.0 0.0 0.0 0.0 0.0 0.0 0.0 0.0 0.0 0.0 0.0 0.0 0.0 0.0 0.0 0.0 0.0 0.0 0.0 0.0 0.0 0.0 0.0 0.0 0.0 0.0 0.0 0.0 0.0 0.0 0.0 0.0 0.0 0.0 0.0 0.0 0.0 0.0 0.0 0.0 0.0 0.0 0.0 0.0 0.0 0.0 0.0 0.0 0.0 0.0 0.0 0.0 0.0 0.0 0.0 0.0 0.0 0.0 0.0 0.0 0.0 0.0 0.0 0.0 0.0 0.0 0.0 0.0 0.0 0.0 0.0 0.0 0.0 0.0 0.0 0.0 0.0 0.0 0.0 0.0 0.0 0.0 0.0 0.0 0.0 0.0 0.0 0.0 0.0 0.0 0.0 0.0 0.0 0.0 0.0 0.0 0.0 0.0 0.0 0.0 0.0 0.0 0.0 0.0 0.0 0.0 0.0 0.0 0.0 0.0 0.0 0.0 0.0 0.0 0.0 0.0 0.0 0.0 0.0 0.0 0.0 0.0 0.0 0.0 0.0 0.0 0.0 0.0 0.0 0.0 0.0 0.0 0.0 0.0 0.0 0.0 0.0 0.0 0.0 0.0 0.0 0.0 0.0 0.0 0.0 0.0 0.0 0.0 0.0 0.0 0.0 0.0 0.0 0.0 0.0 0.0 0.0 0.0 0.0 0.0 0.0 0.0 0.0 0.0 0.0 0.0 0.0 0.0 0.0 0.0 0.0 0.0 0.0 0.0 0.0 0.0 0.0 0.0 0.0 0.0 0.0 0.0 0.0 0.0 0.0 0.0 0.0 0.0 0.0 0.0 0.0 0.0 0.0 0.0 0.0 0.0 0.0 0.0 0.0 0.0 0.0 0.0 0.0 0.0 0.0 0.0 0.0 0.0 0.0 0.0 0.0 0.0 0.0 0.0 0.0 0.0 0.0 0.0 0.0 0.0 0.0 0.0 0.0 0.0 0.0 0.0 0.0 0.0 0.0 0.0 0.0 0.0 0.0 0.0 0.0 0.0 0.0 0.0 0.0 0.0 0.0 0.0 0.0 0.0 0.0 0.0 0.0 0.0 0.0 0.0 0.0 0.0 0.0 0.0 0.0 0.0 0.0 0.0 0.0 0.0 0.0 0.0 0.0 0.0 0.0 0.0 0.0 0.0 0.0 0.0 0.0 0.0 0.0 0.0 0.0 0.0 0.0 0.0 0.0 0.0 0.0 0.0 0.0 0.0 0.0 0.0 0.0 0.0 0.0 0.0 0.0 0.0 0.0 0.0 0.0 0.0 0.0 0.0 0.0 0.0 0.0 0.0 0.0 0.0 0.0 0.0 0.0 0.0 0.0 0.0 0.0 0.0 0.0 0.0 0.0 0.0 0.0 0.0 0.0 0.0 0.0 0.0 0.0 0.0 0.0 0.0 0.0 0.0 0.0 0.0 0.0 0.0 0.0 0.0 0.0 0.0 0.0 0.0 0.0 0.0 0.0 0.0 0.0 0.0 0.0 0.0 0.0 0.0 0.0 0.0 0.0 0.0 0.0 0.0 0.0 0.0 0.0 0.0 0.0 0.0 0.0 0.0 0.0 0.0 0.0 0.0 0.0 0.0 0.0 0.0 0.0 0.0 0.0 0.0 0.0 0.0 0.0 0.0 0.0 0.0 0.0 0.0 0.0 0.0 0.0 0.0 0.0 0.0 0.0 0.0 0.0 0.0 0.0 0.0 0.0 0.0 0.0 0.0 0.0 0.0 0.0 0.0 0.0 0.0 0.0 0.0 0.0 0.0 0.0 0.0 0.0 0.0 0.0 0.0 0.0 0.0 0.0 0.0 0.0 0.0 0.0 0.0 0.0 0.0 0.0 0.0 0.0 0.0 0.0 0.0 0.0 0.0 0.0 0.0 0.0 0.0 0.0 0.0 0.0 0.0 0.0 0.0 0.0 0.0 0.0 0.0 0.0 0.0 0.0 0.0 0.0 0.0 0.0 0.0 0.0 0.0 0.0 0.0 0.0 0.0 0.0 0.0 0.0 0.0 0.0 0.0 0.0 0.0 0.0 0.0 0.0 0.0 0.0 0.0 0.0 0.0 0.0 0.0 0.0 0.0 0.0 0.0 0.0 0.0 0.0 0.0 0.0 0.0 0.0 0.0 0.0 0.0 0.0 0.0 0.0 0.0 0.0 0.0 0.0 0.0 0.0 0.0 0.0 0.0 0.0 0.0 0.0 0.0 0.0 0.0 0.0 0.0 0.0 0.0 0.0 0.0 0.0 0.0 0.0 0.0 0.0 0.0 0.0 0.0 0.0 0.0 0.0 0.0 0.0 0.0 0.0 0.0 0.0 0.0 0.0 0.0 0.0 0.0 0.0 0.0 0.0 0.0 0.0 0.0 0.0 0.0 0.0 0.0 0.0 0.0 0.0 0.0 0.0 0.0 0.0 0.0 0.0 0.0 0.0 0.0 0.0 0.0 0.0 0.0 0.0 0.0 0.0 0.0 0.0 0.0 0.0 0.0 0.0 0.0 0.0 0.0 0.0 0.0 0.0 0.0 0.0 0.0 0.0 0.0 0.0 0.0 0.0 0.0 0.0 0.0 0.0 0.0 0.0 0.0 0.0 0.0 0.0 0.0 0.0 0.0 0.0 0.0 0.0 0.0 0.0 0.0 0.0 0.0 0.0 0.0 0.0 0.0 0.0 0.0 0.0 0.0 0.0 0.0 0.0 0.0 0.0 0.0 0.0 0.0 0.0 0.0 0.0 0.0 0.0 0.0 0.0 0.0 0.0 0.0 0.0 0.0 0.0 0.0 0.0 0.0 0.0 0.0 0.0 0.0 0.0 0.0 0.0 0.0 0.0 0.0 0.0 0.0 0.0 0.0 0.0 0.0 0.0 0.0 0.0 0.0 0.0 0.0 0.0 0.0 0.0 0.0 0.0 0.0 0.0 0.0 0.0 0.0 0.0 0.0 0.0 0.0 0.0 0.0 0.0 0.0 0.0 0.0 0.0 0.0 0.0 0.0 0.0 0.0 0.0 0.0 0.0 0.0 0.0 0.0 0.0 0.0 0.0 0.0 0.0 0.0 0.0 0.0 0.0 0.0 0.0 0.0 0.0 0.0 0.0 0.0 0.0 0.0 0.0 0.0 0.0 0.0 0.0 0.0 0.0 0.0 0.0 0.0 0.0 0.0 0.0 0.0 0.0 0.0 0.0 0.0 0.0 0.0 0.0 0.0 0.0 0.0 0.0 0.0 0.0 0.0 0.0 0.0 0.0 0.0 0.0 0.0 0.0 0.0 0.0 0.0 0.0 0.0 0.0 0.0 0.0 0.0 0.0 0.0 0.0 0.0 0.0 0.0 0.0 0.0 0.0 0.0 0.0 0.0 0.0 0.0 0.0 0.0 0.0 0.0 0.0 0.0 0.0 0.0 0.0 0.0 0.0 0.0 0.0 0.0 0.0 0.0 0.0 0.0 0.0 0.0 0.0 0.0 0.0 0.0 0.0 0.0 0.0 0.0 0.0 0.0 0.0 0.0 0.0 0.0 0.0 0.0 0.0 0.0 0.0 0.0 0.0 0.0 0.0 0.0 0.0 0.0 0.0 0.0 0.0 0.0 0.0 0.0 0.0 0.0 0.0 0.0 0.0 0.0 0.0 0.0 0.0 0.0 0.0 0.0 0.0 0.0 0.0 0.0 0.0 0.0 0.0 0.0 0.0 0.0 0.0 0.0 0.0 0.0 0.0 0.0 0.0 0.0 0.0 0.0 0.0 0.0 0.0 0.0 0.0 0.0 0.0 0.0 0.0 0.0 0.0 0.0 0.0 0.0 0.0 0.0 0.0 0.0 0.0 0.0 0.0 0.0 0.0 0.0 0.0 0.0 0.0 0.0 0.0 0.0 0.0 0.0 0.0 0.0 0.0 0.0 0.0 0.0 0.0 0.0 0.0 0.0 0.0 0.0 0.0 0.0 0.0 0.0 0.0 0.0 0.0 0.0 0.0 0.0 0.0 0.0 0.0 0.0 0.0 0.0 0.0 0.0 0.0 0.0 0.0 0.0 0.0 0.0 0.0 0.0 0.0 0.0 0.0 0.0 0.0 0.0 0.0 0.0 0.0 0.0 0.0 0.0 0.0 0.0 0.0 0.0 0.0 0.0 0.0 0.0 0.0 0.0 0.0 0.0 0.0 0.0 0.0 0.0 0.0 0.0 0.0 0.0 0.0 0.0 0.0 0.0 0.0 0.0 0.0 0.0 0.0 0.0 0.0 0.0 0.0 0.0 0.0 0.0 0.0 0.0 0.0 0.0 0.0 0.0 0.0 0.0 0.0 0.0 0.0 0.0 0.0 0.0 0.0 0.0 0.0 0.0 0.0 0.0 0.0 0.0 0.0 0.0 0.0 0.0 0.0 0.0 0.0 0.0 0.0 0.0 0.0 0.0 0.0 0.0 0.0 0.0 0.0 0.0 0.0 0.0 0.0 0.0 0.0 0.0 0.0 0.0 0.0 0.0 0.0 0.0 0.0 0.0 0.0 0.0 0.0 0.0 0.0 0.0 0.0 0.0 0.0 0.0 0.0 0.0 0.0 0.0 0.0 0.0 0.0 0.0 0.0 0.0 0.0 0.0 0.0 0.0 0.0 0.0 0.0 0.0 0.0 0.0 0.0 0.0 0.0 0.0 0.0 0.0 0.0 0.0 0.0 0.0 0.0 0.0 0.0 0.0 0.0 0.0 0.0 0.0 0.0 0.0 0.0 0.0 0.0 0.0 0.0 0.0 0.0 0.0 0.0 0.0 0.0 0.0 0.0 0.0 0.0 0.0 0.0 0.0 0.0 0.0 0.0 0.0 0.0 0.0 0.0 0.0 0.0 0.0 0.0 0.0 0.0 0.0 0.0 0.0 0.0 0.0 0.0 0.0 0.0 0.0 0.0 0.0 0.0 0.0 0.0 0.0 0.0 0.0 0.0 0.0 0.0 0.0 0.0 0.0 0.0 0.0 0.0 0.0 0.0 0.0 0.0 0.0 0.0 0.0 0.0 0.0 0.0 0.0 0.0 0.0 0.0 0.0 0.0 0.0 0.0 0.0 0.0 0.0 0.0 0.0 0.0 0.0 0.0 0.0 0.0 0.0 0.0 0.0 0.0 0.0 0.0 0.0 0.0 0.0 0.0 0.0 0.0 0.0 0.0 0.0 0.0 0.0 0.0 0.0 0.0 0.0 0.0 0.0 0.0 0.0 0.0 0.0 0.0 0.0 0.0 0.0 0.0 0.0 0.0 0.0 0.0 0.0 0.0 0.0 0.0 0.0 0.0 0.0 0.0 0.0 0.0 0.0 0.0 0.0 0.0 0.0 0.0 0.0 0.0 0.0 0.0 0.0 0.0 0.0 0.0 0.0 0.0 0.0 0.0 0.0 0.0 0.0 0.0 0.0 0.0 0.0 0.0 0.0 0.0 0.0 0.0 0.0 0.0 0.0 0.0 0.0 0.0 0.0 0.0 0.0 0.0 0.0 0.0 0.0 0.0 0.0 0.0 0.0 0.0 0.0 0.0 0.0 0.0 0.0 0.0 0.0 0.0 0.0 0.0 0.0 0.0 0.0 0.0 0.0 0.0 0.0 0.0 0.0 0.0 0.0 0.0 0.0 0.0 0.0 0.0 0.0 0.0 0.0 0.0 0.0 0.0 0.0 0.0 0.0 0.0 0.0 0.0 0.0 0.0 0.0 0.0 0.0 0.0 0.0 0.0 0.0 0.0 0.0 0.0 0.0 0.0 0.0 0.0 0.0 0.0 0.0 0.0 0.0 0.0 0.0 0.0 0.0 0.0 0.0 0.0 0.0 0.0 0.0 0.0 0.0 0.0 0.0 0.0 0.0 0.0 0.0 0.0 0.0 0.0 0.0 0.0 0.0 0.0 0.0 0.0 0.0 0.0 0.0 0.0 0.0 0.0 0.0 0.0 0.0 0.0 0.0 0.0 0.0 0.0 0.0 0.0 0.0 0.0 0.0 0.0 0.0 0.0 0.0 0.0 0.0 0.0 0.0 0.0 0.0 0.0 0.0 0.0 0.0 0.0 0.0 0.0 0.0 0.0 0.0 0.0 0.0 0.0 0.0 0.0 0.0 0.0 0.0 0.0 0.0 0.0 0.0 0.0 0.0 0.0 0.0 0.0 0.0 0.0 0.0 0.0 0.0 0.0 0.0 0.0 0.0 0.0 0.0 0.0 0.0 0.0 0.0 0.0 0.0 0.0 0.0 0.0 0.0 0.0 0.0 0.0 0.0 0.0 0.0 0.0 0.0 0.0 0.0 0.0 0.0 0.0 0.0 0.0 0.0 0.0 0.0 0.0 0.0 0.0 0.0 0.0 0.0 0.0 0.0 0.0 0.0 0.0 0.0 0.0 0.0 0.0 0.0 0.0 0.0 0.0 0.0 0.0 0.0 0.0 0.0 0.0 0.0 0.0 0.0 0.0 0.0 0.0 0.0 0.0 0.0 0.0 0.0 0.0 0.0 0.0 0.0 0.0 0.0 0.0 0.0 0.0 0.0 0.0 0.0 0.0 0.0 0.0 0.0 0.0 0.0 0.0 0.0 0.0 0.0 0.0 0.0 0.0 0.0 0.0 0.0 0.0 0.0 0.0 0.0 0.0 0.0 0.0 0.0 0.0 0.0 0.0 0.0 0.0 0.0 0.0 0.0 0.0 0.0 0.0 0.0 0.0 0.0 0.0 0.0 0.0 0.0 0.0 0.0 0.0 0.0 0.0 0.0 0.0 0.0 0.0 0.0 0.0 0.0 0.0 0.0 0.0 0.0 0.0 0.0 0.0 0.0 0.0 0.0 0.0 0.0 0.0 0.0 0.0 0.0 0.0 0.0 0.0 0.0 0.0 0.0 0.0 0.0 0.0 0.0 0.0 0.0 0.0 0.0 0.0 0.0 0.0 0.0 0.0 0.0 0.0 0.0 0.0 0.0 0.0 0.0 0.0 0.0 0.0 0.0 0.0 0.0 0.0 0.0 0.0 0.0 0.0 0.0 0.0 0.0 0.0 0.0 0.0 0.0 0.0 0.0 0.0 0.0 0.0 0.0 0.0 0.0 0.0 0.0 0.0 0.0 0.0 0.0 0.0 0.0 0.0 0.0 0.0 0.0 0.0 0.0 0.0 0.0 0.0 0.0 0.0 0.0 0.0 0.0 0.0 0.0 0.0 0.0 0.0 0.0 0.0 0.0 0.0 0.0 0.0 0.0 0.0 0.0 0.0 0.0 0.0 0.0 0.0 0.0 0.0 0.0 0.0 0.0 0.0 0.0 0.0 0.0 0.0 0.0 0.0 0.0 0.0 0.0 0.0 0.0 0.0 0.0 0.0 0.0 0.0 0.0 0.0 0.0 0.0 0.0 0.0 0.0 0.0 0.0 0.0 0.0 0.0 0.0 0.0 0.0 0.0 0.0 0.0 0.0 0.0 0.0 0.0 0.0 0.0 0.0 0.0 0.0 0.0 0.0 0.0 0.0 0.0 0.0 0.0 0.0 0.0 0.0 0.0 0.0 0.0 0.0 0.0 0.0 0.0 0.0 0.0 0.0 0.0 0.0 0.0 0.0 0.0 0.0 0.0 0.0 0.0 0.0 0.0 0.0 0.0 0.0 0.0 0.0 0.0 0.0 0.0 0.0 0.0 0.0 0.0 0.0 0.0 0.0 0.0 0.0 0.0 0.0 0.0 0.0 0.0 0.0 0.0 0.0 0.0 0.0 0.0 0.0 0.0 0.0 0.0 0.0 0.0 0.0 0.0 0.0 0.0 0.0 0.0 0.0 0.0 0.0 0.0 0.0 0.0 0.0 0.0 0.0 0.0 0.0 0.0 0.0 0.0 0.0 0.0 0.0 0.0 0.0 0.0 0.0 0.0 0.0 0.0 0.0 0.0 0.0 0.0 0.0 0.0 0.0 0.0 0.0 0.0 0.0 0.0 0.0 0.0 0.0 0.0 0.0 0.0 0.0 0.0 0.0 0.0 0.0 0.0 0.0 0.0 0.0 0.0 0.0 0.0 0.0 0.0 0.0 0.0 0.0 0.0 0.0 0.0 0.0 0.0 0.0 0.0 0.0 0.0 0.0 0.0 0.0 0.0 0.0 0.0 0.0 0.0 0.0 0.0 0.0 0.0 0.0 0.0 0.0 0.0 0.0 0.0 0.0 0.0 0.0 0.0 0.0 0.0 0.0 0.0 0.0 0.0 0.0 0.0 0.0 0.0 0.0 0.0 0.0 0.0 0.0 0.0 0.0 0.0 0.0 0.0 0.0 0.0 0.0 0.0 0.0 0.0 0.0 0.0 0.0 0.0 0.0 0.0 0.0 0.0 0.0 0.0 0.0
        </DataArray>
        <DataArray type="Float64" Name="magnetic flux density re" NumberOfComponents="3" format="ascii">
 -4.0112994E-004 -4.7032178E-005 0.0 -3.0784291E-004 -9.0076250E-005 0.0  1.9614555E-004  1.2106717E-003 0.0  3.6929236E-003  2.2043872E-003 0.0  2.9892311E-007  9.4377109E-005 0.0 -1.7368928E-006  9.3560908E-005 0.0 -8.6577744E-006  1.2094308E-004 0.0  7.6122265E-006 -3.8740970E-005 0.0  1.3748752E-004  4.5212358E-003 0.0  2.0547431E-003 -1.1321905E-003 0.0  1.6395147E-003 -2.1011792E-004 0.0 -1.7108500E-003  9.0834084E-003 0.0 -1.8312861E-003 -3.2423976E-003 0.0  1.8672026E-003 -3.2521450E-003 0.0  2.3788712E-003  9.0812661E-003 0.0 -2.1816246E-004  2.9735910E-004 0.0 -4.6154420E-006 -6.6412212E-006 0.0  3.5766460E-007 -2.5951511E-007 0.0  3.9263027E-007 -3.7780947E-006 0.0  1.3315332E-005 -3.8506348E-005 0.0  1.3182557E-003  6.2984048E-004 0.0 -9.1876106E-007 -5.0385323E-006 0.0  2.5296857E-004  2.4629923E-003 0.0  9.5485298E-006  1.1447802E-003 0.0 -1.7299279E-004  1.0782002E-003 0.0 -2.7938243E-004  9.4466818E-004 0.0 -3.3942288E-004  8.2577292E-004 0.0 -4.0995289E-004  7.0997456E-004 0.0 -4.3365639E-004  5.8972972E-004 0.0 -4.4632173E-004  4.8345420E-004 0.0 -4.6404339E-004  3.7668430E-004 0.0 -4.3420036E-004  2.8835506E-004 0.0 -4.3267299E-004  2.0418172E-004 0.0 -4.1144002E-004  1.3598741E-004 0.0 -3.9475466E-004  7.5905764E-005 0.0 -3.8414900E-004  3.8747390E-005 0.0 -3.6732885E-004  1.0774142E-006 0.0 -3.5398060E-004 -2.8909125E-005 0.0 -3.3697011E-004 -5.7260464E-005 0.0  3.3087259E-003  2.3053753E-003 0.0  2.8586937E-003  2.3437771E-003 0.0  2.4997012E-003  2.3268790E-003 0.0  2.1141080E-003  2.3141974E-003 0.0  1.8100726E-003  2.2488406E-003 0.0  1.5003680E-003  2.1403244E-003 0.0  1.1613745E-003  2.0621561E-003 0.0  9.5521541E-004  1.9523172E-003 0.0  7.1629910E-004  1.8158457E-003 0.0  5.0885904E-004  1.6555833E-003 0.0  3.6549381E-004  1.4600322E-003 0.0 -2.6448963E-006  9.0967051E-005 0.0 -3.8061960E-006  9.1707868E-005 0.0 -5.2713311E-006  8.8257061E-005 0.0 -6.1696442E-006  8.8176539E-005 0.0 -8.0747284E-006  8.6674379E-005 0.0 -9.7831325E-006  8.7741725E-005 0.0 -1.2912417E-005  9.0578181E-005 0.0 -1.2043843E-005  9.3373669E-005 0.0 -1.4048521E-005  9.1508373E-005 0.0 -1.5311984E-005  9.5262398E-005 0.0 -1.5592749E-005  1.0059148E-004 0.0 -1.5595994E-005  9.8048495E-005 0.0 -1.6762966E-005  1.0449783E-004 0.0 -1.5873222E-005  1.0685267E-004 0.0 -1.6853474E-005  1.0317888E-004 0.0 -1.3481772E-005  1.1503030E-004 0.0  1.1497622E-005 -4.1503106E-005 0.0  1.3864770E-005 -4.2232260E-005 0.0  1.5922033E-005 -4.2524977E-005 0.0  1.6333839E-005 -4.0593194E-005 0.0  1.6821224E-005 -4.1303525E-005 0.0  1.5940948E-005 -3.9200322E-005 0.0  1.3307339E-005 -4.0459019E-005 0.0  1.2182437E-005 -3.8730834E-005 0.0  8.3826108E-006 -3.3217285E-005 0.0  4.5279520E-006 -2.4898033E-005 0.0  2.5524672E-006 -1.4190464E-005 0.0 -2.0093532E-006  1.7079781E-006 0.0  4.5147377E-007 -9.8043322E-006 0.0 -5.7871192E-006  1.4998496E-005 0.0 -5.1471868E-006  2.3704547E-005 0.0 -7.3868286E-006  3.3006747E-005 0.0 -8.2158531E-006  5.4021357E-005 0.0 -8.3513357E-006  5.7400712E-005 0.0 -7.8385518E-006  6.1822683E-005 0.0 -8.6705928E-006  7.5572778E-005 0.0 -9.7908888E-006  8.7486415E-005 0.0 -1.0123170E-005  1.0132024E-004 0.0 -6.9907069E-006  1.0030314E-004 0.0 -1.1714906E-005  1.2105723E-004 0.0 -9.0698973E-006  1.1410417E-004 0.0 -9.8009000E-006  1.2761420E-004 0.0 -8.4082772E-006  1.3186358E-004 0.0 -9.3667118E-006  1.4327835E-004 0.0 -7.4157934E-006  1.4957037E-004 0.0 -8.6837858E-006  1.5204420E-004 0.0 -6.4759497E-006  1.4574164E-004 0.0 -6.8446396E-006  1.6094545E-004 0.0 -5.8930344E-006  1.4942769E-004 0.0 -6.5913526E-006  1.7051997E-004 0.0 -4.7954996E-006  1.6971254E-004 0.0 -6.8776706E-006  1.7727618E-004 0.0 -4.3090600E-006  1.5362980E-004 0.0 -5.2483192E-006  1.7521580E-004 0.0 -4.2940911E-006  1.7112102E-004 0.0 -4.4561259E-006  1.8107023E-004 0.0 -2.6339364E-006  1.7219206E-004 0.0 -5.1533211E-006  1.8521694E-004 0.0 -2.7541020E-006  1.7059842E-004 0.0 -2.8823652E-006  1.7971648E-004 0.0 -2.6352029E-006  1.6735853E-004 0.0 -2.5162409E-006  1.8296235E-004 0.0 -1.2344671E-006  1.7884407E-004 0.0 -2.8840147E-006  1.8279680E-004 0.0 -1.6196567E-006  1.6152341E-004 0.0 -1.2235729E-006  1.7805255E-004 0.0 -3.8997358E-007  1.7520028E-004 0.0 -1.9202772E-006  1.7794354E-004 0.0 -8.5960652E-007  1.5752376E-004 0.0 -7.8184052E-007  1.7193106E-004 0.0  2.6815807E-007  1.6435941E-004 0.0 -1.0126495E-006  1.6843578E-004 0.0  6.4273215E-008  1.6286247E-004 0.0 -7.1153724E-007  1.5845122E-004 0.0  1.2159600E-007  1.6528733E-004 0.0 -9.3493959E-007  1.6104746E-004 0.0  4.3498423E-007  1.5392418E-004 0.0  6.6343816E-008  1.4846366E-004 0.0 -6.9509941E-008  1.5390004E-004 0.0  5.1080286E-007  1.5092458E-004 0.0  2.3352457E-007  1.4882573E-004 0.0  7.7313883E-007  1.4765362E-004 0.0  8.9337369E-008  1.3806789E-004 0.0  4.6284633E-007  1.4655456E-004 0.0  1.4268076E-006  1.4063665E-004 0.0  1.4924952E-007  1.4347109E-004 0.0  8.3613710E-007  1.3484007E-004 0.0  2.2169506E-007  1.3011433E-004 0.0  3.8830643E-007  1.3340081E-004 0.0  7.9880658E-007  1.3089912E-004 0.0 -3.5268049E-007  1.2819770E-004 0.0  2.4194979E-006  1.2894439E-004 0.0  1.0071911E-006  1.2596080E-004 0.0  1.0255422E-006  1.2669894E-004 0.0  2.5150613E-008  1.2181109E-004 0.0  4.3211904E-007  1.2084989E-004 0.0 -5.0528092E-007  1.1485795E-004 0.0 -1.7903109E-006  1.2219282E-004 0.0 -3.4363378E-006  1.1945030E-004 0.0  2.9542615E-004  4.9029087E-003 0.0  5.8843824E-004  4.7688535E-003 0.0  8.7961444E-004  4.8611512E-003 0.0  1.2010290E-003  4.9481133E-003 0.0  1.5791842E-003  4.9862435E-003 0.0  1.9273285E-003  4.9789026E-003 0.0  2.4546751E-003  5.0678504E-003 0.0  2.7851415E-003  5.0205843E-003 0.0  3.2347046E-003  4.8516361E-003 0.0  3.5711616E-003  4.6168714E-003 0.0  3.8332885E-003  4.4402160E-003 0.0  4.0535720E-003  4.2544786E-003 0.0  4.2502250E-003  4.0844316E-003 0.0  4.4301804E-003  3.8846367E-003 0.0  4.6263931E-003  3.7026237E-003 0.0  4.7070075E-003  3.5264586E-003 0.0  4.7276376E-003  3.3382045E-003 0.0  4.7816655E-003  3.1844662E-003 0.0  4.7844169E-003  3.0210649E-003 0.0  4.7222776E-003  2.8826019E-003 0.0  4.7101374E-003  2.7115544E-003 0.0  4.6749369E-003  2.5421819E-003 0.0  4.5521572E-003  2.3437464E-003 0.0  4.4878221E-003  2.1477232E-003 0.0  4.3509361E-003  1.8805884E-003 0.0  4.2614545E-003  1.6362592E-003 0.0  4.0623079E-003  1.4282004E-003 0.0  3.9730808E-003  1.1020886E-003 0.0  3.8637694E-003  8.0692028E-004 0.0  3.6466301E-003  5.2811756E-004 0.0  3.5295674E-003  1.9935415E-004 0.0  3.2766976E-003 -1.5625694E-004 0.0  3.0996675E-003 -3.6121720E-004 0.0  2.9140570E-003 -6.8957768E-004 0.0  2.4133151E-003 -9.8724670E-004 0.0  1.9026536E-003 -7.3147325E-004 0.0  1.8166467E-003 -5.1173796E-004 0.0  1.7677574E-003 -3.7141821E-004 0.0 -2.4399658E-003  8.6445763E-003 0.0 -2.5350853E-003  8.0289169E-003 0.0 -2.8880085E-003  7.1137730E-003 0.0 -2.5732660E-003  6.6773910E-003 0.0 -2.9379029E-003  6.2341177E-003 0.0 -2.6880905E-003  5.8188770E-003 0.0 -3.0249850E-003  5.4239944E-003 0.0 -2.6875451E-003  5.0677273E-003 0.0 -2.8387140E-003  4.7662505E-003 0.0 -3.0709064E-003  4.4480248E-003 0.0 -3.1005235E-003  4.0790080E-003 0.0 -2.4322278E-003  3.8464543E-003 0.0 -3.2002274E-003  3.5596455E-003 0.0 -3.2937731E-003  3.2190415E-003 0.0 -2.6712112E-003  2.9455576E-003 0.0 -3.1989447E-003  2.6311183E-003 0.0 -3.0662103E-003  2.3187345E-003 0.0 -3.3206508E-003  1.9818572E-003 0.0 -3.1697204E-003  1.6244721E-003 0.0 -3.0642987E-003  1.3597835E-003 0.0 -3.3408572E-003  8.9314275E-004 0.0 -3.4086331E-003  5.2616825E-004 0.0 -2.8602323E-003  5.4348702E-005 0.0 -3.2330948E-003 -4.7434637E-004 0.0 -2.8902133E-003 -1.0439815E-003 0.0 -3.1086880E-003 -1.7480284E-003 0.0 -2.6025198E-003 -2.7114965E-003 0.0 -2.3531451E-005 -3.8322087E-003 0.0  3.0025070E-003 -2.4815524E-003 0.0  2.7657448E-003 -1.8369859E-003 0.0  3.4585084E-003 -1.0598811E-003 0.0  3.6567422E-003 -3.5605251E-004 0.0  3.6912469E-003  8.3818873E-005 0.0  3.4678703E-003  5.4560620E-004 0.0  3.7880214E-003  9.9166819E-004 0.0  3.7677962E-003  1.3474304E-003 0.0  3.8905412E-003  1.7061695E-003 0.0  3.8728655E-003  2.0772246E-003 0.0  3.6892003E-003  2.3321967E-003 0.0  3.9204842E-003  2.6607730E-003 0.0  4.2641175E-003  2.9537177E-003 0.0  4.3419620E-003  3.2776808E-003 0.0  4.0771524E-003  3.5405655E-003 0.0  4.1502347E-003  3.7828743E-003 0.0  4.3080842E-003  4.1255849E-003 0.0  4.2276694E-003  4.3911948E-003 0.0  4.2112218E-003  4.6695282E-003 0.0  3.9588639E-003  5.0442262E-003 0.0  4.0794794E-003  5.3187024E-003 0.0  3.8707310E-003  5.7336355E-003 0.0  4.1884432E-003  6.0411600E-003 0.0  3.9954357E-003  6.5604849E-003 0.0  3.7449758E-003  7.1136265E-003 0.0  3.5231050E-003  7.7671089E-003 0.0  3.4433720E-003  8.5142407E-003 0.0  5.4261034E-004  9.8276234E-003 0.0  1.7971822E-003 -7.2416879E-005 0.0  1.9935644E-003  2.3723227E-005 0.0  2.1664569E-003  1.7958729E-004 0.0  2.3179582E-003  3.9785308E-004 0.0  2.4804341E-003  5.6565557E-004 0.0  2.6499989E-003  7.3814082E-004 0.0  2.7499210E-003  9.7713664E-004 0.0  2.8267104E-003  1.2229669E-003 0.0  3.0682585E-003  1.4962908E-003 0.0  3.2447663E-003  1.7003010E-003 0.0  3.4931509E-003  1.9527647E-003 0.0 -3.9588204E-004 -1.0764208E-004 0.0 -3.6226391E-004 -1.3838165E-004 0.0 -3.4245950E-004 -1.4982658E-004 0.0 -3.2735226E-004 -1.6028084E-004 0.0 -3.1740568E-004 -1.5371476E-004 0.0 -3.1442031E-004 -1.4260454E-004 0.0 -3.1264136E-004 -1.2335594E-004 0.0 -4.6473516E-004 -1.5218954E-004 0.0 -4.5218079E-004 -2.5974301E-004 0.0 -4.2729048E-004 -3.3485232E-004 0.0 -3.8010021E-004 -3.8860056E-004 0.0 -3.2847003E-004 -4.2049990E-004 0.0 -2.7562380E-004 -4.4238511E-004 0.0 -2.2061690E-004 -4.4529699E-004 0.0 -1.7507772E-004 -4.3363237E-004 0.0 -1.3005488E-004 -4.2189107E-004 0.0 -8.2494573E-005 -4.0030016E-004 0.0 -5.5340944E-005 -3.7073808E-004 0.0 -2.5816496E-005 -3.4429927E-004 0.0 -7.5758767E-006 -3.1670659E-004 0.0  1.0162278E-005 -2.8327320E-004 0.0  2.0030698E-005 -2.5806532E-004 0.0  3.4407053E-005 -2.2976854E-004 0.0  3.7890308E-005 -2.0628581E-004 0.0  4.1469545E-005 -1.8079529E-004 0.0  4.3904287E-005 -1.6157259E-004 0.0  4.4711251E-005 -1.4252156E-004 0.0  4.2783013E-005 -1.2629736E-004 0.0  4.0119958E-005 -1.1167882E-004 0.0  3.7843569E-005 -9.8280108E-005 0.0  3.4617053E-005 -8.8514118E-005 0.0  3.2546983E-005 -7.7961110E-005 0.0  2.9267921E-005 -7.0993851E-005 0.0  2.6185011E-005 -6.3432591E-005 0.0  2.3107605E-005 -5.8787709E-005 0.0  2.0694615E-005 -5.3708907E-005 0.0  1.8424661E-005 -5.0139051E-005 0.0  1.6366238E-005 -4.7086500E-005 0.0  1.4650586E-005 -4.4632883E-005 0.0  1.3559634E-005 -4.2794249E-005 0.0  1.2985043E-005 -4.1014892E-005 0.0  1.1633778E-005 -3.9971098E-005 0.0  1.1316118E-005 -3.9092864E-005 0.0  1.0821682E-005 -3.8563588E-005 0.0  1.0538113E-005 -3.8404367E-005 0.0  9.7739172E-006 -3.8650174E-005 0.0  2.9443214E-004  5.2717919E-003 0.0  2.8498512E-004  6.4259592E-003 0.0  3.3495499E-005  7.0109353E-003 0.0  1.9988102E-005  6.8757531E-003 0.0 -1.0237892E-003  5.3416518E-003 0.0 -3.9964545E-004  5.0533767E-003 0.0 -4.2185160E-004  2.0415822E-003 0.0 -2.6726277E-004  1.7583868E-003 0.0 -1.7688565E-004  6.6464951E-004 0.0 -3.1139013E-004  6.1347067E-005 0.0 -5.1991056E-004  7.3246116E-005 0.0 -6.5591732E-004  8.9952963E-006 0.0 -6.4319520E-004 -1.2921450E-006 0.0 -5.7160128E-004 -2.7593640E-005 0.0 -4.6505615E-004 -4.3078014E-005 0.0 -3.2590944E-004 -4.5276819E-005 0.0 -2.3172985E-004 -2.6856344E-005 0.0 -1.6214203E-004 -1.7853569E-005 0.0 -1.1369343E-004 -1.4879311E-005 0.0 -8.0769100E-005 -1.2122096E-005 0.0 -4.9413418E-005 -8.9141558E-006 0.0 -3.0310536E-005 -6.9515550E-006 0.0 -1.5316685E-005 -4.6601523E-006 0.0 -3.8730206E-006 -1.5861679E-005 0.0 -3.9675889E-006 -2.8196510E-005 0.0 -2.9374151E-006 -3.9110722E-005 0.0 -2.2181316E-006 -4.7661999E-005 0.0 -1.3687529E-006 -5.3214194E-005 0.0 -1.0651321E-007 -5.5494543E-005 0.0  5.3011163E-007 -5.4609098E-005 0.0  4.6353256E-007 -5.1898170E-005 0.0  2.2198574E-006 -4.7959001E-005 0.0  2.2391805E-006 -4.2787788E-005 0.0  2.3539662E-006 -3.6277590E-005 0.0  2.1268094E-006 -3.1185070E-005 0.0  1.9570142E-006 -2.5360854E-005 0.0  1.6691148E-006 -2.1213742E-005 0.0  1.3463780E-006 -1.6684622E-005 0.0  1.1489587E-006 -1.3662675E-005 0.0  9.8038728E-007 -1.0912447E-005 0.0  7.4820270E-007 -8.2274140E-006 0.0  5.9727095E-007 -6.3542824E-006 0.0  5.0756894E-007 -4.9893239E-006 0.0  4.3178940E-007 -3.5452550E-006 0.0  3.6163203E-007 -2.5880843E-006 0.0  3.2701334E-007 -1.5539929E-006 0.0  2.5208015E-007 -8.3225222E-007 0.0  8.7911831E-007 -2.1865338E-007 0.0  1.5433168E-006 -2.7568998E-007 0.0  2.4796618E-006 -2.5235420E-007 0.0  3.0068609E-006 -2.7080017E-007 0.0  3.6824340E-006 -1.9570416E-007 0.0  4.1108489E-006 -1.4821693E-007 0.0  4.4225836E-006 -8.8954964E-008 0.0  4.5383245E-006  8.3028043E-009 0.0  4.4255977E-006  7.1556352E-008 0.0  4.0821856E-006  7.5374765E-008 0.0  3.5443121E-006  2.5681049E-007 0.0  2.8616458E-006  2.4540216E-007 0.0  1.8881155E-006  3.7682059E-007 0.0  1.1172813E-006  2.3078222E-007 0.0  6.1955690E-007  3.0752035E-006 0.0  5.5886177E-007  4.1383149E-006 0.0  7.2916987E-007  5.3169478E-006 0.0  8.0174692E-007  9.3420505E-006 0.0  1.4223792E-006  1.1962613E-005 0.0  9.2502109E-007  1.4922637E-005 0.0  2.5193292E-006  2.2637047E-005 0.0  1.6371910E-006  3.0099363E-005 0.0  2.6334071E-006  4.1807738E-005 0.0  3.4477821E-006  4.7947316E-005 0.0  2.4937830E-006  5.9655777E-005 0.0  5.4952785E-006  7.1163724E-005 0.0  1.4002353E-006  7.9358518E-005 0.0  3.0361988E-006  8.2421976E-005 0.0  5.4975298E-007  8.9030064E-005 0.0 -4.6841283E-009  9.3537388E-005 0.0  7.9184467E-007  9.4423515E-005 0.0  2.3083384E-005 -2.9397827E-005 0.0  4.4443721E-005 -2.8833025E-005 0.0  6.4558842E-005 -2.8036539E-005 0.0  8.9104346E-005 -2.9049788E-005 0.0  1.0910882E-004 -3.0058552E-005 0.0  1.3112666E-004 -2.9079503E-005 0.0  1.5301967E-004 -2.8948763E-005 0.0  1.7376996E-004 -2.9406366E-005 0.0  1.9457033E-004 -3.0955002E-005 0.0  2.1358687E-004 -3.0582586E-005 0.0  2.3804081E-004 -3.0416022E-005 0.0  2.5407872E-004 -3.0645521E-005 0.0  2.7746262E-004 -3.4148028E-005 0.0  2.9875585E-004 -3.3462493E-005 0.0  3.1780461E-004 -3.6720691E-005 0.0  3.3655624E-004 -3.7728389E-005 0.0  3.6163127E-004 -3.7251450E-005 0.0  3.7372187E-004 -4.3822847E-005 0.0  3.9280421E-004 -4.4321278E-005 0.0  4.1817668E-004 -4.9248725E-005 0.0  4.4395531E-004 -4.8508520E-005 0.0  4.4888862E-004 -6.2119022E-005 0.0  4.6000182E-004 -6.4418103E-005 0.0  4.9818505E-004 -6.7310177E-005 0.0  5.1449931E-004 -8.0857314E-005 0.0  5.3784974E-004 -8.7100063E-005 0.0  5.4789497E-004 -1.0155931E-004 0.0  5.7453357E-004 -1.0922051E-004 0.0  5.7410522E-004 -1.2827884E-004 0.0  6.0660185E-004 -1.4350706E-004 0.0  6.2835001E-004 -1.5948196E-004 0.0  6.5155904E-004 -1.7910173E-004 0.0  6.8905254E-004 -1.9826395E-004 0.0  7.0730926E-004 -2.2008077E-004 0.0  7.3307333E-004 -2.4670766E-004 0.0  7.9638502E-004 -2.6247890E-004 0.0  8.5059444E-004 -2.7942191E-004 0.0  8.6658714E-004 -3.0595264E-004 0.0  9.2156311E-004 -3.1867641E-004 0.0  9.8662477E-004 -3.2524963E-004 0.0  1.0509844E-003 -3.2901802E-004 0.0  1.1090395E-003 -3.1820723E-004 0.0  1.2021584E-003 -2.9933695E-004 0.0  1.2592161E-003 -2.4557755E-004 0.0  1.3508148E-003 -1.7883254E-004 0.0  1.4401676E-003 -8.4852261E-005 0.0  1.4614609E-003  4.7739685E-005 0.0  1.4948225E-003  2.0513693E-004 0.0  1.4757597E-003  4.1778315E-004 0.0  1.0939632E-003  7.3130358E-004 0.0  8.3017567E-004  7.4066366E-004 0.0  6.2750713E-004  6.8612536E-004 0.0  4.5070270E-004  6.1642411E-004 0.0  3.1911324E-004  5.6630072E-004 0.0  2.1146347E-004  4.7024512E-004 0.0  1.2614914E-004  3.8222750E-004 0.0  6.4752805E-005  3.1830847E-004 0.0  1.8790326E-005  2.3634080E-004 0.0 -1.5958423E-005  1.8901791E-004 0.0 -4.2326695E-005  1.3198086E-004 0.0 -5.7391860E-005  1.0504350E-004 0.0 -7.4396041E-005  6.9272061E-005 0.0 -9.0573481E-005  5.5619147E-005 0.0 -1.1533790E-004  3.4769669E-005 0.0 -1.4331596E-004  3.4275085E-005 0.0 -1.9279336E-004  2.7577532E-005 0.0 -2.5044624E-004  2.7680652E-005 0.0 -3.2720148E-004  1.6727787E-005 0.0  4.8329098E-006 -3.7033145E-005 0.0  2.1102464E-006 -3.3897239E-005 0.0 -5.2633225E-007 -2.9145952E-005 0.0 -2.2473595E-006 -2.4394999E-005 0.0 -3.9592430E-006 -1.8826735E-005 0.0 -3.9966393E-006 -1.4309664E-005 0.0 -3.5545212E-006 -9.8216532E-006 0.0 -2.7018125E-006 -7.1139293E-006 0.0 -1.6887362E-006 -5.0119227E-006 0.0 -9.3364592E-007 -9.3082777E-006 0.0 -8.8338310E-007 -1.0235764E-005 0.0 -1.3270258E-006 -1.6567901E-005 0.0 -1.0240379E-006 -1.6668507E-005 0.0 -4.0482892E-006 -3.1837434E-005 0.0 -3.9933181E-006 -3.3411750E-005 0.0 -5.9994472E-006 -5.2843065E-005 0.0 -5.4303542E-006 -7.5564802E-005 0.0 -3.0858667E-006 -9.6854635E-005 0.0 -2.0423742E-006 -1.0699559E-004 0.0 -1.6709839E-007 -1.1324788E-004 0.0  4.8518975E-006 -1.0901159E-004 0.0  5.3456529E-006 -9.5552163E-005 0.0  8.0454595E-006 -7.8250210E-005 0.0  2.1051744E-005  3.0428805E-005 0.0  1.2591683E-005  3.3318448E-005 0.0  1.8126398E-005  1.2603302E-004 0.0  2.0971734E-005  1.3864180E-004 0.0  2.4012406E-005  2.7044647E-004 0.0  2.1573741E-005  2.8854784E-004 0.0  4.6609441E-005  4.9394001E-004 0.0  5.8404661E-005  6.0162504E-004 0.0  5.4358373E-005  6.9447727E-004 0.0  7.9945813E-005  1.0404828E-003 0.0  1.4611351E-004  1.5373187E-003 0.0  1.2448698E-004  1.5645759E-003 0.0  3.2178673E-004  2.3664057E-003 0.0  6.0206991E-004  2.3406692E-003 0.0  9.1134754E-004  2.3578861E-003 0.0  1.2325037E-003  2.3416205E-003 0.0  1.5045831E-003  2.3495020E-003 0.0  1.8280221E-003  2.2987038E-003 0.0  2.0943727E-003  2.2397015E-003 0.0  2.4141996E-003  2.2572725E-003 0.0  2.7380911E-003  2.2291894E-003 0.0  3.0112249E-003  2.1853388E-003 0.0  3.2534590E-003  2.1528682E-003 0.0  3.4897761E-003  2.1005601E-003 0.0  3.6964650E-003  2.0692151E-003 0.0  3.8594306E-003  2.0202925E-003 0.0  4.0191814E-003  2.0079946E-003 0.0  4.1589997E-003  2.0138521E-003 0.0  4.2720117E-003  2.0249933E-003 0.0  4.3301361E-003  2.0441449E-003 0.0  4.3267323E-003  2.0812949E-003 0.0  4.3243382E-003  2.1084985E-003 0.0  4.2233482E-003  2.1688647E-003 0.0  4.1254278E-003  2.2098588E-003 0.0  3.9589635E-003  2.2212211E-003 0.0 -7.0662121E-006  1.1590578E-004 0.0 -2.5580704E-007  8.0411912E-005 0.0 -3.4865279E-006  8.5557978E-005 0.0 -3.3587269E-006  7.7024143E-005 0.0 -4.0433072E-006  7.7705003E-005 0.0 -1.7388527E-006  3.4165775E-005 0.0 -5.7955506E-006  4.0810320E-005 0.0 -3.6216756E-006  6.8761111E-006 0.0 -2.7396403E-006 -1.9708997E-006 0.0 -3.2684938E-006  7.7153812E-007 0.0 -1.4251683E-006 -2.5325001E-005 0.0 -1.6287143E-006 -2.2210853E-005 0.0 -9.6754625E-007 -3.2391256E-005 0.0 -3.5576021E-007 -4.0588640E-005 0.0 -6.0071087E-007 -3.8092468E-005 0.0 -2.1385230E-007 -4.1973784E-005 0.0 -7.1901605E-008 -4.4784344E-005 0.0  1.4108748E-007 -4.3701920E-005 0.0  3.2617427E-008 -4.4881871E-005 0.0 -2.1581951E-007 -4.3289814E-005 0.0 -1.4541290E-007 -4.4959782E-005 0.0 -9.4140902E-008 -4.4292247E-005 0.0 -3.8601006E-007 -4.7113566E-005 0.0 -1.3434999E-007 -4.6199621E-005 0.0 -2.2399573E-007 -4.9134831E-005 0.0 -1.3319712E-007 -4.7493641E-005 0.0 -3.0579540E-007 -5.0497527E-005 0.0 -3.6502004E-007 -4.9694058E-005 0.0 -3.2823443E-007 -5.1896822E-005 0.0 -1.8059604E-007 -5.1570198E-005 0.0 -4.4283019E-007 -5.4973669E-005 0.0 -2.3803323E-007 -5.4301596E-005 0.0 -2.9912729E-007 -5.7572521E-005 0.0 -2.2177173E-007 -5.6228600E-005 0.0 -3.9154937E-007 -5.9618316E-005 0.0 -2.4268444E-007 -5.8699077E-005 0.0 -3.8483238E-007 -6.2013771E-005 0.0 -5.6912981E-007 -6.1801797E-005 0.0 -1.2841656E-007 -6.3945754E-005 0.0 -2.3835537E-008 -6.4168277E-005 0.0 -5.3068899E-007 -6.7651109E-005 0.0 -3.0748350E-007 -6.6730344E-005 0.0 -3.7647795E-007 -7.0175122E-005 0.0 -2.7756299E-007 -6.9617003E-005 0.0 -4.3628958E-007 -7.2757913E-005 0.0 -6.1557997E-007 -7.3257324E-005 0.0 -1.7646661E-007 -7.5183189E-005 0.0 -1.0540197E-007 -7.6400863E-005 0.0 -5.1003674E-007 -7.9124535E-005 0.0 -6.3807836E-007 -7.9646919E-005 0.0 -1.0523317E-007 -8.1336537E-005 0.0 -7.2999317E-008 -8.2935858E-005 0.0 -5.2071911E-007 -8.5100018E-005 0.0 -3.2919402E-007 -8.5411676E-005 0.0 -3.4576411E-007 -8.7527973E-005 0.0 -5.2606754E-007 -8.9261432E-005 0.0 -1.4087366E-007 -8.9899914E-005 0.0 -1.6692066E-007 -9.2850539E-005 0.0 -4.7433648E-007 -9.3717303E-005 0.0 -3.4016355E-007 -9.5244752E-005 0.0 -3.1446541E-007 -9.6060431E-005 0.0 -4.4025316E-007 -9.9218466E-005 0.0 -1.1171620E-007 -9.8612420E-005 0.0 -1.9144649E-007 -1.0323081E-004 0.0 -3.4914275E-007 -1.0170789E-004 0.0 -2.7361823E-007 -1.0481928E-004 0.0 -1.9967950E-007 -1.0342492E-004 0.0 -2.2791075E-007 -1.0827178E-004 0.0  2.4152559E-008 -1.0546742E-004 0.0 -1.6999829E-007 -1.1204762E-004 0.0 -1.0143540E-007 -1.0704618E-004 0.0 -1.5272409E-007 -1.1209484E-004 0.0  9.1045943E-008 -1.0725384E-004 0.0  1.7139634E-007 -1.1393967E-004 0.0  3.9602209E-007 -1.0773874E-004 0.0  1.4853999E-007 -1.1616143E-004 0.0  4.3977339E-007 -1.0558425E-004 0.0  2.2128504E-007 -1.1233157E-004 0.0  6.7627593E-007 -1.0216432E-004 0.0  8.4935616E-007 -1.1004231E-004 0.0  9.7878363E-007 -9.9280934E-005 0.0  7.4216500E-007 -1.0855968E-004 0.0  1.0574600E-006 -9.1820813E-005 0.0  7.8593083E-007 -9.9265337E-005 0.0  1.5065803E-006 -8.3350973E-005 0.0  1.7162473E-006 -9.0557959E-005 0.0  1.9433924E-006 -7.4634432E-005 0.0  1.8804726E-006 -8.2017688E-005 0.0  1.8576617E-006 -5.9631489E-005 0.0  2.0713875E-006 -6.3110989E-005 0.0  2.1883910E-006 -4.3422631E-005 0.0  2.3099481E-006 -4.1634224E-005 0.0  1.4084454E-006 -2.7864008E-005 0.0  1.4294174E-006 -1.7431386E-005 0.0  1.3709644E-006 -1.4202389E-005 0.0  4.7574148E-007 -5.6096817E-006 0.0  4.2112150E-007 -4.0702116E-006 0.0 -3.7899458E-008 -1.6667343E-006 0.0 -3.1889547E-007 -1.6934767E-006 0.0  1.3990602E-004  2.8746326E-003 0.0  2.1393639E-004  3.7377215E-003 0.0  1.6297587E-004  3.8685235E-003 0.0  4.6262547E-004 -2.0945215E-004 0.0  2.8829668E-004 -7.6955879E-005 0.0  3.6890997E-004 -1.1158622E-004 0.0  3.4133815E-005 -3.1449617E-004 0.0  2.2125151E-004 -6.5529975E-005 0.0  6.9753494E-004 -4.0268785E-004 0.0  6.5106149E-006 -3.5922540E-005 0.0  5.4464906E-005 -1.1373134E-004 0.0  2.7009574E-005 -5.1692302E-005 0.0  1.3711970E-005 -3.8818942E-005 0.0 -7.3615809E-005 -3.9232709E-005 0.0  6.0081295E-005 -1.9589003E-004 0.0  5.3107588E-004 -3.1316212E-004 0.0 -6.3795564E-005 -4.5039105E-004 0.0  1.5185914E-004 -6.7912931E-005 0.0  9.1376969E-004 -3.7891371E-004 0.0 -1.1041871E-005 -6.6660590E-005 0.0  8.9281464E-005  1.9551741E-004 0.0 -1.1479038E-004 -1.5209335E-004 0.0  4.2744153E-005 -7.7618859E-005 0.0  1.1205371E-004 -6.2958315E-005 0.0 -1.6988355E-004 -5.0406757E-004 0.0  1.8689500E-005 -4.2999379E-005 0.0  4.0465677E-004 -1.5303134E-004 0.0 -1.3793556E-006 -2.8613917E-005 0.0  3.2344822E-004 -9.1210472E-005 0.0 -4.5980283E-006 -1.7066344E-005 0.0 -1.2408301E-006 -1.1315325E-004 0.0  4.7650177E-004  4.2092591E-004 0.0 -2.9667823E-006 -2.2321438E-005 0.0 -3.1982476E-004 -4.2208982E-004 0.0  1.1583501E-003 -9.2826576E-005 0.0  5.7664199E-005 -6.6198756E-005 0.0  6.0536382E-005 -1.4956736E-004 0.0  3.4203423E-005 -6.1038767E-005 0.0 -2.8368116E-005  5.8232158E-005 0.0  5.2671211E-005 -2.5032117E-004 0.0 -1.7236624E-004 -1.3778760E-004 0.0 -9.3145452E-005 -9.0894155E-005 0.0 -5.6404379E-006 -3.8363075E-004 0.0  8.2199254E-004 -4.1439286E-004 0.0  1.8621509E-004 -6.8743416E-005 0.0  2.2202042E-004 -7.8418591E-005 0.0  1.0900974E-005 -3.7179907E-005 0.0  6.2255911E-004 -3.5631965E-004 0.0  5.0155156E-004 -2.5449802E-004 0.0  3.9390522E-004 -1.2729234E-004 0.0 -3.5690518E-006 -1.0788228E-005 0.0  9.2506318E-006 -1.0262410E-004 0.0 -1.7396535E-006 -1.3109524E-005 0.0  1.2086683E-003  3.1582256E-004 0.0 -3.7838633E-004 -2.3414176E-004 0.0  2.6665375E-005 -6.2948384E-005 0.0 -7.9750748E-006 -4.4878444E-005 0.0 -1.8458795E-005 -5.3166124E-005 0.0 -1.8081943E-005 -8.1348324E-005 0.0 -2.9704113E-005 -6.9356712E-005 0.0 -2.3417823E-005 -4.7094572E-005 0.0 -3.5689563E-005 -5.6333407E-005 0.0 -3.6162928E-005 -8.2530043E-005 0.0 -4.8504834E-005 -7.1117092E-005 0.0 -3.8859921E-005 -4.9735716E-005 0.0 -5.5094370E-005 -6.2562697E-005 0.0 -3.9908622E-005 -4.3720439E-005 0.0 -5.6664133E-005 -5.2606340E-005 0.0 -6.5165402E-005 -7.3511243E-005 0.0 -7.3779998E-005 -6.3317532E-005 0.0 -5.2364791E-005 -4.3532297E-005 0.0 -7.2783850E-005 -5.0769026E-005 0.0 -8.4751448E-005 -7.4691682E-005 0.0 -9.3914328E-005 -6.4032135E-005 0.0 -6.8283733E-005 -4.3197797E-005 0.0 -9.6617775E-005 -5.6866946E-005 0.0 -6.0162062E-005 -3.7757134E-005 0.0 -9.0694275E-005 -5.0196144E-005 0.0 -1.1510961E-004 -7.2116428E-005 0.0 -1.2138971E-004 -6.8465610E-005 0.0 -7.7572601E-005 -4.8875248E-005 0.0 -1.1847441E-004 -7.1313490E-005 0.0 -6.4956599E-005 -5.8065478E-005 0.0 -1.0540979E-004 -8.0708446E-005 0.0 -1.4542716E-004 -9.4161034E-005 0.0 -1.4925340E-004 -1.2010166E-004 0.0 -8.5155909E-005 -1.0172900E-004 0.0 -1.3150541E-004 -1.4713612E-004 0.0 -1.7828188E-004 -1.6741021E-004 0.0 -1.7856180E-004 -2.1432852E-004 0.0 -1.0605523E-004 -1.9038627E-004 0.0 -1.7223044E-004 -2.7065803E-004 0.0 -8.8452750E-005 -2.6636563E-004 0.0 -1.4915247E-004 -3.4463597E-004 0.0 -2.0886132E-004 -3.5135455E-004 0.0 -1.9979611E-004 -4.4105079E-004 0.0 -1.2293497E-004 -4.3350783E-004 0.0 -1.7888195E-004 -5.2783685E-004 0.0 -2.2076541E-004 -5.2334173E-004 0.0 -2.1108878E-004 -6.0667836E-004 0.0 -1.5689428E-004 -6.0162929E-004 0.0 -1.2615929E-004 -9.2171352E-005 0.0 -1.0467438E-004 -9.2617959E-005 0.0 -1.9021291E-004 -2.2626900E-004 0.0 -1.9762021E-004 -5.9185144E-004 0.0 -2.0423736E-004 -6.4095709E-004 0.0 -4.0896775E-005 -9.3422221E-005 0.0 -1.6387858E-004 -1.8154610E-004 0.0 -1.9837043E-004 -5.1494317E-004 0.0 -2.7354857E-005 -9.9814548E-005 0.0 -3.9563575E-005 -3.4790235E-005 0.0 -2.7317938E-005 -3.7490918E-005 0.0 -2.4934691E-005 -3.4136269E-005 0.0 -1.3472053E-004 -6.1737706E-004 0.0 -4.0623254E-005 -1.8900104E-004 0.0 -2.4688264E-005 -2.6598180E-004 0.0 -2.5265282E-005 -3.2370632E-005 0.0 -1.5081068E-004 -6.1410524E-004 0.0 -1.9296314E-004 -6.3779399E-004 0.0 -9.1366455E-005 -1.1124933E-004 0.0 -5.9013838E-005 -1.0791426E-004 0.0 -2.9585216E-005 -5.8444159E-004 0.0 -1.4708065E-004 -2.3745254E-004 0.0 -2.3024659E-005 -1.0858421E-004 0.0 -1.4627414E-005 -3.1480066E-005 0.0 -9.0912295E-005 -2.0083124E-004 0.0 -1.0717570E-005 -3.2990443E-005 0.0 -5.8457053E-006 -1.1038381E-004 0.0 -1.1153410E-005 -3.0977429E-005 0.0 -6.6359839E-005 -5.3489937E-004 0.0  1.1034758E-004 -4.9655942E-004 0.0  6.2525811E-006 -5.8459930E-004 0.0  2.1422198E-005 -2.0440974E-004 0.0 -1.4397843E-007 -3.3799248E-005 0.0 -1.6958452E-005 -1.0747576E-004 0.0  3.9692947E-006 -1.1150123E-004 0.0  3.4217333E-005 -2.5404547E-004 0.0 -5.5940935E-006 -1.2253790E-004 0.0 -5.6394333E-005 -1.2252380E-004 0.0 -3.3798615E-005 -4.5229493E-005 0.0 -2.1858339E-005 -5.5690139E-005 0.0  1.1547421E-006 -4.8455292E-005 0.0  1.7109763E-005 -5.9086151E-005 0.0 -4.8391424E-006 -1.5085886E-004 0.0  7.0234478E-005 -3.7440502E-004 0.0  2.2695660E-005 -1.1470873E-004 0.0 -3.5504967E-005 -1.1315803E-004 0.0 -2.3200610E-005 -3.1243065E-005 0.0 -9.2568586E-007 -3.3273533E-005 0.0 -1.1103240E-005 -3.1390784E-005 0.0 -2.0164534E-005 -3.3216102E-005 0.0  1.1010353E-005 -1.1214895E-004 0.0 -1.0088173E-005 -1.0969619E-004 0.0 -1.8733698E-005 -3.2085661E-005 0.0 -1.4209546E-004 -1.6770114E-004 0.0 -5.0616490E-005 -1.7815606E-004 0.0 -6.5952676E-005 -4.1316642E-004 0.0 -1.0445270E-004 -1.5504002E-004 0.0  4.5128023E-005 -1.7261792E-004 0.0  2.6766425E-005 -1.3129040E-004 0.0 -2.4665796E-006 -7.0332341E-005 0.0  3.2067377E-005 -7.5225953E-005 0.0 -3.2077999E-005 -2.4720765E-004 0.0 -9.5435590E-005 -2.7302015E-004 0.0 -9.4918443E-006 -2.9015836E-005 0.0 -1.2111050E-005 -2.7950739E-005 0.0 -5.9450985E-006 -3.1604862E-005 0.0 -5.8515783E-006 -3.1363020E-004 0.0  2.9277476E-004 -3.4031997E-004 0.0  4.3467434E-005 -3.0775565E-004 0.0  9.4185879E-006 -3.6528051E-004 0.0  6.9842923E-007 -1.6011632E-004 0.0  5.0776037E-005 -1.3067767E-004 0.0  3.3374998E-004 -4.5195967E-004 0.0  5.7222829E-005 -2.7500677E-004 0.0  1.7364180E-005 -3.1275202E-004 0.0 -1.3386041E-004 -3.1971827E-004 0.0 -3.5310489E-005 -3.5536833E-004 0.0  2.7956209E-005 -5.5983107E-005 0.0  1.3941307E-005 -4.3904246E-005 0.0  4.1995809E-005 -3.6082603E-004 0.0  2.0488818E-005 -4.1150700E-004 0.0 -6.7816236E-006 -1.1122626E-004 0.0  1.3073939E-005 -1.0960400E-004 0.0  6.4955392E-005 -1.1104093E-004 0.0  1.1421080E-005 -1.1425603E-004 0.0 -6.3562281E-005 -1.0299274E-004 0.0 -2.8734496E-005 -1.1009094E-004 0.0  5.4391082E-005 -1.0823241E-004 0.0  8.6772558E-006 -1.1206227E-004 0.0 -4.4695538E-006 -1.3192748E-004 0.0 -6.3705568E-006 -2.6524045E-005 0.0 -8.4955749E-006 -2.4564351E-005 0.0 -4.0743514E-006 -2.8660767E-005 0.0 -4.9876440E-006 -2.3718431E-005 0.0 -5.9279453E-006 -2.1021823E-005 0.0 -9.0362326E-006 -2.3527060E-005 0.0 -5.5842799E-006 -1.9500471E-005 0.0  5.2884980E-006 -3.3964130E-005 0.0 -1.2973269E-006 -3.1865673E-005 0.0 -9.4550176E-005 -1.2877327E-004 0.0 -1.7789076E-005 -3.2007810E-005 0.0 -7.8520159E-006 -2.3400082E-005 0.0 -1.7053292E-004 -3.6979716E-004 0.0 -8.9359088E-005 -4.0746232E-004 0.0  7.9201535E-005 -3.8969750E-004 0.0  1.3543852E-005 -4.3734920E-004 0.0  4.0921402E-005 -1.0860691E-004 0.0  2.1509185E-005 -1.0891156E-004 0.0 -2.5738439E-005 -1.0875060E-004 0.0  8.0409097E-006 -1.0913162E-004 0.0  4.9950979E-005 -1.0206821E-004 0.0 -4.1693159E-005 -1.0483913E-004 0.0 -2.0320821E-005 -1.0705516E-004 0.0  4.2136432E-005 -1.1045021E-004 0.0 -1.2431853E-006 -3.2367305E-005 0.0 -5.6370277E-005 -9.9119668E-005 0.0  5.8274371E-005 -1.4688839E-004 0.0  4.2859377E-005 -1.1562340E-004 0.0  9.7464981E-006 -1.0206668E-004 0.0  3.1182285E-005 -1.0584516E-004 0.0  1.0463911E-004 -2.2944347E-004 0.0  1.1382456E-005 -3.4985458E-005 0.0  8.5478605E-005 -1.8775111E-004 0.0 -5.2330138E-005 -1.0348369E-004 0.0  6.0159928E-005 -2.5741013E-004 0.0  3.4949704E-006 -3.3153849E-005 0.0  2.4309114E-004 -1.4349416E-004 0.0  4.5969363E-004 -1.2661026E-004 0.0  7.7209444E-006 -1.0911292E-004 0.0 -1.4646120E-005 -3.6718157E-005 0.0 -2.1904609E-005 -4.2056272E-004 0.0 -1.5700949E-005 -4.7570365E-004 0.0  1.6189326E-005 -4.5727474E-004 0.0 -1.2054698E-005 -5.1637989E-004 0.0 -4.9979827E-005 -5.3759410E-004 0.0 -4.4303714E-005 -5.7506380E-004 0.0 -2.4234309E-005 -5.4326840E-004 0.0 -5.7634700E-005 -5.8940215E-004 0.0 -6.9458990E-005 -6.1527630E-004 0.0 -7.9008280E-005 -6.1381567E-004 0.0 -9.7827893E-005 -6.3278223E-004 0.0 -1.0355355E-004 -5.9527501E-004 0.0 -1.1655086E-004 -6.1431725E-004 0.0 -1.0105204E-004 -5.8007435E-004 0.0 -1.1953477E-004 -5.2366782E-004 0.0 -1.5399655E-004 -5.1158504E-004 0.0 -1.4740886E-004 -5.4426201E-004 0.0 -6.1203125E-005 -5.5338542E-004 0.0 -1.3192323E-004 -6.5111211E-004 0.0 -1.4625371E-004 -6.1398950E-004 0.0 -1.2477306E-004 -5.4134793E-004 0.0 -1.4548314E-004 -5.2243724E-004 0.0 -1.8933726E-004 -4.1791177E-004 0.0  9.2849797E-005 -1.0229689E-004 0.0  6.3670780E-005 -1.7901395E-004 0.0  7.3763289E-005 -1.0256400E-004 0.0 -1.4970780E-004 -4.2070563E-004 0.0 -1.2159165E-004 -4.3391955E-004 0.0 -1.2657609E-005 -2.8749403E-005 0.0 -1.9967012E-005 -3.3746214E-005 0.0  1.4926285E-004 -1.5785743E-004 0.0  1.4627527E-007 -1.1267594E-004 0.0 -1.1180416E-005 -1.0645736E-004 0.0  1.8097762E-005 -1.0519103E-004 0.0  5.7259089E-005 -1.5783214E-004 0.0  3.2363863E-005 -5.3354147E-005 0.0  2.1690973E-005 -4.3983251E-005 0.0  1.2606064E-004 -1.1682452E-004 0.0  2.2898790E-004 -4.0766174E-004 0.0  2.0941340E-004 -4.4586039E-004 0.0 -3.6497241E-005 -4.9550784E-004 0.0  1.8081782E-004 -4.9250215E-004 0.0 -4.0858245E-005 -5.4015684E-004 0.0  1.2874158E-004 -5.3461501E-004 0.0 -1.6423797E-004 -6.5294871E-004 0.0 -2.0907760E-004 -4.1556658E-004 0.0  1.1382483E-004 -1.3601076E-004 0.0  1.6570634E-004 -1.1725311E-004 0.0  8.7421930E-005 -1.0428076E-004 0.0 -1.9793327E-004 -3.1547384E-004 0.0 -4.8925103E-005 -9.8840957E-005 0.0 -6.8299310E-007 -3.2813861E-005 0.0  1.7147713E-004 -2.8421478E-004 0.0  1.0567275E-004 -9.7450541E-005 0.0 -4.6602466E-006 -1.9070038E-005 0.0 -4.1534795E-006 -1.5727783E-005 0.0  6.2796386E-005 -1.3008446E-004 0.0  5.3829597E-005 -1.0779499E-004 0.0  3.9689454E-005 -6.3278581E-005 0.0  3.4657631E-004 -4.9227932E-004 0.0  3.5606195E-004 -5.1663689E-004 0.0 -9.9468535E-006 -2.9547516E-005 0.0 -1.1598796E-004 -3.9207880E-004 0.0 -1.1697160E-004 -4.2318120E-004 0.0 -1.2441834E-004 -3.6982362E-004 0.0 -1.4930263E-004 -5.2848385E-004 0.0 -1.1789577E-004 -3.3993910E-004 0.0 -1.3896849E-004 -4.7390491E-004 0.0  1.3749236E-005 -3.7002243E-005 0.0  1.7204743E-004 -9.9794224E-005 0.0  1.5185233E-004 -1.0397288E-004 0.0 -4.4288223E-005 -5.0418653E-004 0.0 -1.5636126E-004 -1.3382851E-004 0.0 -9.0949004E-005 -8.4610273E-005 0.0  4.1285730E-006 -1.1095474E-004 0.0  3.3327425E-005 -5.3191384E-005 0.0  2.4043959E-005 -4.4327520E-005 0.0 -1.3342617E-004 -5.8979283E-004 0.0 -8.4809715E-005 -2.8318340E-004 0.0  5.9052988E-005 -1.0495060E-004 0.0  7.2232363E-005 -1.0417833E-004 0.0 -4.0006058E-005 -3.9373548E-005 0.0  2.7905172E-004 -3.4976650E-004 0.0  1.2022369E-004 -3.4576157E-004 0.0  2.9580766E-004 -3.0778724E-004 0.0  1.4555790E-004 -9.2660799E-005 0.0 -9.6652697E-005 -5.7013159E-004 0.0  7.4091502E-006 -3.5527191E-005 0.0  1.6995608E-005 -3.8055425E-005 0.0  1.4717306E-005 -3.7292719E-005 0.0  2.2151940E-005 -4.2370078E-005 0.0  1.2017334E-004 -1.0590076E-004 0.0 -4.9538631E-005 -1.3805579E-004 0.0  9.5088897E-005 -9.1310127E-005 0.0  9.0739722E-005 -8.5319805E-005 0.0  4.6383301E-005 -1.0178901E-004 0.0  8.8346627E-006 -3.8214890E-005 0.0  5.5800307E-005 -3.0839082E-004 0.0  4.2326082E-005 -3.4991979E-004 0.0  3.5226678E-005 -9.7846009E-005 0.0  5.8359089E-005 -8.7191773E-005 0.0 -2.6542982E-006 -2.7461497E-005 0.0  6.9712448E-008 -3.0932156E-005 0.0 -1.0561695E-006 -3.1285195E-005 0.0 -4.9360592E-006 -3.0607815E-005 0.0 -9.9329862E-005 -8.0331367E-005 0.0  2.2231653E-004 -2.5147231E-004 0.0 -3.3363008E-006 -2.4773154E-005 0.0  6.6539901E-005 -1.5990112E-004 0.0 -8.0569711E-006 -4.8794703E-004 0.0  4.4449857E-006 -4.3706991E-004 0.0  2.4177779E-005 -4.0522902E-004 0.0  3.9788659E-005 -2.0136236E-004 0.0  1.6550049E-004 -1.9714885E-004 0.0  5.2152955E-006 -3.4364046E-005 0.0  8.1331777E-006 -3.5342898E-005 0.0  7.3097722E-005 -1.7881061E-004 0.0  2.1361649E-004  6.1396668E-005 0.0 -2.7977190E-005 -2.1214121E-004 0.0 -9.9225082E-005 -5.1366309E-004 0.0  3.9495236E-005 -6.9852682E-005 0.0  4.7167372E-005 -8.3409677E-005 0.0  9.6072989E-006 -3.5194941E-005 0.0 -3.8852177E-005 -3.8614228E-005 0.0  5.4414095E-005 -2.1836742E-004 0.0  6.8942779E-005 -2.3235104E-004 0.0 -4.4830595E-005 -3.6547449E-005 0.0 -1.3510375E-004 -5.4310270E-004 0.0  1.1635339E-004 -1.1847804E-004 0.0  1.5403933E-004 -5.5727406E-004 0.0  4.2460983E-004 -4.7780793E-004 0.0  6.6572853E-004 -3.8150355E-004 0.0  2.3224498E-004 -5.4181958E-004 0.0  6.0892413E-004 -4.6628536E-004 0.0 -1.1425690E-004 -5.3037094E-004 0.0 -7.7835800E-005 -3.5558208E-004 0.0 -4.4485475E-006 -2.0982779E-005 0.0 -4.7416046E-006 -1.7791410E-005 0.0  1.7562663E-005 -3.9691093E-005 0.0 -1.8632971E-004 -6.4542496E-004 0.0 -1.7223727E-004 -5.8195301E-004 0.0  6.2882830E-004 -2.8405768E-004 0.0 -1.3892009E-004 -5.3907168E-004 0.0 -1.9872701E-004 -5.1190581E-004 0.0 -2.3517095E-004 -4.6539066E-004 0.0  4.7301825E-004 -3.5261920E-004 0.0 -5.1348361E-005 -7.7751996E-005 0.0  4.1027671E-004 -4.4028298E-004 0.0  8.1891019E-004 -8.6666993E-005 0.0  6.5914171E-004  1.1833482E-004 0.0 -4.1397561E-006 -1.4678485E-005 0.0  2.7708937E-005 -1.0743934E-004 0.0 -1.9275203E-004 -2.8921572E-004 0.0 -2.4501573E-005 -9.1133249E-005 0.0 -6.5794936E-005 -1.4580042E-004 0.0 -8.8198812E-006 -4.1366465E-005 0.0 -1.3083105E-005 -3.2047333E-005 0.0  6.3121432E-006 -3.3968124E-005 0.0  1.0404063E-005 -3.6197279E-005 0.0 -1.0130433E-004 -2.2733424E-004 0.0 -9.2546433E-005 -3.5573329E-004 0.0 -1.6178084E-005 -1.1172641E-004 0.0 -6.0998811E-005 -9.8358447E-005 0.0  2.8558961E-006 -3.4033941E-005 0.0 -2.1540687E-004 -4.2631794E-004 0.0  2.3371948E-004 -1.0088398E-004 0.0  3.2894666E-004 -1.0934622E-004 0.0  1.8580912E-004 -8.5140142E-005 0.0  1.9737837E-005 -9.8806830E-005 0.0  5.9000660E-005 -2.7074466E-004 0.0  1.9738935E-005 -8.5673993E-005 0.0  1.5683962E-005 -3.9879951E-005 0.0 -2.7278341E-004 -2.7256232E-004 0.0 -2.4246058E-004 -1.0179792E-004 0.0  2.5649738E-004 -7.9845250E-005 0.0 -1.3606689E-004 -3.1421735E-004 0.0  2.1447384E-004 -1.4256323E-004 0.0 -9.3801042E-006 -8.6765474E-005 0.0 -5.7222657E-006 -1.0567344E-004 0.0 -6.2524288E-006 -3.0773798E-005 0.0 -1.4563645E-006 -9.5919107E-006 0.0 -2.8983608E-006 -1.2350285E-005 0.0 -1.0426385E-004 -5.2271329E-004 0.0 -1.1303886E-004 -5.9972295E-004 0.0  1.2105561E-004 -8.7539426E-005 0.0 -1.3291092E-004 -1.3091521E-004 0.0 -1.3698240E-004 -1.0759986E-004 0.0 -2.3449940E-006 -1.7294768E-005 0.0  4.6999555E-005 -7.8092027E-005 0.0  5.1638926E-005 -9.0088786E-005 0.0  5.5427338E-005 -1.0038489E-004 0.0  8.7354464E-004 -2.6718662E-004 0.0  9.8745567E-004 -3.0712279E-004 0.0  4.1210772E-004  1.4688491E-004 0.0  1.1416939E-003  1.2123811E-004 0.0 -2.8384527E-005 -1.0463984E-004 0.0  2.4074260E-004 -1.7515388E-004 0.0  3.2374246E-004 -1.4503167E-004 0.0  2.7789556E-004 -1.3082783E-004 0.0  1.2576484E-004 -1.4046650E-004 0.0  2.4410018E-004 -9.9070731E-005 0.0 -1.9794972E-004 -2.7883893E-004 0.0  1.8254743E-004  2.2175564E-004 0.0  6.2112946E-005 -1.7215136E-004 0.0  5.9200041E-005 -1.3006119E-004 0.0  5.9515200E-005 -2.1989582E-004 0.0  3.9535521E-005 -6.5079738E-005 0.0  8.0111906E-005 -6.3540051E-005 0.0  7.3109461E-004  3.8771705E-004 0.0  2.9801903E-005 -5.5734238E-005 0.0  2.1736891E-005 -3.5415350E-004 0.0  3.8641301E-005 -6.8691158E-005 0.0  4.5928970E-005 -2.8293395E-004 0.0 -1.3209054E-004 -1.8824826E-004 0.0 -1.0035334E-004 -1.6255658E-004 0.0 -1.1275117E-004 -3.1788637E-004 0.0 -5.7314903E-005 -5.8312199E-005 0.0  2.3637965E-005 -4.7610517E-005 0.0 -1.5722267E-005 -4.1931431E-004 0.0  8.0879914E-004 -3.9701193E-004 0.0  2.0972163E-005  7.5606179E-005 0.0 -1.0174702E-004 -4.7090354E-004 0.0  7.2979866E-004 -4.0224471E-004 0.0  1.6100886E-004 -6.6319137E-005 0.0  5.7827905E-004 -3.8911342E-004 0.0  1.7899020E-004 -6.8476110E-005 0.0  2.0323057E-004 -7.1839045E-005 0.0 -3.4349795E-004 -3.5102476E-004 0.0  4.6842810E-004 -2.2570325E-004 0.0  2.8936044E-004 -7.7822609E-005 0.0  4.1310617E-004 -1.8709636E-004 0.0  2.6569615E-004 -2.1649667E-004 0.0  4.0340492E-004 -1.6705228E-004 0.0  1.5172208E-006 -1.1148618E-004 0.0  2.2800679E-006 -4.0391534E-005 0.0 -6.9337539E-005 -8.3985541E-005 0.0 -4.7262050E-005 -4.6316909E-004 0.0  3.4423645E-005 -8.9470935E-005 0.0  4.0006039E-004 -4.0401333E-004 0.0  5.1250012E-006 -3.3749161E-005 0.0 -3.5315970E-005 -3.5012707E-005 0.0 -2.6521888E-005 -4.0307682E-005 0.0  6.0677801E-005 -1.2154394E-004 0.0 -5.2025096E-005 -8.6074316E-005 0.0 -1.1612663E-004 -4.6265958E-004 0.0 -3.7465942E-006 -2.2296985E-005 0.0 -1.3862782E-004 -9.2228080E-005 0.0  3.4758723E-004  3.2371239E-004 0.0 -1.2080681E-005 -1.2734943E-004 0.0 -3.2704844E-005 -3.3884975E-005 0.0  4.7282603E-004 -2.7538594E-004 0.0  5.5489705E-004 -4.6460784E-004 0.0  8.6528338E-005 -5.7018011E-004 0.0  1.2859055E-004 -6.7057468E-005 0.0 -1.6352152E-004 -1.4341708E-004 0.0 -1.5159132E-004 -1.1437165E-004 0.0 -1.6996599E-005 -9.6476086E-005 0.0 -8.7730017E-005 -9.8186187E-005 0.0  2.0733946E-005 -4.4999186E-005 0.0 -4.1173566E-005 -3.7506276E-004 0.0  8.4069804E-005  2.3501252E-005 0.0  9.7742566E-004  4.5484710E-004 0.0  1.4558630E-005 -7.8951096E-005 0.0  8.8917316E-006 -3.6642029E-005 0.0 -1.5855071E-005 -3.6663624E-005 0.0 -1.6919926E-004 -6.1836380E-004 0.0  1.1440505E-004 -6.4830290E-005 0.0  3.3804149E-004 -2.6284237E-004 0.0 -6.3777941E-006 -2.3330434E-005 0.0  3.9165609E-005 -9.0373062E-005 0.0  6.7546820E-005 -1.8899539E-004 0.0 -2.8957317E-004 -4.5674459E-004 0.0  9.5188278E-005 -6.1433595E-005 0.0 -1.3589512E-005 -2.8427275E-005 0.0  1.8646246E-006 -3.3085682E-005 0.0 -1.4151356E-004 -5.1272222E-004 0.0  1.9890123E-006 -3.3096793E-005 0.0  2.7362172E-004 -1.1084402E-004 0.0 -2.3754628E-006 -8.7272280E-006 0.0 -3.5468202E-005 -1.0177418E-004 0.0  2.6457457E-005 -3.8456214E-004 0.0 -1.6471361E-004 -2.7089093E-004 0.0  1.1989989E-005 -3.7706859E-005 0.0  1.1269217E-004 -1.0127876E-004 0.0 -3.3302075E-006 -1.6149547E-005 0.0 -1.0164192E-004 -6.2722427E-004 0.0 -1.9969973E-004 -3.5723708E-004 0.0 -5.7739730E-005 -9.0118401E-005 0.0 -1.1957772E-004 -3.4854122E-004 0.0 -4.0696871E-005 -1.0472317E-004 0.0  4.7275900E-005 -9.9117293E-005 0.0 -7.7833288E-005 -4.3755656E-004 0.0  1.1784416E-004 -8.4833517E-005 0.0 -1.7812993E-004 -6.2878703E-004 0.0 -3.3471241E-005 -4.7104262E-004 0.0  4.6952268E-005 -3.0703458E-004 0.0  7.2848215E-004 -4.0398994E-004 0.0 -7.6713282E-005 -9.7505335E-005 0.0 -1.4673636E-004 -6.2977709E-004 0.0 -1.0427712E-004 -2.9038374E-004 0.0  3.9315234E-005 -6.1767928E-005 0.0  2.2990884E-004 -1.2698419E-004 0.0  2.6039842E-005 -4.5718148E-005 0.0  1.6104627E-005 -4.1896851E-005 0.0  1.9123351E-004 -9.6283426E-005 0.0  6.8246105E-005 -2.1048366E-004 0.0 -1.3437621E-005 -3.8974201E-005 0.0  2.7004862E-004 -6.5292357E-005 0.0 -1.5402068E-004 -4.7511184E-004 0.0  2.4660974E-004 -2.0213244E-004 0.0 -3.1288086E-004 -8.1984866E-005 0.0  5.9969726E-005 -9.3272016E-005 0.0 -6.3135872E-006 -1.1066680E-004 0.0 -7.9482688E-005 -9.1370721E-005 0.0  1.5500894E-004 -8.7226404E-005 0.0  2.2017133E-005 -1.4061491E-004 0.0  1.1555273E-003 -1.9171321E-004 0.0 -3.8100476E-006 -1.3680142E-005 0.0 -1.0362073E-004 -1.1222425E-004 0.0 -8.5017051E-005 -9.1870186E-005 0.0 -5.0750476E-006 -3.2268666E-005 0.0 -1.7553097E-004 -4.6521179E-004 0.0 -2.5925222E-005 -3.3857401E-005 0.0  1.1169698E-005 -3.6517487E-005 0.0  1.5460797E-005 -1.3497391E-005 0.0  6.0869051E-005 -2.3959055E-004 0.0  4.3652486E-005 -8.8950046E-005 0.0  9.8935487E-006 -3.7248662E-005 0.0 -2.7365276E-004 -3.8181762E-004 0.0  6.0482359E-004 -4.5825514E-004 0.0 -7.7586189E-005 -1.6530726E-004 0.0 -9.2592951E-005 -2.0427643E-004 0.0 -2.3783653E-004 -4.7759318E-004 0.0 -1.1296397E-004 -4.5205789E-004 0.0 -7.8612721E-005 -8.1681356E-005 0.0  2.5324098E-007 -3.2334530E-005 0.0  1.2843660E-004 -8.6870138E-005 0.0  3.2873427E-005 -1.0104511E-004 0.0  9.2516177E-004  2.0525618E-004 0.0  5.4160563E-004 -4.4182492E-004 0.0 -4.3304173E-005 -1.5522111E-004 0.0  6.2160550E-005 -1.3953332E-004 0.0  4.1458899E-005 -6.9645605E-005 0.0 -4.8856810E-005 -3.9605731E-005 0.0  3.3942644E-004 -7.4236242E-005 0.0 -2.0556401E-006 -2.6237315E-005 0.0 -1.1690865E-004 -5.5515719E-004 0.0  3.8652777E-004 -9.3686234E-005 0.0 -1.6955305E-005 -1.0213799E-004 0.0 -1.2716592E-005 -9.7549247E-005 0.0  3.0018190E-004 -1.7998387E-004 0.0 -1.5264000E-004 -1.2035429E-004 0.0  1.3016014E-005 -3.7579487E-005 0.0  3.0031707E-004 -2.9673975E-004 0.0  3.5951172E-004 -8.7304643E-005 0.0  4.4031214E-004 -1.2830015E-004 0.0  1.9752918E-004 -9.3012594E-005 0.0  5.2901068E-005 -8.2806215E-005 0.0 -1.9567242E-005 -3.5232293E-005 0.0 -2.6249736E-005 -4.2103128E-005 0.0 -2.0968709E-005 -5.6424965E-004 0.0  2.6689674E-005 -8.5830360E-005 0.0  1.8445505E-005 -4.1284982E-005 0.0 -1.2333423E-005 -8.9228585E-005 0.0 -3.8273139E-004 -1.0204144E-004 0.0  1.2137432E-003  5.2090153E-004 0.0  6.4353825E-004 -3.1324531E-004 0.0  1.1111649E-004 -2.2179803E-004 0.0 -1.7822449E-006 -7.3862349E-006 0.0 -4.0923832E-006 -1.3826685E-005 0.0  4.0920211E-004 -1.0891074E-004 0.0 -6.1052399E-005 -4.7509817E-004 0.0  1.9262697E-005 -4.1552718E-005 0.0  7.7093853E-005 -8.4718598E-005 0.0  1.9752804E-005 -5.9612491E-005 0.0 -4.2774993E-006 -1.9621517E-005 0.0 -3.4629730E-005 -3.6685424E-005 0.0  4.9978788E-005 -1.0778835E-004 0.0  5.7152575E-004  2.6281930E-004 0.0  1.9985778E-004 -1.0708218E-004 0.0 -1.1369895E-004 -5.1441790E-004 0.0 -7.3489577E-005 -8.8103504E-005 0.0 -7.8056514E-005 -5.9152844E-004 0.0 -1.3262834E-004 -4.8438489E-004 0.0 -9.8888834E-005 -2.1844669E-004 0.0 -1.1479207E-004 -5.3535680E-004 0.0  5.3492165E-006 -4.0822210E-004 0.0  2.8234387E-005 -5.0329825E-005 0.0  6.4066269E-005 -2.0767518E-004 0.0 -6.9745262E-006 -3.0062639E-005 0.0  1.7567380E-005 -2.1932701E-004 0.0 -1.8614364E-004 -5.0814686E-004 0.0  3.4633067E-004 -2.3313888E-004 0.0  2.3111905E-005 -1.0819544E-004 0.0  7.9125053E-005 -7.9014483E-005 0.0 -6.0307133E-005 -9.5162209E-005 0.0 -4.1549282E-005 -1.3713148E-004 0.0  1.6947428E-004 -3.1044298E-004 0.0  9.0994984E-004  7.3374255E-004 0.0  1.6792812E-004  4.0877656E-004 0.0 -3.0442628E-005  1.5131439E-004 0.0  3.4224632E-004  4.6115479E-006 0.0  4.5449982E-004 -5.6526315E-006 0.0  5.5991528E-004 -3.6375135E-005 0.0  6.6973775E-004 -9.5451669E-005 0.0  8.1578485E-004 -1.7310540E-004 0.0  1.0657573E-003 -2.3465421E-004 0.0  1.4062014E-003 -1.1951573E-004 0.0 -1.5516592E-004  8.3140801E-005 0.0 -3.3403820E-004 -4.6747288E-005 0.0  1.5184177E-003  2.8581469E-004 0.0  2.4960218E-004  1.1127360E-005 0.0 -3.1939403E-004  2.8782756E-004 0.0  3.7024687E-003  1.6874128E-003 0.0  8.9661893E-005  8.3965316E-004 0.0  1.5486063E-004  1.4923449E-005 0.0 -3.2200673E-004 -1.3182394E-004 0.0  1.5963727E-003  2.1031939E-003 0.0  4.7768963E-004  6.2347980E-004 0.0 -3.1919797E-004  6.3085175E-005 0.0  4.4588627E-005  3.7727451E-004 0.0 -2.8139198E-004  6.7687285E-004 0.0  3.2814857E-003  1.6554813E-003 0.0  3.9012716E-003  1.8505759E-003 0.0  2.3145603E-003  1.7030224E-003 0.0  9.9768699E-004  1.8101027E-003 0.0  8.5803440E-005  1.4229591E-005 0.0 -3.4528565E-004 -6.1759914E-006 0.0  7.4160567E-004  1.7691843E-003 0.0 -3.1649510E-004 -1.2607676E-004 0.0  3.1822570E-005  2.0861255E-004 0.0  2.3278311E-003  2.2411833E-003 0.0  1.5489265E-003  1.8293474E-003 0.0  2.8185108E-003  1.6803468E-003 0.0  3.8911385E-003  2.0322108E-003 0.0 -2.5511757E-004  4.9824479E-005 0.0  1.2586661E-003 -2.0030518E-004 0.0  1.5145812E-003  4.3106868E-005 0.0 -8.5446698E-005  1.0725078E-004 0.0  5.6436227E-005  2.7787350E-004 0.0  2.0320619E-004  1.2321882E-005 0.0  9.5062928E-004 -2.2373131E-004 0.0  2.9786635E-004  1.2492177E-005 0.0  3.8685030E-004  2.1741861E-006 0.0  7.5334327E-004 -1.3966475E-004 0.0  4.9876983E-004 -1.4289680E-005 0.0  6.2575576E-004 -6.7267894E-005 0.0 -1.7950420E-004  9.7064592E-004 0.0  2.1922850E-005  8.4226053E-005 0.0  4.4153358E-004  1.8069846E-003 0.0  2.6233572E-004  1.4570420E-003 0.0  3.6342712E-003  2.2314953E-003 0.0 -3.3193241E-004 -7.3984298E-005 0.0  3.5741013E-005  1.2299804E-005 0.0 -3.2831763E-004 -4.2476408E-005 0.0 -2.9771209E-004 -3.6451720E-005 0.0 -2.9994958E-004 -3.9965181E-006 0.0 -2.5355754E-004 -2.7592027E-005 0.0 -2.6864445E-004 -5.1918410E-005 0.0 -2.1622962E-004 -3.3180592E-005 0.0 -1.9831483E-004 -1.6064336E-005 0.0 -1.5725626E-004 -1.6250373E-005 0.0 -1.3843796E-004 -4.7813160E-006 0.0 -8.6595006E-005  4.8862294E-006 0.0 -6.1544510E-005  1.4520580E-005 0.0 -4.7574991E-006  2.8641621E-005 0.0  2.3349707E-005  3.4237814E-005 0.0  9.7572503E-005  5.7469653E-005 0.0  1.3177189E-004  6.3577185E-005 0.0  2.2252949E-004  9.1648200E-005 0.0  2.5212070E-004  9.1798397E-005 0.0  3.7450394E-004  1.3100150E-004 0.0  4.0522782E-004  1.4122296E-004 0.0  5.6475151E-004  1.8400969E-004 0.0  5.8699921E-004  1.9417767E-004 0.0  7.8059542E-004  2.4708493E-004 0.0  7.9355604E-004  2.7347319E-004 0.0  1.0387136E-003  3.3174308E-004 0.0  1.1486517E-003  3.9374600E-004 0.0  8.1418733E-004  3.4264153E-004 0.0  1.2223391E-003  4.8865382E-004 0.0  8.6327933E-004  4.5631333E-004 0.0  1.3081297E-003  6.1439989E-004 0.0  9.2734467E-004  5.9519222E-004 0.0  1.3754039E-003  7.7172451E-004 0.0  9.7045062E-004  7.6645729E-004 0.0  1.4595628E-003  9.4312909E-004 0.0  9.3123073E-004  2.8572970E-004 0.0  1.2049103E-003  3.8701221E-004 0.0  1.1312128E-003  3.6212197E-004 0.0  1.3406452E-003  4.4284033E-004 0.0  1.3168385E-003  4.3541652E-004 0.0  1.5225745E-003  5.1265461E-004 0.0  1.4599708E-003  4.8930116E-004 0.0  1.5790930E-003  5.2494773E-004 0.0  1.6795881E-003  5.8347870E-004 0.0  1.5822309E-003  5.4318260E-004 0.0  4.2231602E-005  5.9603109E-005 0.0  1.0424412E-003  9.4967947E-004 0.0  8.9820968E-004  3.0520643E-004 0.0  1.3954496E-003  4.7294437E-004 0.0  1.5103005E-003  5.0541211E-004 0.0  3.0158523E-004  1.2078004E-004 0.0  1.6864737E-003  6.1147817E-004 0.0  1.6214609E-003  5.6319086E-004 0.0  1.4704318E-003  4.8357644E-004 0.0  1.5669064E-003  5.2118072E-004 0.0  1.4538593E-003  4.4516637E-004 0.0  1.4951123E-003  4.5402447E-004 0.0  1.6169879E-003  5.7740746E-004 0.0  1.5403117E-003  5.1317381E-004 0.0  1.4418366E-003  3.9889393E-004 0.0  1.4649884E-003  4.4488324E-004 0.0  1.3938842E-003  3.3394218E-004 0.0  1.3732217E-003  3.5730308E-004 0.0  1.4843454E-003  5.1499826E-004 0.0  1.3860690E-003  4.4131121E-004 0.0  1.6745646E-003  6.6546808E-004 0.0  1.2924057E-003  2.9609837E-004 0.0  1.2746220E-003  3.6892144E-004 0.0  1.3953414E-003  5.3400957E-004 0.0  1.2402197E-003  4.3287372E-004 0.0  1.3916534E-003  6.3890351E-004 0.0  1.2458650E-003  5.5195160E-004 0.0  1.1293921E-003  3.8049599E-004 0.0  1.1303615E-003  4.7932403E-004 0.0  1.0243738E-003  3.1972657E-004 0.0  9.8820698E-004  3.9242740E-004 0.0  1.4801812E-003  1.1569591E-003 0.0  1.4016019E-003  4.3084552E-004 0.0  1.2161369E-003  2.3515778E-004 0.0  1.9098270E-005  3.8301352E-005 0.0  1.1070953E-003  5.7922480E-004 0.0  9.6303466E-004  4.7724309E-004 0.0  1.4046889E-003  7.8976123E-004 0.0  8.9199374E-004  3.1403007E-004 0.0  8.4641728E-004  3.9851289E-004 0.0  9.4948756E-004  5.7046595E-004 0.0  8.0386585E-004  4.7362263E-004 0.0  9.0323725E-004  6.7094526E-004 0.0  7.6795403E-004  5.5645110E-004 0.0  7.2054179E-004  3.9912643E-004 0.0  6.5877985E-004  4.6246369E-004 0.0  7.2995327E-004  6.3196564E-004 0.0  6.1417750E-004  5.2664661E-004 0.0  5.8842787E-004  3.7462908E-004 0.0  5.2233968E-004  4.3337330E-004 0.0  5.6837030E-004  5.7912170E-004 0.0  4.6237175E-004  4.7228156E-004 0.0  5.1119699E-004  6.4043989E-004 0.0  4.0068238E-004  5.1752781E-004 0.0  8.0288390E-004  2.7193682E-004 0.0  4.0017654E-004  3.6977205E-004 0.0  3.4253319E-004  4.1671705E-004 0.0  1.6971974E-003  7.9491916E-004 0.0  6.4867166E-004  5.9417715E-004 0.0  1.1250504E-003  1.1921294E-003 0.0  8.2461691E-004  1.9497278E-004 0.0  5.1361994E-004  3.0715824E-004 0.0  5.5974897E-004  2.7643849E-004 0.0  4.3932605E-004  6.7489988E-004 0.0 -1.3549491E-004 -1.3554516E-005 0.0  1.8523546E-003  1.1298178E-003 0.0  6.0285588E-004  7.4234992E-004 0.0  7.4698372E-004  9.6004684E-004 0.0  1.8595845E-003  1.3477975E-003 0.0  1.8155211E-003  6.9655954E-004 0.0  1.4017002E-003  3.9106568E-004 0.0  3.4066866E-004  2.8905141E-004 0.0  2.8749374E-004  3.2922652E-004 0.0  1.0499125E-003  7.6645656E-004 0.0  9.8567345E-004  9.0738527E-004 0.0  2.9916466E-004  4.3753450E-004 0.0  2.4346469E-004  3.5334761E-004 0.0  1.5303745E-003  7.1436087E-004 0.0  1.2400326E-003  1.7228820E-004 0.0  5.6603054E-004  3.1963291E-004 0.0  1.1627263E-003  1.1468740E-004 0.0  1.3579273E-003  4.0384666E-004 0.0  1.9170958E-003  7.3350711E-004 0.0  4.9647646E-004  2.1389207E-004 0.0  7.5942424E-004  1.6962319E-004 0.0  2.5201382E-004  2.5155670E-004 0.0  2.0294623E-004  2.6545749E-004 0.0  2.0252731E-004  3.6470964E-004 0.0 -2.4271774E-004 -5.2836155E-005 0.0  5.2317182E-004  1.7939917E-004 0.0  1.5821592E-004  2.8594456E-004 0.0  1.1907254E-003  5.2916250E-005 0.0  7.7084221E-004  1.0004045E-004 0.0  8.8074091E-004  1.2362883E-003 0.0  2.6685628E-004  1.2960597E-004 0.0  5.2934914E-004  1.0029233E-003 0.0 -1.2125517E-004  1.7209825E-005 0.0  2.2812735E-003  1.3336192E-003 0.0  2.3210523E-003  1.5646507E-003 0.0  3.8758628E-004  2.7155024E-004 0.0  3.4523916E-004  2.0810989E-004 0.0  3.7732001E-004  1.9182977E-004 0.0  1.3820371E-003  3.5039073E-004 0.0  1.7413516E-004  2.0000817E-004 0.0  1.3423523E-004  2.1885377E-004 0.0  1.1204639E-003 -6.7295767E-006 0.0  1.0922461E-003  6.2523659E-005 0.0  1.5025748E-003  5.6353968E-004 0.0  1.2728446E-003  1.3170430E-004 0.0  1.3448040E-003  3.9779272E-004 0.0  1.3009544E-003  4.1539724E-004 0.0  2.0390346E-003  8.7470132E-004 0.0  2.1828975E-003  9.0193278E-004 0.0  8.4940846E-004  1.4511393E-004 0.0  7.9382322E-004  5.5478726E-005 0.0  8.6849261E-004  9.3332925E-005 0.0  1.9022780E-003  1.5975516E-003 0.0  4.8027940E-004  1.2958080E-004 0.0  7.1542173E-004  8.7209907E-005 0.0  7.0107828E-004  1.3506786E-004 0.0  5.9084747E-004  2.3062111E-004 0.0  5.4800797E-004  1.4776061E-004 0.0  6.0738649E-004  1.9200213E-004 0.0  5.7258550E-004  1.1469482E-004 0.0  1.3966528E-003  2.9765535E-004 0.0 -2.8558981E-004 -7.0678853E-005 0.0 -2.6913699E-004 -6.8999171E-005 0.0  6.2798277E-004  1.2729171E-003 0.0  9.6778722E-004  1.4603622E-003 0.0  1.2829690E-003  4.4746331E-004 0.0  1.2193398E-003  4.3624106E-004 0.0  1.1923812E-003  4.8336466E-004 0.0  1.1320280E-003  4.4293181E-004 0.0  1.0691663E-003  5.0377721E-004 0.0  1.0350711E-003  4.3472033E-004 0.0  9.4714208E-004  4.8540807E-004 0.0  1.1406091E-003  4.2199372E-004 0.0  9.4334484E-004  4.1024871E-004 0.0  8.3198535E-004  4.4827293E-004 0.0  8.3593895E-004  3.7654917E-004 0.0  7.3278231E-004  3.7700583E-004 0.0  9.8302841E-004  3.7847651E-004 0.0  7.1540521E-004  4.6734149E-004 0.0  6.1964284E-004  3.8656309E-004 0.0  6.4269174E-004  3.2503059E-004 0.0  5.2283254E-004  3.2638381E-004 0.0  5.6955546E-004  2.7262122E-004 0.0  4.4157846E-004  2.4951769E-004 0.0  3.9473169E-004  3.1051093E-004 0.0  3.4192729E-004  2.2615655E-004 0.0  2.8321572E-004  2.8176328E-004 0.0  2.5344475E-004  1.9981779E-004 0.0  3.4908587E-004  3.4732666E-004 0.0  4.7953195E-004  2.2178787E-004 0.0 -2.2865968E-004 -4.2010855E-005 0.0  1.2824379E-003  4.2064207E-004 0.0  1.2277275E-003  1.3083522E-005 0.0  1.3018002E-003  9.2265318E-005 0.0  3.3906784E-004  1.4060675E-004 0.0  3.0877252E-004  1.5863227E-004 0.0  1.4678548E-004  1.4246282E-004 0.0  1.0864193E-004  1.5400956E-004 0.0  1.7879008E-004  1.4322781E-004 0.0  1.8653717E-004  2.4278681E-004 0.0  1.6339478E-004  1.7902629E-004 0.0  2.1857329E-004  1.6207443E-004 0.0  1.2886216E-004  1.2981192E-004 0.0  8.5909270E-005  1.6072581E-004 0.0  6.5400033E-005  1.0711449E-004 0.0  3.6899109E-004  1.2459768E-004 0.0  2.7652715E-003  1.5503276E-003 0.0  2.6314749E-003  1.3671309E-003 0.0  2.7721568E-003  1.7626271E-003 0.0  4.4850265E-004  1.6701536E-004 0.0  6.6734611E-004  5.8448103E-005 0.0  6.4883972E-004  9.8524279E-005 0.0  6.8397657E-004  1.7359857E-004 0.0  1.4375100E-004  3.7290746E-004 0.0  1.9234954E-004  4.7580990E-004 0.0  1.0456986E-003 -3.6619800E-005 0.0  1.0110859E-003  1.4833163E-005 0.0  1.0748976E-003  1.2178488E-004 0.0  9.8592603E-004  7.3643277E-005 0.0  9.6064475E-004 -2.7792734E-005 0.0  1.6966716E-004  1.2212045E-004 0.0  6.3207498E-004  2.4148934E-004 0.0  8.1049369E-004  4.5901901E-006 0.0  4.4068380E-004  9.9418017E-005 0.0  2.9948702E-004  1.0506921E-003 0.0  2.4134089E-004  8.3695812E-004 0.0  5.8076619E-004  4.6699018E-004 0.0  1.2309340E-004  9.3606704E-005 0.0  1.2459718E-004  4.7297746E-004 0.0  9.9105947E-005  2.2065098E-004 0.0  4.3704150E-004  1.3081271E-003 0.0  8.8227670E-004  3.7393367E-005 0.0  7.5598372E-005  1.6380046E-004 0.0  1.7869177E-004  6.0784814E-004 0.0  6.2518908E-004  3.1525299E-005 0.0  2.1086117E-005  1.3341906E-004 0.0  2.6425956E-007  9.3179401E-005 0.0  4.9896396E-005  1.7692839E-004 0.0  4.0133270E-005  8.1127150E-005 0.0 -2.5391365E-005  5.9244409E-005 0.0 -6.0013278E-005  8.1707104E-005 0.0 -8.2608041E-005  4.7304304E-005 0.0 -5.5012240E-005  3.7049564E-005 0.0 -1.0866620E-004  2.0038557E-005 0.0  7.6148589E-004 -1.2525599E-005 0.0  6.8465485E-004  2.1449626E-005 0.0  1.3936451E-003  3.3344697E-004 0.0  1.4010912E-003  2.9039565E-004 0.0  1.4274882E-003  2.5768622E-004 0.0  1.4034510E-003  2.0977000E-004 0.0 -1.4215857E-004  4.1653613E-005 0.0 -1.6140506E-004  6.0269962E-006 0.0 -2.6603228E-004 -5.5550982E-005 0.0  1.2351355E-003  1.0777688E-003 0.0  1.1205998E-003  1.2489266E-003 0.0  7.0953435E-004  5.5063961E-004 0.0  5.3238171E-004  8.1227934E-005 0.0  5.5392454E-004  5.8118628E-005 0.0  9.2792025E-004  1.2534879E-004 0.0  6.0759759E-004  6.4998766E-005 0.0  4.2483359E-004  2.3774760E-004 0.0  1.2700967E-003 -2.4227389E-005 0.0  1.3334904E-003  5.2007937E-005 0.0  1.2147986E-003 -8.6482619E-005 0.0  8.2594850E-004 -4.6234793E-005 0.0  1.3347185E-003  1.5290830E-004 0.0  3.3948829E-004  8.2575434E-005 0.0  1.0776224E-003 -9.2940365E-005 0.0  4.5881033E-004  7.2972517E-005 0.0  4.3099504E-004  4.1079072E-005 0.0  1.0360585E-003  3.5911849E-004 0.0  1.1933979E-003  4.0425876E-004 0.0  8.6524319E-004  3.3924375E-004 0.0  7.6700884E-004  2.6777280E-004 0.0  2.3578478E-003  1.1265062E-003 0.0  2.1076777E-003  9.8755132E-004 0.0  1.0658574E-003  1.9140023E-004 0.0  4.1651397E-004  1.2968618E-004 0.0  1.0924112E-004  5.8189089E-004 0.0 -2.9657539E-004 -9.1053879E-005 0.0 -3.0506825E-004 -8.5130634E-005 0.0  8.3989334E-004  1.0051267E-003 0.0  5.2526321E-004  1.9679282E-004 0.0  6.3362542E-005  8.8535398E-004 0.0 -2.1635851E-004 -2.4223893E-005 0.0 -2.6148869E-004 -2.9538165E-005 0.0  1.1301183E-003  2.2349088E-004 0.0  1.1464577E-003  5.4342947E-004 0.0  2.5706690E-003  1.1741813E-003 0.0  2.2853694E-003  9.3497129E-004 0.0  6.2404101E-004  1.5441863E-004 0.0  6.5099590E-004  2.2751018E-004 0.0  2.5676197E-004  5.7999129E-004 0.0  2.4085127E-004  7.5038730E-004 0.0  1.2500681E-003  8.4426050E-004 0.0  1.4420176E-003  1.2176501E-003 0.0 -1.9580929E-004  2.7065509E-005 0.0  1.3724657E-003  1.3049169E-004 0.0  1.3680957E-003  2.2100156E-005 0.0  1.4396289E-003  1.5122680E-004 0.0  3.2209517E-003  1.7344023E-003 0.0  3.3595648E-003  1.9433282E-003 0.0  2.7542912E-003  1.9702149E-003 0.0  1.0120804E-003 -1.2516490E-004 0.0  1.5663125E-004  8.5513000E-005 0.0  1.7622566E-003  6.8580530E-004 0.0  1.4043601E-003  4.5767921E-004 0.0  1.3095241E-003  4.3740742E-004 0.0  8.9191955E-004 -1.6293492E-005 0.0  2.5688046E-004  1.3841121E-004 0.0  1.4400176E-003  3.7574890E-004 0.0  5.0930968E-004  1.0874357E-004 0.0  5.0154391E-004  5.4598423E-005 0.0  4.7190894E-004  3.5188401E-004 0.0 -1.8665070E-004 -2.6459277E-005 0.0 -1.2696203E-004  3.7694364E-006 0.0  3.6482471E-004  7.2071707E-005 0.0  3.2953962E-003  2.1195552E-003 0.0  8.4265922E-004 -1.0187760E-004 0.0 -5.4866716E-005  1.6524800E-005 0.0  2.9676849E-004  2.3775671E-004 0.0  2.5955904E-004  1.7832782E-004 0.0  2.2382628E-004  1.8692415E-004 0.0  2.3051099E-004  1.2615697E-004 0.0  2.6286289E-004  1.2282176E-004 0.0  2.3735079E-004  7.2579932E-005 0.0  2.0742404E-004  8.6157724E-005 0.0  1.3937340E-003  2.5858122E-004 0.0 -4.1162010E-005  6.9596291E-004 0.0  2.1644233E-004  6.5785957E-004 0.0 -8.6474452E-005  5.3585152E-004 0.0  1.8618728E-004  4.8974589E-004 0.0 -9.7666429E-005  4.0407243E-004 0.0  1.3167730E-004  3.5661883E-004 0.0  2.2329676E-004  3.1557306E-004 0.0  1.4130652E-004  2.7272831E-004 0.0  2.7831923E-004  3.8890304E-004 0.0  3.9725519E-004  4.3604174E-004 0.0  4.5456190E-004  3.8139792E-004 0.0  3.1040348E-004  4.6847396E-004 0.0  1.0154133E-004  2.0910161E-004 0.0  8.4015837E-004  5.5232311E-004 0.0  6.1174224E-005  2.2901204E-004 0.0  7.5053937E-004  3.2242330E-004 0.0 -3.0010505E-004 -9.0630054E-005 0.0  7.7692141E-004 -5.9467182E-005 0.0  7.3381558E-004 -7.4836647E-005 0.0  7.1390877E-004 -3.1396601E-005 0.0  7.4144468E-004  2.3535920E-005 0.0  1.6232725E-004  9.1904658E-005 0.0  9.5250578E-004  2.6838322E-004 0.0  6.4541136E-004 -3.7782121E-007 0.0  6.0879030E-004 -2.0477237E-005 0.0  9.8182587E-004  5.8930248E-004 0.0  5.3584664E-004  5.4046539E-004 0.0  6.3277028E-004  6.5279083E-004 0.0  5.8371851E-004  1.0466857E-006 0.0  9.7391193E-004 -8.6000290E-005 0.0  9.2569610E-004 -1.0694691E-004 0.0  3.0995253E-004  9.5278109E-005 0.0  1.3628012E-003  4.1178288E-004 0.0 -3.0947917E-004 -7.2508508E-005 0.0  4.0765501E-004  7.0829553E-005 0.0 -3.2336686E-004 -1.0884920E-004 0.0  1.1633549E-003 -4.9273997E-005 0.0  1.1523888E-003 -1.4051205E-004 0.0  1.1946045E-003 -1.7920539E-004 0.0  6.5654383E-004  3.3400904E-004 0.0  5.4347667E-006  1.8295009E-004 0.0  1.2836558E-003  5.1550322E-004 0.0  4.5704247E-004  2.3527315E-004 0.0  1.8525619E-003  8.2386580E-004 0.0  2.0610672E-003  1.0675788E-003 0.0  1.7255026E-003  7.8622822E-004 0.0  1.8841919E-003  1.0396457E-003 0.0  1.4732507E-003  2.3352034E-004 0.0  1.3752440E-004  4.3026419E-005 0.0  1.0134705E-004  5.4022051E-005 0.0  9.1635650E-005  9.2355553E-005 0.0  6.3448375E-005  1.0523415E-004 0.0  1.3226660E-003  2.4151439E-004 0.0  5.6952438E-004  3.4332650E-005 0.0  9.5840000E-004  1.4182437E-003 0.0  7.0617814E-004  1.1100142E-003 0.0 -2.8758540E-004  4.7276032E-004 0.0  2.8861389E-003  1.2930903E-003 0.0  2.4165692E-003  1.0101623E-003 0.0  3.0968617E-003  1.3291687E-003 0.0  2.6121694E-003  1.0853624E-003 0.0  2.0445645E-003  7.7400399E-004 0.0  2.2223629E-003  9.0542348E-004 0.0  2.8454626E-003  1.1639177E-003 0.0  2.3138406E-003  1.0029509E-003 0.0  2.9927585E-003  1.2574936E-003 0.0  2.4638433E-003  1.1254136E-003 0.0  3.0152977E-003  1.3661595E-003 0.0  3.4642038E-003  1.5331908E-003 0.0  1.8731593E-003  7.5447316E-004 0.0  1.9337914E-003  7.4816848E-004 0.0 -3.2333104E-004  1.3134258E-004 0.0 -1.9104424E-004  7.1288181E-005 0.0 -1.9749630E-004  1.4482621E-004 0.0 -3.1533196E-005  1.0141037E-004 0.0 -3.7219473E-005  1.7947189E-004 0.0 -2.4530903E-004  2.3848577E-005 0.0  1.4689476E-004  1.5303919E-004 0.0  1.5132528E-004  2.4670603E-004 0.0  5.0080322E-005  1.5121285E-004 0.0  2.6723832E-004  6.5840528E-005 0.0  9.5253495E-004 -1.6737681E-004 0.0  8.9512729E-004 -1.8135747E-004 0.0  1.3896250E-003  4.2778242E-004 0.0  1.4977368E-004  1.1656209E-003 0.0 -1.2345152E-004  2.9436848E-004 0.0  3.7967835E-004  3.2887672E-004 0.0  1.3258857E-003 -4.6652307E-005 0.0  7.7926922E-004  6.5141294E-004 0.0 -1.1153671E-004  6.5395591E-005 0.0 -2.4156709E-004 -9.4586048E-007 0.0 -3.2704187E-005  1.0982122E-004 0.0 -8.8962243E-005  8.8635660E-005 0.0  1.3508237E-003  4.3025343E-004 0.0  4.1078497E-004  1.6986312E-004 0.0  2.3562680E-004  1.6205393E-003 0.0  3.5816076E-004  1.2414721E-003 0.0  6.0044470E-004  1.5320255E-003 0.0  5.4724439E-004  1.1117039E-003 0.0  7.4219922E-005  5.0939255E-004 0.0  4.0527518E-004  1.6154441E-004 0.0  6.0197492E-005  2.3618151E-004 0.0  8.6522210E-005  2.8715504E-004 0.0 -5.4492065E-006  1.4159776E-004 0.0  3.4175939E-004  6.9047271E-004 0.0  3.5982881E-004  9.1280804E-004 0.0 -3.0784438E-004 -6.0239715E-005 0.0  4.2069892E-005  2.8275712E-004 0.0 -1.6964022E-004  5.6572048E-005 0.0  1.4263359E-003  3.2456096E-004 0.0  3.2662547E-003  1.3882037E-003 0.0  1.3688134E-003  2.1425979E-004 0.0 -3.3968951E-004  2.5413453E-005 0.0  1.8345153E-003  9.3225420E-004 0.0  4.3726167E-004  6.2393328E-004 0.0  2.1670940E-003  1.1470639E-003 0.0  1.5104742E-003  1.4009321E-003 0.0  1.5123254E-003  1.6301814E-003 0.0  1.9961134E-003  1.8304667E-003 0.0  1.5932068E-003  1.8770260E-003 0.0  2.0431470E-003  2.0520401E-003 0.0  1.2611378E-003  1.8843147E-003 0.0  1.2495486E-003  1.4568170E-003 0.0  6.9357014E-004  8.0404151E-004 0.0  2.3840790E-003  1.8098273E-003 0.0  7.4574032E-004  1.5109756E-003 0.0  3.1237786E-003  1.5649896E-003 0.0  1.6490332E-004  1.1038134E-003 0.0  2.7356517E-004  1.3078151E-003 0.0  4.7511986E-004  8.1343847E-004 0.0  3.7937128E-003  1.7849531E-003 0.0  1.7577188E-003  1.6834430E-003 0.0  3.7305050E-003  2.1201914E-003 0.0  3.1199825E-003  2.2910155E-003 0.0  3.0297457E-003  1.6934255E-003 0.0  1.3223505E-003  1.7675354E-003 0.0  2.0146807E-003  1.7314668E-003 0.0  1.9429367E-003  1.2764875E-003 0.0  2.5399834E-003  1.7162068E-003 0.0  4.7286642E-004  1.5928218E-003 0.0  1.0195767E-003  1.8825703E-003 0.0  3.8706067E-003  1.9351214E-003 0.0  2.4646852E-003  2.0084847E-003 0.0  5.5298707E-004  1.5267059E-003 0.0 -3.1065981E-004 -1.0889393E-004 0.0 -3.1822925E-004 -9.4947313E-005 0.0  5.2474284E-004  2.8366501E-005 0.0  5.4230808E-004  2.7181948E-006 0.0 -2.0986990E-004 -4.5126808E-006 0.0 -2.5646531E-004  5.4385417E-006 0.0  1.0818720E-003  6.2717526E-004 0.0  5.9380433E-005  1.4969257E-005 0.0  4.6673403E-005  5.6062002E-005 0.0  1.4273182E-003 -6.1572653E-005 0.0 -2.0138910E-004  5.3676660E-005 0.0  1.3066670E-003 -1.8434645E-004 0.0 -1.1381294E-004  7.8844631E-005 0.0 -5.7798201E-005  1.1339286E-004 0.0  1.0482009E-004  3.2554446E-004 0.0  1.7712130E-004  3.4597307E-004 0.0  1.7613583E-004  1.2146099E-005 0.0  2.2155574E-004  9.1229469E-006 0.0  1.1345327E-003 -2.3411694E-004 0.0  2.7113937E-004  1.9621479E-005 0.0  2.9209394E-004  6.0445944E-005 0.0  9.9344579E-004 -2.3453677E-004 0.0  3.1626995E-004  8.0027728E-006 0.0  4.1076740E-004 -2.3153207E-007 0.0  3.5998752E-004  3.3802064E-006 0.0  3.8442462E-004  4.7797834E-005 0.0  7.0784594E-004 -1.2487350E-004 0.0  7.7276443E-004 -1.5042702E-004 0.0  4.2696540E-004  1.5271504E-006 0.0  4.6931372E-004 -1.3401618E-005 0.0  6.4345554E-004 -7.8307866E-005 0.0  1.7074969E-003  1.3125650E-003 0.0 -3.2366502E-004 -1.0405507E-004 0.0 -7.5336549E-005  1.8386765E-005 0.0 -6.3585019E-005  1.1246154E-003 0.0 -2.1434395E-004  8.0648365E-004 0.0  1.3568117E-003  2.3373254E-004 0.0  3.6790302E-004  1.9299417E-004 0.0 -2.0163962E-004 -3.2419740E-005 0.0  1.0578257E-005  5.3611449E-005 0.0  7.3749541E-005  7.3611974E-005 0.0  3.4931830E-003  1.6747230E-003 0.0  2.8326041E-003  2.1828971E-003 0.0  1.2237266E-003  1.6918196E-003 0.0 -3.0289232E-004 -1.0885815E-006 0.0  1.6589540E-003  5.8677141E-004 0.0  9.8378218E-004  1.7083050E-003 0.0  1.4710690E-003  9.5382589E-004 0.0  9.9980592E-006  2.0602136E-004 0.0  5.3263042E-004  2.4469360E-004 0.0  3.4604414E-003  1.6162711E-003 0.0  9.4332583E-004  7.2572208E-005 0.0  8.7295352E-004 -1.3451016E-004 0.0  1.0557166E-003 -1.5452225E-004 0.0  9.8377522E-004  1.5525747E-004 0.0  6.6122431E-004 -2.9183552E-005 0.0  8.1007565E-005  5.5005429E-005 0.0  3.2330345E-004  5.0445692E-005 0.0  3.4542797E-004  5.3395124E-004 0.0  7.8308470E-004 -1.0240258E-004 0.0  4.5471376E-004  1.5999881E-004 0.0  1.7231457E-004  5.7969350E-005 0.0  7.2735733E-004  2.1833971E-004 0.0  5.2660012E-004 -3.1860821E-005 0.0  1.3507711E-003  4.2289662E-004 0.0  2.4217950E-003  1.3167718E-003 0.0  7.4376458E-004  2.8018521E-004 0.0  1.1288459E-004  9.7030275E-005 0.0  9.0601658E-004  1.7969914E-004 0.0  4.7084203E-005  1.2640971E-003 0.0  1.2725626E-003 -1.0053261E-004 0.0  2.8453075E-004  1.1464238E-004 0.0  2.6051588E-004  9.0566122E-004 0.0  6.0177196E-004  9.7670234E-005 0.0 -3.0399674E-004  2.0132518E-004 0.0  1.1162842E-004  3.7199961E-004 0.0  1.8517419E-003  7.2236827E-004 0.0  2.2243853E-003  1.3605606E-003 0.0  3.1212625E-004  1.8008827E-004 0.0  3.5636401E-003  1.6715001E-003 0.0  4.2372222E-004  5.0384221E-004 0.0  3.0733070E-005  3.3860085E-005 0.0 -6.2353261E-005  5.0939294E-005 0.0  6.3975918E-004  2.7300748E-004 0.0  5.8493719E-004 -4.7662807E-005 0.0  1.1505465E-003  1.8340323E-004 0.0  1.4080561E-003  3.3694672E-004 0.0  3.9271275E-004  1.0066510E-004 0.0  4.6117748E-004  3.8742344E-005 0.0  9.8313771E-004  3.6244243E-004 0.0  1.0736775E-003  3.9277483E-004 0.0  1.2062487E-003  4.2211215E-004 0.0 -3.1554321E-004 -1.2719973E-004 0.0  1.2059725E-003  4.2055795E-004 0.0  1.6873774E-003  9.5961943E-004 0.0  1.4354418E-003  5.0278346E-005 0.0  1.2962344E-003  7.1032423E-004 0.0  1.2994630E-003  4.3124040E-004 0.0  7.0317868E-004  7.0813778E-004 0.0  6.7854838E-004 -1.0980367E-004 0.0  1.3129060E-004  2.9134020E-004 0.0  1.3234649E-003  1.9530600E-004 0.0  2.5253478E-004  4.6663168E-004 0.0  7.7575033E-004  3.2618773E-004 0.0  4.6497245E-004  8.4243203E-004 0.0 -3.1960394E-004 -7.0392493E-005 0.0  1.0558887E-003  2.5729412E-004 0.0  1.5707502E-003  5.7902977E-004 0.0  9.0344268E-004 -5.2906988E-005 0.0  1.0598207E-003  4.0415424E-004 0.0  3.4495560E-003  1.4774063E-003 0.0  1.1840829E-003  2.9092508E-004 0.0  5.8871023E-004  4.6943004E-004 0.0  1.7327154E-003  6.4047336E-004 0.0  6.3343279E-004  8.6003320E-004 0.0  3.8058732E-005  1.4697294E-004 0.0  8.2257227E-004  7.3617859E-004 0.0  6.8820302E-004 -4.8381794E-005 0.0  3.9547336E-004  4.7578960E-004 0.0  1.3968070E-003  1.2671088E-004 0.0 -3.4216305E-004 -9.7990363E-005 0.0  9.8262463E-004  2.1923311E-004 0.0  2.1054959E-003  1.0030890E-003 0.0  1.2057389E-004  1.2021714E-005 0.0  3.4689699E-004  4.2308351E-005 0.0  5.9528090E-004 -5.8531310E-005 0.0  6.9149805E-004  2.4068365E-004 0.0  6.7471197E-004  6.9275435E-004 0.0  7.4856899E-004  8.8789946E-004 0.0  1.5272895E-003  6.2227449E-004 0.0  2.4372724E-004  4.9062839E-004 0.0  7.0341844E-004  2.9130618E-004 0.0  1.0854393E-003  6.5176284E-004 0.0  1.8097859E-003  6.6285097E-004 0.0  6.9744448E-004  3.0442372E-004 0.0  8.9290216E-004 -2.2039662E-004 0.0  1.3398173E-004  3.5099277E-006 0.0  1.5017752E-003  4.9194197E-004 0.0 -1.2546752E-004  7.3756095E-005 0.0 -2.9628174E-004  2.3063552E-005 0.0  1.6669959E-003  7.8807213E-004 0.0  1.6509696E-003  6.7829694E-004 0.0  1.7701489E-003  6.1751440E-004 0.0  3.4282612E-004  5.2272802E-004 0.0  3.7986571E-003  1.7534595E-003 0.0  3.4303405E-004  2.1108229E-004 0.0  2.7265787E-003  2.2704441E-003 0.0  6.3599635E-004  1.3210997E-004 0.0 -1.7776528E-004  9.7728681E-006 0.0 -1.6458007E-004 -9.4639295E-006 0.0  1.5000702E-003  1.2636241E-004 0.0  1.6435591E-004  7.0777624E-004 0.0 -4.3821822E-005  3.4515740E-005 0.0  1.4018616E-003 -5.5241615E-005 0.0  4.7924157E-004  2.9056772E-005 0.0 -5.8435746E-005  1.1458822E-004 0.0  5.1191149E-004  4.4258469E-004 0.0 -2.9230381E-004 -3.1795793E-005 0.0  1.8552505E-003  7.1341282E-004 0.0  6.7909465E-005  8.6440232E-005 0.0  8.1997670E-004  3.1563846E-004 0.0  7.7672833E-004  7.9242121E-004 0.0 -2.7952556E-005  3.0994163E-005 0.0  2.7508142E-003  1.4140517E-003 0.0  1.9829204E-003  2.1879234E-003 0.0  1.4280892E-003  1.4574886E-003 0.0  6.7667763E-004  2.1883351E-004 0.0  6.0532030E-004  2.0259132E-004 0.0  1.5188918E-003  8.2480041E-004 0.0  1.3882102E-003  1.9297864E-004 0.0  2.0120605E-004  1.3439455E-004 0.0  1.9067087E-004  9.1094480E-005 0.0 -3.1083014E-004 -1.1087294E-004 0.0  2.8918458E-004  1.7816521E-004 0.0  7.0293407E-004  3.5525178E-006 0.0  7.6766365E-004  1.9047475E-003 0.0  7.9412137E-004  1.4619842E-003 0.0 -3.4358173E-004  3.8415555E-004 0.0  4.9510527E-004  1.5823129E-005 0.0  5.0032792E-004 -3.2617540E-005 0.0  1.1832394E-004  6.6147878E-004 0.0  2.0055776E-004  5.0150044E-005 0.0  4.0790594E-004  1.8269159E-004 0.0  1.3132262E-003  2.0116191E-003 0.0  8.8558876E-004  3.1823175E-004 0.0  8.0256544E-004  1.6781366E-003 0.0  5.5907522E-004 -5.7675231E-006 0.0  1.1719131E-004  1.2670521E-003 0.0  2.6210080E-003  1.2308277E-003 0.0 -3.2315718E-004 -8.8452943E-005 0.0  1.2239254E-003  4.2041464E-004 0.0  1.2453603E-003  5.4797711E-004 0.0  2.2454076E-004  4.6328138E-005 0.0 -2.0103428E-004  2.2505943E-004 0.0  1.9149729E-004  9.8783609E-005 0.0  1.2744426E-004  8.2754128E-005 0.0  5.7563067E-004  6.5508026E-004 0.0 -2.1627082E-004  3.6937923E-005 0.0  4.3248409E-004  1.8822563E-004 0.0  1.0567268E-004  2.8548322E-004 0.0  4.3570632E-004  3.2589078E-004 0.0  2.0074237E-003  8.8770733E-004 0.0 -1.7553551E-005  1.0806591E-003 0.0  3.5264856E-003  2.2518187E-003 0.0  2.4077588E-004  4.1235932E-005 0.0  1.3430345E-003  4.2945972E-004 0.0 -3.4781448E-005  1.2601475E-004 0.0  1.1568852E-003 -2.4867187E-004 0.0  4.9590818E-005  1.0253331E-004 0.0 -2.4217907E-004  5.9245800E-004 0.0 -1.0079881E-004  9.1267872E-004 0.0  1.1478059E-003  3.0798857E-004 0.0  8.2125898E-004 -2.0314174E-004 0.0  6.5963681E-004  1.8625948E-004 0.0  9.9595610E-004 -1.7977666E-004 0.0  1.7978387E-004  1.3016051E-003 0.0 -2.2555164E-005  1.5524535E-004 0.0  7.2825503E-004  4.7332775E-005 0.0  3.2959737E-004  1.9165699E-003 0.0  1.5218996E-004  8.7124112E-005 0.0  1.1018923E-003 -1.7066090E-004 0.0 -1.2186950E-004  7.8627622E-004 0.0  1.2846304E-003  4.3323700E-004 0.0  2.6795118E-005  2.1044714E-006 0.0  6.2906837E-004 -3.5605679E-005 0.0  4.0634534E-004  3.2405392E-005 0.0  1.6858443E-003  1.0409958E-003 0.0  9.1007216E-004  6.2176651E-004 0.0  1.7661735E-003  6.2900512E-004 0.0  3.3795814E-004  1.4329531E-003 0.0  6.9836418E-004 -7.2106558E-005 0.0 -1.6620457E-004  3.7341532E-005 0.0 -1.4045161E-004 -6.8367831E-006 0.0  9.4044920E-004  9.9896861E-006 0.0  3.5851412E-003  1.7793484E-003 0.0  1.1159912E-003 -9.6463317E-005 0.0  4.8346404E-004  7.4398191E-005 0.0  1.1437575E-003  4.0870015E-004 0.0  2.0342323E-003  7.9198052E-004 0.0  1.3144992E-003 -1.1275937E-004 0.0  7.5297875E-004 -9.9490859E-005 0.0  3.6153319E-004  3.4137213E-005 0.0  2.9898029E-003  1.4298243E-003 0.0  1.3587644E-003 -7.5185151E-005 0.0  5.3300304E-004  3.9780965E-004 0.0  7.9453080E-005  3.1322111E-004 0.0  2.8924115E-003  1.4422609E-003 0.0  3.0940235E-004  5.4347923E-004 0.0  1.6067493E-003  6.6118741E-004 0.0 -3.4633492E-004  5.5378405E-004 0.0  4.4580939E-004  3.8364590E-004 0.0  1.4725387E-003  1.1967094E-004 0.0  1.4431645E-003  4.0115433E-004 0.0  1.1837605E-003  3.9202676E-004 0.0  3.2191161E-004  1.5630734E-004 0.0  7.2181101E-004  2.3057788E-004 0.0  1.4100557E-003  3.1737321E-004 0.0  2.0054304E-004  1.8772097E-004 0.0 -2.2918494E-004  3.7173095E-004 0.0  3.5515326E-003  1.8907936E-003 0.0  1.3587671E-003  2.7739881E-004 0.0  1.4009599E-003  4.6139717E-004 0.0  8.5831394E-005  6.3520137E-005 0.0  4.6639605E-004  2.8853827E-004 0.0  8.9269609E-004  2.2360425E-004 0.0 -1.0234766E-004  2.8136963E-006 0.0  1.9168224E-003  7.9262732E-004 0.0  3.2115351E-004  2.1663600E-004 0.0  2.3130563E-004  4.1497771E-004 0.0 -1.6706380E-004 -2.0184026E-005 0.0  2.5288337E-007 -2.2115291E-005 0.0  1.8897586E-006 -8.0754475E-006 0.0  1.9152968E-005 -5.1060839E-005 0.0  3.3786865E-006 -2.0662606E-005 0.0 -1.3967493E-006 -1.1421850E-005 0.0  5.2587388E-006 -3.4105631E-005 0.0  1.7704837E-005 -6.0076939E-005 0.0  1.4109336E-005 -7.6513290E-005 0.0 -4.9050521E-006  5.4180725E-005 0.0  1.0593174E-005 -8.0151679E-005 0.0  7.0970397E-006 -8.1958784E-005 0.0  4.1312864E-006 -7.7852067E-005 0.0  2.4769330E-006 -6.9381267E-005 0.0 -4.3058942E-007 -5.8916342E-005 0.0 -9.4741030E-007 -5.0159074E-005 0.0 -2.2549267E-006 -3.6733383E-005 0.0 -3.9195715E-006 -2.6680263E-005 0.0 -3.0418338E-006 -1.6479446E-005 0.0 -3.7501883E-006 -2.3404073E-006 0.0 -4.5615825E-006  4.3955341E-006 0.0 -3.0671113E-006  1.0532612E-005 0.0 -3.4849724E-006  2.3039616E-005 0.0 -4.2270260E-006  2.6067120E-005 0.0 -2.9612237E-006  3.1292526E-005 0.0 -2.8389880E-006  3.9812979E-005 0.0 -3.8065181E-006  4.2805720E-005 0.0 -1.9411313E-006  4.4083241E-005 0.0 -2.1183179E-006  5.1591261E-005 0.0  5.4111912E-007 -1.8097289E-006 0.0 -2.7439323E-006  5.1334945E-005 0.0 -1.8759157E-006  5.5191999E-005 0.0 -2.4994634E-006  5.4482959E-005 0.0 -1.3805319E-006  5.3857581E-005 0.0 -9.9119731E-007  5.6257519E-005 0.0 -1.1440745E-006  5.7811690E-005 0.0 -1.8255274E-006  5.6649939E-005 0.0 -8.7620442E-007  5.4387980E-005 0.0 -7.8119161E-007  5.5955509E-005 0.0 -6.2970664E-007  5.5438039E-005 0.0 -1.0257711E-006  5.6376810E-005 0.0 -1.0461415E-006  5.6436969E-005 0.0 -5.3503635E-007  5.0730410E-005 0.0 -5.2930856E-007  5.3062222E-005 0.0 -5.9677016E-007  5.3467607E-005 0.0 -6.2628991E-007  5.2752272E-005 0.0 -1.6102723E-007  4.8116619E-005 0.0 -1.1675674E-005  5.3468966E-005 0.0  3.7498274E-007 -4.5165700E-005 0.0 -1.5482045E-006 -3.7911081E-005 0.0  1.6088882E-005 -4.5103920E-005 0.0  3.3337090E-006 -4.6169153E-005 0.0  2.9579989E-006 -6.3325446E-005 0.0  2.3816485E-006 -7.4348699E-005 0.0  1.5870697E-006 -8.3912566E-005 0.0  1.4402696E-006 -9.3046154E-005 0.0  1.0750910E-006 -9.7425968E-005 0.0  6.4352242E-007 -1.0091337E-004 0.0  4.3157766E-007 -1.0546775E-004 0.0  1.7931450E-007 -1.0568209E-004 0.0  1.1782728E-008 -1.0511968E-004 0.0 -3.0742670E-007 -1.0612094E-004 0.0 -3.4221509E-007 -1.0366784E-004 0.0 -2.2866838E-007 -1.0116188E-004 0.0 -5.5460895E-007 -1.0067462E-004 0.0 -5.9648288E-007 -9.7301293E-005 0.0 -3.5449693E-007 -9.4053461E-005 0.0 -6.8319664E-007 -9.2764958E-005 0.0 -6.5818659E-007 -8.9189187E-005 0.0 -3.5603479E-007 -8.5864204E-005 0.0 -6.5413066E-007 -8.4367999E-005 0.0 -6.8203199E-007 -8.0971506E-005 0.0 -6.9565201E-007 -7.8596390E-005 0.0 -7.3263376E-007 -7.5032960E-005 0.0 -4.3624889E-007 -7.1550071E-005 0.0 -3.6430251E-007 -6.8942215E-005 0.0 -6.2100131E-007 -6.7123196E-005 0.0 -6.3694671E-007 -6.4118204E-005 0.0 -3.7317762E-007 -6.1109911E-005 0.0 -3.4923654E-007 -5.8720591E-005 0.0 -3.5641140E-007 -5.6849884E-005 0.0 -4.3532675E-007 -5.4770697E-005 0.0 -4.4307313E-007 -5.2192931E-005 0.0 -2.0218316E-007 -4.9951137E-005 0.0 -2.0850907E-007 -4.8706805E-005 0.0 -3.5321618E-007 -4.7142271E-005 0.0 -1.7992628E-007 -4.5449115E-005 0.0 -2.9964847E-007 -4.3312931E-005 0.0 -1.0839194E-005  4.3064534E-005 0.0 -5.3009860E-006 -2.0670233E-005 0.0 -1.1184270E-005  4.4174291E-005 0.0 -1.2081128E-006 -3.6054355E-006 0.0 -6.7023744E-006  1.4042652E-005 0.0 -9.6700259E-006  5.2430080E-005 0.0  2.9333627E-006 -2.8590818E-005 0.0  7.6386048E-006 -4.1231493E-005 0.0  6.6540031E-006 -5.4176080E-005 0.0  5.8403976E-006 -2.7089323E-005 0.0  1.2074799E-005 -5.1059212E-005 0.0  9.7434993E-006 -3.7845905E-005 0.0  1.5947795E-005 -5.6022717E-005 0.0  1.3493760E-005 -4.5188120E-005 0.0  8.7627756E-006 -2.9110483E-005 0.0  1.1403274E-005 -3.6633888E-005 0.0  6.7770764E-006 -2.3272560E-005 0.0  4.9131280E-006 -1.8072616E-005 0.0  3.4063816E-006 -1.3544179E-005 0.0  7.7825453E-006 -2.9679663E-005 0.0  1.3571277E-005 -4.1091151E-005 0.0  2.6073823E-006 -1.0081815E-005 0.0  1.2349648E-006 -7.0902190E-006 0.0  7.8712960E-006 -3.3709662E-005 0.0  3.5473287E-006 -1.8681271E-005 0.0  1.3656028E-005 -4.2652418E-005 0.0  1.6864981E-005 -4.7893788E-005 0.0  1.1740188E-005 -4.1600303E-005 0.0  5.8123787E-006 -2.2588345E-005 0.0  1.2606519E-005 -6.7909022E-005 0.0  1.4940599E-005 -7.4148042E-005 0.0  3.1267418E-006 -1.5217251E-005 0.0  1.8739346E-005 -5.7211443E-005 0.0  1.1475517E-006 -4.0555865E-006 0.0 -5.8902589E-006  1.7839047E-006 0.0  2.1380665E-006 -9.1923285E-005 0.0  2.2137953E-006 -1.1552100E-004 0.0  2.3698399E-006 -1.1983873E-004 0.0 -1.0216511E-007 -1.0952966E-004 0.0 -2.3185688E-006 -3.4793598E-005 0.0 -7.4018754E-006 -2.3402690E-006 0.0 -3.8297218E-006 -1.5484683E-005 0.0 -6.6328500E-007 -4.2476900E-005 0.0 -2.1359212E-006 -2.6138084E-005 0.0 -4.7579806E-007 -3.0198647E-005 0.0  7.6333413E-007 -1.0490700E-004 0.0 -8.1592563E-007 -1.1795791E-004 0.0  4.8745807E-007 -1.1845482E-004 0.0 -7.8495760E-007 -9.6013385E-005 0.0 -1.0936472E-006 -7.5990083E-005 0.0 -2.9349977E-006 -5.9740122E-005 0.0 -7.6863016E-007 -5.9779342E-005 0.0 -1.3216842E-006 -1.2468507E-005 0.0 -7.4310705E-007 -9.9411213E-005 0.0 -3.1359578E-006 -9.3713422E-005 0.0 -8.4339995E-007 -9.2869346E-005 0.0 -2.1689574E-006 -5.0446873E-005 0.0 -3.7628887E-006 -2.2871179E-005 0.0 -1.0118218E-005  1.4438765E-005 0.0 -8.3286390E-007 -5.2597129E-005 0.0 -1.3924926E-006 -3.7069925E-005 0.0 -4.2477509E-007 -3.9687500E-005 0.0 -1.2534871E-006 -1.5403797E-007 0.0 -6.5291635E-007 -5.4716288E-005 0.0 -1.5967367E-006 -4.1216886E-005 0.0 -9.9432898E-007 -6.4461287E-005 0.0 -2.6386361E-006 -4.7742035E-005 0.0 -5.9544718E-007 -4.7716670E-005 0.0 -1.0922022E-006 -3.3257859E-006 0.0 -7.5430467E-007 -5.7056158E-005 0.0 -1.6459111E-006 -4.3950919E-005 0.0 -2.9228286E-007 -1.0553895E-004 0.0 -2.5870071E-006 -1.0780619E-004 0.0 -5.5810552E-007 -1.0682558E-004 0.0 -2.0901162E-006 -7.2100693E-005 0.0 -9.5003239E-007 -9.0870158E-005 0.0 -3.2536610E-006 -7.9775233E-005 0.0 -8.5981305E-007 -7.8697630E-005 0.0 -2.1205044E-006 -3.2411545E-005 0.0  6.6661499E-008 -6.0480921E-005 0.0 -7.9499811E-007 -6.7402291E-005 0.0 -1.6509694E-006 -5.4850781E-005 0.0 -1.0015074E-006 -8.1902235E-005 0.0 -3.0551746E-006 -6.7272913E-005 0.0 -7.0039468E-007 -6.6915934E-005 0.0 -1.4759555E-006 -1.9055035E-005 0.0 -8.7871461E-007 -8.5058019E-005 0.0 -2.0139260E-006 -7.5467291E-005 0.0 -1.9815851E-007 -8.6810948E-005 0.0 -6.5840485E-007 -4.4892404E-005 0.0 -1.1382846E-006 -3.0228925E-005 0.0 -8.8590016E-008 -3.2421936E-005 0.0 -6.3578180E-007  3.6544011E-006 0.0 -4.9732536E-007 -4.6402569E-005 0.0 -1.2566052E-006 -3.3430788E-005 0.0 -1.6283739E-008 -7.7783948E-005 0.0 -8.1514044E-007 -9.3964340E-005 0.0 -2.1126702E-006 -8.8113048E-005 0.0 -5.6937196E-007 -1.0180558E-004 0.0 -1.8222159E-006 -1.0166976E-004 0.0 -3.1549699E-007 -4.2968603E-005 0.0 -6.7996341E-007 -4.8196215E-005 0.0 -1.4267828E-006 -3.5657985E-005 0.0 -8.7929159E-007 -5.9602452E-005 0.0 -1.8791127E-006 -4.6329512E-005 0.0 -9.8866339E-007 -7.0293069E-005 0.0 -2.1634873E-006 -5.7390051E-005 0.0 -3.0454498E-007 -9.6208231E-005 0.0 -2.6019568E-007 -1.0397594E-004 0.0  3.0727431E-006 -8.3445633E-005 0.0  4.1373774E-006 -1.1082231E-004 0.0 -2.2550214E-007 -4.2233672E-005 0.0 -6.6035910E-007 -3.0154330E-005 0.0 -5.3027241E-007 -4.9421676E-005 0.0 -8.8493866E-008 -7.1718262E-005 0.0 -1.1128309E-006 -3.8324772E-005 0.0  3.1206097E-007 -1.0735087E-004 0.0  1.4349083E-006 -1.0006158E-004 0.0 -1.5580571E-007 -4.2405772E-005 0.0  1.2982299E-006 -1.0195800E-004 0.0  9.0723950E-007 -1.2039878E-004 0.0  4.1138623E-006 -5.9124130E-005 0.0  7.1025331E-006 -8.8536545E-005 0.0  5.6595747E-006 -9.8749078E-005 0.0  8.0405617E-006 -1.0372062E-004 0.0  3.7355207E-006 -7.5588978E-005 0.0  5.4448799E-008 -1.0632490E-004 0.0 -1.0665903E-006 -1.1434713E-004 0.0 -1.9146644E-006  4.3212263E-005 0.0 -1.8430423E-006  3.4104056E-005 0.0 -9.6195794E-007 -2.1776498E-005 0.0 -6.0529156E-007  3.4727933E-005 0.0  8.5458341E-009 -9.1053047E-006 0.0 -5.5083774E-006 -4.6616629E-005 0.0 -8.8324419E-007 -1.0090369E-004 0.0 -1.9524301E-006  4.4288874E-005 0.0 -7.2220853E-007 -1.6054462E-005 0.0 -2.7555607E-006  3.0412897E-005 0.0 -1.2791767E-006 -3.1428647E-005 0.0 -3.0065240E-006  4.1855504E-005 0.0 -3.8740993E-007 -2.1301504E-005 0.0 -4.9398182E-006 -5.7942125E-005 0.0  9.2219746E-007 -1.0832816E-004 0.0 -2.4812676E-006  4.2522275E-005 0.0 -9.1861828E-007 -2.4591593E-005 0.0 -7.1502988E-007  3.5273035E-005 0.0 -6.0511882E-007 -1.3061599E-005 0.0  1.0903745E-005 -8.5471816E-005 0.0  9.7280054E-006 -8.5958417E-005 0.0  8.4876710E-006 -9.0603952E-005 0.0 -5.4160690E-006  1.8956176E-005 0.0 -8.6769865E-007 -5.3778030E-005 0.0 -4.4587156E-006  3.0955952E-005 0.0 -6.1990653E-007 -3.9756945E-005 0.0 -3.7947008E-006  1.7933636E-005 0.0 -1.4635339E-006 -4.9416670E-005 0.0  3.0953720E-006 -9.4891075E-005 0.0  5.0072178E-006 -1.1235511E-004 0.0 -1.6830091E-006  4.7798712E-005 0.0 -9.0973687E-007 -7.0525369E-006 0.0 -5.3751205E-006 -1.8754252E-005 0.0 -1.5738059E-006 -8.1912282E-005 0.0 -4.8588373E-006  1.0955348E-006 0.0 -1.7393367E-006 -6.4599084E-005 0.0 -1.3970774E-006  4.2596372E-005 0.0 -3.0688400E-007 -8.9443859E-006 0.0 -3.5651986E-006  2.6919999E-005 0.0 -8.2752080E-007 -3.6803647E-005 0.0 -6.2069873E-006 -1.2982346E-006 0.0 -9.5766504E-007 -7.0654871E-005 0.0 -6.6609578E-006 -2.6498285E-005 0.0 -6.5422135E-007 -9.0076900E-005 0.0 -3.0807483E-006 -7.6467259E-005 0.0  1.1316927E-006 -1.1501388E-004 0.0 -1.1546504E-006  4.2168275E-005 0.0 -4.9024076E-007 -2.9801717E-006 0.0 -1.6628068E-006  4.4444723E-005 0.0 -5.2374852E-007 -1.4347785E-005 0.0 -1.0571232E-006  4.6249568E-005 0.0 -5.0212949E-007 -2.4802037E-006 0.0  1.4098095E-006 -8.5930299E-005 0.0  3.0888353E-006 -1.1553676E-004 0.0 -6.3347816E-007 -7.1264053E-006 0.0  3.9716339E-006 -2.8810666E-005 0.0 -7.9332267E-007 -1.7114198E-005 0.0 -1.4917828E-007 -1.0703437E-004 0.0 -2.4550159E-007 -2.5181829E-005 0.0 -8.4816852E-007 -8.8247788E-005 0.0 -5.2445784E-007 -3.5719563E-005 0.0 -7.5167981E-007 -5.4527434E-005 0.0 -4.3878370E-007 -8.4922226E-006 0.0 -4.5109209E-007 -4.2420335E-005 0.0 -1.0166621E-006 -7.0691866E-005 0.0 -4.4325187E-008 -4.9459429E-006 0.0  1.7388777E-006 -1.1873399E-004 0.0  5.9336428E-006 -1.1065316E-004 0.0 -2.8517949E-006 -1.8736476E-005 0.0 -6.2616132E-006  4.8305423E-005 0.0 -1.2236626E-005  4.6587006E-005 0.0 -4.8823884E-006 -2.5663182E-006 0.0 -5.9013192E-006  6.4661521E-005 0.0  1.5211093E-005 -6.5859994E-005 0.0  1.7062646E-005 -4.8571669E-005 0.0  1.7819779E-005 -5.5596164E-005 0.0 -1.1068189E-005  5.0417691E-005 0.0 -3.3097317E-007 -1.7891037E-006 0.0  1.8050829E-005 -4.8167790E-005 0.0  5.4416817E-006 -4.2016278E-005 0.0 -1.2769166E-005  6.3072078E-005 0.0  3.8963576E-006 -1.4379761E-005 0.0 -4.7551481E-006  7.1783661E-005 0.0 -1.2352545E-005  6.2559403E-005 0.0 -7.3959026E-006  4.3772944E-005 0.0  1.0592714E-006 -1.1854949E-005 0.0  1.0799752E-005 -7.4130257E-005 0.0  4.5508200E-006 -2.5346798E-005 0.0  7.9239988E-006 -3.8582320E-005 0.0  5.4905433E-007 -4.9056458E-006 0.0 -4.0253609E-006  7.8809321E-005 0.0  7.2764619E-006 -6.9624250E-005 0.0 -8.4310326E-006  1.0695061E-005 0.0 -1.1023880E-005  6.8423285E-005 0.0 -3.5571055E-006  4.4089247E-006 0.0 -7.3767196E-007 -2.6254922E-005 0.0 -1.2609312E-006 -3.1906473E-005 0.0 -7.0218373E-006  1.6283525E-005 0.0 -1.0759232E-006  4.9827995E-005 0.0 -1.4221503E-006 -4.4818563E-005 0.0 -1.6746277E-006 -5.6014606E-005 0.0 -1.5127771E-006  5.1884021E-005 0.0 -1.5099411E-006 -6.2434629E-005 0.0 -1.6986219E-006 -7.3826519E-005 0.0 -1.6949662E-006 -8.7103428E-005 0.0 -2.8168552E-006  6.0373240E-005 0.0 -8.4241773E-007 -2.4896608E-005 0.0 -1.3105237E-006 -1.0077699E-004 0.0 -2.8627499E-007 -2.5814033E-005 0.0 -2.9198964E-007 -1.1302195E-004 0.0 -5.2939781E-007  1.3709927E-005 0.0  1.7469183E-006 -1.1673026E-004 0.0  5.1580106E-006 -1.0205942E-004 0.0 -3.5763462E-006  5.8681340E-005 0.0 -9.4072342E-007 -2.6450192E-005 0.0 -6.6092205E-007 -2.8600155E-005 0.0 -4.1423097E-006  5.5455916E-005 0.0 -7.0985750E-007  1.4796700E-005 0.0 -8.8321279E-007 -3.1027860E-005 0.0 -8.1493477E-007  1.1006782E-005 0.0 -5.0171268E-006  4.3848597E-005 0.0 -1.3672900E-006 -3.3139063E-005 0.0 -8.7470100E-007 -3.5744497E-005 0.0 -6.3830575E-006  2.8825978E-005 0.0 -1.0287535E-006 -3.8002221E-005 0.0 -1.0527936E-006  1.2473973E-005 0.0 -6.8508938E-006  3.1803575E-006 0.0 -1.1965073E-006 -4.1505947E-005 0.0 -9.6013820E-007  9.0739937E-006 0.0 -1.2251889E-006  7.3130588E-006 0.0 -6.1626904E-006 -2.9744819E-005 0.0 -1.2620484E-006 -4.4332798E-005 0.0 -3.6985346E-006 -2.3150049E-005 0.0 -1.1600636E-006 -4.7896122E-005 0.0  4.6028399E-006 -5.4962896E-005 0.0 -1.4423429E-006 -5.1905153E-005 0.0 -1.3175617E-006  4.0749695E-006 0.0 -1.6185364E-006  1.4177041E-006 0.0 -1.5482678E-006 -5.6755666E-005 0.0 -1.5377201E-006 -6.2885620E-005 0.0 -1.4465950E-006 -6.8775588E-005 0.0 -2.1573320E-006 -1.2601002E-005 0.0 -1.6961006E-006 -7.4810067E-005 0.0 -1.5682473E-006 -8.1135115E-005 0.0 -1.6199391E-006 -8.8246425E-005 0.0 -2.7360759E-006 -2.5931959E-005 0.0 -1.3202014E-006 -9.4638354E-005 0.0 -1.1583742E-006 -1.0157969E-004 0.0 -5.8765237E-007 -1.0673512E-004 0.0 -2.9476533E-006 -4.3624196E-005 0.0  4.0758475E-007 -1.1041186E-004 0.0  1.2316450E-006 -1.1165947E-004 0.0 -2.7776369E-006 -6.4816203E-005 0.0  2.7884415E-006 -1.0683446E-004 0.0  4.3642656E-006 -1.0065854E-004 0.0  7.7431926E-006 -7.7761769E-005 0.0 -9.0806732E-007 -8.7054010E-005 0.0  3.3958185E-006 -9.9170090E-005 0.0  1.7755916E-006 -6.4672849E-006 0.0  4.7706940E-006 -1.9400525E-005 0.0 -2.2873882E-006  1.2514811E-005 0.0 -6.8882512E-007  1.4100687E-005 0.0 -8.6925798E-007 -2.9897137E-006 0.0  1.0276673E-005 -4.0514748E-005 0.0 -1.1049593E-006  1.1641784E-005 0.0  1.2885832E-005 -4.2267527E-005 0.0 -1.7526695E-006  1.6053090E-005 0.0 -2.3260190E-006  8.7268631E-006 0.0 -2.5448391E-006  4.2868830E-006 0.0 -3.1709629E-006 -7.6446889E-006 0.0 -3.6649869E-006 -2.4040533E-005 0.0 -3.7470589E-006 -4.5066233E-005 0.0 -2.4388883E-006 -6.9996243E-005 0.0  1.7817675E-006 -9.9710714E-005 0.0  8.8373479E-006 -9.0501804E-005 0.0  6.8020563E-006 -9.6783313E-005 0.0  1.9702999E-006 -1.9132811E-005 0.0 -2.9691200E-006  8.4370146E-005 0.0  9.2568995E-007 -9.6340715E-005 0.0  1.7139434E-005 -5.9751339E-005 0.0  1.7825680E-005 -5.0448923E-005 0.0  9.1790332E-006 -3.8201326E-005 0.0 -8.5886260E-007 -8.1411723E-005 0.0 -2.7779695E-006  8.9833136E-005 0.0 -1.2828898E-005  6.5119120E-005 0.0 -1.5820424E-006 -5.8976831E-005 0.0 -9.0261983E-006  2.2909171E-005 0.0  9.3383773E-007 -1.5442271E-005 0.0 -1.4658668E-006 -4.0211282E-005 0.0 -1.2261595E-006 -2.3665333E-005 0.0 -6.1615570E-007 -1.2429221E-005 0.0 -5.5417736E-007 -6.7782784E-006 0.0 -7.3458404E-006  3.6636858E-005 0.0  2.4622191E-006 -9.5780559E-006 0.0 -2.2445361E-007  1.1101706E-006 0.0  2.2292354E-003 -3.2817399E-005 0.0  4.1966190E-003  2.1889725E-003 0.0  3.7966171E-003  1.2905508E-003 0.0  4.6138238E-003  2.9834333E-003 0.0  3.5482329E-003  1.7541637E-003 0.0  3.5230212E-003  3.9629695E-003 0.0  4.0004224E-003  3.6678963E-003 0.0  4.2399497E-003  2.3740112E-003 0.0  4.5995252E-003  2.6465457E-003 0.0  2.9105402E-003  8.0190654E-004 0.0  2.6299535E-003  3.5108988E-004 0.0  2.6789000E-003  2.8325382E-003 0.0  7.3503777E-004  4.2733911E-003 0.0  2.1065196E-003  4.3092397E-003 0.0  1.4122975E-003  4.3223536E-003 0.0  4.2065749E-003  1.9937258E-003 0.0  4.4780150E-003  2.2886407E-003 0.0  4.3288299E-003  3.3745267E-003 0.0  2.9359992E-003 -1.0365753E-004 0.0  3.9568260E-003  2.4833292E-003 0.0  3.5068532E-003  2.6373173E-003 0.0  1.0626432E-003  2.9186485E-003 0.0  1.7563224E-003  2.9152711E-003 0.0  3.3063072E-003  4.1882096E-004 0.0  4.4496160E-003  2.3683360E-003 0.0  4.4242938E-003  2.2592871E-003 0.0  3.2064883E-003  1.2699437E-003 0.0  2.8913344E-003  4.1723437E-003 0.0  2.4276930E-003 -5.1851359E-004 0.0  2.6387188E-004  3.2279632E-003 0.0  2.0494043E-003 -3.3924009E-004 0.0  2.5029603E-003  1.6829283E-004 0.0  2.5042996E-003 -5.5512946E-005 0.0  2.2699918E-003 -2.1729529E-004 0.0  2.5523668E-003 -2.6617656E-004 0.0  2.7364770E-003  1.7028952E-004 0.0  2.8856365E-003  4.2688730E-004 0.0  2.9613590E-003  1.8697730E-004 0.0  3.8181826E-003  2.0170068E-003 0.0  3.8427693E-003  1.8331980E-003 0.0  3.6672789E-003  1.6110599E-003 0.0  4.0163148E-003  2.0680329E-003 0.0  3.9502597E-003  1.7354297E-003 0.0  3.7738153E-003  1.5001442E-003 0.0  4.4137967E-003  2.3125161E-003 0.0  4.4999961E-003  2.5363650E-003 0.0  4.5129929E-003  2.4823053E-003 0.0  4.4321103E-003  2.5970051E-003 0.0  4.5728175E-003  2.7362884E-003 0.0  4.5683534E-003  2.6279566E-003 0.0  3.5923164E-003  9.5004091E-004 0.0  3.4649440E-003  1.1126367E-003 0.0  3.3162560E-003  8.4625682E-004 0.0  3.1974013E-003  1.0070018E-003 0.0  4.4805647E-003  3.2256008E-003 0.0  4.2922372E-003  2.9524342E-003 0.0  4.1492472E-003  3.0910412E-003 0.0  4.1592670E-003  2.6161706E-003 0.0  4.4186324E-003  2.8648601E-003 0.0  2.5592424E-003  4.2856392E-003 0.0  2.3037435E-003  3.6865279E-003 0.0  1.8765417E-003  3.7944947E-003 0.0  2.1176794E-003  3.1391292E-003 0.0  2.4605340E-003  3.2111968E-003 0.0  3.7326045E-003  2.5428981E-003 0.0  3.7030009E-003  3.0271938E-003 0.0  3.4613258E-003  3.0745144E-003 0.0  3.6819986E-003  3.5714261E-003 0.0  3.9196520E-003  2.9085681E-003 0.0  4.2900716E-003  2.1813767E-003 0.0  4.2700643E-003  2.2356463E-003 0.0  4.3814227E-003  2.3595897E-003 0.0  4.3170881E-003  2.3223563E-003 0.0  1.1081680E-003  4.2966086E-003 0.0  1.2685731E-003  3.7404161E-003 0.0  9.2189908E-004  3.7396354E-003 0.0  5.8409317E-004  3.8132773E-003 0.0  7.6743506E-004  3.2035216E-003 0.0  4.4160937E-004  4.2175034E-003 0.0  4.1898487E-003  3.5176797E-003 0.0  1.3903095E-003  2.8983884E-003 0.0  1.5537533E-003  3.4708350E-003 0.0  3.0195040E-003  2.7501298E-003 0.0  2.9433847E-003  3.3120641E-003 0.0  3.2227265E-003  3.1738889E-003 0.0  3.1695958E-003  3.8201938E-003 0.0  1.7971550E-003  4.3208747E-003 0.0  3.4308052E-003  6.5510262E-004 0.0  3.1598183E-003  6.1935792E-004 0.0  4.4849011E-003  2.4221363E-003 0.0  4.5186845E-003  2.5206890E-003 0.0  4.4519210E-003  2.4415820E-003 0.0  4.3566588E-003  2.3030113E-003 0.0  2.7919670E-003  6.0978084E-004 0.0  4.0101615E-003  2.1503471E-003 0.0  4.5674418E-003  3.1129255E-003 0.0  3.4179577E-003  1.5019959E-003 0.0  4.4225566E-003  2.2735618E-003 0.0  3.5204875E-003  1.3666115E-003 0.0  3.2545277E-003  2.6543644E-003 0.0  2.7103980E-003  3.7315231E-003 0.0  2.0145390E-003 -1.7614768E-004 0.0  2.1413419E-003 -5.5470514E-004 0.0  3.4533879E-004  3.9319937E-003 0.0  4.9699695E-004  2.9050225E-003 0.0  4.0011919E-003  1.5944898E-003 0.0  2.7854084E-003 -3.7033035E-004 0.0  4.0242690E-003  1.9806187E-003 0.0  2.2727176E-003  2.6944774E-003 0.0  4.2620123E-003  2.2274261E-003 0.0  4.2604631E-003  2.2197004E-003 0.0  3.8142700E-003  3.9700748E-003 0.0  4.5066578E-003  2.7480555E-003 0.0  4.6861607E-003  2.9369972E-003 0.0  3.8983431E-003  3.2816446E-003 0.0  4.3155647E-003  2.5681026E-003 0.0  4.1551022E-003  1.7795101E-003 0.0  2.7371981E-003 -2.6761322E-005 0.0  3.4310175E-003  3.5172717E-003 0.0  3.1850745E-003  1.1857856E-004 0.0  4.0580652E-003  2.2983149E-003 0.0  4.6451040E-003  2.8020103E-003 0.0  2.9756464E-003  1.0384096E-003 0.0  2.0398333E-003  2.6610824E-003 0.0  1.6091230E-003  3.9216157E-003 0.0  1.2389947E-003  3.2555089E-003 0.0  3.2852219E-003  4.2675304E-003 0.0  3.1266907E-003  7.3598190E-004 0.0  8.3600840E-004  2.7420464E-003 0.0  5.6879736E-004  3.3646297E-003 0.0  3.5299516E-004  4.3488398E-003 0.0  1.8429765E-003 -2.2664179E-004 0.0  2.1748293E-003 -7.9913170E-004 0.0  3.6027884E-004  2.7894732E-003 0.0  2.2927098E-003 -3.7756409E-004 0.0  2.7216874E-003  3.3735220E-003 0.0  4.1584307E-003  2.1277105E-003 0.0  4.4654290E-003  2.3699864E-003 0.0  4.5112264E-003  2.8637613E-003 0.0  4.0264876E-003  2.8337204E-003 0.0  4.1640848E-003  2.0885732E-003 0.0  1.8462658E-003  3.3249724E-003 0.0  3.0323080E-003  4.8487904E-004 0.0  4.5136454E-003  2.5194297E-003 0.0  4.0429729E-003  3.2237415E-003 0.0  3.5372634E-003  1.2930387E-003 0.0  3.3792732E-003  1.1970156E-003 0.0  4.2866438E-003  2.6795509E-003 0.0  2.9097765E-003  3.7098625E-003 0.0  2.9773729E-003  6.2323336E-004 0.0  1.0776508E-003  3.3775399E-003 0.0  1.1685409E-004 -2.4086044E-003 0.0  1.6997445E-004 -7.3065569E-004 0.0  5.0621949E-004  7.8317468E-003 0.0  4.9234181E-004  6.6583372E-003 0.0  2.5429009E-004  1.1727903E-003 0.0  2.0816961E-004  3.4202509E-004 0.0  3.2512983E-004  1.9247797E-003 0.0  5.3322815E-004  5.7904867E-003 0.0  5.5996519E-004  5.0736943E-003 0.0  4.0878268E-004  2.5951501E-003 0.0  6.2674853E-004  4.1269499E-003 0.0  5.4458533E-004  3.2201192E-003 0.0  1.1495974E-003  3.5397228E-003 0.0  1.1998389E-003  4.4401533E-003 0.0  6.4427399E-004  5.3856566E-003 0.0  6.5879969E-004  6.1551644E-003 0.0  3.1949604E-004 -1.3390913E-004 0.0  5.5818463E-004  2.8994544E-003 0.0  9.1522737E-004  8.8392130E-003 0.0  3.4281138E-004  2.2646682E-003 0.0  6.1281826E-004  7.1140574E-003 0.0  1.5887476E-004  7.9336892E-004 0.0  1.4576953E-004 -1.4285358E-003 0.0  3.2953982E-004  1.5756724E-003 0.0  7.4910394E-004  4.7176814E-003 0.0  7.5366655E-004  3.8075634E-003 0.0  6.4351020E-005  9.4982657E-003 0.0  5.3819515E-004 -3.3327841E-003 0.0 -8.6087280E-004 -3.0805604E-003 0.0  1.6239641E-003  9.1563751E-003 0.0 -3.2352968E-006  1.4151792E-004 0.0 -4.4396712E-006  1.0492153E-004 0.0  3.3839271E-006  1.6414079E-004 0.0  3.3077317E-006  1.8778062E-004 0.0  1.4435678E-006  2.1108389E-004 0.0 -1.8999750E-006  2.2447329E-004 0.0 -4.9566624E-006  2.2910722E-004 0.0 -8.2568542E-005  9.6941515E-004 0.0 -9.4613738E-006  2.1679323E-004 0.0  5.9192274E-006  7.7354313E-005 0.0 -3.1366455E-004 -3.6951182E-005 0.0 -1.3104577E-005  1.1932544E-004 0.0  1.5099704E-005 -1.9052821E-004 0.0 -3.9540782E-004  4.8953818E-004 0.0 -1.7163882E-005  1.6764361E-004 0.0  2.5816868E-005 -1.0889280E-004 0.0  1.5769715E-003 -9.5247645E-004 0.0 -8.7399382E-007  9.6856603E-005 0.0  7.1605563E-004 -3.2448078E-003 0.0  3.6262075E-006  1.5218020E-004 0.0  3.8109348E-006  1.7690293E-004 0.0  5.6458594E-004  1.2440857E-003 0.0  2.7974916E-004  9.5254625E-004 0.0 -2.7951626E-004 -6.0458799E-005 0.0 -2.8513392E-004  1.6835592E-006 0.0 -1.9005797E-005  1.1188014E-004 0.0 -1.0372112E-005  2.3550114E-005 0.0  2.0923562E-005 -7.0777636E-005 0.0 -3.1144756E-005 -2.8165315E-004 0.0  5.6141234E-006 -2.6861765E-005 0.0 -3.9042165E-004  1.4376241E-004 0.0  1.6889854E-003  1.3946939E-004 0.0  3.9486329E-006  3.5247436E-005 0.0  4.9831346E-006 -4.9608913E-005 0.0  2.8079455E-006  2.0063819E-004 0.0 -7.7798754E-006  2.2240892E-004 0.0 -3.2794702E-006  2.2913725E-004 0.0 -6.7399099E-008  2.1960500E-004 0.0  1.3705127E-005 -5.1301765E-005 0.0  2.3056278E-006 -8.9803690E-006 0.0 -2.1297514E-006 -5.3690858E-005 0.0  4.5939296E-006  4.2310753E-007 0.0  2.3487830E-003  7.7100684E-004 0.0 -4.1202882E-003  3.9229963E-003 0.0 -4.1031487E-003  2.7037416E-003 0.0 -4.1392782E-003  1.1799882E-003 0.0 -3.4249590E-003 -1.1932024E-003 0.0 -3.8668277E-003  5.3768772E-003 0.0 -3.2125402E-003  6.6011748E-003 0.0 -2.2877692E-004 -3.8746567E-004 0.0  4.4246748E-008 -1.0504499E-005 0.0 -2.4437097E-004 -2.8569095E-005 0.0 -2.4538111E-004  3.1237777E-005 0.0  6.4650451E-004  9.7585042E-004 0.0  4.3708715E-004  7.9901612E-004 0.0  1.0956924E-005 -4.3443447E-005 0.0 -1.0355629E-004 -3.4755101E-004 0.0 -1.8969037E-004 -4.6716812E-005 0.0  2.1855623E-006  1.4808594E-005 0.0 -2.1135011E-004  1.7523601E-006 0.0 -2.1502999E-004  7.1329274E-005 0.0 -2.9959249E-004 -1.4445798E-004 0.0  1.4102200E-003  1.8457828E-003 0.0  1.2693905E-006 -4.0361202E-006 0.0  1.4274101E-003 -4.2771190E-004 0.0  1.4141640E-003 -1.3147209E-004 0.0  1.1587578E-003 -4.2665935E-004 0.0  1.0339806E-003 -1.1999374E-004 0.0  6.9126808E-004 -4.2122082E-004 0.0  6.4638424E-004 -8.9598725E-005 0.0  3.3530674E-004 -3.1134749E-004 0.0  3.7700791E-004 -8.6108024E-005 0.0 -3.3575956E-004  7.0978694E-004 0.0 -1.8717679E-005  6.1885426E-005 0.0  1.9803401E-006  1.5626174E-004 0.0 -1.2838259E-005  1.9823484E-004 0.0 -1.0048855E-005  1.1153913E-004 0.0 -1.0565084E-005  1.2644433E-004 0.0  1.1190661E-005 -3.2380297E-005 0.0  1.9164750E-004 -1.9220766E-004 0.0  2.2706112E-004 -7.9637465E-005 0.0 -1.7532233E-004  3.9725037E-005 0.0 -1.7438050E-004  9.9180870E-005 0.0  3.9879074E-006  1.2591889E-006 0.0  1.1726268E-004 -1.4088162E-004 0.0  1.3533482E-004 -6.4209507E-005 0.0  1.9297954E-004 -1.8846242E-005 0.0  1.1768816E-004 -3.3165982E-005 0.0  1.4144833E-004  1.2939313E-005 0.0  9.6022164E-005 -1.4227739E-005 0.0  1.0525263E-004  1.9683663E-005 0.0  7.4756076E-005 -1.7898345E-006 0.0  7.7664636E-005  2.2950888E-005 0.0  5.8744215E-005  1.7920311E-006 0.0  1.0742361E-004  4.1913276E-005 0.0  5.8323664E-005  2.1011461E-005 0.0  4.5163506E-005  4.6309351E-006 0.0  4.4712668E-005  1.7500095E-005 0.0  3.5227829E-005  4.4782399E-006 0.0  3.3379834E-005  1.4763735E-005 0.0  2.7032709E-005  4.7239317E-006 0.0  2.5875354E-005  1.1734959E-005 0.0  2.1183951E-005  3.7857514E-006 0.0  1.9571024E-005  9.3840749E-006 0.0  1.6305371E-005  3.3640125E-006 0.0  1.5361098E-005  7.2593778E-006 0.0  1.2896821E-005  2.5136900E-006 0.0  3.4743554E-006 -3.7845151E-007 0.0 -1.8000171E-004 -1.4820795E-005 0.0 -1.4446980E-004  2.6384949E-005 0.0 -1.4016791E-004 -2.3993516E-005 0.0 -5.5173977E-004 -3.3635232E-005 0.0  1.3807915E-003  5.7405448E-003 0.0  2.2475560E-003  2.0411467E-003 0.0  4.1829207E-005  2.4987186E-005 0.0  1.1677765E-005  5.4959370E-006 0.0  6.8633290E-005 -2.2580741E-005 0.0 -3.6373570E-004 -3.4428686E-004 0.0  2.8263499E-005 -1.3279469E-006 0.0 -6.4462739E-005 -2.2320288E-005 0.0  1.0416820E-005 -3.9575244E-005 0.0  1.3953313E-005  9.2040874E-006 0.0  7.9799468E-005 -9.4768869E-005 0.0  6.6527538E-005 -1.4452221E-004 0.0  1.0178343E-005  2.2657579E-006 0.0 -6.8467200E-004  2.8524028E-004 0.0  1.0799769E-005  2.3052438E-007 0.0 -1.1579195E-004  1.4761893E-005 0.0 -1.0418369E-004 -2.1785880E-005 0.0  2.2471335E-007  9.2895784E-005 0.0  1.0370915E-005  6.9202785E-006 0.0 -1.0167093E-004  8.8876947E-003 0.0  1.5734465E-004 -3.5358220E-004 0.0  4.4724693E-005 -9.8060401E-005 0.0  2.0913218E-005 -1.2812376E-004 0.0 -2.1559920E-004  1.2989715E-004 0.0 -1.5957960E-004  1.5812008E-004 0.0 -1.8525038E-004  2.0217133E-004 0.0 -1.2814082E-004  2.1905539E-004 0.0 -1.5070548E-004  2.7707098E-004 0.0 -9.0806432E-005  2.7468774E-004 0.0 -9.3947175E-005  3.6984198E-004 0.0 -2.6341416E-005  3.0388432E-004 0.0  8.4908214E-006  3.5674479E-007 0.0  1.1855610E-005  1.0451198E-005 0.0 -3.4423187E-004 -1.7908340E-004 0.0  8.7184197E-006 -1.5658173E-006 0.0 -1.2038810E-004 -6.5264946E-005 0.0 -8.8942612E-005 -5.5787577E-005 0.0  8.8025504E-006  7.8327396E-006 0.0 -8.0868490E-005 -2.5524064E-005 0.0 -6.4930629E-005 -4.8283421E-005 0.0 -6.8199412E-005 -8.0550284E-005 0.0 -4.8110337E-005 -6.7485085E-005 0.0 -5.1775597E-005 -4.4709719E-005 0.0 -3.5210446E-005 -5.7725961E-005 0.0 -7.9381754E-004  3.0718471E-003 0.0  1.9748236E-005  4.0243258E-004 0.0  2.6136199E-005  2.8563411E-004 0.0  1.3164064E-004  3.3635983E-004 0.0  7.0875898E-005  2.3193952E-004 0.0  6.4713054E-006  5.8591674E-005 0.0  1.0927659E-005  6.8305309E-005 0.0  4.4756231E-005 -5.5787993E-006 0.0  2.3319531E-005  1.5481044E-005 0.0  1.7423629E-005  1.9215257E-007 0.0  4.0988752E-006 -1.8031894E-005 0.0  6.4245313E-006 -3.8061279E-005 0.0 -8.3359432E-006 -4.3300476E-005 0.0  1.2599017E-005 -3.8140884E-005 0.0 -1.0647175E-004  1.7887745E-004 0.0 -4.7375204E-005 -9.4091287E-005 0.0 -6.6950624E-005 -1.0418714E-004 0.0  6.7741618E-006 -1.0228526E-006 0.0  2.6950905E-005 -1.3699128E-004 0.0  2.4270809E-005 -8.6426966E-005 0.0  1.3941900E-007 -2.3255397E-004 0.0  1.6550645E-005 -5.9477738E-005 0.0  1.2981298E-006  7.7268063E-006 0.0 -3.6663793E-005 -4.1847048E-005 0.0 -2.4476109E-005 -5.0763414E-005 0.0  8.4679958E-006  4.7299539E-006 0.0  2.0395942E-006 -6.1641109E-007 0.0  2.2488153E-004  4.7456636E-005 0.0 -3.6495415E-004  6.1822902E-005 0.0 -2.2850816E-005 -6.7042584E-005 0.0 -1.3898995E-005 -5.7311361E-005 0.0 -1.8224275E-005 -4.6860570E-005 0.0 -8.6283651E-006 -5.0795593E-005 0.0 -1.0217700E-005 -4.2791121E-005 0.0 -1.8186538E-005 -3.5726496E-005 0.0  1.5639379E-005 -8.9057001E-005 0.0 -3.7912665E-006 -9.9441607E-005 0.0  3.7402966E-005 -7.3303767E-005 0.0 -1.8061916E-005 -1.5003755E-004 0.0 -4.7373933E-005 -2.6012895E-005 0.0 -3.8545075E-006 -4.5517105E-005 0.0 -3.6743420E-005 -9.8765027E-005 0.0 -1.3497122E-003  7.6655575E-003 0.0  6.7655621E-006  4.6246104E-007 0.0  9.2568555E-006  1.1174000E-005 0.0  1.2957382E-005  1.5172414E-005 0.0  7.2961711E-006  8.1466211E-006 0.0 -4.3867089E-005 -1.1443524E-004 0.0 -6.1038237E-005 -1.2712583E-004 0.0 -2.4823798E-004 -7.6623710E-005 0.0 -9.1729578E-006 -3.4642547E-005 0.0  2.0868617E-003  5.7939439E-003 0.0  6.3809195E-006 -2.4900497E-006 0.0  8.8231872E-006 -3.6759508E-006 0.0  5.3531903E-006 -1.8531531E-006 0.0 -1.8012114E-006  9.9484008E-005 0.0 -2.9419924E-007  9.8332408E-005 0.0  2.6096409E-003  1.4141605E-003 0.0  1.2636206E-005 -7.2906960E-005 0.0  2.5144882E-005 -5.8685445E-005 0.0 -1.0962972E-005 -7.0220900E-005 0.0 -3.8791676E-005 -1.3695364E-004 0.0 -5.2423840E-005 -1.5439479E-004 0.0 -7.8372690E-005 -1.4324550E-004 0.0 -7.1292605E-005 -1.7111714E-004 0.0 -9.6302561E-005 -1.5668227E-004 0.0 -9.1022216E-005 -1.8955766E-004 0.0 -1.1911705E-004 -1.6758470E-004 0.0 -1.1809858E-004 -2.0218619E-004 0.0 -1.4331443E-004 -1.7714986E-004 0.0 -1.4908342E-004 -2.1665881E-004 0.0 -1.7164867E-004 -1.8193612E-004 0.0 -1.8314577E-004 -2.1820157E-004 0.0 -2.6615848E-005 -1.1580505E-004 0.0  5.7800986E-004  5.3710813E-003 0.0 -1.6020782E-004 -1.4674105E-004 0.0 -4.2557921E-003  1.9249453E-003 0.0 -3.7958015E-003  2.0587381E-003 0.0  1.6448025E-003 -1.5239321E-003 0.0 -3.9962905E-003  3.1524021E-003 0.0  9.8658183E-004  1.7043930E-003 0.0  1.1701212E-003  1.4269707E-003 0.0  2.0400982E-003  3.9922777E-004 0.0  1.5471760E-003  3.6384474E-004 0.0 -3.2878506E-003  6.0475658E-003 0.0 -3.0940320E-003  5.0687128E-003 0.0 -2.2636022E-003 -1.6663993E-003 0.0 -1.4534335E-003 -2.2340590E-003 0.0 -2.7317526E-003 -9.5814421E-004 0.0 -1.4610554E-003 -1.0824890E-003 0.0 -2.2108871E-003 -1.7700910E-004 0.0 -1.1587905E-003 -3.4669635E-004 0.0 -4.8735820E-004 -8.1578797E-004 0.0 -1.5528767E-003  1.5951274E-004 0.0 -3.9782254E-003  1.4242584E-005 0.0 -3.8077787E-003  4.7728375E-003 0.0 -3.5804116E-003  3.9885046E-003 0.0 -6.4635742E-005 -1.3520701E-004 0.0 -4.0628524E-004  2.9721027E-004 0.0  1.1089701E-006  1.4334738E-004 0.0  1.8525562E-006  1.4056922E-004 0.0 -7.1182826E-004 -3.2593784E-004 0.0  2.5173329E-006  1.6577151E-006 0.0  4.2370917E-006  1.8868268E-004 0.0  6.4577938E-006  1.8560757E-004 0.0  4.3333913E-006  1.9185667E-004 0.0  4.8069939E-006  2.0041185E-004 0.0  4.2764196E-006  1.7350731E-004 0.0  6.1121294E-006  1.7212469E-004 0.0 -8.3408099E-006  2.1489425E-004 0.0 -1.0662361E-005  2.2155141E-004 0.0 -2.0817827E-006  2.2635966E-004 0.0 -4.6246131E-006  2.3255440E-004 0.0 -6.4558787E-006  2.2413509E-004 0.0  1.3031942E-006  2.1883533E-004 0.0  4.0883355E-006  2.2905402E-004 0.0 -4.2710171E-007  2.2304571E-004 0.0  6.2176360E-007  2.3651650E-004 0.0 -1.9085445E-005  1.4673824E-004 0.0 -2.8901817E-005  1.2992572E-004 0.0 -2.2082364E-005  9.1763440E-005 0.0 -3.0853667E-005  7.8321723E-005 0.0  3.4102231E-006  2.1127688E-004 0.0  7.2904168E-006  2.1826752E-004 0.0  3.2765573E-006  2.1075179E-004 0.0 -1.9907090E-004 -1.8367544E-004 0.0 -2.1463664E-004 -2.1388034E-004 0.0  5.8483438E-006 -4.0975995E-006 0.0  7.8737870E-006 -5.8878087E-006 0.0  3.0391836E-003 -1.0530274E-003 0.0  4.9824613E-003  1.8560335E-003 0.0  3.2814595E-003  7.2929464E-003 0.0  3.8215926E-003  5.2375382E-003 0.0  4.1185399E-003 -7.4140709E-004 0.0  5.2038024E-003  2.5883220E-003 0.0  4.6977808E-003  1.0851278E-003 0.0  4.3579321E-003  4.8886005E-003 0.0  4.8787547E-003  3.7523582E-003 0.0  4.6665385E-003  3.7003737E-004 0.0  4.9266889E-003  2.9961408E-003 0.0  4.7043139E-003  4.2576085E-003 0.0  4.9968138E-003  3.2884151E-003 0.0 -1.0565559E-006 -5.3466283E-005 0.0  1.4489616E-006 -4.7864179E-005 0.0 -5.9116563E-007 -4.2858938E-005 0.0  8.9771412E-006  1.4954444E-005 0.0  1.2728703E-005  2.0223705E-005 0.0  8.4774494E-004  6.8116026E-004 0.0  3.9527315E-004  5.1415144E-004 0.0 -1.5056157E-005 -8.1613389E-005 0.0 -4.0396901E-005 -7.5691479E-005 0.0  7.5356674E-004  6.1646252E-003 0.0 -1.8150585E-005 -2.5416719E-005 0.0 -1.9337326E-005 -7.7230690E-005 0.0 -5.7126988E-006 -7.9101938E-005 0.0 -2.6198288E-006 -6.8950204E-005 0.0 -4.2935569E-004 -2.5434563E-004 0.0  1.2677798E-004  2.2116257E-004 0.0  8.0673805E-005  1.6185674E-004 0.0 -1.1626356E-004 -2.3657714E-004 0.0 -1.9726122E-004 -2.5905379E-004 0.0 -2.3600300E-004 -2.5333337E-004 0.0 -2.4426202E-004 -2.1073484E-004 0.0 -2.7342015E-004 -2.4148485E-004 0.0 -2.7440191E-004  4.9373862E-005 0.0 -4.5618732E-005 -1.8093544E-004 0.0  4.2043661E-006 -4.4400521E-005 0.0  2.9758957E-006 -4.0898084E-005 0.0  6.1044225E-006 -4.2130373E-005 0.0  6.2319112E-006 -3.9294901E-005 0.0  3.5339541E-006 -3.7454125E-005 0.0 -2.0094181E-005 -1.3801223E-004 0.0 -1.0407830E-005 -1.1947458E-004 0.0  8.2915014E-006  1.9755770E-005 0.0  9.9177410E-007 -2.0153022E-006 0.0  4.3497216E-005 -6.2143069E-005 0.0  2.8253127E-005 -4.8559396E-005 0.0 -2.7310993E-004 -2.0167341E-004 0.0 -3.0219596E-004 -2.2712868E-004 0.0 -2.4935002E-004 -1.7081337E-004 0.0 -1.8877386E-005 -6.4737712E-005 0.0 -3.3529874E-005 -5.6983995E-005 0.0 -5.9254001E-005 -6.9319100E-005 0.0  1.1661182E-005 -6.0923930E-005 0.0  6.6330109E-006  1.4352787E-005 0.0  4.1795215E-005  1.8569667E-004 0.0  5.0496866E-005  1.3054374E-004 0.0  7.5392148E-005  1.1553494E-004 0.0  4.8010578E-005  9.2556687E-005 0.0  3.1122838E-005  1.0585599E-004 0.0  5.9008994E-005  7.7166585E-005 0.0  4.0574759E-005  6.3241282E-005 0.0  5.7737766E-006 -4.8380503E-005 0.0 -1.1795256E-005 -8.8220224E-005 0.0  1.1722038E-005  2.6834718E-005 0.0  1.6611149E-005  2.6611802E-005 0.0  1.5338433E-005  3.5578758E-005 0.0  4.2245252E-007  9.5492205E-005 0.0  7.3302991E-007 -8.6833743E-005 0.0 -2.6027283E-004 -2.9050955E-004 0.0  2.2858568E-005  3.5893935E-005 0.0  1.6726576E-005  7.6616158E-003 0.0 -1.3147851E-005 -2.2915396E-005 0.0  2.9228878E-003  2.0420850E-003 0.0  1.0903803E-005 -3.9393270E-005 0.0 -3.2487915E-004  3.8856437E-004 0.0 -4.0779108E-005 -1.9630963E-004 0.0 -1.2207197E-004 -1.7410816E-004 0.0  8.1369656E-006 -4.0432206E-005 0.0 -1.2199803E-004 -2.7851730E-004 0.0 -2.2312943E-004 -2.1821258E-004 0.0 -1.1285877E-004 -1.3576437E-004 0.0 -4.1481366E-005  2.5726622E-004 0.0  4.3125560E-005 -4.4302199E-005 0.0  2.9939171E-005 -3.9946641E-005 0.0  1.7170584E-005 -4.6171360E-005 0.0  1.8695767E-005 -3.6273820E-005 0.0  2.7900707E-005 -3.2399181E-005 0.0  1.7354420E-005 -2.9943366E-005 0.0  2.4379170E-005 -2.4423072E-005 0.0  1.5391133E-005 -2.3986516E-005 0.0  2.1000123E-005 -1.9281312E-005 0.0  1.3205135E-005 -1.9496753E-005 0.0  1.7423498E-005 -1.4421220E-005 0.0  1.1003530E-005 -1.5297820E-005 0.0  1.4444901E-005 -1.1390698E-005 0.0  9.0835626E-006 -1.2370359E-005 0.0  2.5502640E-005 -1.3702080E-005 0.0  3.5781074E-005 -2.5023079E-005 0.0  1.1479556E-005 -8.4725540E-006 0.0  7.8623154E-006 -9.5705370E-006 0.0  1.7043706E-005 -7.8686678E-006 0.0  3.8866556E-006 -6.8476325E-005 0.0  3.6009622E-006 -5.8463311E-005 0.0 -1.1115027E-004 -1.0722982E-004 0.0  1.0956306E-005 -4.4166305E-006 0.0  4.7297143E-006 -5.9745652E-006 0.0  4.0637804E-006 -4.3940669E-006 0.0 -6.7720400E-004  6.7408212E-003 0.0 -1.5927457E-003  6.1302595E-003 0.0 -1.4966433E-004 -7.0773972E-005 0.0  8.2413707E-004  1.8041380E-004 0.0  1.3006312E-003 -1.0520932E-003 0.0 -1.2707941E-004  7.1179624E-005 0.0 -9.5920005E-005  5.2244307E-005 0.0  4.8319780E-003  2.5454791E-003 0.0  4.6616761E-003  2.0527439E-003 0.0  5.2120584E-003  3.1803937E-003 0.0  5.1032956E-003  5.3977723E-003 0.0  4.8307301E-003  6.2198681E-003 0.0  5.2528209E-003  4.8427428E-003 0.0  5.3432286E-003  3.6972138E-003 0.0  3.7693712E-003 -1.2738365E-004 0.0  4.3811552E-003  1.3454782E-003 0.0  4.0431929E-003  6.0425136E-004 0.0  2.5971878E-003 -2.0346983E-003 0.0  5.3594291E-003  4.2601675E-003 0.0 -3.9499668E-004  8.2949486E-004 0.0  8.8772715E-006 -3.8731444E-005 0.0 -4.0472229E-004 -1.6601497E-004 0.0  8.9646359E-007  2.9099787E-006 0.0 -3.6276616E-006 -9.7713239E-005 0.0 -2.5020722E-004  1.7136430E-004 0.0  2.0662365E-005  4.7663180E-005 0.0  9.6026167E-006 -3.9683610E-005 0.0  5.0967082E-006 -1.2434915E-005 0.0 -2.4216316E-004  5.1700967E-004 0.0  8.4045179E-006 -9.5604732E-005 0.0  2.0090892E-007 -1.3662209E-004 0.0 -9.0164490E-006 -1.5281979E-004 0.0  2.9166020E-006 -1.1878751E-004 0.0  1.0938151E-006  1.3422933E-004 0.0  8.2489582E-006  1.3791864E-004 0.0  1.0232840E-005  1.2276197E-004 0.0  1.5828138E-005  1.3555632E-004 0.0  1.8659731E-005  1.5240279E-004 0.0  9.1603547E-005  9.0771318E-005 0.0  6.7720972E-005  5.4527281E-005 0.0 -2.9484122E-004 -1.9009303E-004 0.0  1.0018544E-005 -8.3392114E-005 0.0 -4.6473272E-005 -4.2185889E-005 0.0 -7.8110935E-004  5.3391018E-003 0.0 -2.3642974E-003  7.0935213E-003 0.0 -2.6417403E-005 -8.8649427E-005 0.0  2.7017728E-006 -5.7808159E-006 0.0  8.4460346E-006 -4.2525853E-005 0.0  6.5435793E-005 -5.4961361E-005 0.0  2.2002590E-005  2.5599741E-005 0.0  2.9203319E-005  3.4212326E-005 0.0 -6.6428653E-006 -2.5365333E-005 0.0 -1.3519370E-005 -1.5333032E-005 0.0 -2.7867701E-005 -1.5477821E-005 0.0 -1.8815114E-005  1.1719425E-006 0.0 -3.4244615E-005  2.3716579E-006 0.0  2.1037407E-004  6.5484640E-004 0.0 -3.9112461E-005  7.3455340E-004 0.0  3.2051855E-003  5.6795136E-003 0.0 -2.8963815E-004  2.8780305E-004 0.0  3.4644078E-005  2.2518528E-004 0.0 -1.9664468E-004 -7.0167631E-005 0.0 -9.8077467E-005  1.0729330E-004 0.0 -3.2277672E-004 -2.0678724E-004 0.0 -3.3020160E-004 -2.4772806E-004 0.0  7.6761652E-004 -1.5521784E-003 0.0  4.7208684E-004 -8.5372072E-004 0.0  5.1660944E-006  1.8497399E-005 0.0  1.2084924E-005  4.3200214E-005 0.0  2.2084296E-003  7.5785690E-003 0.0  1.8392886E-003  1.4748440E-003 0.0  1.3467105E-003  1.0421102E-003 0.0 -3.5323684E-003  3.1872770E-003 0.0 -2.9120293E-003  3.3690276E-003 0.0 -3.6638283E-003  1.3611392E-003 0.0 -2.9855881E-003  1.6599066E-003 0.0 -2.4399330E-004 -4.6681893E-004 0.0 -2.4123227E-005 -4.4505588E-005 0.0 -3.5100577E-005 -3.1332581E-005 0.0 -2.0407969E-005 -1.0881279E-004 0.0 -2.0965760E-006 -6.1370797E-005 0.0  1.1929981E-005  8.6254297E-005 0.0  1.2465943E-005 -1.4968387E-004 0.0 -4.4742673E-006 -5.8513626E-005 0.0  1.4581019E-006 -5.8560723E-005 0.0  9.3086475E-006 -5.3092329E-005 0.0 -6.7135113E-005  9.1449962E-005 0.0 -7.1807111E-005  1.4671227E-004 0.0 -5.7724067E-005  4.5019299E-005 0.0  4.7002646E-006 -1.6929677E-004 0.0 -2.0660199E-005 -1.7029442E-004 0.0  2.8839828E-006  1.0353303E-004 0.0 -2.1673806E-006  1.0831206E-004 0.0 -1.1407995E-007  1.1566498E-004 0.0  7.5546791E-006  1.0879460E-004 0.0  8.4704140E-006  9.7151322E-005 0.0 -7.3949370E-005 -4.5250891E-005 0.0  8.6339168E-005  4.9949080E-004 0.0 -2.1821162E-006 -3.2634856E-005 0.0  9.4791732E-007 -2.5210289E-005 0.0 -1.5862051E-004 -2.5352009E-004 0.0 -1.7726692E-004 -2.9616720E-004 0.0 -1.2850535E-004 -2.8137394E-004 0.0 -1.4708488E-004 -3.1572878E-004 0.0  5.0092330E-006  1.4472352E-004 0.0  6.9857880E-006  1.4866644E-004 0.0  8.2654334E-006  1.5542390E-004 0.0  1.0435734E-004  6.9935963E-003 0.0 -8.7924160E-005 -9.5421754E-005 0.0 -3.4537673E-005  4.6305228E-005 0.0  7.5269685E-006  1.7892376E-004 0.0  1.5132911E-005  1.8706872E-004 0.0  7.9643036E-006  1.6644959E-004 0.0 -3.3906012E-005  1.5478814E-004 0.0 -2.4927891E-005  1.7454520E-004 0.0 -2.3911931E-005  2.0254220E-004 0.0  6.5747718E-006  2.0521902E-004 0.0  1.1230042E-005  2.0043733E-004 0.0  2.2404160E-005  1.9768552E-004 0.0  4.3007298E-006  1.3733599E-005 0.0  5.3047839E-006  1.0343842E-005 0.0  3.6581896E-006  9.6042524E-006 0.0  4.3903417E-006  7.3227395E-006 0.0  3.0298617E-006  6.7871952E-006 0.0  3.5410641E-006  4.9320072E-006 0.0  5.1020885E-006  5.6239913E-006 0.0  4.0708823E-006  3.5715970E-006 0.0  5.2213707E-006  3.9498322E-006 0.0  2.6084648E-006  4.4175788E-006 0.0  1.0528236E-005 -4.1503513E-005 0.0  2.4355657E-003  1.6348731E-003 0.0  2.1204329E-003  1.2104103E-003 0.0 -1.7688559E-003  4.3248436E-003 0.0 -1.2372903E-003  2.3135248E-003 0.0  1.0094060E-005  1.7394863E-004 0.0 -3.1315119E-004 -1.8168157E-004 0.0  3.9082509E-006  9.4678665E-005 0.0  8.6948611E-006  8.6259251E-005 0.0 -2.1088576E-004 -2.9464539E-004 0.0 -1.8989389E-004 -3.3328842E-004 0.0 -2.3956781E-004 -3.3148854E-004 0.0 -2.7948743E-004 -3.2978346E-004 0.0 -3.0402544E-004 -2.7287166E-004 0.0 -1.5244061E-004 -3.5682880E-004 0.0  5.0141107E-006 -5.2313258E-005 0.0  7.6462085E-006 -5.7323875E-005 0.0  5.5677831E-006 -6.2864498E-005 0.0  7.6045228E-006 -5.0467195E-005 0.0  9.2277893E-006 -4.7099507E-005 0.0 -6.1572192E-006 -1.9017228E-004 0.0  9.7013188E-006 -4.0511706E-005 0.0  1.0095639E-005 -4.1554759E-005 0.0  2.2821734E-004  2.7360776E-004 0.0  1.6281084E-004  1.6506469E-004 0.0  2.6688054E-004  1.6713995E-004 0.0  1.2738118E-003  3.3362426E-004 0.0  2.7740996E-006 -5.5187154E-005 0.0  7.5782213E-006 -4.4530341E-005 0.0  9.9233656E-006 -2.9183142E-005 0.0 -3.4321555E-004 -2.9801083E-004 0.0 -3.8022425E-004 -2.5553076E-004 0.0 -8.6264931E-005 -2.2085599E-004 0.0 -8.9205306E-005 -2.5460155E-004 0.0 -6.3275706E-005 -2.3372294E-004 0.0 -5.8982561E-005 -1.9668257E-004 0.0 -3.7059674E-005 -2.0231452E-004 0.0 -5.8702721E-005 -2.7131027E-004 0.0 -3.7654927E-005 -2.4688829E-004 0.0 -8.3600550E-005 -2.8819853E-004 0.0  2.5756116E-006 -7.5894810E-005 0.0  1.0697588E-005 -7.3859948E-005 0.0 -1.9205201E-004  3.9999891E-004 0.0 -2.5083818E-005  2.4893811E-005 0.0  3.8908591E-006 -3.0581940E-005 0.0  6.6129023E-004  3.3277734E-004 0.0  7.5405994E-006 -1.9350539E-005 0.0 -8.7073877E-005  5.0936163E-004 0.0  3.1981182E-004  5.6929037E-003 0.0 -4.0671680E-004 -2.6756182E-004 0.0 -5.6511163E-004 -1.6028999E-004 0.0 -3.8007867E-004 -1.3434534E-004 0.0 -2.5892467E-004 -1.0298118E-004 0.0 -3.4742030E-004 -7.0758447E-005 0.0 -2.4841851E-003  8.3506971E-004 0.0 -1.6782474E-003  8.5877999E-004 0.0 -1.0845849E-003  2.7700982E-004 0.0 -1.1532078E-003  7.2188332E-004 0.0 -8.2901211E-004  3.1511895E-004 0.0 -7.1393718E-004  3.7552025E-005 0.0 -3.5351627E-004 -2.1822249E-004 0.0 -3.9777685E-004 -2.0992663E-004 0.0 -1.2745107E-004  1.2002784E-004 0.0 -3.5391496E-006 -3.8548569E-005 0.0  1.2614959E-005  2.1624369E-004 0.0 -1.2855971E-004 -9.7974830E-005 0.0 -1.6039368E-005 -3.5267718E-005 0.0  1.6793786E-004  9.6424855E-005 0.0  3.5616456E-004  1.4447046E-004 0.0 -4.4059793E-005  1.8040721E-004 0.0  4.5259660E-006 -9.5788487E-006 0.0  1.2727062E-005 -4.0314823E-005 0.0  3.0231341E-005  1.3647469E-004 0.0  2.1417462E-005 -2.7706038E-004 0.0  1.4751606E-003  6.7030396E-003 0.0  1.0948659E-005 -3.8905466E-005 0.0  1.0767993E-005 -3.9679672E-005 0.0  1.0346143E-005 -3.7081537E-005 0.0  7.5151035E-006 -3.6063719E-005 0.0  1.1047792E-005 -4.8669350E-005 0.0  2.2706191E-005 -1.6540810E-004 0.0  7.7979448E-006 -2.7458981E-005 0.0  1.2431503E-004  1.0229042E-004 0.0 -3.4837882E-007 -2.0641441E-004 0.0 -2.1705163E-005 -2.1997777E-004 0.0 -3.2386532E-005 -9.6515218E-005 0.0  1.1681595E-005 -6.0016337E-005 0.0  1.0086477E-005 -6.6734627E-005 0.0  1.1272402E-005 -5.4039803E-005 0.0 -2.7358654E-004 -1.0516508E-004 0.0 -2.5314184E-004 -1.1954003E-004 0.0  2.9369907E-006 -1.2295931E-005 0.0 -2.7824271E-004 -1.4202268E-004 0.0  5.4497135E-006 -1.0788505E-004 0.0  1.6636664E-005 -1.0266212E-004 0.0 -5.5515810E-005 -3.0169503E-004 0.0  5.9955688E-006 -4.4973276E-005 0.0  9.6361390E-006 -3.4300778E-005 0.0  5.8168793E-006 -3.2748843E-005 0.0  7.9253436E-006 -2.3461410E-005 0.0  4.6684313E-006 -2.2452049E-005 0.0  5.7069617E-006 -1.5418928E-005 0.0  2.3725263E-005  1.0763319E-004 0.0  6.3738854E-006 -7.5245347E-006 0.0  1.1213201E-004  1.3540322E-004 0.0  1.0148908E-005 -6.8161847E-006 0.0  5.6384504E-005 -3.4918334E-005 0.0  1.3159136E-005 -4.7970051E-006 0.0  1.7965923E-005 -3.5122506E-006 0.0  2.2296466E-005 -5.0813463E-006 0.0  2.3912276E-006 -4.3291980E-006 0.0  3.1257068E-006 -3.0988253E-006 0.0  8.5816068E-005 -4.5146332E-005 0.0  4.8444384E-005 -2.3445483E-005 0.0 -1.5826470E-004 -1.0372039E-004 0.0 -2.0178516E-004 -1.1923785E-004 0.0  2.4588848E-005  7.6942575E-005 0.0  7.7945632E-005 -1.9876425E-004 0.0  8.7653551E-005 -6.6342180E-005 0.0  5.0303592E-005  5.3604077E-005 0.0  5.2424929E-005 -1.2164494E-005 0.0  3.6856715E-005 -1.5098832E-005 0.0  3.3055198E-005 -1.1112079E-005 0.0  2.8982013E-005 -1.8451766E-005 0.0 -5.7442023E-006 -6.9666688E-005 0.0 -9.9690558E-006 -5.9568428E-005 0.0 -1.8193509E-005 -5.0488848E-005 0.0 -8.0211421E-006 -5.1861431E-005 0.0  5.8501052E-005 -7.4827877E-005 0.0  1.3451426E-006 -7.9963204E-005 0.0  7.4215652E-005  3.9983623E-005 0.0  2.0586926E-005 -1.7968094E-004 0.0 -9.2529601E-005 -7.5185181E-005 0.0 -1.1316375E-004 -5.2417785E-005 0.0 -1.3813834E-004 -9.0422036E-005 0.0  1.6711616E-005 -5.2650603E-005 0.0  5.1554405E-005  3.2301150E-005 0.0 -6.5777694E-005 -9.2889407E-005 0.0 -6.6095534E-007 -5.6777542E-005 0.0  3.9471415E-005 -3.3685623E-005 0.0  2.9556212E-005  2.1287147E-005 0.0  3.4709514E-005  3.0822564E-005 0.0  1.7561046E-005  1.2630724E-005 0.0  1.3954769E-005 -6.0428425E-007 0.0  6.9387347E-006  2.4595689E-005 0.0  3.6624685E-006  2.2002354E-005 0.0  4.5004970E-006 -2.9138275E-006 0.0  3.6506058E-006 -2.1219268E-006 0.0  4.4274686E-006 -1.2045417E-006 0.0  3.2416059E-006 -1.6691446E-006 0.0  3.7491051E-006 -7.5342270E-007 0.0  4.8386439E-006 -5.0384071E-007 0.0  2.8510072E-006 -1.0580336E-006 0.0  2.2732171E-006 -1.6823925E-006 0.0  4.0033502E-006 -2.0092722E-007 0.0  5.0060538E-006  1.4049649E-007 0.0  4.2767917E-006  1.8425479E-007 0.0  4.8803924E-006  5.8804242E-007 0.0  5.6565926E-006  8.9223055E-007 0.0  5.4099645E-006  1.4363125E-006 0.0  6.5130033E-006  2.1342442E-006 0.0  5.7697044E-006  2.5696085E-006 0.0  4.9255826E-006  1.6111333E-006 0.0  5.0717723E-006  2.6270566E-006 0.0  4.5359204E-006  1.5221404E-006 0.0  6.9134389E-006  3.7452830E-006 0.0  6.8872249E-006  1.2651542E-006 0.0  8.1570419E-006  2.9642939E-006 0.0  8.3613162E-006  2.1153951E-006 0.0  6.9031570E-006  5.3160174E-006 0.0  9.5619656E-006  3.2156377E-005 0.0  3.2857956E-006  1.4234494E-006 0.0  8.4544496E-007 -1.0135683E-006 0.0  1.1162245E-006 -2.7987029E-006 0.0  2.6245052E-006 -2.5350762E-006 0.0  5.8900490E-006 -6.3149880E-008 0.0  5.6109842E-006 -7.6334894E-007 0.0  1.5785656E-005  1.4002352E-005 0.0  2.5119834E-005  2.2427627E-005 0.0 -3.6138608E-005 -1.9009123E-005 0.0  2.8132994E-006 -6.0084855E-007 0.0  2.9462661E-005  4.8158211E-005 0.0  7.1851556E-006  1.0547286E-005 0.0  1.1694824E-005 -2.1776006E-006 0.0  9.4837372E-006  3.8702649E-006 0.0  1.7454826E-005  1.9007538E-005 0.0  6.2042426E-006  7.8023243E-006 0.0  1.4025296E-005 -2.7288867E-006 0.0  6.2729473E-006  5.6362997E-006 0.0  6.0272108E-006  3.8384037E-006 0.0  2.0048943E-005  1.7524491E-005 0.0  2.2131854E-005 -5.8345922E-007 0.0  3.4007376E-005 -3.4623435E-006 0.0  2.1490997E-005 -9.8670590E-006 0.0 -3.8658273E-004 -3.1118166E-004 0.0  2.7102180E-005 -7.8103881E-006 0.0 -3.1855780E-005 -7.5630493E-005 0.0  2.2797812E-005 -1.2317894E-004 0.0  2.3754851E-005 -9.6168401E-005 0.0  1.8388661E-005 -6.4705728E-005 0.0  2.2060645E-005 -7.8073008E-005 0.0 -1.5616719E-005 -2.5333730E-004 0.0 -7.7896186E-005 -3.2420820E-004 0.0  1.1688638E-005 -4.8000653E-005 0.0  1.1110306E-005 -4.5183777E-005 0.0 -2.7453963E-004 -3.9510461E-004 0.0 -3.0353476E-004 -3.6800605E-004 0.0  1.0461778E-005 -3.9201042E-005 0.0  3.1290225E-006 -7.4697592E-006 0.0 -2.8348352E-005 -1.5430880E-004 0.0  1.6405085E-005 -1.1880278E-004 0.0  2.9141647E-006 -2.4423036E-005 0.0  1.5333783E-006 -6.6896375E-006 0.0  1.6653165E-003  7.1881680E-004 0.0  1.0093778E-003  6.0666071E-004 0.0 -3.0850229E-003  4.2538691E-003 0.0 -2.2803438E-003  3.6323065E-003 0.0 -2.0458704E-003  2.3135322E-003 0.0 -3.4453755E-003  2.5062108E-003 0.0 -3.3945345E-003 -4.8331866E-004 0.0 -3.3287190E-003  1.2821338E-004 0.0 -2.6285765E-003  5.3137381E-003 0.0  3.2003840E-006  2.9430903E-006 0.0 -3.2236987E-004 -1.7471838E-004 0.0  1.7980292E-006  1.0704423E-005 0.0  1.1458929E-006  5.2647829E-006 0.0 -9.1514338E-005  1.6815424E-005 0.0 -6.9761004E-005  5.7844749E-006 0.0  1.0885275E-005 -3.6164536E-005 0.0  2.9036841E-005  1.6379853E-004 0.0  2.3067278E-005 -6.9759706E-004 0.0  4.6049715E-006  6.4499763E-007 0.0 -3.6750276E-004  2.0813863E-004 0.0 -2.1522184E-004 -5.1407417E-005 0.0 -3.3840263E-004  2.4548192E-005 0.0 -3.1725953E-004  8.1805254E-005 0.0 -3.4884283E-004  1.1133933E-004 0.0 -3.1448251E-004  1.9764923E-004 0.0 -3.6088698E-004 -1.7746700E-004 0.0 -1.1232613E-004 -3.0561155E-004 0.0 -8.4353131E-005 -1.1831838E-004 0.0 -1.0713565E-004 -1.0888734E-004 0.0  1.4622287E-006 -5.3859085E-006 0.0  9.6981873E-006  2.3232162E-004 0.0  7.7554112E-006  2.5187950E-004 0.0 -2.2237131E-004 -1.0177541E-004 0.0  2.5530264E-005  6.2673306E-005 0.0 -4.7556164E-006  1.3056622E-004 0.0  4.3424473E-006  2.4072115E-006 0.0  1.2693699E-005 -1.3120400E-004 0.0 -5.9246574E-004  1.8152083E-003 0.0 -7.9992503E-004  1.0996124E-003 0.0  1.8672333E-006 -2.9869035E-006 0.0  3.3274010E-006 -1.4795536E-005 0.0  1.5797460E-006 -1.4252473E-006 0.0  3.2802600E-006  2.3944445E-004 0.0 -9.8048777E-007  2.4461236E-004 0.0 -1.7749852E-004 -1.2044546E-004 0.0  2.8585518E-005 -1.5069276E-004 0.0  1.3691977E-006 -7.3969780E-007 0.0 -1.8757568E-005 -1.4785824E-005 0.0 -3.2330738E-004 -3.0317930E-006 0.0 -4.8803937E-006 -2.1678393E-006 0.0 -1.2756612E-004 -3.1246273E-005 0.0  1.7046640E-006 -2.2488086E-006 0.0  1.4877548E-006  1.7881980E-006 0.0 -2.6216893E-004  2.2077443E-004 0.0  9.6814868E-006 -4.3077424E-005 0.0  1.5486308E-005 -9.0195508E-005 0.0  9.8474373E-004 -4.7053892E-004 0.0  5.4237333E-006  4.6674827E-005 0.0 -2.7163508E-003  2.3525715E-003 0.0 -5.5838666E-004  4.0209048E-004 0.0  1.1744313E-005 -4.0740637E-005 0.0  8.3688001E-004  1.0357629E-003 0.0  7.3446314E-006 -4.3132568E-004 0.0 -2.7656880E-005 -3.9498483E-005 0.0 -5.1966797E-007 -3.7497837E-005 0.0 -2.2865332E-004 -1.7542091E-004 0.0  1.0147743E-004  6.6482240E-005 0.0 -4.4860345E-004 -1.9334033E-004 0.0 -1.7881662E-004 -3.8007220E-004 0.0 -6.2362816E-005 -1.6311001E-005 0.0 -2.7828706E-004 -1.6678633E-004 0.0  1.3641854E-004  4.7859900E-005 0.0  4.3107425E-006  1.0433615E-007 0.0  1.5270363E-005 -5.4961516E-005 0.0 -6.7329137E-004  4.6531983E-005 0.0  5.7184656E-006  2.2395325E-004 0.0 -4.9351006E-006  2.3183329E-004 0.0  9.8435354E-009  2.6265836E-004 0.0 -7.9210412E-006  2.2745805E-004 0.0  1.0830704E-005  1.8954284E-004 0.0 -3.7058480E-005  1.0313694E-004 0.0  7.0131067E-006  2.1240223E-004 0.0 -1.2118285E-005  2.1427573E-004 0.0  1.5176549E-006  2.3242918E-004 0.0 -2.0557763E-006  2.3601093E-004 0.0  3.7123029E-003  6.3941753E-003 0.0 -3.3728192E-005 -2.6898997E-005 0.0 -9.3942710E-005 -3.1816041E-005 0.0  2.7774866E-004  6.5367852E-003 0.0  2.5812959E-006 -6.8506655E-005 0.0 -4.2595453E-005  1.7962020E-005 0.0  4.4105321E-005  3.9739295E-005 0.0 -1.3829005E-004 -1.4494625E-004 0.0 -1.8887555E-004 -1.4831862E-004 0.0 -2.1483851E-004 -1.5202527E-004 0.0 -2.3500390E-004 -1.4059585E-004 0.0 -3.8369953E-005 -8.3763477E-005 0.0 -1.8027384E-005  2.2892671E-004 0.0 -3.2107058E-004 -3.1991678E-004 0.0 -8.8129873E-004 -6.9892935E-005 0.0 -9.5363468E-005 -1.3148687E-004 0.0 -2.7867702E-004  1.3814124E-004 0.0 -4.9340031E-004 -8.2695042E-005 0.0 -4.6626807E-004  6.3664157E-003 0.0 -5.4105710E-006 -1.7668215E-005 0.0  9.6119943E-004  7.9357323E-003 0.0 -5.5466559E-004 -2.3246468E-003 0.0  2.7841240E-004 -1.9291710E-003 0.0  2.4708641E-003 -1.6964174E-003 0.0  3.1797692E-003 -1.1755966E-003 0.0  1.6643959E-005  5.6098995E-005 0.0 -4.5545019E-004 -1.4026335E-003 0.0 -2.7141195E-005 -1.8293043E-004 0.0  6.4209110E-005  8.7485165E-004 0.0  1.0570438E-005 -4.0199790E-005 0.0 -1.2550315E-006  2.3672068E-004 0.0  1.0144027E-005 -3.9854100E-005 0.0 -4.7180924E-005 -2.2372225E-004 0.0 -2.9499310E-004  4.8512388E-005 0.0 -3.0648007E-004 -1.6287211E-004 0.0  3.8027220E-005  4.2390988E-005 0.0 -2.9445832E-004 -1.6257594E-004 0.0 -5.0663364E-005 -3.1856392E-005 0.0  3.3626167E-006 -6.1272258E-007 0.0  3.9567444E-006 -1.4006173E-007 0.0 -2.5312583E-004  1.0454051E-004 0.0 -7.0474262E-004  1.2139991E-004 0.0 -9.6505679E-006 -1.0714530E-004 0.0  4.5014885E-004  6.0865789E-005 0.0 -4.2255949E-004 -6.1162229E-005 0.0  2.1022750E-006 -9.7737797E-007 0.0 -2.3866516E-004 -5.6954514E-005 0.0 -6.9635431E-005  2.0234898E-004 0.0 -1.8847683E-005 -9.6827701E-005 0.0  3.5634963E-003 -5.1912688E-004 0.0  1.5133003E-005 -6.8952624E-005 0.0 -2.0121448E-006 -6.4637986E-005 0.0 -3.3759545E-004 -1.9573607E-004 0.0  1.6052366E-005 -8.0705082E-005 0.0  3.2157803E-006  8.8214122E-005 0.0 -2.3579446E-004  8.0823577E-005 0.0  2.9115074E-004  2.5133495E-006 0.0  1.3867138E-005  1.4366773E-004 0.0 -5.0506591E-005  4.6407426E-006 0.0 -1.4781246E-004  7.5516557E-005 0.0  2.3902487E-004 -4.4339463E-004 0.0 -2.2334869E-004 -3.5942806E-004 0.0  1.4280793E-003 -1.8796458E-003 0.0 -3.7513929E-003  2.2994258E-003 0.0  1.4699117E-003 -5.7095142E-004 0.0  4.8066392E-003  2.2629818E-003 0.0  4.8084016E-003  1.9343086E-003 0.0  5.0454312E-003  4.5114352E-003 0.0  1.8726730E-003  2.4810910E-004 0.0  1.5184050E-003  9.8368473E-005 0.0  2.3677069E-003  9.4550460E-004 0.0  2.4170052E-003  1.0897717E-003 0.0  1.7040135E-003  2.0451040E-003 0.0  2.5359761E-003  2.0408632E-003 0.0  4.3787683E-003  6.7084138E-003 0.0  7.1206336E-004  1.4812432E-003 0.0  6.0391982E-004  1.3248522E-003 0.0  5.0064498E-003  3.5753993E-003 0.0  4.9766762E-003  2.8176689E-003 0.0  4.6080924E-003  4.5488306E-003 0.0  2.8831623E-003  1.7738757E-003 0.0  4.3845190E-003  9.5770453E-004 0.0  1.7227868E-003  5.7374487E-003 0.0  1.9186676E-003  1.9532812E-003 0.0  4.5481330E-003  1.6575897E-003 0.0 -2.7390694E-003  7.4224801E-003 0.0  3.6624586E-003  7.2984793E-003 0.0  4.3459840E-003  6.9516358E-004 0.0 -3.5746647E-003  4.3338802E-003 0.0 -3.5621848E-003  3.5539817E-003 0.0  5.0322835E-003  3.4596498E-003 0.0 -3.7755228E-003  1.5509399E-003 0.0  4.9752737E-003  5.0886853E-003 0.0 -3.8728248E-003  6.4617757E-004 0.0  4.6522507E-003  1.4371847E-003 0.0 -3.4022788E-003 -6.3172351E-004 0.0  4.0326129E-003  2.5699504E-004 0.0  4.8342803E-003  2.3372936E-003 0.0  1.0754284E-003  5.4785034E-003 0.0 -3.7513181E-004  8.9635373E-005 0.0 -1.9248695E-004 -7.0921724E-005 0.0 -5.0722709E-005  8.5073212E-005 0.0  3.5039365E-005  7.6862394E-005 0.0  3.9881411E-003 -5.0511095E-005 0.0  4.5814860E-003  5.5108944E-003 0.0  5.0397277E-003  3.8075196E-003 0.0  4.8850388E-003  2.7229559E-003 0.0  4.9739178E-003  4.2654244E-003 0.0 -1.5720700E-004  8.5728610E-004 0.0 -3.4353452E-004  6.1349460E-004 0.0 -3.9282768E-004  3.7033754E-004 0.0  1.7472223E-004 -1.0015094E-003 0.0 -2.0905855E-005  3.5314638E-005 0.0 -5.2424264E-005  1.3809370E-004 0.0 -2.9256004E-004 -1.2052101E-004 0.0  1.0143392E-005 -5.1370668E-005 0.0 -9.0819311E-006 -3.3639189E-005 0.0 -1.0383580E-003  6.2041716E-004 0.0  1.0367855E-005  4.9233051E-005 0.0  9.4976255E-006 -4.4672942E-005 0.0 -2.7044684E-005  2.3751305E-004 0.0 -1.8035228E-004 -3.2781478E-004 0.0  4.0411272E-006  1.7718508E-004 0.0  2.4808461E-006  1.4072068E-004 0.0  3.5242641E-006  1.5239601E-004 0.0 -5.8243839E-007  1.3553927E-004 0.0 -1.3640382E-005  9.2865261E-006 0.0  4.1223689E-006  1.6535062E-004 0.0  4.5118575E-006  1.6052199E-004 0.0  6.4937785E-006  1.4610643E-004 0.0  2.9264586E-006  2.0797170E-004 0.0 -1.2531448E-005  2.0728466E-004 0.0 -9.0000815E-006  2.0118651E-004 0.0 -2.0007909E-005  6.7093825E-005 0.0  4.3048424E-006  1.7312194E-004 0.0 -2.0037113E-006  2.1740049E-004 0.0 -4.0610519E-006  2.1539472E-004 0.0  2.5202357E-006  1.5461457E-004 0.0 -7.1441814E-006  2.1121814E-004 0.0  1.1287233E-007  2.1442775E-004 0.0 -2.0240443E-005  1.1628121E-004 0.0  3.9101526E-006  1.9748224E-004 0.0 -1.5817877E-005  1.9088846E-004 0.0 -1.8022595E-005  1.8749359E-004 0.0  4.3528156E-006  1.6107824E-004 0.0  3.2079677E-006  1.9664825E-004 0.0 -1.8806624E-005  1.6387132E-004 0.0 -2.1607356E-005  1.4524932E-004 0.0  3.0730090E-006  1.8866051E-004 0.0  1.4206863E-005 -6.3980052E-005 0.0  6.1127077E-006  8.0719861E-005 0.0 -2.3564546E-006  2.4565634E-004 0.0  2.2482505E-006  9.4108609E-005 0.0  3.1902359E-006  2.7760401E-005 0.0 -8.8138913E-007  9.7742935E-005 0.0 -9.2164928E-006  1.2072110E-004 0.0 -3.4865092E-006  1.2312460E-004 0.0 -6.2094928E-006  1.1323882E-004 0.0 -5.8576438E-006  1.1032868E-004 0.0 -7.2350380E-007  1.0115692E-004 0.0 -3.7753270E-006  1.0629540E-004 0.0 -1.4063887E-005 -4.5216096E-005 0.0 -1.6089065E-003  1.1078157E-003 0.0  3.3105385E-006  1.7103341E-005 0.0  7.5885170E-006 -3.3448374E-005 0.0  3.8244797E-006  2.2441710E-006 0.0  7.2859626E-007 -5.8339434E-007 0.0 -1.0414096E-005 -1.3175645E-005 0.0 -7.5278717E-005  4.4970603E-005 0.0  4.8599671E-006  9.5856074E-007 0.0 -4.6804762E-006 -4.9971050E-005 0.0  1.1118280E-005 -4.1790284E-005 0.0  1.0332405E-005 -3.9773717E-005 0.0 -1.7726137E-004  3.0679115E-004 0.0  3.1077162E-003  1.9658290E-003 0.0  8.0244919E-006  3.7102300E-005 0.0  7.3263726E-004  7.1882646E-003 0.0 -1.0869328E-004 -8.2019572E-005 0.0 -2.3527673E-005 -2.5006589E-005 0.0  1.9868563E-006  5.9693520E-006 0.0  2.0368414E-006  3.9426108E-006 0.0 -9.5825704E-006 -7.0638329E-006 0.0  1.1808785E-006  1.6225590E-006 0.0 -2.5303973E-005 -2.7864609E-005 0.0  2.4406442E-006  8.8491193E-006 0.0 -8.1771985E-005  2.3153748E-004 0.0 -2.5553274E-005 -2.3410097E-004 0.0 -3.5846576E-004 -1.9746841E-004 0.0  1.1388621E-006  9.4379871E-005 0.0 -4.3413714E-006 -5.6006219E-005 0.0  3.1445920E-006  1.1308289E-005 0.0 -3.6049626E-005 -1.6706674E-004 0.0  2.6147947E-006  1.2366145E-004 0.0 -2.2914190E-004  6.3539517E-004 0.0 -7.3212646E-006 -6.3467087E-005 0.0  2.7561061E-006  1.7937078E-005 0.0  6.4702392E-006  1.5823588E-004 0.0  2.5498068E-006  2.7777717E-006 0.0  3.1538522E-004  3.1219044E-004 0.0  4.3708447E-006  6.7004108E-007 0.0  4.2209730E-006 -3.5610744E-005 0.0  1.3443598E-006 -3.4157627E-005 0.0  9.5992574E-006  6.6020383E-005 0.0  1.1422252E-005 -3.9655561E-005 0.0 -4.4795754E-004  4.0646954E-004 0.0  3.2978346E-007 -5.3883060E-005 0.0 -1.1684205E-004 -2.6756051E-004 0.0 -1.8740991E-005 -2.0040613E-004 0.0  4.8504885E-003  2.3001615E-003 0.0  4.6046572E-003  1.4426565E-003 0.0  5.0553265E-003  3.3240159E-003 0.0  4.2554674E-003  5.7493225E-003 0.0  4.8213347E-003  4.7926728E-003 0.0  4.3214229E-003  5.6351121E-004 0.0  5.0388504E-003  4.0106210E-003 0.0 -2.5690473E-004 -1.4730803E-004 0.0 -4.2272896E-004 -1.3130796E-004 0.0  1.2626890E-004  6.9799511E-005 0.0 -2.5795991E-004 -3.5933547E-004 0.0  6.5043037E-006  2.8545740E-005 0.0  2.7932724E-003  6.2272028E-003 0.0 -6.9538432E-005 -2.1170185E-004 0.0  2.2749518E-004  4.0486204E-004 0.0 -2.4087947E-003  5.7818544E-003 0.0 -2.1106013E-004  7.4671727E-004 0.0  1.9005479E-006 -5.3441954E-005 0.0 -3.3087018E-003  8.0321308E-004 0.0 -1.3596380E-004 -3.7014878E-004 0.0  1.6838655E-005 -2.1228846E-004 0.0 -6.3325666E-004 -7.4664502E-005 0.0 -1.7447315E-004 -8.7541616E-005 0.0 -1.9741384E-004  2.4045078E-004 0.0  2.0812325E-003  8.0037978E-004 0.0  1.8667503E-003  1.0678168E-003 0.0 -2.9768689E-004 -3.0041133E-004 0.0 -1.4601009E-004 -1.2384432E-004 0.0 -1.2450951E-004 -1.2110617E-004 0.0 -1.7410992E-004 -1.1885562E-004 0.0  1.9726845E-005  1.5730515E-004 0.0 -1.2726694E-004 -3.4035919E-004 0.0  2.5890486E-004  5.2608145E-003 0.0 -1.6469485E-004 -5.0097346E-005 0.0 -9.1640374E-005  1.5556811E-004 0.0  8.1197412E-006 -5.3183646E-005 0.0 -2.1844386E-003  1.3420745E-003 0.0  1.6301461E-005 -7.4442273E-005 0.0 -1.4904814E-004 -5.9352930E-005 0.0 -3.9770691E-005 -3.1308172E-004 0.0 -1.3815583E-004 -2.5630593E-004 0.0 -3.9592726E-005 -1.0298056E-005 0.0 -1.4921784E-004 -2.7773135E-004 0.0  3.3318724E-003  2.1084725E-003 0.0
        </DataArray>
        <DataArray type="Float64" Name="magnetic flux density im" NumberOfComponents="3" format="ascii">
  4.6235659E-004 -1.3382200E-003 0.0  1.5830620E-004 -7.9191512E-004 0.0 -5.9285687E-004  1.5514918E-005 0.0  8.1573932E-004  6.0748292E-004 0.0 -8.2467230E-007 -4.0933889E-005 0.0 -3.3841244E-006 -4.4987730E-005 0.0 -4.0654885E-007 -6.7822137E-005 0.0  2.9765370E-005 -1.6992497E-005 0.0  1.6080846E-005 -1.1368029E-003 0.0  9.5164568E-005  1.0140583E-004 0.0  5.4236834E-005  1.4106635E-004 0.0  2.2101179E-004 -6.1286854E-004 0.0  1.1208887E-004  4.6962433E-005 0.0  1.0879226E-004  6.8339175E-005 0.0  2.5424841E-004 -7.4987525E-004 0.0  1.5658177E-005 -2.1428243E-005 0.0  5.5788103E-007  7.9817152E-007 0.0 -8.5126221E-008  6.1853089E-008 0.0 -1.0214221E-007  9.8987489E-007 0.0 -1.7325257E-005 -3.0798148E-004 0.0 -1.4036962E-003 -1.7920142E-003 0.0  2.5747673E-007  2.9333681E-005 0.0  1.9687892E-005 -1.3551743E-003 0.0 -6.7070948E-004 -1.1775186E-004 0.0 -7.3901733E-004 -2.4491814E-004 0.0 -7.2401922E-004 -3.7281598E-004 0.0 -6.9570785E-004 -4.8570569E-004 0.0 -6.6113113E-004 -5.7725628E-004 0.0 -6.0732491E-004 -6.4654439E-004 0.0 -5.6252311E-004 -7.3135923E-004 0.0 -5.0088447E-004 -7.7350097E-004 0.0 -4.2988038E-004 -8.2365318E-004 0.0 -3.5221128E-004 -8.5377156E-004 0.0 -2.7245477E-004 -8.8359872E-004 0.0 -1.9007875E-004 -9.1190411E-004 0.0 -1.1627972E-004 -9.0392964E-004 0.0 -3.4156494E-005 -8.9313619E-004 0.0  2.8151400E-005 -8.7294944E-004 0.0  8.6914592E-005 -8.3444015E-004 0.0  4.7711531E-004  8.0791486E-004 0.0  1.2172391E-004  8.3808486E-004 0.0 -1.0474212E-004  7.8936668E-004 0.0 -2.9749132E-004  7.0827741E-004 0.0 -4.1762751E-004  6.2054544E-004 0.0 -4.7861567E-004  5.1267097E-004 0.0 -5.3207451E-004  4.2041300E-004 0.0 -5.7906093E-004  3.0940152E-004 0.0 -5.7263643E-004  2.5241158E-004 0.0 -5.9763593E-004  1.7288033E-004 0.0 -5.9293434E-004  1.1910325E-004 0.0 -3.6354680E-006 -5.0087206E-005 0.0 -4.3088593E-006 -4.9867243E-005 0.0 -4.4887303E-006 -5.4122599E-005 0.0 -4.5137296E-006 -5.4682831E-005 0.0 -4.2332966E-006 -5.6056819E-005 0.0 -4.1203095E-006 -5.6299481E-005 0.0 -3.7461846E-006 -5.5408051E-005 0.0 -3.0877989E-006 -5.4323407E-005 0.0 -1.7897702E-006 -5.7245816E-005 0.0 -9.6045178E-007 -5.7632858E-005 0.0 -9.0116741E-007 -5.7264976E-005 0.0  1.2553770E-006 -6.1391610E-005 0.0  7.3556198E-008 -6.1099944E-005 0.0  8.1025315E-007 -6.3374357E-005 0.0  1.4079096E-006 -6.9190112E-005 0.0 -5.2351315E-007 -6.6862632E-005 0.0  3.2986465E-005 -3.6874837E-005 0.0  3.4346447E-005 -5.1676173E-005 0.0  3.3416276E-005 -6.6951512E-005 0.0  3.5294250E-005 -8.7862729E-005 0.0  3.2660175E-005 -1.0404742E-004 0.0  3.1817060E-005 -1.2804261E-004 0.0  3.0701730E-005 -1.4677918E-004 0.0  2.7039531E-005 -1.7105289E-004 0.0  2.6498023E-005 -1.9906720E-004 0.0  2.5913109E-005 -2.2571619E-004 0.0  2.3678384E-005 -2.4930673E-004 0.0  2.2932783E-005 -2.7623739E-004 0.0  1.6910816E-005 -2.7337633E-004 0.0  1.9392909E-005 -2.9635821E-004 0.0  1.4321375E-005 -3.0642023E-004 0.0  1.2740374E-005 -3.1499813E-004 0.0  9.7967709E-006 -3.2478084E-004 0.0  9.8489746E-006 -3.3070917E-004 0.0  6.8436096E-006 -3.2700197E-004 0.0  4.8936767E-006 -3.2949140E-004 0.0  4.3074295E-006 -3.2972073E-004 0.0  2.0626567E-006 -3.3028761E-004 0.0  1.6728988E-006 -3.2556979E-004 0.0  2.4049254E-006 -3.2938141E-004 0.0 -1.1115200E-006 -3.1623999E-004 0.0 -1.4870465E-006 -3.1489015E-004 0.0 -2.3881279E-006 -3.0937060E-004 0.0 -3.3878531E-006 -3.0528262E-004 0.0 -4.1852111E-006 -2.9915034E-004 0.0 -2.5302494E-006 -2.9525807E-004 0.0 -3.8987526E-006 -2.8315573E-004 0.0 -4.8360128E-006 -2.7919943E-004 0.0 -3.3672131E-006 -2.7240948E-004 0.0 -4.7536044E-006 -2.6967566E-004 0.0 -6.0799064E-006 -2.5940170E-004 0.0 -5.8787318E-006 -2.5383095E-004 0.0 -4.1599995E-006 -2.4578942E-004 0.0 -4.9993599E-006 -2.4237967E-004 0.0 -5.7746417E-006 -2.3266508E-004 0.0 -6.5288687E-006 -2.2640859E-004 0.0 -5.0823501E-006 -2.2172335E-004 0.0 -5.2827596E-006 -2.1692167E-004 0.0 -5.6351834E-006 -2.0778717E-004 0.0 -6.0815642E-006 -2.0236593E-004 0.0 -4.3913370E-006 -1.9914467E-004 0.0 -4.9839708E-006 -1.9412392E-004 0.0 -5.5070912E-006 -1.8664208E-004 0.0 -5.8245991E-006 -1.8160394E-004 0.0 -4.3274869E-006 -1.7908888E-004 0.0 -5.3624739E-006 -1.7320606E-004 0.0 -5.7788723E-006 -1.6646657E-004 0.0 -5.9180056E-006 -1.6172181E-004 0.0 -4.4184627E-006 -1.6034654E-004 0.0 -5.1484500E-006 -1.5463086E-004 0.0 -5.3326430E-006 -1.4862304E-004 0.0 -4.8382531E-006 -1.4488618E-004 0.0 -5.2133654E-006 -1.4011475E-004 0.0 -4.1726332E-006 -1.3927547E-004 0.0 -4.3348739E-006 -1.3300699E-004 0.0 -4.4136563E-006 -1.2936008E-004 0.0 -4.4745613E-006 -1.2524884E-004 0.0 -3.8779214E-006 -1.2540366E-004 0.0 -4.1410427E-006 -1.1972050E-004 0.0 -4.1836959E-006 -1.1614776E-004 0.0 -4.1993245E-006 -1.1246071E-004 0.0 -4.3341828E-006 -1.0939686E-004 0.0 -3.6393131E-006 -1.0880383E-004 0.0 -3.9771462E-006 -1.0375262E-004 0.0 -3.8257542E-006 -1.0006984E-004 0.0 -3.6815364E-006 -9.7034260E-005 0.0 -3.5712250E-006 -9.4915119E-005 0.0 -2.8559408E-006 -9.5192108E-005 0.0 -2.9766189E-006 -9.0335982E-005 0.0 -3.0436924E-006 -8.7655515E-005 0.0 -2.9899115E-006 -8.5620930E-005 0.0 -3.3282041E-006 -8.2939506E-005 0.0 -3.0730456E-006 -8.0457805E-005 0.0 -2.8879425E-006 -7.8809771E-005 0.0 -2.4018793E-006 -7.7481043E-005 0.0 -2.0893202E-006 -7.6129740E-005 0.0 -1.0987059E-006 -7.6971969E-005 0.0 -7.1177923E-007 -7.3147162E-005 0.0 -5.2663055E-008 -7.1127016E-005 0.0  4.0739700E-005 -1.0882750E-003 0.0  7.6978614E-005 -1.1077351E-003 0.0  1.1449368E-004 -1.0994870E-003 0.0  1.5453281E-004 -1.0920490E-003 0.0  2.0002470E-004 -1.0880764E-003 0.0  2.4116523E-004 -1.0857173E-003 0.0  2.9713367E-004 -1.0660036E-003 0.0  3.3444768E-004 -1.0507622E-003 0.0  3.9638875E-004 -1.0300747E-003 0.0  4.5393456E-004 -1.0225374E-003 0.0  4.9771477E-004 -9.7922429E-004 0.0  5.4852500E-004 -9.5293521E-004 0.0  5.9896887E-004 -8.9751396E-004 0.0  6.3641946E-004 -8.4647605E-004 0.0  6.7930025E-004 -7.6882454E-004 0.0  7.0583264E-004 -6.9419105E-004 0.0  7.5970262E-004 -6.1865725E-004 0.0  7.6943810E-004 -5.2184824E-004 0.0  7.8406736E-004 -4.2166695E-004 0.0  8.1225503E-004 -3.2845744E-004 0.0  7.6983678E-004 -2.1952633E-004 0.0  7.2455184E-004 -1.2317210E-004 0.0  6.6733286E-004 -2.1163020E-005 0.0  5.9859152E-004  4.7345500E-005 0.0  5.1175250E-004  9.7908300E-005 0.0  4.3485214E-004  1.2678629E-004 0.0  3.8240478E-004  1.6553011E-004 0.0  3.1428581E-004  1.5476333E-004 0.0  2.7106928E-004  1.5527645E-004 0.0  2.2569517E-004  1.5670163E-004 0.0  1.9656409E-004  1.4450392E-004 0.0  1.6359599E-004  1.3185502E-004 0.0  1.4671183E-004  1.3199626E-004 0.0  1.3278142E-004  1.2075179E-004 0.0  1.0832311E-004  1.1020899E-004 0.0  8.3799896E-005  1.1555516E-004 0.0  7.6097530E-005  1.2609358E-004 0.0  6.7777659E-005  1.3523872E-004 0.0  2.4989053E-004 -5.9975775E-004 0.0  2.7445338E-004 -5.8116577E-004 0.0  3.0626024E-004 -5.4649801E-004 0.0  3.3010741E-004 -5.2963536E-004 0.0  3.4280644E-004 -4.9025370E-004 0.0  3.6928128E-004 -4.6557484E-004 0.0  3.8164271E-004 -4.1969025E-004 0.0  3.9451284E-004 -3.9056196E-004 0.0  4.0161888E-004 -3.4478556E-004 0.0  3.9767577E-004 -3.0535399E-004 0.0  4.0025241E-004 -2.6127161E-004 0.0  4.0511104E-004 -2.1941173E-004 0.0  3.8284163E-004 -1.8676689E-004 0.0  3.6850760E-004 -1.4830473E-004 0.0  3.5988892E-004 -1.0753086E-004 0.0  3.3966055E-004 -8.0018207E-005 0.0  3.1422202E-004 -5.2111617E-005 0.0  2.9308603E-004 -2.8648387E-005 0.0  2.6747275E-004 -1.1358846E-005 0.0  2.4973530E-004  9.6294973E-006 0.0  2.2493582E-004  1.6866021E-005 0.0  2.0485402E-004  2.5449472E-005 0.0  1.8589821E-004  3.8993744E-005 0.0  1.6995022E-004  4.1752307E-005 0.0  1.5155199E-004  4.5999317E-005 0.0  1.3554715E-004  4.5671103E-005 0.0  1.2346451E-004  4.9126514E-005 0.0  1.0963227E-004  5.2255153E-005 0.0  1.2766498E-004  7.3981874E-005 0.0  1.3835574E-004  6.7891964E-005 0.0  1.5122876E-004  7.2310740E-005 0.0  1.7911235E-004  7.5375950E-005 0.0  1.9574009E-004  6.7458518E-005 0.0  2.2097621E-004  5.6282087E-005 0.0  2.4748308E-004  5.3976484E-005 0.0  2.7777950E-004  3.9994969E-005 0.0  3.1006248E-004  2.2852597E-005 0.0  3.4490999E-004 -6.1644867E-007 0.0  3.6829402E-004 -3.2262336E-005 0.0  3.9901758E-004 -5.8994869E-005 0.0  4.4518923E-004 -9.4144780E-005 0.0  4.7064157E-004 -1.3761399E-004 0.0  4.7928975E-004 -2.0065397E-004 0.0  4.8939700E-004 -2.4801010E-004 0.0  5.0745040E-004 -3.0351105E-004 0.0  5.0906518E-004 -3.5854695E-004 0.0  4.9108189E-004 -4.1244194E-004 0.0  4.7756749E-004 -4.6306364E-004 0.0  4.5944667E-004 -5.1145876E-004 0.0  4.4168032E-004 -5.5468367E-004 0.0  4.2545032E-004 -6.0223007E-004 0.0  4.0178648E-004 -6.3922520E-004 0.0  3.5950464E-004 -6.6549391E-004 0.0  3.2547734E-004 -6.9696001E-004 0.0  2.9889181E-004 -7.2714165E-004 0.0  2.3173704E-004 -6.9711543E-004 0.0  5.7252776E-005  1.5635723E-004 0.0  7.0284207E-005  1.7358052E-004 0.0  8.2615940E-005  1.9230535E-004 0.0  9.7445139E-005  2.2366200E-004 0.0  1.1784838E-004  2.4646293E-004 0.0  1.4850728E-004  2.7064222E-004 0.0  1.7363922E-004  3.1119346E-004 0.0  2.0277906E-004  3.6184850E-004 0.0  2.9407628E-004  4.4308065E-004 0.0  3.9406680E-004  4.9616404E-004 0.0  5.8577680E-004  5.7915171E-004 0.0  4.3892682E-004 -1.2091659E-003 0.0  3.8902502E-004 -1.1169785E-003 0.0  3.4795505E-004 -1.0570930E-003 0.0  3.0845747E-004 -9.7985847E-004 0.0  2.6638457E-004 -9.3290536E-004 0.0  2.2643357E-004 -8.7756254E-004 0.0  1.8950233E-004 -8.3401337E-004 0.0  6.0936000E-004 -1.2292479E-003 0.0  6.8469524E-004 -1.0903276E-003 0.0  7.4651268E-004 -9.5351141E-004 0.0  7.7288196E-004 -8.2686060E-004 0.0  7.9654640E-004 -7.0287101E-004 0.0  7.9417062E-004 -6.0046972E-004 0.0  7.8007997E-004 -5.0083029E-004 0.0  7.6283152E-004 -4.1287416E-004 0.0  7.3341513E-004 -3.3740767E-004 0.0  6.8416956E-004 -2.6265908E-004 0.0  6.5416049E-004 -2.1418177E-004 0.0  6.1172716E-004 -1.5867026E-004 0.0  5.7484498E-004 -1.2556779E-004 0.0  5.3239705E-004 -9.4268095E-005 0.0  4.9857313E-004 -7.2037047E-005 0.0  4.5752400E-004 -4.6764315E-005 0.0  4.2612884E-004 -3.6454386E-005 0.0  3.8968056E-004 -2.6339548E-005 0.0  3.6239991E-004 -1.5323330E-005 0.0  3.2990825E-004 -1.1480795E-005 0.0  3.0639153E-004 -8.9614461E-006 0.0  2.8212046E-004 -7.8894579E-006 0.0  2.5804337E-004 -7.3261837E-006 0.0  2.4091219E-004 -7.9887226E-006 0.0  2.1802787E-004 -8.0407413E-006 0.0  2.0329163E-004 -9.3713148E-006 0.0  1.8410108E-004 -1.0738626E-005 0.0  1.7269855E-004 -1.3595415E-005 0.0  1.5693622E-004 -1.5469510E-005 0.0  1.4503713E-004 -1.6906929E-005 0.0  1.3328252E-004 -1.8717885E-005 0.0  1.2162368E-004 -2.0865772E-005 0.0  1.1127868E-004 -2.0870932E-005 0.0  1.0024670E-004 -2.0543705E-005 0.0  8.9349271E-005 -2.3502424E-005 0.0  7.7732791E-005 -2.2406926E-005 0.0  6.7073066E-005 -2.3388265E-005 0.0  5.7423690E-005 -2.4429951E-005 0.0  4.4947582E-005 -2.1444121E-005 0.0  6.2846482E-005 -1.0392239E-003 0.0  3.8337774E-005 -8.7670349E-004 0.0  7.3338580E-005 -7.1945789E-004 0.0  2.4639864E-005 -6.2075436E-004 0.0  9.1818926E-005 -4.0281299E-004 0.0  3.3271509E-005 -3.9281774E-004 0.0  3.1619095E-005 -1.4679611E-004 0.0  1.9571107E-005 -1.2816929E-004 0.0  1.2671113E-005 -4.7446355E-005 0.0  2.2366493E-005 -4.3946751E-006 0.0  3.7295446E-005 -5.2257461E-006 0.0  4.7306886E-005 -8.1685282E-007 0.0  4.7290438E-005 -1.6202654E-007 0.0  4.3574646E-005  1.4111826E-006 0.0  3.7468377E-005  2.5748219E-006 0.0  2.8558984E-005  3.0418359E-006 0.0  2.1883293E-005  2.0191599E-006 0.0  1.6384477E-005  1.4938365E-006 0.0  1.2124103E-005  1.3747435E-006 0.0  8.9792558E-006  1.1823594E-006 0.0  5.7304139E-006  9.6914591E-007 0.0  3.5958717E-006  8.0146363E-007 0.0  1.8405945E-006  5.5463934E-007 0.0  4.7029199E-007  1.9156236E-006 0.0  5.1181755E-007  3.4574735E-006 0.0  3.9513941E-007  4.9134125E-006 0.0  3.6370929E-007  6.1823169E-006 0.0  2.5730933E-007  7.2029473E-006 0.0  1.3538007E-007  7.8718446E-006 0.0  2.4897370E-008  8.1424251E-006 0.0  2.0872099E-008  8.1451440E-006 0.0 -1.8680210E-007  7.9379593E-006 0.0 -2.3318295E-007  7.4153317E-006 0.0 -3.0850693E-007  6.6443042E-006 0.0 -3.0270994E-007  5.9320949E-006 0.0 -3.1580758E-007  5.0463635E-006 0.0 -2.8545203E-007  4.3484503E-006 0.0 -2.4938512E-007  3.5416660E-006 0.0 -2.2136255E-007  2.9651756E-006 0.0 -1.9705030E-007  2.4203092E-006 0.0 -1.5863147E-007  1.8632287E-006 0.0 -1.3058605E-007  1.4602185E-006 0.0 -1.1298426E-007  1.1583752E-006 0.0 -9.8979175E-008  8.3211487E-007 0.0 -8.3905827E-008  6.1114729E-007 0.0 -7.7152115E-008  3.6887315E-007 0.0 -5.9877301E-008  1.9809023E-007 0.0 -2.0947713E-007  5.2145828E-008 0.0 -3.6864825E-007  6.6303179E-008 0.0 -5.9536681E-007  6.1632142E-008 0.0 -7.2551874E-007  6.7078347E-008 0.0 -8.9606328E-007  5.0292539E-008 0.0 -1.0089824E-006  3.9387170E-008 0.0 -1.0953327E-006  2.5404249E-008 0.0 -1.1365678E-006  2.1613975E-009 0.0 -1.1179722E-006 -1.4570526E-008 0.0 -1.0411320E-006 -1.6713568E-008 0.0 -9.1189875E-007 -6.3402941E-008 0.0 -7.4082174E-007 -6.1770078E-008 0.0 -4.9174925E-007 -9.7382181E-008 0.0 -2.9177502E-007 -5.9950231E-008 0.0 -1.6281111E-007 -8.0294447E-007 0.0 -1.4808862E-007 -1.0876754E-006 0.0 -1.9730679E-007 -1.3960993E-006 0.0 -2.2138429E-007 -2.4914726E-006 0.0 -4.1224278E-007 -3.2272594E-006 0.0 -2.6484536E-007 -4.0589171E-006 0.0 -8.0353889E-007 -6.3979237E-006 0.0 -5.4636451E-007 -8.7167553E-006 0.0 -9.3158021E-007 -1.2795338E-005 0.0 -1.3478243E-006 -1.5032862E-005 0.0 -1.0258762E-006 -1.9552752E-005 0.0 -2.6065565E-006 -2.4563311E-005 0.0 -7.5721305E-007 -2.8387234E-005 0.0 -1.5072624E-006 -3.0188042E-005 0.0 -4.8295031E-007 -3.3978803E-005 0.0 -2.4333757E-007 -3.7443462E-005 0.0 -7.8931802E-007 -3.9821761E-005 0.0 -2.9555695E-005 -3.2506814E-004 0.0 -5.7916929E-005 -3.2530387E-004 0.0 -8.3534383E-005 -3.2589565E-004 0.0 -1.1648347E-004 -3.2485646E-004 0.0 -1.4408990E-004 -3.2357540E-004 0.0 -1.7120851E-004 -3.2519877E-004 0.0 -2.0106808E-004 -3.2564279E-004 0.0 -2.2756961E-004 -3.2521476E-004 0.0 -2.5747530E-004 -3.2316909E-004 0.0 -2.8624255E-004 -3.2436805E-004 0.0 -3.1652656E-004 -3.2546566E-004 0.0 -3.4609196E-004 -3.2468796E-004 0.0 -3.7443405E-004 -3.2323007E-004 0.0 -4.0535472E-004 -3.2345485E-004 0.0 -4.3623890E-004 -3.1994891E-004 0.0 -4.6489954E-004 -3.2171595E-004 0.0 -4.9942492E-004 -3.2190432E-004 0.0 -5.2710112E-004 -3.1869564E-004 0.0 -5.6150613E-004 -3.1838814E-004 0.0 -5.9663669E-004 -3.1756545E-004 0.0 -6.3168472E-004 -3.2058229E-004 0.0 -6.6240645E-004 -3.1355214E-004 0.0 -7.0031263E-004 -3.1143488E-004 0.0 -7.4100438E-004 -3.1704612E-004 0.0 -7.8032650E-004 -3.1689174E-004 0.0 -8.2201881E-004 -3.1764675E-004 0.0 -8.5970302E-004 -3.1740533E-004 0.0 -9.0894743E-004 -3.2392660E-004 0.0 -9.4765247E-004 -3.2365081E-004 0.0 -9.9955454E-004 -3.3127473E-004 0.0 -1.0461577E-003 -3.4064060E-004 0.0 -1.1003236E-003 -3.5590501E-004 0.0 -1.1579532E-003 -3.7494265E-004 0.0 -1.2073358E-003 -3.9599471E-004 0.0 -1.2663336E-003 -4.1373154E-004 0.0 -1.3253921E-003 -4.6298205E-004 0.0 -1.3934216E-003 -5.0099087E-004 0.0 -1.4452786E-003 -5.4662136E-004 0.0 -1.4956239E-003 -5.9980974E-004 0.0 -1.5583532E-003 -6.8050007E-004 0.0 -1.6088536E-003 -7.5335636E-004 0.0 -1.6442823E-003 -8.4579097E-004 0.0 -1.6835041E-003 -9.4235125E-004 0.0 -1.6999743E-003 -1.0678597E-003 0.0 -1.7109418E-003 -1.1897007E-003 0.0 -1.7021499E-003 -1.3064726E-003 0.0 -1.6663128E-003 -1.4572767E-003 0.0 -1.6129943E-003 -1.5736412E-003 0.0 -1.5214369E-003 -1.6849770E-003 0.0 -1.3586784E-003 -1.8714348E-003 0.0 -1.2972794E-003 -1.9549692E-003 0.0 -1.2173029E-003 -1.9990120E-003 0.0 -1.0985460E-003 -2.0363257E-003 0.0 -9.8512437E-004 -2.0712704E-003 0.0 -8.8052914E-004 -2.0708562E-003 0.0 -7.6061056E-004 -2.0670595E-003 0.0 -6.5167446E-004 -2.0639486E-003 0.0 -5.4193884E-004 -2.0272973E-003 0.0 -4.3866465E-004 -2.0133222E-003 0.0 -3.3471215E-004 -1.9765013E-003 0.0 -2.5007273E-004 -1.9393486E-003 0.0 -1.5079612E-004 -1.8877798E-003 0.0 -6.8480066E-005 -1.8439949E-003 0.0  3.4385170E-005 -1.7790779E-003 0.0  1.1679223E-004 -1.7251402E-003 0.0  2.2534310E-004 -1.6452215E-003 0.0  3.1172785E-004 -1.5674888E-003 0.0  3.9263132E-004 -1.4752134E-003 0.0  1.8151974E-005 -7.2010954E-006 0.0  1.0860501E-005  2.3163880E-006 0.0  6.4523362E-006  1.1413235E-005 0.0  3.8568720E-006  1.7204216E-005 0.0  2.4060300E-006  2.2441907E-005 0.0  1.6631111E-006  2.5513327E-005 0.0  9.8622081E-007  2.7635333E-005 0.0  6.7674477E-007  2.8918998E-005 0.0  3.6400911E-007  2.9551001E-005 0.0  2.5500302E-007  3.0705858E-005 0.0  4.3765404E-007  3.1180056E-005 0.0  3.2807109E-007  3.3405247E-005 0.0  4.6131814E-007  3.4150977E-005 0.0 -7.4056577E-007  3.3806704E-005 0.0 -9.0938612E-007  3.2797791E-005 0.0 -5.8123398E-006  2.2714599E-005 0.0 -7.3229559E-006  1.6198650E-006 0.0 -8.6373752E-006 -3.5568425E-005 0.0 -9.2527833E-006 -5.6906450E-005 0.0 -1.6009407E-005 -1.2918041E-004 0.0 -2.2845409E-005 -1.5278976E-004 0.0 -1.1629556E-005 -2.1195310E-004 0.0 -1.4146762E-005 -2.5315393E-004 0.0 -2.4429863E-005 -3.9837949E-004 0.0 -1.4907372E-005 -4.0046660E-004 0.0 -2.0508860E-005 -5.0753360E-004 0.0 -2.2658054E-005 -5.2276347E-004 0.0 -2.4521799E-005 -6.6219505E-004 0.0 -2.0085045E-005 -6.8270345E-004 0.0 -4.2693817E-005 -8.7300699E-004 0.0 -4.0644366E-005 -9.5026168E-004 0.0 -3.3185128E-005 -1.0168776E-003 0.0 -4.2095145E-005 -1.2334719E-003 0.0 -3.2221319E-005 -1.3438676E-003 0.0 -2.1895070E-005 -1.3860646E-003 0.0  2.2982037E-005 -1.3953969E-003 0.0  3.5518063E-005 -1.4007422E-003 0.0  6.4967433E-005 -1.4051248E-003 0.0  7.5162998E-005 -1.4154110E-003 0.0  1.1567040E-004 -1.4303323E-003 0.0  1.3219275E-004 -1.4482534E-003 0.0  1.4348537E-004 -1.4758017E-003 0.0  2.4128657E-004 -1.4812585E-003 0.0  3.1255103E-004 -1.4892006E-003 0.0  3.9789100E-004 -1.4880430E-003 0.0  4.6484170E-004 -1.4732083E-003 0.0  5.5994156E-004 -1.4489815E-003 0.0  6.4533297E-004 -1.4051731E-003 0.0  7.2082904E-004 -1.3496177E-003 0.0  8.1406129E-004 -1.2818845E-003 0.0  9.1104710E-004 -1.1730398E-003 0.0  1.0061819E-003 -1.0645218E-003 0.0  1.0740094E-003 -9.2684623E-004 0.0  1.1204687E-003 -7.3920580E-004 0.0  1.1722424E-003 -5.6672070E-004 0.0  1.1745939E-003 -3.0246952E-004 0.0  1.1637856E-003 -3.7288386E-005 0.0  1.0766757E-003  3.0693814E-004 0.0 -9.2651652E-006 -1.6630117E-005 0.0  2.2049183E-007 -6.5108716E-005 0.0 -3.1526036E-006 -5.8697033E-005 0.0 -2.2055069E-006 -6.6416863E-005 0.0 -1.3437857E-006 -6.7973893E-005 0.0  2.6258257E-007 -8.6220318E-005 0.0  1.0855729E-007 -8.1453837E-005 0.0  1.7621209E-006 -8.2434906E-005 0.0  2.2093669E-006 -7.5872294E-005 0.0  2.3324573E-006 -7.7331470E-005 0.0  2.5119709E-006 -6.1880507E-005 0.0  2.3161871E-006 -6.0084605E-005 0.0  2.3470019E-006 -5.1629158E-005 0.0  2.1533175E-006 -3.6280970E-005 0.0  1.9273151E-006 -3.8555528E-005 0.0  1.3298579E-006 -3.0250604E-005 0.0  9.2736693E-007 -1.9548294E-005 0.0  2.6555144E-007 -2.3273437E-005 0.0  6.8623525E-008 -1.5397608E-005 0.0  3.1242769E-007 -2.2477715E-005 0.0 -1.5010760E-009 -1.6683760E-005 0.0 -1.9602225E-007 -2.3525193E-005 0.0  3.0680947E-007 -1.5971760E-005 0.0 -2.2449546E-007 -2.2599289E-005 0.0  5.1812680E-008 -1.4988864E-005 0.0 -1.8438171E-007 -2.2958244E-005 0.0  1.0952712E-007 -1.5629004E-005 0.0  3.0124975E-007 -2.3357263E-005 0.0  1.1408888E-007 -1.7867763E-005 0.0 -2.5133138E-007 -2.5095910E-005 0.0  3.4929673E-007 -1.5768111E-005 0.0 -2.0542874E-007 -2.3435039E-005 0.0  7.1970198E-008 -1.4435625E-005 0.0 -2.2476056E-007 -2.3755263E-005 0.0  2.2926820E-007 -1.5038792E-005 0.0 -1.5829863E-007 -2.4013212E-005 0.0  1.3499886E-007 -1.5036603E-005 0.0  6.2992118E-007 -2.4366804E-005 0.0 -1.3707409E-007 -1.6694177E-005 0.0 -6.3038957E-007 -2.7025581E-005 0.0  5.0810976E-007 -1.3634397E-005 0.0 -1.5291815E-007 -2.3954940E-005 0.0  2.9750862E-007 -1.2923550E-005 0.0 -1.5329687E-007 -2.3406601E-005 0.0  2.1921246E-007 -1.2678047E-005 0.0  8.1589245E-007 -2.3393213E-005 0.0 -1.1044617E-007 -1.4161978E-005 0.0 -6.6344949E-007 -2.5951023E-005 0.0  4.5764760E-007 -1.0361143E-005 0.0  9.2649683E-007 -2.2340277E-005 0.0 -8.8143314E-008 -1.1400847E-005 0.0 -7.1998924E-007 -2.4154003E-005 0.0  7.6562230E-007 -6.7455539E-006 0.0 -2.6105081E-008 -1.9405184E-005 0.0  3.5354226E-007 -5.0226392E-006 0.0  1.0995386E-006 -1.7603100E-005 0.0  4.8383372E-008 -5.9455219E-006 0.0 -6.0227186E-007 -1.9424499E-005 0.0  9.6051720E-007  4.8077163E-007 0.0  7.2862199E-008 -1.3165942E-005 0.0  5.3089692E-007  3.2074599E-006 0.0  1.3539259E-006 -1.0101987E-005 0.0  1.3394051E-007  3.1822836E-006 0.0 -5.8656962E-007 -1.1103961E-005 0.0  1.1941471E-006  1.1055507E-005 0.0 -2.1393612E-008 -3.8655653E-006 0.0  7.7224514E-007  1.4873632E-005 0.0  1.5269231E-006  5.8438577E-007 0.0  3.0497504E-007  1.5212469E-005 0.0 -3.4711879E-007  4.9002475E-007 0.0  1.3244759E-006  2.4878786E-005 0.0 -7.9980335E-008  9.0936236E-006 0.0  9.5647736E-007  2.9416013E-005 0.0  1.7756924E-006  1.5138449E-005 0.0  3.7090338E-007  3.0495734E-005 0.0 -2.1769722E-007  1.6399262E-005 0.0  1.3024788E-006  4.1139263E-005 0.0 -9.8536424E-008  2.5919958E-005 0.0  8.3544830E-007  4.5378818E-005 0.0  1.6278961E-006  3.2271320E-005 0.0  2.9214931E-007  4.6160521E-005 0.0 -6.3838186E-007  3.3866583E-005 0.0  7.5635845E-007  5.3739267E-005 0.0 -2.3754296E-007  4.0313335E-005 0.0  2.6101118E-007  5.5269058E-005 0.0  8.9621881E-007  4.4747476E-005 0.0 -5.3858139E-007  5.2819450E-005 0.0 -1.1302259E-006  4.3905427E-005 0.0 -5.0269465E-007  5.3497064E-005 0.0 -4.9406733E-007  4.5513034E-005 0.0 -1.3284589E-006  4.8004815E-005 0.0 -1.4717610E-006  4.2478118E-005 0.0 -1.3601710E-006  4.1239116E-005 0.0 -1.0433190E-006  3.5673776E-005 0.0 -8.2001517E-007  3.2650900E-005 0.0 -3.8180727E-007  3.0025681E-005 0.0 -1.8666344E-007  2.9176360E-005 0.0  4.3300249E-008  2.8785251E-005 0.0  9.4532662E-008  2.8872967E-005 0.0  1.8111392E-005 -1.3491769E-003 0.0  2.5805998E-005 -1.2354038E-003 0.0  2.1058820E-005 -1.2214344E-003 0.0 -1.0283769E-003 -2.6788377E-004 0.0 -5.2280880E-004 -2.6110638E-004 0.0 -7.3096327E-004 -2.4910460E-004 0.0  5.0038572E-004 -5.7647263E-005 0.0 -3.7673612E-004 -2.7517075E-004 0.0 -1.4647030E-003 -5.4899623E-004 0.0  3.3766844E-005 -3.7455269E-006 0.0  2.6153406E-004  2.7397701E-005 0.0  1.4662118E-004  5.0853259E-006 0.0  8.4568514E-005 -6.6778516E-006 0.0 -3.5246420E-004 -1.8201260E-003 0.0  3.7141955E-004  1.2898187E-005 0.0 -1.2409616E-003 -3.4484194E-004 0.0  6.5422303E-004 -2.5291498E-004 0.0 -2.6098608E-004 -2.7043796E-004 0.0 -1.6206051E-003 -9.4475196E-004 0.0 -1.1858055E-005  1.1184379E-005 0.0 -8.2615652E-004 -1.9187115E-003 0.0  4.4908739E-005 -1.6258683E-003 0.0  2.0614674E-004  1.6267359E-005 0.0 -1.8039252E-004 -2.7737210E-004 0.0  7.0311200E-004 -5.0322441E-004 0.0  1.1396632E-004 -2.5674256E-006 0.0 -8.8335830E-004 -2.4568858E-004 0.0  9.7241253E-006  1.3438261E-005 0.0 -6.1668301E-004 -2.5060429E-004 0.0  3.0070836E-006  2.5742022E-005 0.0 -1.6287264E-005 -9.4088809E-005 0.0 -1.2040903E-003 -1.9052917E-003 0.0  2.3046798E-007  3.4716783E-005 0.0  6.9964159E-004 -9.0429562E-004 0.0 -1.6330670E-003 -1.3859094E-003 0.0 -9.5942150E-005 -2.7226330E-004 0.0  3.1237420E-004  2.3188374E-005 0.0  1.7014990E-004  1.3331427E-005 0.0 -5.8731416E-004 -1.8788907E-003 0.0  4.3438196E-004 -1.2474340E-005 0.0  2.5267914E-004 -1.5226712E-003 0.0 -1.5758411E-004 -1.7556001E-003 0.0  5.8072411E-004 -1.3274402E-004 0.0 -1.5638353E-003 -7.1820026E-004 0.0 -3.1866708E-004 -2.6925284E-004 0.0 -4.2481112E-004 -2.5574131E-004 0.0  6.3064268E-005 -7.3245490E-006 0.0 -1.3562409E-003 -4.3340961E-004 0.0 -1.1320409E-003 -2.9629846E-004 0.0 -8.0787738E-004 -2.4902627E-004 0.0  1.2685771E-006  2.9196214E-005 0.0 -3.0058339E-005 -1.9058378E-004 0.0  7.2005931E-007  3.2417736E-005 0.0 -1.5284940E-003 -1.6965727E-003 0.0  5.9348134E-004 -1.2184387E-003 0.0 -4.2841377E-005 -2.7847294E-004 0.0 -3.8777434E-006  2.8808604E-005 0.0 -1.3192684E-005  2.3306266E-005 0.0 -2.7488218E-005 -5.8679636E-006 0.0 -3.4779455E-005  7.8960608E-006 0.0 -1.3509585E-005  2.7804619E-005 0.0 -2.8571333E-005  2.1126376E-005 0.0 -5.8485130E-005 -7.6928750E-006 0.0 -6.1005072E-005  6.1985825E-006 0.0 -2.3789341E-005  2.6873492E-005 0.0 -5.9566864E-005  1.5611778E-005 0.0 -1.7734181E-005  3.0515727E-005 0.0 -4.1702265E-005  2.5744539E-005 0.0 -9.1297151E-005  5.7328536E-006 0.0 -8.4477771E-005  1.7311332E-005 0.0 -2.7310902E-005  3.6173254E-005 0.0 -5.8277808E-005  3.2915825E-005 0.0 -1.2860256E-004  9.3695356E-006 0.0 -1.1505996E-004  2.5896852E-005 0.0 -3.9432796E-005  4.7120115E-005 0.0 -1.0228185E-004  4.3003532E-005 0.0 -2.0760331E-005  6.0914074E-005 0.0 -6.6802707E-005  6.3250931E-005 0.0 -1.6624175E-004  3.9932319E-005 0.0 -1.3888313E-004  6.5012506E-005 0.0 -3.6683586E-005  8.4457830E-005 0.0 -1.1297399E-004  8.7656371E-005 0.0 -1.1915455E-005  1.0381593E-004 0.0 -6.9923901E-005  1.1217261E-004 0.0 -1.7532602E-004  9.6507399E-005 0.0 -1.6994174E-004  1.1644141E-004 0.0 -3.0900655E-005  1.3995007E-004 0.0 -1.0299948E-004  1.4200540E-004 0.0 -2.6870056E-004  1.1573407E-004 0.0 -2.2322923E-004  1.2997085E-004 0.0 -4.5834377E-005  1.6143129E-004 0.0 -1.9150542E-004  1.3252036E-004 0.0 -4.5208757E-007  1.4764502E-004 0.0 -1.0461400E-004  1.1515324E-004 0.0 -3.1325799E-004  9.1224734E-005 0.0 -2.6762265E-004  3.1866562E-005 0.0 -3.8692456E-005  5.6660288E-005 0.0 -1.7201263E-004 -5.7008555E-005 0.0 -4.1916624E-004 -8.2153529E-005 0.0 -3.4731436E-004 -2.4905615E-004 0.0 -1.0943628E-004 -2.2124420E-004 0.0 -2.3989316E-004  3.2009655E-005 0.0 -2.5510613E-004 -2.1810357E-006 0.0 -3.8566730E-004  9.3922833E-005 0.0 -6.1614874E-004 -2.7090738E-004 0.0 -5.1425020E-004 -4.5668916E-004 0.0 -9.4144409E-005 -2.6951030E-005 0.0 -4.1096516E-004  6.0159395E-005 0.0 -6.0718303E-004 -1.1249375E-004 0.0 -8.6293393E-005 -4.5055840E-005 0.0  4.2214401E-006  4.7782031E-005 0.0 -4.9497716E-006  3.0779269E-005 0.0  1.8888918E-006  3.2039957E-005 0.0 -7.9165094E-004 -5.0265529E-004 0.0  5.8427252E-005  1.4868372E-004 0.0  1.0681120E-004  1.3468493E-004 0.0  2.5622908E-005  5.6309701E-005 0.0 -6.9449728E-004 -7.3592514E-004 0.0 -4.4778086E-004 -6.9258614E-004 0.0 -3.4029685E-004 -2.0181806E-005 0.0 -3.5032952E-004 -5.2495847E-005 0.0 -9.6558223E-004 -7.3991840E-004 0.0 -5.3850925E-004  3.6550796E-005 0.0 -1.2614198E-004 -7.0164838E-005 0.0  8.8298159E-006  2.7677398E-005 0.0 -5.8682093E-004 -1.3251100E-005 0.0  4.1045582E-005  4.1854245E-005 0.0 -1.2263037E-004 -1.0018465E-004 0.0  1.6346796E-005  2.6406120E-005 0.0 -8.4975856E-004 -9.8558067E-004 0.0 -1.1163647E-003 -9.7852787E-004 0.0 -1.0234741E-003 -5.4783729E-004 0.0  1.6558270E-004  1.2377142E-004 0.0  5.9141485E-005  4.6168820E-005 0.0 -7.6732676E-005 -6.6184650E-005 0.0 -1.0689638E-004 -1.1930346E-004 0.0  2.1268152E-004  1.1043270E-004 0.0 -4.4958604E-004 -7.8684972E-005 0.0 -4.3287605E-004 -4.7203706E-005 0.0  2.4690915E-005  8.0755760E-005 0.0  4.5931359E-005  1.0056555E-004 0.0  7.0945902E-005  7.4392643E-005 0.0  1.0053360E-004  8.3726103E-005 0.0  1.0236248E-004  1.4225051E-004 0.0 -1.0095095E-003 -1.2558576E-003 0.0 -4.4817381E-004 -1.0915288E-004 0.0 -3.4793898E-004 -7.1656702E-005 0.0  2.0659342E-005  4.1996772E-005 0.0  5.1320752E-005  3.1777630E-005 0.0  3.2824943E-005  3.3420618E-005 0.0  1.1866123E-005  2.9523624E-005 0.0 -1.6475949E-004 -1.2332417E-004 0.0 -1.7022231E-004 -9.9169832E-005 0.0  5.4176436E-007  3.1311310E-005 0.0 -4.1812187E-004  4.0625291E-005 0.0 -5.9665659E-004 -3.8163400E-005 0.0 -7.7790510E-004 -1.2525309E-003 0.0 -4.6148437E-004  1.0232404E-006 0.0  1.9805941E-004  1.0606442E-004 0.0  1.4422816E-004  1.2056626E-004 0.0  7.6512769E-005  9.9574666E-005 0.0  1.3168138E-004  8.3021098E-005 0.0 -7.1327609E-004 -4.1473040E-005 0.0 -6.8356483E-004 -2.3005973E-005 0.0  9.7057462E-006  2.6361708E-005 0.0  3.9142926E-006  3.0315910E-005 0.0  2.6829241E-005  2.2590135E-005 0.0  1.6410538E-004  1.0102265E-004 0.0 -1.2480596E-003 -1.2307762E-003 0.0  2.7986648E-004  7.0194191E-005 0.0  2.3015674E-004  5.4603316E-005 0.0 -6.0682369E-004 -7.4436481E-005 0.0 -5.2809481E-004 -1.1115704E-004 0.0 -1.3126743E-003 -1.0122297E-003 0.0 -8.4166827E-004 -9.9894747E-005 0.0 -8.5530958E-004 -9.6771901E-005 0.0 -6.5507688E-004 -4.4181571E-006 0.0 -8.4047031E-004 -8.9947611E-005 0.0  1.1668156E-004  5.9783845E-005 0.0  8.8069322E-005  6.0270628E-005 0.0  3.5439579E-004  1.1975245E-005 0.0  3.1768496E-004 -5.3982931E-006 0.0 -6.9026504E-005 -9.1311409E-005 0.0 -9.1099959E-005 -1.4692741E-004 0.0 -4.4657301E-004 -1.3981512E-004 0.0 -3.7497021E-004 -1.0663476E-004 0.0 -2.9038862E-004 -5.3901445E-005 0.0 -3.0528102E-004 -7.9853694E-005 0.0 -3.9217466E-004 -1.4226661E-004 0.0 -3.2483514E-004 -1.1081863E-004 0.0 -5.2121590E-004 -7.9828744E-005 0.0  8.8384074E-006  2.4999934E-005 0.0  4.6111500E-006  2.9422556E-005 0.0  1.3521919E-005  2.0095688E-005 0.0  6.9650517E-006  2.4807574E-005 0.0  4.0872029E-006  2.8870779E-005 0.0  2.4494168E-006  3.1810056E-005 0.0  2.5284695E-006  3.1276202E-005 0.0  5.7336398E-005  2.1929915E-005 0.0  4.2693737E-005  2.4805207E-005 0.0 -4.1096624E-004 -2.0874442E-005 0.0  2.0667358E-005  3.1664813E-005 0.0  7.7256358E-007  3.3365601E-005 0.0 -6.2052749E-004 -7.4972980E-007 0.0 -8.1552204E-004 -9.4665672E-005 0.0 -9.8700960E-004 -1.6653448E-004 0.0 -9.6922251E-004 -1.8355138E-004 0.0 -2.0815419E-004 -1.5708016E-004 0.0 -2.2374915E-004 -1.3408596E-004 0.0 -1.7158095E-004 -7.9655820E-005 0.0 -2.3379957E-004 -1.1463780E-004 0.0 -1.9093219E-004 -1.7935980E-004 0.0 -1.7174613E-004 -5.9626226E-005 0.0 -2.3127177E-004 -9.0857293E-005 0.0 -2.7656038E-004 -1.4635490E-004 0.0  2.7606729E-005  1.6481516E-005 0.0 -1.7228541E-004 -4.3129504E-005 0.0  2.2045189E-004  8.5923656E-005 0.0  1.6867454E-004  9.9698210E-005 0.0  1.0409859E-004  1.1580698E-004 0.0 -1.2326141E-004 -1.7579146E-004 0.0 -8.3424653E-004 -1.2331717E-004 0.0  7.3438556E-005  2.2383375E-005 0.0 -7.2112399E-004 -1.0578517E-004 0.0 -2.5167205E-004 -6.2436098E-005 0.0  3.0774560E-004  6.4100965E-005 0.0  3.9035491E-005  1.1512168E-005 0.0 -1.1374696E-003 -1.5030690E-003 0.0 -1.3274003E-003 -1.4655935E-003 0.0 -2.7827774E-004 -1.1864366E-004 0.0  4.3521641E-005  5.7694701E-005 0.0  1.7456006E-004  3.3632288E-005 0.0  2.4737148E-004 -4.8890150E-005 0.0  3.8938751E-004 -7.8682839E-005 0.0  3.3578137E-004 -1.4181779E-004 0.0  1.7215548E-004 -1.1328207E-004 0.0  2.7743554E-004 -2.4976789E-004 0.0  4.2730946E-004 -2.5004549E-004 0.0  3.7012207E-004 -3.8379628E-004 0.0  2.0136760E-004 -3.7511471E-004 0.0  3.0112556E-004 -5.4687218E-004 0.0  1.1621615E-004 -5.5720121E-004 0.0  1.9142162E-004 -7.8933083E-004 0.0  3.0762310E-005 -7.9501012E-004 0.0  3.8099516E-004 -7.0276978E-004 0.0  2.7154971E-004 -9.6889035E-004 0.0  4.5259466E-004 -8.8366308E-004 0.0  5.3180105E-004 -6.8134001E-004 0.0  5.1195603E-004 -3.7350126E-004 0.0 -3.2232434E-005 -5.4088310E-004 0.0 -1.3223487E-004 -8.3144709E-004 0.0 -6.7054991E-005 -1.0708788E-003 0.0 -2.1562429E-004 -1.1102106E-003 0.0 -6.1458372E-004 -2.5351389E-005 0.0 -3.9147460E-004 -1.7274141E-004 0.0  2.5868236E-004  8.2595059E-005 0.0 -2.4689713E-004 -1.8809350E-004 0.0  3.1205214E-004 -1.1453440E-003 0.0  1.8968664E-004 -1.1872825E-003 0.0 -1.0323065E-006  3.3367699E-005 0.0 -3.4373138E-006  3.1342688E-005 0.0 -7.2797912E-004 -1.4657468E-004 0.0 -5.5491692E-005 -1.1586062E-004 0.0 -4.8524242E-005 -6.6810640E-005 0.0 -7.3818753E-005 -1.7395232E-004 0.0 -6.2286479E-004 -1.0416950E-004 0.0  1.2755661E-004  4.1864995E-005 0.0  1.0158519E-004  4.4208549E-005 0.0 -5.1466830E-004 -1.6491461E-004 0.0 -1.1428950E-003 -2.6760514E-004 0.0 -1.1665617E-003 -3.0718494E-004 0.0 -9.4148609E-004 -2.1955599E-004 0.0 -1.1751017E-003 -3.5716010E-004 0.0 -9.5757195E-004 -3.0058812E-004 0.0 -1.1596556E-003 -4.3448125E-004 0.0 -1.7782705E-004 -5.8052848E-004 0.0  4.8619514E-004 -1.0526884E-003 0.0 -6.0675802E-004 -1.4358366E-004 0.0 -6.0381718E-004 -1.7363797E-004 0.0 -3.2838957E-004 -1.7928661E-004 0.0 -5.0209673E-004  4.8500601E-005 0.0 -1.3632270E-004 -4.3258285E-005 0.0  3.8258370E-005  1.8228403E-005 0.0 -9.5998283E-004 -1.6922103E-004 0.0 -3.1456693E-004 -1.9985466E-004 0.0  1.3640475E-006  3.3053185E-005 0.0  2.2025337E-006  3.0897584E-005 0.0  2.3289486E-004  6.6302326E-005 0.0  1.9602716E-004  7.5766605E-005 0.0  1.5067073E-004  4.6966138E-005 0.0 -1.3175530E-003 -4.8630454E-004 0.0 -1.3395068E-003 -5.9651949E-004 0.0 -1.7838913E-006  3.3462154E-005 0.0 -1.6063178E-004 -1.3731325E-003 0.0 -7.0684102E-006 -1.2826253E-003 0.0 -3.0718890E-004 -1.4055652E-003 0.0 -3.5137942E-004 -1.1131928E-003 0.0 -4.3006655E-004 -1.4453859E-003 0.0 -4.9370168E-004 -1.2172964E-003 0.0  7.7623219E-005  9.7955671E-006 0.0 -5.0999414E-004 -1.9716105E-004 0.0 -4.4630548E-004 -1.9685626E-004 0.0  5.5869575E-004 -2.7162397E-004 0.0 -3.3506575E-004  4.8517378E-005 0.0 -1.8069754E-004  8.5514205E-007 0.0 -4.0734650E-005 -1.4457924E-004 0.0  1.3891505E-004  2.4797130E-005 0.0  1.1004915E-004  3.1431404E-005 0.0 -8.1742845E-004 -3.4926863E-004 0.0 -5.7952707E-004 -1.4957368E-003 0.0 -3.3882782E-004 -1.5633821E-004 0.0 -2.7062177E-004 -1.7531954E-004 0.0  1.1879004E-005  7.3432773E-005 0.0 -1.1270422E-003 -2.4984056E-004 0.0 -9.6944461E-004 -1.5589328E-004 0.0 -1.0889797E-003 -2.4431913E-004 0.0 -3.7634042E-004 -2.1640946E-004 0.0  4.7955488E-004 -5.3716743E-004 0.0  6.9114817E-005  3.2413628E-005 0.0  8.8992952E-005  2.0576844E-005 0.0  8.4931324E-005  3.3355287E-005 0.0  1.0809477E-004  1.6851811E-005 0.0 -4.4897225E-004 -1.7314793E-004 0.0  2.8557751E-005  1.4484961E-004 0.0 -2.2928019E-004 -2.1999683E-004 0.0 -2.0311405E-004 -2.3085328E-004 0.0 -1.6739420E-004 -1.8990548E-004 0.0  7.6669486E-005  4.4578315E-005 0.0  3.7613966E-004  2.2538092E-005 0.0  4.4644240E-004 -2.9222512E-005 0.0 -1.0143104E-004 -2.0079391E-004 0.0 -1.3088737E-004 -2.3202317E-004 0.0  1.1238025E-005  1.8618022E-005 0.0  1.6386948E-005  1.1386643E-005 0.0  2.0363204E-005  1.4359506E-005 0.0  1.9084152E-005  2.0799757E-005 0.0 -1.8832448E-004  1.1985646E-005 0.0 -9.4296237E-004 -1.7274039E-004 0.0  6.8165273E-006  1.9690196E-005 0.0  2.8549836E-004  5.2352368E-005 0.0  4.8451475E-004 -1.8090819E-004 0.0  5.0694303E-004 -1.3197486E-004 0.0  4.4233209E-004 -6.2919460E-005 0.0 -7.2720170E-004 -8.7759718E-005 0.0 -8.0893129E-004 -1.4901001E-004 0.0  3.6889523E-005  4.4060029E-006 0.0  4.8304600E-005  1.1369656E-008 0.0 -9.3947996E-004 -1.5317999E-003 0.0 -1.0442869E-003 -1.7286568E-003 0.0 -7.5600010E-004 -1.5452483E-003 0.0  6.3754918E-004 -3.9552744E-004 0.0  1.4871402E-004  6.1038666E-005 0.0  1.7246386E-004  6.2387493E-005 0.0  6.4131932E-005  1.2204911E-005 0.0 -1.0513008E-005  3.3071209E-005 0.0  2.5648819E-004  8.8925993E-005 0.0  3.2853364E-004  4.9976315E-005 0.0 -7.7965836E-006  4.2588275E-005 0.0 -6.2680143E-004 -1.0149304E-003 0.0 -5.3383395E-004 -1.4875645E-004 0.0 -1.1797883E-003 -7.4890053E-004 0.0 -1.3932714E-003 -8.5739766E-004 0.0 -1.5090123E-003 -1.0666411E-003 0.0 -1.2539181E-003 -6.5249086E-004 0.0 -1.4887485E-003 -7.7166565E-004 0.0  6.6627518E-005 -1.0431725E-003 0.0  3.6684003E-005  9.8740593E-005 0.0  4.7116941E-006  2.4685851E-005 0.0  3.1553226E-006  2.8114639E-005 0.0  9.5585331E-005  6.2554896E-006 0.0 -2.7639933E-004 -4.6940501E-004 0.0 -4.0917354E-004 -9.4438842E-004 0.0 -1.4586767E-003 -1.2270689E-003 0.0  6.0381699E-004 -5.5471194E-004 0.0  6.5318498E-004 -6.9009308E-004 0.0  5.9813365E-004 -8.6303366E-004 0.0 -1.2671173E-003 -3.5261491E-004 0.0  1.2579094E-005  1.1825411E-004 0.0 -1.3107417E-003 -4.1882332E-004 0.0 -1.5143030E-003 -1.4391973E-003 0.0 -1.3720711E-003 -1.6532487E-003 0.0  2.2168396E-006  2.8028301E-005 0.0 -1.4460673E-004 -1.5828447E-004 0.0  3.4213794E-004 -1.3071587E-003 0.0 -5.1593876E-005 -2.4205978E-005 0.0 -4.8737540E-004 -3.4401091E-005 0.0  5.4980188E-005  6.7490146E-005 0.0  2.2638186E-005  2.8166047E-005 0.0  4.9253966E-005  9.4468939E-006 0.0  6.2780114E-005  1.5340373E-006 0.0 -2.8326880E-004 -1.6189782E-003 0.0 -6.4077499E-004 -1.3647818E-003 0.0 -2.7169427E-004 -9.2758597E-005 0.0 -2.1427902E-004 -4.9680351E-005 0.0  2.1297978E-005  2.2067815E-006 0.0 -4.3852824E-004  1.9687748E-005 0.0 -6.0665487E-004 -2.1687706E-004 0.0 -6.6580824E-004 -2.3842952E-004 0.0 -4.3671291E-004 -2.2965960E-004 0.0 -5.6538491E-005 -1.9889360E-004 0.0  4.0026599E-004  1.3632939E-005 0.0  1.1581744E-004  9.9835602E-005 0.0  9.3438007E-005 -4.0222718E-006 0.0  4.9710512E-004 -1.2309162E-003 0.0  3.5918621E-004 -1.4624777E-003 0.0 -4.8273509E-004 -2.5815337E-004 0.0  1.9270554E-004 -1.3653715E-003 0.0 -7.3061784E-004 -1.8169116E-004 0.0 -1.7029039E-005 -1.4474032E-005 0.0 -2.0983070E-005 -5.7283548E-005 0.0 -1.4399940E-006  3.3833621E-005 0.0  5.4015411E-007  3.0977793E-005 0.0  1.2725213E-006  3.1075335E-005 0.0  2.1515424E-005 -7.0661261E-005 0.0  2.0348664E-005 -2.4154779E-004 0.0 -2.8291285E-004 -2.3006839E-004 0.0 -3.5024984E-004  2.7558528E-005 0.0 -2.9365894E-004  2.7853859E-005 0.0  5.6788513E-007  3.3753882E-005 0.0  1.8943547E-004  3.8398746E-005 0.0  2.1138324E-004  3.9260099E-005 0.0  2.1074353E-004  5.0082297E-005 0.0 -1.5845678E-003 -1.2105372E-003 0.0 -1.6303647E-003 -1.0940787E-003 0.0 -1.2115430E-003 -1.7265157E-003 0.0 -1.5642427E-003 -1.5713169E-003 0.0  5.4348844E-005  1.2993604E-004 0.0 -8.0447204E-004 -1.7509211E-004 0.0 -8.0743349E-004 -2.1824686E-004 0.0 -7.2674199E-004 -2.1388813E-004 0.0 -6.4618725E-004 -1.4516569E-004 0.0 -5.6399009E-004 -2.2741342E-004 0.0 -3.8780554E-004  9.0411421E-005 0.0 -9.5024341E-004 -1.8919082E-003 0.0  3.2804272E-004  2.6025777E-005 0.0  2.7887220E-004  2.3062795E-005 0.0  3.9451528E-004 -5.7251478E-007 0.0 -7.0731284E-005 -2.7302185E-004 0.0 -1.3062911E-004 -2.7526634E-004 0.0 -1.3537340E-003 -1.8141881E-003 0.0  1.5630397E-004  5.6319875E-006 0.0  5.1742170E-004 -8.2233504E-005 0.0  1.8054222E-004  1.4312000E-005 0.0  4.5294039E-004 -2.6271320E-005 0.0  1.4196283E-004 -1.5337998E-003 0.0 -5.9460189E-005 -1.6577115E-003 0.0  2.3238163E-005 -1.4416131E-003 0.0 -4.4841320E-004 -1.8027873E-003 0.0  1.3194396E-004  1.7065281E-006 0.0  5.8441609E-004 -1.7893473E-004 0.0 -1.5705222E-003 -8.1215229E-004 0.0 -6.8951138E-004 -1.8735069E-003 0.0  6.7947692E-004 -3.4087702E-004 0.0 -1.5123960E-003 -6.4133954E-004 0.0 -2.8831832E-004 -2.6916978E-004 0.0 -1.3706309E-003 -4.6217465E-004 0.0 -3.4729922E-004 -2.6273166E-004 0.0 -3.9098308E-004 -2.6126610E-004 0.0  6.4467628E-004 -1.0398603E-003 0.0 -1.0796897E-003 -2.9141239E-004 0.0 -5.5414302E-004 -2.5722436E-004 0.0 -9.7012626E-004 -2.5640553E-004 0.0 -9.2696757E-004 -1.9216050E-004 0.0 -9.2944436E-004 -2.5857094E-004 0.0 -3.5095120E-005 -1.4258027E-004 0.0  7.0056631E-005  5.5887534E-005 0.0 -1.2949460E-004 -8.8689486E-006 0.0  1.4097053E-004  4.0145529E-006 0.0 -7.7461797E-005 -2.2591989E-004 0.0 -1.2597932E-003 -3.6955347E-004 0.0  5.1824345E-005  1.4783392E-005 0.0 -1.2809795E-006  3.7265948E-005 0.0 -9.6591171E-006  3.0591559E-005 0.0  2.4288180E-004  5.0428266E-005 0.0 -1.0457250E-004 -1.6031355E-005 0.0 -7.9609834E-004 -1.2534451E-004 0.0  5.0890613E-006  2.0855818E-005 0.0 -2.2055738E-004  6.3082395E-005 0.0 -1.0920291E-003 -1.8815812E-003 0.0  8.3447426E-005  1.3295854E-004 0.0  5.1884303E-006  3.7900452E-005 0.0 -1.1636376E-003 -3.1233132E-004 0.0 -1.4444055E-003 -6.0212346E-004 0.0 -1.1098635E-003 -5.0417590E-004 0.0 -2.2539541E-004 -2.7072344E-004 0.0 -2.7272135E-004  8.5641558E-005 0.0 -2.7442967E-004  5.8693744E-005 0.0 -4.1590685E-005 -3.2855363E-005 0.0 -2.5209832E-004 -2.6123882E-005 0.0  1.2146455E-004 -2.2834103E-006 0.0  1.1926750E-004  7.8189899E-005 0.0 -8.7319573E-004 -1.7530579E-003 0.0 -1.4330122E-003 -1.7910829E-003 0.0 -2.8343193E-005 -2.4990430E-004 0.0  4.8337295E-005 -8.0645018E-006 0.0 -5.9006676E-006  3.1924341E-005 0.0 -2.5563576E-004 -8.2392390E-004 0.0 -2.0268828E-004 -2.7144266E-004 0.0 -1.0413912E-003 -2.3071129E-004 0.0  2.1364964E-007  3.3787391E-005 0.0  1.5252444E-004  8.2262287E-005 0.0  3.0578260E-004  5.3850661E-005 0.0  7.3740364E-004 -7.4892913E-004 0.0 -1.5735812E-004 -2.7932990E-004 0.0  2.9260098E-007  3.2111601E-005 0.0  1.5861700E-005  3.9570660E-006 0.0 -7.8036305E-004 -1.7381581E-004 0.0  2.5789268E-005  8.0288386E-006 0.0 -6.7856833E-004 -2.1807948E-004 0.0  7.4066256E-007  2.9815282E-005 0.0 -1.2812211E-004 -5.3950775E-005 0.0  4.9110398E-004 -8.1550965E-005 0.0 -5.0432220E-004  4.5158735E-005 0.0  7.2683336E-005 -7.1608453E-006 0.0 -3.8339010E-004 -1.8971364E-004 0.0  1.1998993E-006  3.2604799E-005 0.0  7.2384157E-005 -3.4834301E-004 0.0 -4.4924400E-004  4.5773337E-005 0.0 -1.2689150E-004 -2.3145094E-005 0.0  1.2384815E-004 -1.3534113E-003 0.0 -2.2226921E-004 -6.5619127E-005 0.0  2.4440613E-004  1.8342478E-005 0.0  6.0209758E-005  2.4342515E-005 0.0 -2.6030036E-004 -2.3374441E-004 0.0 -3.2052166E-004 -6.9628507E-004 0.0  5.6544226E-004 -2.1505361E-004 0.0  4.3679993E-004 -1.6098046E-005 0.0 -1.5324436E-003 -9.4368496E-004 0.0 -2.3498188E-004 -3.8652266E-005 0.0 -1.0209170E-004 -4.0141360E-004 0.0 -1.0619560E-004 -1.5101135E-003 0.0  1.5965895E-004  3.0732052E-005 0.0 -6.7590846E-004 -1.9311280E-004 0.0  1.1919679E-004  1.7370466E-005 0.0  1.0656099E-004 -7.3821300E-006 0.0 -4.9582308E-004 -2.1502360E-004 0.0  3.4083476E-004  3.7859803E-005 0.0 -6.2191021E-006  3.0499730E-005 0.0 -4.6126017E-004 -2.7651825E-004 0.0  7.1190483E-004 -4.3331537E-004 0.0 -8.8016770E-004 -1.9225740E-004 0.0  4.4180514E-004 -1.4062954E-003 0.0 -1.5576876E-004 -2.1020428E-004 0.0 -3.6541833E-005 -8.5716431E-005 0.0 -1.7794233E-004 -2.1925744E-005 0.0 -3.5728311E-004 -2.2696712E-004 0.0 -5.6515020E-004 -8.9606291E-005 0.0 -1.6513411E-003 -1.2334253E-003 0.0  1.7794037E-006  2.9618851E-005 0.0 -3.3603653E-004 -2.8189509E-006 0.0 -2.2546923E-004 -1.6758741E-005 0.0  3.6128648E-005  2.3736185E-005 0.0 -6.3558616E-004 -7.5388647E-005 0.0  7.8882047E-006  3.2669058E-005 0.0  6.8828661E-005  3.7317395E-006 0.0 -7.4490829E-004 -1.7632544E-003 0.0  3.8492059E-004  1.5730787E-005 0.0  2.2540727E-004  1.6358347E-005 0.0  5.7212702E-005 -1.2351772E-005 0.0  5.7736038E-004 -1.0273769E-003 0.0 -1.4694242E-003 -6.9597304E-004 0.0 -5.1022253E-004 -1.6674039E-003 0.0 -3.8689041E-004 -1.6206308E-003 0.0  7.3530182E-004 -6.2288177E-004 0.0  1.1102967E-004 -1.1923782E-003 0.0 -2.3850831E-004 -1.7773528E-003 0.0  2.6822101E-005  1.2710198E-005 0.0 -3.0476883E-004 -2.2660122E-004 0.0  1.4744241E-004  9.5829212E-005 0.0 -1.4646875E-003 -1.6545366E-003 0.0 -1.4052149E-003 -5.3351072E-004 0.0 -6.5068335E-004 -1.6313295E-003 0.0  2.7244834E-004  4.3261836E-005 0.0  1.7531303E-004  3.0570550E-005 0.0 -1.9569706E-005  3.8224288E-005 0.0 -5.9105147E-004 -2.7419818E-004 0.0  6.7764769E-006  1.5975392E-005 0.0 -8.2121969E-004 -2.6617246E-004 0.0 -7.0392559E-004 -2.6678790E-004 0.0 -5.7566293E-005 -5.2395673E-005 0.0 -3.3603817E-005 -3.8252347E-005 0.0 -8.6537938E-004 -2.0409473E-004 0.0 -2.3726217E-004  8.4332303E-005 0.0  7.8906675E-005  2.8529315E-006 0.0 -1.0630084E-003 -2.3400880E-004 0.0 -6.5152796E-004 -2.6580416E-004 0.0 -8.5009329E-004 -2.6934114E-004 0.0 -4.7657664E-004 -2.2250315E-004 0.0 -1.1068063E-004 -2.3864346E-004 0.0 -6.4770931E-006  3.2399666E-005 0.0 -1.3460064E-005  2.9129211E-005 0.0 -9.6903026E-004 -3.9155436E-004 0.0 -5.9240361E-005 -2.3225880E-004 0.0  9.7927528E-005  3.0016213E-005 0.0  7.0803913E-005  1.1456004E-004 0.0  5.0357462E-004 -1.3246415E-003 0.0 -1.4421743E-003 -1.7681963E-003 0.0 -1.3100899E-003 -4.1480213E-004 0.0 -8.0795611E-004 -1.2613058E-004 0.0  5.0045060E-007  3.0015943E-005 0.0  1.9902247E-006  2.6905161E-005 0.0 -7.7113670E-004 -2.6767322E-004 0.0  6.1426691E-004 -2.7043925E-004 0.0  1.0520123E-004  8.4923733E-006 0.0 -1.7331161E-004 -2.3522140E-004 0.0 -3.2172267E-005 -2.8326239E-004 0.0  8.4898312E-007  3.3489862E-005 0.0  1.5975482E-005  6.3077767E-005 0.0 -3.4046880E-004 -1.4221519E-004 0.0 -1.2875232E-003 -1.7710282E-003 0.0 -5.6333785E-004 -1.9883573E-004 0.0  1.6109431E-004 -1.0237719E-003 0.0 -1.5982235E-004 -1.5971591E-005 0.0  1.4060333E-004 -2.6602513E-004 0.0 -5.5214875E-004 -1.1400201E-003 0.0 -1.9011556E-004 -1.6023202E-003 0.0  5.8789080E-004 -4.7564812E-004 0.0  5.2354293E-004 -1.2108080E-004 0.0  1.3496263E-004  1.7053908E-005 0.0  2.9598666E-004  6.3873786E-005 0.0  1.4588482E-005  2.2017360E-005 0.0 -7.2156703E-004 -7.4343329E-005 0.0  6.7330199E-004 -5.9253388E-004 0.0 -9.9969284E-004 -2.2926630E-004 0.0 -1.5536271E-004 -1.4755467E-004 0.0 -1.5948127E-004 -2.4591712E-004 0.0 -1.7807381E-004 -3.5536632E-005 0.0 -4.8920385E-004 -5.3860330E-005 0.0 -9.7788526E-004 -1.7541498E-004 0.0 -1.2296885E-003 -1.9171304E-003 0.0 -7.0615486E-004 -2.0654766E-003 0.0 -2.5477433E-004 -1.9210765E-003 0.0 -4.2510537E-004 -3.7571398E-004 0.0 -5.8710517E-004 -3.7882187E-004 0.0 -7.6786874E-004 -3.7892294E-004 0.0 -9.8284883E-004 -4.0038251E-004 0.0 -1.2304335E-003 -4.9378290E-004 0.0 -1.5049348E-003 -7.2756440E-004 0.0 -1.6700187E-003 -1.1556396E-003 0.0  8.9622536E-005 -1.7006424E-003 0.0  3.2569476E-004 -1.3016782E-003 0.0 -1.5228137E-003 -1.5658072E-003 0.0 -3.0376563E-004 -3.7787608E-004 0.0 -5.0723856E-004 -9.0841457E-004 0.0  4.5083782E-004 -1.3400623E-003 0.0 -5.2103441E-005 -1.1122288E-003 0.0 -1.8640675E-004 -3.7965326E-004 0.0  2.6458267E-004 -1.0547517E-003 0.0 -5.8080672E-004  2.4963021E-004 0.0 -1.0107724E-003 -2.0370749E-003 0.0 -2.6158720E-004 -1.0011432E-003 0.0 -4.1303745E-005 -7.6727486E-004 0.0 -6.7668523E-004 -6.9096296E-004 0.0  2.6157303E-004 -1.5333028E-003 0.0  6.2368595E-004 -9.4275868E-004 0.0 -5.5281298E-005 -1.5645221E-003 0.0 -5.8496496E-005 -1.4258700E-003 0.0 -1.0243734E-004 -3.7787306E-004 0.0 -7.8516283E-005 -9.7322265E-004 0.0 -6.7165586E-004  5.6197721E-005 0.0  1.9336309E-004 -9.4747538E-004 0.0 -3.3659707E-005 -5.9828992E-004 0.0 -3.2846405E-004  3.8191088E-004 0.0 -5.1704034E-005 -1.4716053E-003 0.0  7.1309559E-005 -1.5875145E-003 0.0  7.3944299E-004 -4.8756278E-004 0.0  2.4545585E-004 -1.5311849E-003 0.0 -1.6231733E-003 -9.5969761E-004 0.0 -1.6395760E-003 -1.3702795E-003 0.0 -7.7947157E-005 -1.8274580E-003 0.0 -5.0588150E-004 -2.0263228E-003 0.0 -2.4546276E-004 -3.7781644E-004 0.0 -1.4053751E-003 -6.1211697E-004 0.0 -3.6462770E-004 -3.8219023E-004 0.0 -4.8682651E-004 -3.7766155E-004 0.0 -1.1283935E-003 -4.4588091E-004 0.0 -6.5975715E-004 -3.8221034E-004 0.0 -8.9122562E-004 -3.8934182E-004 0.0 -7.3638418E-004 -4.7957612E-004 0.0 -2.5323557E-005 -4.6017563E-004 0.0 -3.5153926E-005 -1.4069356E-003 0.0 -6.8346586E-004 -4.6576896E-005 0.0  6.6391499E-004  1.6985244E-004 0.0  8.8470026E-005 -9.1781647E-004 0.0 -4.2520969E-005 -3.7549877E-004 0.0  1.4327202E-005 -9.6026242E-004 0.0 -4.0792871E-005 -1.0445288E-003 0.0 -1.3563275E-004 -1.0279141E-003 0.0 -1.0191010E-004 -1.1117910E-003 0.0 -1.0424727E-005 -1.0968053E-003 0.0 -7.8341712E-005 -1.1915487E-003 0.0 -1.7062107E-004 -1.1631020E-003 0.0 -1.5033019E-004 -1.2640240E-003 0.0 -2.3291068E-004 -1.2261012E-003 0.0 -2.3084830E-004 -1.3387231E-003 0.0 -3.1887910E-004 -1.2795410E-003 0.0 -3.2336876E-004 -1.3970820E-003 0.0 -3.9885448E-004 -1.3263668E-003 0.0 -4.3191446E-004 -1.4451135E-003 0.0 -5.0050560E-004 -1.3601307E-003 0.0 -5.3954213E-004 -1.4760800E-003 0.0 -5.8871060E-004 -1.3785714E-003 0.0 -6.4601836E-004 -1.4926021E-003 0.0 -6.8050012E-004 -1.3951399E-003 0.0 -7.4028110E-004 -1.4992344E-003 0.0 -7.5458260E-004 -1.4155841E-003 0.0 -8.0935921E-004 -1.5011767E-003 0.0 -8.1076249E-004 -1.4238882E-003 0.0 -8.4732644E-004 -1.5045184E-003 0.0 -8.4383213E-004 -1.4378286E-003 0.0 -8.0892958E-004 -1.3545926E-003 0.0 -8.3873434E-004 -1.3627749E-003 0.0 -8.1926469E-004 -1.2739402E-003 0.0 -8.3341172E-004 -1.2849108E-003 0.0 -8.3155868E-004 -1.1947815E-003 0.0 -8.2731438E-004 -1.1830130E-003 0.0 -8.3426729E-004 -1.0831437E-003 0.0 -8.1276174E-004 -1.0670047E-003 0.0 -8.6547103E-004 -1.5684118E-003 0.0 -8.7042497E-004 -1.5594223E-003 0.0 -9.1525556E-004 -1.6132144E-003 0.0 -8.8837033E-004 -1.5923839E-003 0.0 -9.3113371E-004 -1.6303953E-003 0.0 -8.7760892E-004 -1.6072378E-003 0.0 -9.3440720E-004 -1.6357222E-003 0.0 -8.4280072E-004 -1.5844006E-003 0.0 -8.4792354E-004 -1.6183769E-003 0.0 -9.1856898E-004 -1.6308298E-003 0.0 -4.5514544E-004 -1.2782671E-003 0.0 -8.3249432E-004 -9.6354586E-004 0.0 -8.9348932E-004 -1.6244001E-003 0.0 -9.8751749E-004 -1.6299848E-003 0.0 -9.9074324E-004 -1.6205043E-003 0.0 -6.0110238E-004 -1.5507676E-003 0.0 -8.8557252E-004 -1.6141344E-003 0.0 -9.4530520E-004 -1.6021923E-003 0.0 -1.0547592E-003 -1.5939235E-003 0.0 -1.0031339E-003 -1.5683954E-003 0.0 -1.1108546E-003 -1.5520565E-003 0.0 -1.0845795E-003 -1.5134270E-003 0.0 -9.6196034E-004 -1.5378491E-003 0.0 -1.0113835E-003 -1.4865433E-003 0.0 -1.1453176E-003 -1.4452460E-003 0.0 -1.0617470E-003 -1.4210317E-003 0.0 -1.1837948E-003 -1.3627639E-003 0.0 -1.1168022E-003 -1.3229369E-003 0.0 -9.8710748E-004 -1.3934455E-003 0.0 -1.0147962E-003 -1.3176689E-003 0.0 -8.8120251E-004 -1.5144399E-003 0.0 -1.1504195E-003 -1.2228098E-003 0.0 -1.0387592E-003 -1.2165478E-003 0.0 -9.2321677E-004 -1.3114614E-003 0.0 -9.5202888E-004 -1.1988036E-003 0.0 -8.2310643E-004 -1.3124794E-003 0.0 -8.2940883E-004 -1.2236449E-003 0.0 -9.6381581E-004 -1.0977439E-003 0.0 -8.3731200E-004 -1.1294154E-003 0.0 -9.4800595E-004 -1.0010933E-003 0.0 -8.4496041E-004 -1.0265547E-003 0.0 -8.0210559E-004 -8.9786441E-004 0.0 -1.1256079E-003 -1.6014547E-003 0.0 -1.1573020E-003 -1.1240080E-003 0.0 -3.2429990E-004 -1.4683246E-003 0.0 -7.4610979E-004 -1.1579010E-003 0.0 -7.5988549E-004 -1.0550998E-003 0.0 -7.0573234E-004 -1.3340731E-003 0.0 -8.4595866E-004 -9.1163065E-004 0.0 -7.3913468E-004 -9.5230062E-004 0.0 -6.7163443E-004 -1.0803096E-003 0.0 -6.5745180E-004 -9.8409198E-004 0.0 -5.7110417E-004 -1.1151335E-003 0.0 -5.7294911E-004 -1.0222755E-003 0.0 -6.4579773E-004 -8.8971565E-004 0.0 -5.5570683E-004 -9.2443283E-004 0.0 -4.9968791E-004 -1.0463454E-003 0.0 -4.8218380E-004 -9.5741031E-004 0.0 -5.4346901E-004 -8.2564474E-004 0.0 -4.5781711E-004 -8.6434213E-004 0.0 -4.2065478E-004 -9.7760334E-004 0.0 -3.8989524E-004 -8.8358397E-004 0.0 -3.4787268E-004 -1.0090155E-003 0.0 -3.2572415E-004 -9.1116845E-004 0.0 -8.1231467E-004 -8.3187618E-004 0.0 -3.7318713E-004 -7.8291126E-004 0.0 -3.0796613E-004 -8.2005230E-004 0.0 -7.6958133E-004 -1.2851528E-003 0.0 -8.1168960E-004 -1.0852404E-003 0.0 -8.1315276E-004 -7.7511645E-004 0.0 -8.8795792E-004 -7.9722979E-004 0.0 -5.0737726E-004 -7.4486861E-004 0.0 -5.7096729E-004 -7.3502848E-004 0.0 -2.9065222E-004 -1.0222969E-003 0.0 -1.4075768E-004 -1.3216744E-003 0.0 -7.2169370E-004 -1.0357695E-003 0.0 -3.7322464E-004 -1.0911236E-003 0.0 -8.2504762E-004 -8.5884232E-004 0.0 -7.1125468E-004 -8.3533547E-004 0.0 -8.1411597E-004 -1.6019496E-003 0.0 -1.1875665E-003 -1.5497311E-003 0.0 -3.4136562E-004 -6.9771061E-004 0.0 -2.8076040E-004 -7.3339113E-004 0.0 -5.8490407E-004 -1.2172558E-003 0.0 -4.5724982E-004 -1.2348758E-003 0.0 -2.5790676E-004 -8.3047240E-004 0.0 -2.3183977E-004 -7.5210378E-004 0.0 -7.7911037E-004 -1.4120609E-003 0.0 -1.2336812E-003 -1.1508045E-003 0.0 -7.7018626E-004 -1.2584419E-003 0.0 -1.2433432E-003 -1.0326122E-003 0.0 -1.1938174E-003 -1.6056046E-003 0.0 -7.5249376E-004 -1.6264728E-003 0.0 -5.3811346E-004 -6.5042952E-004 0.0 -8.5443124E-004 -7.2534678E-004 0.0 -2.6013156E-004 -6.5151812E-004 0.0 -2.0865279E-004 -6.6248808E-004 0.0 -1.8791509E-004 -7.5870587E-004 0.0  1.0985898E-005 -1.1744161E-003 0.0 -5.8817264E-004 -6.2717504E-004 0.0 -1.6012963E-004 -6.8136615E-004 0.0 -1.3250215E-003 -1.0537118E-003 0.0 -9.1927115E-004 -6.8308042E-004 0.0 -7.9859787E-004 -6.5232869E-004 0.0 -6.1924498E-004 -1.2974183E-003 0.0 -7.9933873E-004 -7.4823412E-004 0.0 -3.0931815E-004 -1.1996557E-003 0.0 -5.6354843E-004 -9.6785121E-004 0.0 -5.2809111E-004 -7.0960222E-004 0.0 -3.9653346E-004 -6.8899729E-004 0.0 -3.7130434E-004 -6.1531456E-004 0.0 -4.1513408E-004 -6.0332915E-004 0.0 -1.2667775E-003 -1.5447132E-003 0.0 -1.8710532E-004 -5.9204009E-004 0.0 -1.4286475E-004 -6.1100300E-004 0.0 -1.3316673E-003 -9.2880059E-004 0.0 -1.2274126E-003 -9.4254379E-004 0.0 -8.1147550E-004 -1.4560385E-003 0.0 -1.3107636E-003 -1.1578257E-003 0.0 -1.2722560E-003 -1.6207926E-003 0.0 -1.1809713E-003 -1.6285087E-003 0.0 -6.6042066E-004 -1.6124495E-003 0.0 -5.9155651E-004 -1.6373135E-003 0.0 -9.5821847E-004 -7.6684011E-004 0.0 -9.8655885E-004 -6.6342847E-004 0.0 -1.0201190E-003 -7.4355094E-004 0.0 -6.4701471E-004 -5.6176604E-004 0.0 -5.6050893E-004 -5.5360157E-004 0.0 -8.8025481E-004 -6.2470456E-004 0.0 -8.1464993E-004 -6.6500465E-004 0.0 -6.2427962E-004 -6.9448525E-004 0.0 -6.3501598E-004 -5.9964382E-004 0.0 -6.7096073E-004 -6.6337915E-004 0.0 -6.8440385E-004 -5.7290903E-004 0.0 -1.2357391E-003 -1.4082342E-003 0.0  6.3522012E-005 -1.0940687E-003 0.0  1.0685759E-004 -1.1735606E-003 0.0 -7.7357813E-004 -5.3554277E-004 0.0 -7.8162264E-004 -4.4528835E-004 0.0 -1.2545734E-003 -1.6767406E-003 0.0 -1.1663787E-003 -1.6718546E-003 0.0 -1.2180214E-003 -1.7222788E-003 0.0 -1.1311642E-003 -1.7008684E-003 0.0 -1.1641612E-003 -1.7678291E-003 0.0 -1.0835692E-003 -1.7206231E-003 0.0 -1.1019307E-003 -1.7883747E-003 0.0 -1.0881856E-003 -1.6914685E-003 0.0 -1.0302882E-003 -1.7261593E-003 0.0 -1.0306044E-003 -1.7955876E-003 0.0 -9.6957566E-004 -1.7294415E-003 0.0 -9.4951732E-004 -1.7697365E-003 0.0 -1.0065757E-003 -1.6978296E-003 0.0 -9.9958353E-004 -1.8357040E-003 0.0 -9.1251885E-004 -1.8165093E-003 0.0 -8.7399213E-004 -1.7406041E-003 0.0 -8.3176707E-004 -1.7945198E-003 0.0 -8.0902780E-004 -1.7027471E-003 0.0 -7.4437692E-004 -1.7340318E-003 0.0 -7.4999902E-004 -1.8247731E-003 0.0 -6.7558836E-004 -1.7498415E-003 0.0 -6.6337542E-004 -1.8502284E-003 0.0 -5.9985057E-004 -1.7573441E-003 0.0 -7.6396824E-004 -1.8948428E-003 0.0 -7.3752563E-004 -1.6663601E-003 0.0  3.7393926E-005 -1.2563354E-003 0.0 -1.1253667E-003 -1.6443007E-003 0.0 -1.3968884E-003 -1.0726755E-003 0.0 -1.3761815E-003 -1.1760527E-003 0.0 -3.8581218E-004 -5.3934895E-004 0.0 -3.4688242E-004 -5.5728173E-004 0.0 -1.6400700E-004 -5.2821739E-004 0.0 -1.2106446E-004 -5.4001844E-004 0.0 -2.0086616E-004 -5.3052549E-004 0.0 -5.6567222E-004 -1.8606637E-003 0.0 -5.0984787E-004 -1.7812141E-003 0.0 -5.4108867E-004 -1.6945397E-003 0.0 -4.4785784E-004 -1.6976878E-003 0.0 -4.1015371E-004 -1.7946266E-003 0.0 -3.6303495E-004 -1.6884145E-003 0.0 -4.2719651E-004 -5.2629311E-004 0.0 -3.0334042E-004 -8.6349958E-004 0.0 -4.1026102E-004 -1.0677082E-003 0.0 -2.6953463E-004 -5.8686212E-004 0.0 -5.0607689E-004 -5.9172357E-004 0.0 -8.4640881E-004 -5.6225199E-004 0.0 -7.8790377E-004 -5.9810935E-004 0.0 -7.6710919E-004 -6.8454082E-004 0.0 -1.3278296E-004 -7.6395139E-004 0.0 -1.6223982E-004 -8.5800111E-004 0.0 -1.3069516E-003 -8.3503343E-004 0.0 -1.2203576E-003 -8.4003780E-004 0.0 -1.1583470E-003 -9.4070015E-004 0.0 -1.1359984E-003 -8.4728283E-004 0.0 -1.2200608E-003 -7.4894960E-004 0.0 -4.8335476E-004 -1.6355179E-003 0.0 -8.2188853E-004 -1.6438956E-003 0.0 -1.0502354E-003 -6.3694904E-004 0.0 -5.2577928E-004 -5.0835132E-004 0.0 -7.6799045E-004 -6.2250852E-004 0.0 -7.5683687E-004 -7.8312633E-004 0.0 -9.4474097E-004 -1.8834802E-003 0.0 -1.4161330E-004 -4.7207051E-004 0.0 -1.0452679E-004 -8.5162837E-004 0.0 -1.0421111E-004 -6.1178171E-004 0.0 -7.4519729E-004 -4.1519479E-004 0.0 -1.0879387E-003 -7.1677342E-004 0.0 -8.3544754E-005 -5.5016817E-004 0.0 -1.2960282E-004 -9.5997578E-004 0.0 -8.1266437E-004 -5.0343604E-004 0.0 -3.0641083E-004 -1.7899156E-003 0.0 -2.6082697E-004 -1.6993856E-003 0.0 -3.8884165E-004 -1.8722219E-003 0.0 -3.2145425E-004 -1.6140232E-003 0.0 -2.2382290E-004 -1.5963239E-003 0.0 -1.4548937E-004 -1.6937810E-003 0.0 -1.1965887E-004 -1.5826499E-003 0.0 -1.9070292E-004 -1.5208735E-003 0.0 -1.0035917E-004 -1.4838523E-003 0.0 -1.0175590E-003 -5.6649737E-004 0.0 -8.9424571E-004 -5.4235504E-004 0.0 -1.3562036E-003 -1.5612050E-003 0.0 -1.3246137E-003 -1.4904834E-003 0.0 -1.4299132E-003 -1.4989147E-003 0.0 -1.3994214E-003 -1.4227314E-003 0.0 -1.0692989E-006 -1.5677424E-003 0.0 -6.8301300E-006 -1.4436663E-003 0.0  1.4730394E-004 -1.2522904E-003 0.0 -4.1842680E-004 -1.3428716E-003 0.0 -3.0476065E-004 -1.3590969E-003 0.0 -1.0633363E-003 -1.9017385E-003 0.0 -6.5437059E-004 -5.1304242E-004 0.0 -6.9643376E-004 -4.9856725E-004 0.0 -1.0335943E-003 -8.2089118E-004 0.0 -7.6253361E-004 -5.3534591E-004 0.0 -4.4725448E-004 -6.5900648E-004 0.0 -1.4702654E-003 -1.1001096E-003 0.0 -1.4544982E-003 -1.2033750E-003 0.0 -1.4884720E-003 -9.8473764E-004 0.0 -1.1138299E-003 -6.0964080E-004 0.0 -1.3374611E-003 -1.2665441E-003 0.0 -4.0226864E-004 -4.7126963E-004 0.0 -1.3742689E-003 -8.3935325E-004 0.0 -5.5930679E-004 -4.8279749E-004 0.0 -5.3530034E-004 -4.3408180E-004 0.0 -9.5205789E-004 -1.6588053E-003 0.0 -9.8895334E-004 -1.6531613E-003 0.0 -9.4115474E-004 -1.6863111E-003 0.0 -8.3907942E-004 -1.5998440E-003 0.0 -4.2446648E-004 -1.6127803E-003 0.0 -5.6062515E-004 -1.6134238E-003 0.0 -1.0845674E-003 -9.6287768E-004 0.0 -4.8285381E-004 -5.4056778E-004 0.0 -8.0523489E-005 -9.3854481E-004 0.0  1.4550956E-004 -1.0950299E-003 0.0  9.2804277E-005 -1.0142377E-003 0.0 -3.6507455E-004 -1.2576787E-003 0.0 -7.4304701E-004 -1.5959840E-003 0.0 -7.4524141E-004 -6.5830436E-004 0.0  6.0040895E-005 -1.3378892E-003 0.0  1.7630614E-004 -1.3396650E-003 0.0 -1.0880112E-003 -1.0448676E-003 0.0 -1.2507618E-003 -1.7630805E-003 0.0 -3.2024998E-004 -1.6156819E-003 0.0 -5.4956880E-004 -1.6110468E-003 0.0 -7.1466926E-004 -6.3438614E-004 0.0 -6.9094415E-004 -7.2243202E-004 0.0 -1.9414817E-004 -9.4336351E-004 0.0 -1.4785374E-004 -1.0582451E-003 0.0 -6.0956539E-004 -1.2832442E-003 0.0 -3.8101577E-004 -1.4315709E-003 0.0  9.8568407E-005 -1.5126789E-003 0.0 -1.4191853E-003 -1.3002536E-003 0.0 -1.5160139E-003 -1.2449704E-003 0.0 -1.4932261E-003 -1.4058131E-003 0.0  3.2419408E-005 -7.5286726E-004 0.0  2.2301884E-004 -4.1886345E-004 0.0 -1.9708022E-004 -2.1812312E-004 0.0 -1.3595290E-003 -7.4402881E-004 0.0 -4.7877778E-004 -1.5266011E-003 0.0 -8.3617084E-004 -1.5727559E-003 0.0 -1.0584159E-003 -1.6170798E-003 0.0 -1.0411357E-003 -1.6444335E-003 0.0 -1.1514587E-003 -6.8673790E-004 0.0 -5.7099250E-004 -1.6297768E-003 0.0 -1.1645417E-003 -1.4794366E-003 0.0 -6.1156523E-004 -5.4134342E-004 0.0 -6.2684583E-004 -4.7004310E-004 0.0 -4.4788094E-004 -7.8291073E-004 0.0 -3.3148660E-005 -1.3033033E-003 0.0 -9.9700182E-005 -1.4141116E-003 0.0 -4.3692915E-004 -4.6317497E-004 0.0  2.4232192E-004 -5.4066702E-005 0.0 -1.1801958E-003 -5.7797789E-004 0.0 -2.4117131E-004 -1.4129526E-003 0.0 -3.1241331E-004 -6.4078962E-004 0.0 -2.8437822E-004 -5.7390596E-004 0.0 -2.4416851E-004 -5.8159632E-004 0.0 -2.6159234E-004 -5.1363493E-004 0.0 -3.0039485E-004 -5.1232706E-004 0.0 -2.7857643E-004 -4.5151812E-004 0.0 -2.4205695E-004 -4.6642001E-004 0.0 -1.3089002E-003 -1.4164158E-003 0.0 -7.0280958E-004 -7.7932706E-004 0.0 -7.4799521E-004 -8.8550254E-004 0.0 -6.6497600E-004 -8.7009203E-004 0.0 -7.1862499E-004 -9.7951024E-004 0.0 -6.2649052E-004 -9.4400302E-004 0.0 -6.7431699E-004 -1.0475525E-003 0.0 -6.5499916E-004 -1.9350798E-003 0.0 -5.5587381E-004 -1.9332185E-003 0.0 -7.5810530E-004 -1.9751600E-003 0.0 -8.3877827E-004 -1.9405924E-003 0.0 -8.4230920E-004 -1.8733962E-003 0.0 -8.4114091E-004 -2.0212689E-003 0.0 -4.6442767E-004 -1.8827486E-003 0.0 -1.1026856E-003 -1.8509738E-003 0.0 -4.5338563E-004 -1.9559808E-003 0.0 -7.2697357E-004 -8.5589585E-004 0.0  2.0172738E-004 -1.1543254E-003 0.0 -1.0803811E-003 -5.4461852E-004 0.0 -1.0441166E-003 -4.7986278E-004 0.0 -9.7547964E-004 -5.1425400E-004 0.0 -9.5893979E-004 -5.8351443E-004 0.0 -1.8783261E-004 -4.7101910E-004 0.0 -9.3919101E-004 -9.2398391E-004 0.0 -8.6600291E-004 -4.8340603E-004 0.0 -8.3232237E-004 -4.3082407E-004 0.0 -1.1772070E-003 -1.8415102E-003 0.0 -9.7455882E-004 -1.9524499E-003 0.0 -1.0919158E-003 -1.9822617E-003 0.0 -7.8111231E-004 -4.4293364E-004 0.0 -1.2964842E-003 -7.4443316E-004 0.0 -1.2686724E-003 -6.5937164E-004 0.0 -3.6355090E-004 -4.8415347E-004 0.0 -1.3473196E-003 -1.6429137E-003 0.0  2.5509399E-004 -1.2333916E-003 0.0 -4.9299949E-004 -4.6788586E-004 0.0  2.7349733E-004 -1.1372488E-003 0.0 -1.4131805E-003 -9.7198418E-004 0.0 -1.4895635E-003 -8.8387680E-004 0.0 -1.5506912E-003 -9.2379748E-004 0.0 -6.2523231E-004 -8.1289953E-004 0.0 -3.3279597E-004 -1.9297456E-003 0.0 -1.3137855E-003 -1.7311803E-003 0.0 -4.8677977E-004 -6.6298061E-004 0.0 -7.3488366E-004 -1.5641952E-003 0.0 -5.1024880E-004 -1.5786982E-003 0.0 -7.7274767E-004 -1.5115440E-003 0.0 -5.6017846E-004 -1.5278572E-003 0.0 -1.5017854E-003 -1.5094525E-003 0.0 -1.6281050E-004 -4.1301216E-004 0.0 -1.1964565E-004 -4.2539503E-004 0.0 -1.0556300E-004 -4.6982273E-004 0.0 -7.2966051E-005 -4.8424206E-004 0.0 -1.2012813E-003 -1.2480590E-003 0.0 -7.3169512E-004 -4.7676460E-004 0.0 -2.0864468E-004 -1.3709831E-003 0.0 -2.7697018E-004 -1.2748210E-003 0.0 -6.1206561E-004 -8.2340786E-004 0.0 -1.3267861E-004 -1.5766747E-003 0.0 -4.8830557E-004 -1.5736845E-003 0.0 -3.0718774E-005 -1.5177392E-003 0.0 -3.8747714E-004 -1.5047696E-003 0.0 -6.7453815E-004 -1.5520759E-003 0.0 -6.0573831E-004 -1.4723862E-003 0.0 -2.7267110E-004 -1.4266401E-003 0.0 -5.6832663E-004 -1.3912946E-003 0.0 -1.8887954E-004 -1.3361391E-003 0.0 -5.0224681E-004 -1.2909352E-003 0.0 -1.8663760E-004 -1.2238839E-003 0.0  1.7758505E-004 -1.2355254E-003 0.0 -7.3244628E-004 -1.4246929E-003 0.0 -7.2185284E-004 -1.6008733E-003 0.0 -3.5975113E-004 -9.6665616E-004 0.0 -3.6210747E-004 -1.0846915E-003 0.0 -4.5449880E-004 -1.0246308E-003 0.0 -4.7972573E-004 -1.1529598E-003 0.0 -5.4832880E-004 -1.0773630E-003 0.0 -2.5201175E-004 -1.0721218E-003 0.0 -5.8820488E-004 -1.2079663E-003 0.0 -6.4515742E-004 -1.1303027E-003 0.0 -5.4961003E-005 -5.3579783E-004 0.0 -3.1684552E-004 -4.4545417E-004 0.0 -1.3495889E-003 -6.4959968E-004 0.0 -1.3209778E-003 -5.6577382E-004 0.0 -1.4043844E-003 -1.6604925E-003 0.0 -5.9006236E-005 -1.2622109E-003 0.0 -5.7208132E-004 -9.9086112E-004 0.0 -7.2296746E-004 -1.1743128E-003 0.0 -1.5461106E-003 -1.1358960E-003 0.0 -1.1442059E-003 -1.9259139E-003 0.0 -3.8581841E-005 -1.6555956E-003 0.0 -1.8932337E-004 -1.1026977E-003 0.0 -2.0517277E-004 -1.7780387E-003 0.0 -7.4934951E-005 -1.7439796E-003 0.0 -8.4872033E-004 -1.5190718E-003 0.0 -6.8136049E-004 -1.6072187E-003 0.0 -4.5879064E-005 -1.3750587E-003 0.0 -1.1424486E-004 -1.2896104E-003 0.0 -1.1733624E-004 -1.3654834E-003 0.0 -2.0509142E-004 -1.2537972E-003 0.0 -6.2062669E-005 -8.8183847E-004 0.0 -4.5446343E-004 -5.7452629E-004 0.0 -6.2208007E-005 -6.2748365E-004 0.0 -8.6229611E-005 -6.8053132E-004 0.0 -2.7301145E-004 -1.8479484E-003 0.0 -2.2417569E-004 -1.0268797E-003 0.0 -1.7783700E-004 -1.1551968E-003 0.0  2.4477512E-005 -1.0139108E-003 0.0 -4.1831627E-005 -6.7517298E-004 0.0  8.3659701E-005 -1.6095725E-003 0.0 -1.4251811E-003 -1.5734539E-003 0.0  6.6191633E-005 -1.4467195E-003 0.0 -1.3284885E-003 -1.3477587E-003 0.0 -1.5682592E-004 -9.8458750E-004 0.0 -7.4027229E-004 -1.1849754E-003 0.0 -7.7512458E-004 -9.9411218E-004 0.0 -6.2145027E-004 -1.1428869E-003 0.0 -7.6772489E-004 -6.7640437E-004 0.0 -7.2103988E-004 -4.4156731E-004 0.0 -5.8318552E-004 -2.6020817E-004 0.0 -6.4654716E-004 -1.2240396E-004 0.0 -5.0068822E-004  7.2387270E-005 0.0 -6.8157044E-004 -2.6636817E-005 0.0 -7.7247287E-004 -5.2701283E-004 0.0 -8.1422100E-004 -9.5900290E-004 0.0 -4.3599716E-004 -3.7335391E-004 0.0 -7.4287604E-004 -3.0729723E-004 0.0 -7.9063004E-005 -9.8222287E-004 0.0 -7.4917038E-004 -4.9968640E-004 0.0 -7.2464520E-004 -3.3519616E-004 0.0 -7.8629788E-004 -8.6864346E-004 0.0  4.9180235E-004 -1.1025344E-003 0.0 -1.3564818E-004 -1.4958742E-003 0.0  6.7228663E-004 -2.0144279E-004 0.0  2.2708734E-004  4.7282144E-004 0.0  1.1794471E-004 -1.5590934E-003 0.0 -1.1334906E-004 -1.4398612E-003 0.0 -1.5852369E-004 -1.5193749E-003 0.0 -3.5880325E-004 -1.5338979E-003 0.0 -6.2197737E-005 -1.5715800E-003 0.0 -6.6033068E-004 -4.6187272E-005 0.0 -6.5909854E-004  7.2216589E-005 0.0  6.4473031E-004 -7.0939633E-004 0.0 -3.3248648E-004 -4.5276088E-005 0.0 -7.1168946E-004 -1.8050997E-004 0.0  1.7040602E-004 -1.0170107E-003 0.0  1.1853689E-004 -9.5129695E-004 0.0 -6.7495319E-004 -4.4471920E-004 0.0 -7.1424537E-004 -4.1872130E-004 0.0  8.3937970E-005 -1.4076004E-003 0.0  2.0309477E-004 -1.4338030E-003 0.0 -1.2681477E-003 -1.8167856E-003 0.0 -7.1352598E-005 -3.7849494E-004 0.0 -5.4610305E-005 -4.2729777E-004 0.0 -1.6302581E-003 -1.2488303E-003 0.0  1.6789871E-004 -1.6024708E-003 0.0 -1.6346343E-003 -1.0449232E-003 0.0 -7.2844727E-007 -1.7445986E-003 0.0 -1.6754698E-004 -1.8579983E-003 0.0 -6.0849440E-004 -2.0200438E-003 0.0 -6.5047465E-004 -2.0054864E-003 0.0 -2.1361988E-004 -3.7681424E-004 0.0 -2.7169163E-004 -3.7427253E-004 0.0 -1.5483603E-003 -7.9673800E-004 0.0 -3.3311097E-004 -3.8943217E-004 0.0 -3.4678661E-004 -4.4061680E-004 0.0 -1.4350456E-003 -6.5372809E-004 0.0 -3.9294709E-004 -3.7790319E-004 0.0 -5.2102095E-004 -3.7738498E-004 0.0 -4.5309659E-004 -3.7546400E-004 0.0 -4.6908252E-004 -4.3485862E-004 0.0 -1.0669417E-003 -4.1991135E-004 0.0 -1.1666020E-003 -4.6887354E-004 0.0 -5.5123499E-004 -3.8416320E-004 0.0 -6.1767647E-004 -3.7318961E-004 0.0 -9.2963833E-004 -3.9652960E-004 0.0 -4.1466341E-004 -1.4852407E-003 0.0  1.5005293E-004 -8.8990935E-004 0.0 -1.8089054E-004 -1.4501516E-003 0.0 -7.4433811E-004 -3.3600455E-004 0.0 -7.1242922E-004 -6.0239725E-004 0.0 -1.2717445E-003 -1.3097818E-003 0.0 -6.6269172E-004 -1.6676258E-003 0.0 -4.4245714E-005 -1.2556200E-003 0.0 -2.8947989E-004 -1.5407975E-003 0.0 -3.7623234E-004 -1.5658706E-003 0.0  3.7681645E-004 -1.4711603E-003 0.0 -4.7763141E-005  2.2823144E-004 0.0 -7.1588839E-004 -2.6303948E-004 0.0  2.9103183E-004 -1.4104951E-003 0.0 -7.9704156E-004 -1.5333475E-003 0.0 -7.0735801E-004 -1.4687966E-004 0.0 -5.6533278E-004 -1.3892391E-003 0.0 -3.9270471E-004 -1.9798339E-003 0.0 -7.3476775E-004 -1.3329243E-003 0.0  1.8474663E-004 -1.0571858E-003 0.0 -1.1035917E-003 -7.9649375E-004 0.0 -1.2390573E-003 -5.8132440E-004 0.0 -1.4274545E-003 -7.7668521E-004 0.0 -1.0426775E-003 -8.8888961E-004 0.0 -9.0787534E-004 -4.6819160E-004 0.0 -9.5266846E-005 -4.2611391E-004 0.0 -3.8858752E-004 -4.3085116E-004 0.0 -2.7255454E-004 -9.1620950E-004 0.0 -1.1292022E-003 -5.1793034E-004 0.0 -6.9563022E-004 -1.5520116E-003 0.0 -2.0308350E-004 -4.3166737E-004 0.0 -7.7729740E-004 -7.5245881E-004 0.0 -7.1939994E-004 -3.7115837E-004 0.0 -1.1155075E-003 -1.6162812E-003 0.0 -2.5690186E-004 -1.6099946E-003 0.0 -8.5769450E-004 -1.6443143E-003 0.0 -4.2091727E-004 -1.6158882E-003 0.0 -9.6604987E-004 -8.3907094E-004 0.0 -7.2567693E-004 -1.8195828E-004 0.0 -1.5456224E-003 -1.0420549E-003 0.0 -3.2582731E-004 -5.0420869E-004 0.0 -1.2734717E-004 -1.1420099E-003 0.0 -7.2532460E-004 -5.6599121E-004 0.0 -4.3654057E-004 -9.4392782E-004 0.0 -1.0540930E-004 -7.6184573E-004 0.0 -7.7060579E-004 -1.6281308E-003 0.0 -2.9119124E-004 -1.5756624E-003 0.0 -6.2698619E-004 -1.6813373E-003 0.0  3.8827987E-004 -1.4131786E-003 0.0 -9.1582849E-004 -1.9849489E-003 0.0 -3.6270533E-005 -4.0095157E-004 0.0 -4.0797885E-004 -1.1845378E-003 0.0 -6.5311468E-004 -7.5734324E-004 0.0 -8.1577749E-004 -3.8133248E-004 0.0 -1.1379060E-003 -1.0397901E-003 0.0 -1.2354597E-003 -1.4940106E-003 0.0 -4.6234616E-004 -5.0124258E-004 0.0 -5.7637654E-004 -4.3987591E-004 0.0 -9.6781746E-004 -1.6727380E-003 0.0 -1.0085661E-003 -1.6781661E-003 0.0 -1.0343688E-003 -1.6671198E-003 0.0  2.3496471E-004 -1.0201461E-003 0.0 -1.1132064E-003 -1.6592634E-003 0.0 -6.4934162E-004 -1.4626527E-003 0.0 -1.5570647E-003 -1.3106051E-003 0.0 -7.0131141E-004 -1.2653980E-003 0.0 -9.9938562E-004 -1.6360350E-003 0.0 -1.1605780E-003 -1.9870392E-003 0.0 -1.0194787E-003 -4.0275730E-004 0.0 -1.3038746E-004 -6.8453292E-004 0.0 -1.2724615E-003 -1.2411902E-003 0.0 -2.1170987E-004 -8.5280338E-004 0.0 -9.2218440E-004 -1.7060549E-003 0.0 -2.4115473E-004 -1.1319626E-003 0.0  6.6660531E-005 -9.6865384E-004 0.0 -1.0119780E-003 -9.9952137E-004 0.0 -9.3512151E-004 -1.4576080E-003 0.0 -1.1919414E-003 -6.7320777E-004 0.0 -1.0481862E-003 -1.6938840E-003 0.0  1.9736700E-004 -1.3333899E-003 0.0 -1.0683551E-003 -1.1163288E-003 0.0 -7.8565560E-004 -1.1606559E-003 0.0 -8.7011148E-004 -1.5778920E-003 0.0 -3.0830026E-004 -1.1512997E-003 0.0 -4.2528906E-005 -5.3101550E-004 0.0 -4.8674978E-004 -1.1338134E-003 0.0 -9.5588299E-004 -4.6257522E-004 0.0 -7.4888991E-004 -1.0707229E-003 0.0 -1.4520688E-003 -1.3320576E-003 0.0  3.2921072E-004 -1.1902066E-003 0.0 -9.9186681E-004 -9.1802841E-004 0.0 -6.5021096E-004 -1.2612600E-003 0.0 -1.4497149E-004 -3.7534821E-004 0.0 -4.2138542E-004 -4.2296168E-004 0.0 -8.4596745E-004 -3.8264087E-004 0.0 -7.2745409E-004 -7.5048304E-004 0.0 -4.2494398E-004 -1.0719247E-003 0.0 -3.8343358E-004 -1.1823033E-003 0.0 -8.7994455E-004 -1.3929174E-003 0.0 -8.1881352E-004 -2.0716426E-003 0.0 -8.7336794E-004 -1.6826629E-003 0.0 -6.7566129E-004 -1.1678880E-003 0.0 -8.0385063E-004 -1.6186195E-003 0.0 -6.8337504E-004 -8.0737001E-004 0.0 -1.3571990E-003 -5.6108301E-004 0.0 -1.6532008E-004 -3.6514490E-004 0.0 -8.3834495E-004 -1.5627184E-003 0.0  4.6619499E-006 -1.6857079E-003 0.0 -2.0094140E-004 -1.0298468E-003 0.0 -7.6561830E-004 -1.4822794E-003 0.0 -7.7900272E-004 -1.3570940E-003 0.0 -7.9156052E-004 -1.5957744E-003 0.0 -9.1366594E-004 -2.0364882E-003 0.0  5.2970561E-004 -1.2153761E-003 0.0 -6.8462396E-004 -1.2548385E-003 0.0 -2.6594352E-005  5.3614486E-004 0.0 -7.4513324E-004 -6.2000494E-004 0.0 -2.5735525E-004 -1.1478169E-003 0.0 -3.5890046E-005 -1.3748520E-003 0.0 -1.5899927E-003 -1.4609367E-003 0.0 -1.0257168E-004 -1.0270022E-003 0.0 -3.7679516E-004 -1.2432238E-003 0.0 -1.6074595E-003 -1.2045618E-003 0.0 -6.0459047E-004 -4.3138860E-004 0.0 -1.5297199E-004 -1.8278807E-003 0.0 -9.0691877E-004 -1.8954372E-003 0.0  2.4724497E-004 -1.3369875E-003 0.0 -7.2478018E-004 -1.4869397E-003 0.0 -5.0625802E-004 -1.2481024E-003 0.0 -9.0994423E-004 -1.6741808E-003 0.0 -4.3588833E-004 -1.1442464E-003 0.0 -2.5306924E-004 -1.4683240E-003 0.0 -1.0752465E-004 -1.5988352E-003 0.0 -4.2429579E-004  4.0130238E-004 0.0 -2.3793462E-004 -1.4365687E-003 0.0 -8.1286364E-004 -1.5763151E-003 0.0 -7.6762382E-004 -1.5599227E-003 0.0 -6.7232723E-004 -1.4077903E-003 0.0 -1.3785839E-003 -1.3694090E-003 0.0 -2.2724326E-004 -5.2107389E-004 0.0 -2.2165235E-004 -4.7115445E-004 0.0  2.1194202E-004 -1.0766012E-003 0.0 -3.1583490E-004 -5.7717227E-004 0.0 -9.2965064E-004 -5.3343431E-004 0.0 -6.7766330E-005 -1.4187030E-003 0.0 -1.6079295E-004 -1.3635152E-003 0.0 -5.5016415E-004 -8.4209988E-004 0.0 -6.3778448E-004 -4.1927157E-004 0.0 -6.9378007E-004 -3.6240961E-004 0.0 -7.7861828E-005 -9.9421222E-004 0.0 -2.3750940E-004 -4.2326799E-004 0.0 -6.8791995E-004 -1.3308972E-003 0.0 -5.8609896E-004  2.4445180E-004 0.0 -9.1169138E-004 -1.6502366E-003 0.0 -6.9845206E-004 -1.0213551E-004 0.0 -7.4593695E-004 -4.1926104E-004 0.0 -7.2634807E-004 -2.8041273E-004 0.0 -4.0845378E-004 -1.1901136E-003 0.0  1.3122507E-004 -8.5085649E-004 0.0 -1.0746250E-003 -1.6573040E-003 0.0 -1.3275223E-003 -1.7529615E-003 0.0 -2.6718291E-004 -4.1958902E-004 0.0 -5.0685587E-004 -9.8454609E-004 0.0 -5.0640722E-004 -1.5650784E-003 0.0 -4.4071421E-004 -1.5503784E-003 0.0 -1.1110018E-003 -2.0073633E-003 0.0  1.5877468E-004 -1.5330475E-003 0.0 -4.7672239E-004 -6.0868571E-004 0.0 -5.4738083E-004 -1.9856869E-003 0.0 -4.2419247E-004 -7.4762598E-004 0.0 -6.6980706E-004 -1.3363516E-003 0.0 -7.3492912E-004 -4.5194452E-004 0.0  6.3493972E-004  4.7091132E-004 0.0 -2.8847481E-004 -4.1419948E-004 0.0 -1.0742438E-003 -1.6226196E-003 0.0 -2.1466406E-004 -1.8409490E-003 0.0 -1.5940761E-003 -8.6040363E-004 0.0 -5.6633479E-005 -4.8079190E-004 0.0 -6.5837854E-004 -7.6493443E-004 0.0 -7.2570593E-004 -5.8392893E-004 0.0 -1.0184984E-003 -1.0836473E-003 0.0 -1.2805122E-003 -5.0204010E-004 0.0 -7.3039378E-004 -6.8417274E-004 0.0 -1.3948363E-003 -6.9022943E-004 0.0 -6.4925158E-004 -4.0293472E-005 0.0 -3.0945568E-004 -1.9446832E-003 0.0 -9.1987418E-004 -5.9686744E-004 0.0 -3.0112356E-005 -1.4065049E-003 0.0 -5.3665257E-004 -1.3044594E-003 0.0 -1.4584040E-003 -8.0635229E-004 0.0 -7.1154421E-004 -6.6671809E-004 0.0 -9.5758502E-004 -1.6373674E-003 0.0 -3.2281178E-005 -3.6355948E-004 0.0 -8.7124598E-004 -4.3166497E-004 0.0 -5.0384284E-004 -4.1885191E-004 0.0 -5.2690872E-004 -1.4509919E-003 0.0 -1.1764003E-003 -1.8673317E-003 0.0 -7.6848815E-004 -1.5649547E-003 0.0 -6.9971875E-004 -1.7069915E-004 0.0 -9.9674813E-004 -4.5322263E-004 0.0 -3.2188047E-004 -1.1284280E-003 0.0 -1.0500968E-004 -1.3604959E-003 0.0 -1.1631420E-003 -7.5410513E-004 0.0  3.3350453E-004 -8.4566626E-004 0.0 -1.4129141E-003 -8.7736456E-004 0.0 -5.9152118E-004 -4.9013979E-004 0.0 -1.0482539E-003 -1.6743822E-003 0.0 -6.7982529E-004 -1.6195130E-003 0.0 -1.5827472E-003 -1.0811801E-003 0.0 -1.0902663E-003 -4.8376171E-004 0.0 -4.4346977E-004 -4.1484633E-004 0.0 -1.6593505E-004 -1.1012579E-003 0.0 -1.5848811E-003 -1.1506214E-003 0.0 -8.8287047E-004 -1.8537279E-003 0.0 -7.7597009E-005 -7.0524587E-004 0.0 -4.6558385E-005 -1.5843538E-003 0.0 -2.3888804E-004 -9.1711820E-004 0.0 -8.6224798E-004 -1.4528966E-003 0.0 -6.1901085E-004 -7.3396824E-004 0.0 -4.0928942E-004 -8.0341337E-004 0.0 -1.5582099E-003 -1.4104177E-003 0.0 -1.1500713E-003 -1.5170864E-003 0.0 -9.4419195E-004 -1.6333923E-003 0.0 -6.2178547E-004 -1.6234642E-003 0.0 -8.0170593E-004 -1.5378690E-003 0.0 -1.2348265E-003 -1.4493168E-003 0.0 -2.1775036E-004 -5.7996986E-004 0.0 -5.7859426E-004 -8.9995794E-004 0.0  3.6302937E-004 -6.4115073E-004 0.0 -1.2011879E-003 -1.2998884E-003 0.0 -1.0234072E-003 -1.6248309E-003 0.0 -4.0155511E-004 -1.5033935E-003 0.0 -4.6888515E-004 -7.1748620E-004 0.0 -9.1891477E-004 -8.5322661E-004 0.0 -1.7214249E-004 -1.3775478E-003 0.0 -7.2570302E-004 -1.5916322E-003 0.0 -3.4158595E-004 -6.2094217E-004 0.0 -7.4751029E-004 -2.0266955E-003 0.0 -9.1900492E-005 -1.2978318E-003 0.0  3.0962104E-006  1.8684999E-005 0.0 -1.2813819E-006  3.0668614E-005 0.0  1.9360813E-005 -6.7092298E-005 0.0 -2.2737503E-006  3.6702797E-005 0.0  1.1135947E-006  2.5718366E-005 0.0  9.0433507E-006  2.5806604E-006 0.0  1.3312774E-005 -8.9864177E-005 0.0  8.0967742E-006 -9.8630026E-005 0.0  2.6170890E-006 -7.9663017E-005 0.0  6.9682373E-006 -1.3693558E-004 0.0  8.9076102E-006 -1.6659454E-004 0.0  6.9911962E-006 -1.8611207E-004 0.0  4.3163471E-006 -2.0100950E-004 0.0  6.2958126E-006 -2.1807862E-004 0.0  4.0952373E-006 -2.2079850E-004 0.0  3.4364414E-006 -2.2821402E-004 0.0  3.9959847E-006 -2.2983319E-004 0.0  1.5158965E-006 -2.2529247E-004 0.0  7.8749480E-007 -2.2553399E-004 0.0  1.2940433E-006 -2.2045598E-004 0.0 -1.6097641E-007 -2.1188511E-004 0.0 -4.0874048E-007 -2.0932176E-004 0.0 -1.5883634E-007 -2.0218050E-004 0.0 -7.8442942E-007 -1.9285142E-004 0.0 -1.4102244E-006 -1.8826994E-004 0.0 -5.6806289E-007 -1.8155206E-004 0.0 -1.5993332E-006 -1.7254208E-004 0.0 -1.5640380E-006 -1.6809882E-004 0.0 -1.5391443E-007  2.8832167E-005 0.0 -1.3684265E-006 -1.6196386E-004 0.0 -1.6359257E-006 -1.5476221E-004 0.0 -1.6933698E-006 -1.4892474E-004 0.0 -1.9853291E-006 -1.4061199E-004 0.0 -2.2477567E-006 -1.3528036E-004 0.0 -1.9758410E-006 -1.2976179E-004 0.0 -1.5850605E-006 -1.2489009E-004 0.0 -1.9105819E-006 -1.1804971E-004 0.0 -2.0360403E-006 -1.1363851E-004 0.0 -2.0696416E-006 -1.0877645E-004 0.0 -1.6634093E-006 -1.0455706E-004 0.0 -1.7973101E-006 -1.0058474E-004 0.0 -1.5142450E-006 -9.4474486E-005 0.0 -1.4251059E-006 -9.1540286E-005 0.0 -1.4231671E-006 -8.8540597E-005 0.0 -1.3742625E-006 -8.5288838E-005 0.0 -5.3785151E-007 -8.1424272E-005 0.0  4.4269436E-006 -7.6504036E-005 0.0  1.3679309E-007 -1.4061586E-005 0.0  4.0071369E-006 -3.9527862E-005 0.0  2.1318265E-005 -4.0402751E-005 0.0 -1.7836319E-006  5.1394409E-005 0.0 -1.2145219E-006  5.5730358E-005 0.0 -1.9694327E-007  5.7587258E-005 0.0 -8.4723809E-007  5.6058714E-005 0.0  1.8614175E-007  5.4398042E-005 0.0  9.3583508E-007  5.1018342E-005 0.0 -3.7574659E-007  4.5830364E-005 0.0  1.3265315E-006  4.1103497E-005 0.0  1.1576458E-006  3.5750092E-005 0.0 -2.1551178E-007  3.0097185E-005 0.0  1.2258628E-006  2.5101831E-005 0.0  9.8269455E-007  2.0645070E-005 0.0 -1.3041383E-007  1.6266044E-005 0.0  9.0372400E-007  1.1828129E-005 0.0  9.4078186E-007  8.8238041E-006 0.0 -3.1894317E-008  5.4121073E-006 0.0  6.8628748E-007  1.5026145E-006 0.0  6.6552803E-007 -5.3393702E-007 0.0 -1.7873256E-007 -2.6501249E-006 0.0  3.7852225E-007 -5.4717110E-006 0.0  5.5494958E-007 -6.4020345E-006 0.0  2.5484451E-007 -8.7623989E-006 0.0  3.6925625E-007 -9.2900682E-006 0.0 -3.5376194E-007 -1.0229075E-005 0.0 -2.8918296E-007 -1.0728978E-005 0.0  1.7049523E-007 -1.2385807E-005 0.0  2.1206434E-007 -1.2427773E-005 0.0 -3.5416370E-007 -1.2804768E-005 0.0 -3.8932427E-007 -1.2943158E-005 0.0 -2.1023104E-007 -1.2504207E-005 0.0 -7.4164048E-008 -1.3662257E-005 0.0 -1.4328025E-008 -1.3829554E-005 0.0 -3.5640732E-007 -1.3723516E-005 0.0 -2.3563937E-007 -1.3285616E-005 0.0 -5.4590331E-008 -1.4089983E-005 0.0 -1.1191633E-008 -1.3860685E-005 0.0  1.9941806E-006 -2.1237442E-005 0.0  5.2317793E-006 -7.1341572E-005 0.0  4.4669099E-006 -6.4315462E-005 0.0  2.4258698E-006 -7.2134285E-005 0.0  3.5027863E-007  2.8732045E-005 0.0  1.4424089E-006 -8.2592225E-005 0.0 -1.1500140E-006 -7.4424670E-005 0.0 -2.5578683E-006  4.2977190E-005 0.0 -3.1017159E-006  2.5874665E-005 0.0 -2.6329115E-006  2.7040576E-005 0.0 -2.4874765E-006  2.6787590E-005 0.0 -1.1618470E-006  4.7724377E-006 0.0 -8.9956602E-007  1.2850083E-005 0.0  4.1684248E-006 -1.5871665E-005 0.0  2.7427957E-006 -3.4998597E-006 0.0 -2.5812917E-007  1.7529748E-005 0.0  3.2575885E-006  4.6800802E-006 0.0  8.9926934E-007  1.9213234E-005 0.0 -1.1338739E-006  2.3990900E-005 0.0  1.6008134E-007  2.4833706E-005 0.0  3.6658274E-006  1.0983422E-005 0.0  8.3954939E-006 -5.5854461E-006 0.0 -8.3601162E-007  2.7010848E-005 0.0  2.4216827E-008  2.7289006E-005 0.0  7.2240812E-006  3.6830831E-006 0.0  1.5422050E-006  2.1110782E-005 0.0  1.3864458E-005 -1.5306870E-005 0.0  1.5466682E-005 -3.0669615E-005 0.0  1.7619194E-005 -1.8662728E-005 0.0 -2.0432930E-006  2.4403638E-005 0.0 -8.9849636E-007 -1.1725031E-005 0.0  9.9173226E-006 -6.5085060E-005 0.0 -1.7640126E-006  3.3343232E-005 0.0  1.6356937E-005 -7.2216807E-005 0.0 -5.3908774E-007  2.9326742E-005 0.0  2.7742873E-006 -7.7704138E-005 0.0  1.6749161E-006  4.3954617E-005 0.0  4.3511010E-006 -1.8086632E-005 0.0  1.3792752E-006 -2.0459127E-005 0.0  7.2309914E-006 -1.2812695E-004 0.0  4.2868347E-006 -4.7521651E-005 0.0  6.4418784E-006 -6.4499734E-005 0.0  5.6025353E-006 -5.5534035E-005 0.0  3.0319020E-006 -2.6291878E-005 0.0  4.0731958E-006 -4.7495064E-005 0.0  2.0000538E-006 -4.0965501E-005 0.0  2.3118340E-006  3.1166837E-005 0.0  5.2903435E-006 -3.8766803E-005 0.0  1.8767954E-006 -4.1497950E-005 0.0  3.8669770E-006 -1.4313986E-004 0.0  1.1172804E-006 -1.6554229E-005 0.0  1.3422238E-006 -6.4140022E-005 0.0 -9.8712387E-008 -6.2430400E-005 0.0 -6.5755249E-007 -1.1982287E-004 0.0  1.9724599E-006  2.3955837E-006 0.0  3.3910298E-006 -6.1622218E-005 0.0  8.3624153E-007 -6.1089748E-005 0.0  6.9853290E-007 -1.4579745E-004 0.0  4.5191045E-006 -5.7910485E-005 0.0  5.3920925E-006 -7.0454445E-005 0.0  4.2334764E-007 -1.9371215E-005 0.0  1.0316499E-008 -4.8709347E-005 0.0 -4.2919635E-007 -4.6723359E-005 0.0 -8.2090258E-007 -8.3561576E-005 0.0  1.8011418E-007 -1.9151928E-005 0.0  8.1884204E-008 -5.0167585E-005 0.0  7.5425476E-007 -1.8992222E-005 0.0  8.8159095E-007 -5.8740844E-005 0.0 -2.0335962E-007 -5.7355551E-005 0.0 -6.2420761E-007 -1.0393338E-004 0.0  3.6628545E-007 -1.9318960E-005 0.0  2.3727287E-007 -5.0538878E-005 0.0  2.2676029E-006  1.5284910E-005 0.0  4.3263827E-006 -5.3489909E-005 0.0  1.3086608E-006 -5.4721032E-005 0.0  1.8917998E-006 -1.4939831E-004 0.0  1.5992677E-006 -7.2319738E-006 0.0  2.5009042E-006 -6.4616078E-005 0.0  4.9234787E-007 -6.4213989E-005 0.0  3.6379234E-007 -1.3748835E-004 0.0 -1.3750895E-006 -2.3026072E-005 0.0  4.9838299E-007 -1.8079516E-005 0.0  3.3216045E-007 -5.4881511E-005 0.0  1.2428386E-006 -1.3681050E-005 0.0  1.7805959E-006 -6.5140997E-005 0.0  1.8534445E-008 -6.3940482E-005 0.0 -3.8394377E-007 -1.2750406E-004 0.0  1.1389584E-006 -1.1217267E-005 0.0  1.3498910E-006 -5.8296956E-005 0.0 -1.3873239E-006 -1.5114577E-005 0.0  2.9933927E-007 -1.9002120E-005 0.0 -5.7047564E-008 -4.3905114E-005 0.0 -4.9335176E-007 -4.2609136E-005 0.0 -7.0942868E-007 -7.3205213E-005 0.0  1.5687898E-007 -1.8939001E-005 0.0  7.1009522E-008 -4.5251160E-005 0.0 -1.5778138E-006 -1.9781389E-005 0.0  1.5487813E-006 -3.6456166E-006 0.0  2.0471443E-006 -5.6275215E-005 0.0  2.0671537E-006  7.0068417E-006 0.0  2.6971934E-006 -5.2075261E-005 0.0  1.6017070E-006 -1.9920751E-005 0.0  3.7395118E-007 -1.8993711E-005 0.0  3.3014724E-007 -4.5216630E-005 0.0  5.3648149E-007 -1.9198586E-005 0.0  5.2974923E-007 -5.1785821E-005 0.0  7.5966040E-007 -1.7628571E-005 0.0  8.4408223E-007 -5.6336047E-005 0.0 -1.3520453E-006 -7.0311419E-006 0.0 -9.2822334E-007  4.0042535E-006 0.0  1.3458322E-006  4.7258985E-005 0.0  3.1561356E-006 -4.6939040E-006 0.0  3.7648508E-007 -1.8437917E-005 0.0  7.7165451E-007 -4.1976000E-005 0.0 -2.1769301E-007 -2.1336843E-005 0.0 -1.5134598E-006 -2.1715001E-005 0.0  3.6975399E-006 -3.5542886E-005 0.0 -6.5590220E-007  1.8736887E-005 0.0 -6.7714632E-007  3.4686627E-005 0.0 -4.4821182E-007 -2.0224939E-005 0.0  2.4346152E-006  3.6641866E-005 0.0  3.8416429E-006 -2.5454823E-005 0.0 -5.2416779E-007  4.5467563E-005 0.0  2.0428606E-006  2.9981860E-006 0.0 -2.6729877E-007  1.5694108E-006 0.0  7.6429257E-006 -8.2933832E-005 0.0 -1.7714233E-006  4.2886438E-005 0.0  2.5578693E-006  2.0811632E-005 0.0  3.4759321E-006 -4.2715010E-005 0.0  1.3635053E-006 -7.9811614E-005 0.0 -1.9605543E-006 -1.1564640E-004 0.0 -7.4465739E-007 -8.1393788E-005 0.0 -9.1969313E-007 -8.0955275E-005 0.0 -3.4761645E-007 -6.0614845E-005 0.0  2.9969877E-006 -2.0169427E-004 0.0  1.7481501E-006 -1.0534243E-004 0.0 -1.7212990E-006 -1.1421313E-004 0.0 -1.0501485E-006 -8.1996130E-005 0.0 -1.8935571E-006 -1.3646903E-004 0.0 -6.3483946E-007 -9.2293831E-005 0.0 -1.5604170E-006 -1.2947018E-004 0.0 -1.2433674E-006 -9.0187345E-005 0.0  6.4359951E-006 -2.0991458E-004 0.0  1.2665780E-006 -1.0354328E-004 0.0 -1.8853170E-006 -1.3505871E-004 0.0 -1.0983126E-006 -9.3537656E-005 0.0 -1.4782973E-006 -9.4376828E-005 0.0 -7.0738744E-007 -6.8621457E-005 0.0  9.7293896E-006 -1.0111467E-004 0.0 -1.7485982E-007 -2.3500210E-005 0.0  2.6305314E-006 -4.0393465E-005 0.0 -2.7981019E-007 -1.8285461E-004 0.0 -7.0945600E-007 -1.1338044E-004 0.0 -5.6138984E-007 -1.6483223E-004 0.0 -9.4614160E-007 -1.0726083E-004 0.0 -1.4593041E-006 -1.6383386E-004 0.0 -1.7048743E-007 -1.0409268E-004 0.0  1.0432991E-005 -1.4850953E-004 0.0  2.0171910E-006 -5.8821760E-005 0.0 -1.9197155E-006 -1.0554122E-004 0.0 -8.5292395E-007 -8.1546634E-005 0.0  6.7267534E-007 -1.9492306E-004 0.0  9.1235915E-007 -1.1046930E-004 0.0 -3.7217724E-007 -1.8069676E-004 0.0  4.3745057E-007 -1.0831202E-004 0.0 -1.2833083E-006 -9.2089067E-005 0.0 -8.2951245E-007 -6.8745413E-005 0.0 -1.4651035E-006 -1.4791402E-004 0.0 -6.7469131E-007 -9.8109611E-005 0.0  1.4465217E-006 -2.0059332E-004 0.0 -9.2261139E-008 -1.1750592E-004 0.0  3.1721922E-006 -2.1270757E-004 0.0  5.5702474E-007 -1.1602793E-004 0.0  6.4613439E-006 -1.9020079E-004 0.0  2.4305011E-006 -8.8361043E-005 0.0  4.5974194E-007 -8.0445432E-005 0.0  1.2078326E-006 -6.4493085E-005 0.0 -1.9316365E-006 -1.0933423E-004 0.0 -1.1646573E-006 -7.9021109E-005 0.0 -1.5908265E-006 -8.9094441E-005 0.0 -7.6595281E-007 -7.1178189E-005 0.0  8.0869349E-006 -1.7951526E-004 0.0  2.9667919E-006 -7.5289284E-005 0.0  5.1560252E-007  2.7419181E-005 0.0  5.8820055E-006  1.1174577E-005 0.0  1.9617008E-006  2.2550746E-005 0.0  8.1681404E-007 -9.9930972E-005 0.0 -1.1513437E-006 -8.1809313E-005 0.0 -1.0872936E-007 -1.0746688E-004 0.0 -1.1911675E-006 -9.2582535E-005 0.0 -7.8709836E-007 -1.0335532E-004 0.0 -1.1050861E-006 -7.0992020E-005 0.0 -1.1170307E-006 -9.7617386E-005 0.0 -3.9544439E-007 -1.0669157E-004 0.0 -7.8364933E-007 -6.2275954E-005 0.0  1.8257726E-006 -8.0567537E-005 0.0  1.6498151E-006 -4.8297059E-005 0.0  4.9978383E-006 -5.4771955E-005 0.0 -1.3490687E-006 -7.7247151E-005 0.0  5.5500059E-006 -7.0978169E-005 0.0  3.7180193E-006 -7.3286822E-005 0.0 -3.0534961E-006 -7.1041400E-005 0.0  5.2874384E-006 -3.5493163E-005 0.0  1.0604315E-005 -2.1361855E-005 0.0  1.0160415E-005 -4.1027698E-005 0.0  3.2361042E-006 -7.1091604E-005 0.0  1.5563199E-007  2.8863124E-005 0.0  2.1926600E-005 -5.4559652E-005 0.0 -2.3828159E-006  4.1957939E-005 0.0  3.1378434E-006 -6.7354325E-005 0.0 -1.4515042E-006  2.7634073E-005 0.0 -3.4287195E-006 -6.8392445E-005 0.0 -3.6394895E-007 -6.7031924E-005 0.0  3.2242434E-006 -7.7558828E-005 0.0  9.4590575E-007  2.5092792E-005 0.0  1.9325172E-006 -1.9541158E-005 0.0  3.7553110E-006  1.4756437E-005 0.0  1.6090302E-005 -1.0114555E-005 0.0 -2.9091397E-008  2.7891641E-005 0.0 -3.7564929E-006 -6.3289732E-005 0.0 -1.4240345E-006  8.8573674E-006 0.0  5.1357833E-006 -6.4908623E-005 0.0 -1.8896385E-006 -6.5358894E-005 0.0  3.8711907E-006 -6.8069988E-005 0.0  4.2616534E-007 -4.3581758E-005 0.0  4.5934632E-007 -4.8391778E-005 0.0  5.2679667E-006 -6.8924456E-005 0.0 -1.8258922E-006 -8.6050425E-005 0.0  6.0532325E-007 -5.4873081E-005 0.0  9.3632432E-007 -5.9913100E-005 0.0 -2.0425951E-006 -1.0113574E-004 0.0  1.1136749E-006 -6.2026890E-005 0.0  1.6763032E-006 -6.2444209E-005 0.0  2.3275245E-006 -6.0167848E-005 0.0 -2.2963591E-006 -1.2760386E-004 0.0  1.5648128E-006 -4.4533451E-005 0.0  2.8975347E-006 -5.5634876E-005 0.0  1.9855622E-007 -4.1212250E-005 0.0  3.6410335E-006 -4.4534046E-005 0.0  2.2448628E-007 -6.7846936E-005 0.0  3.8073649E-006 -2.6161494E-005 0.0  2.4801844E-006 -4.5846460E-006 0.0 -2.5650529E-006 -1.5216377E-004 0.0 -3.6692740E-007 -4.8492802E-005 0.0 -3.9625605E-007 -4.5887708E-005 0.0 -2.2409264E-006 -1.6558159E-004 0.0 -1.0663762E-006 -7.5376030E-005 0.0 -7.6940469E-008 -4.5419485E-005 0.0 -9.8362077E-007 -7.6351448E-005 0.0 -1.8424548E-006 -1.8572356E-004 0.0 -3.4211910E-007 -5.4196261E-005 0.0 -5.8000771E-007 -5.1427411E-005 0.0 -8.9603924E-007 -2.0710172E-004 0.0 -4.2578085E-007 -5.2695322E-005 0.0 -1.3860542E-006 -8.7819143E-005 0.0  6.2681336E-007 -2.2419445E-004 0.0  2.9596149E-008 -5.2199214E-005 0.0 -1.4614266E-006 -8.9891972E-005 0.0 -1.2272012E-006 -9.2822832E-005 0.0  4.0715898E-006 -2.3059689E-004 0.0 -9.2889241E-008 -5.7066274E-005 0.0  7.7864595E-006 -2.4821646E-004 0.0 -3.8847943E-007 -5.7977617E-005 0.0  1.5019091E-005 -1.8911195E-004 0.0  2.3231986E-007 -5.7140160E-005 0.0 -1.4679281E-006 -1.0462479E-004 0.0 -1.2416129E-006 -1.0776023E-004 0.0  6.6661648E-007 -6.0534121E-005 0.0  5.1112676E-007 -6.3232928E-005 0.0  7.0268845E-007 -6.0010690E-005 0.0 -6.7478180E-007 -1.2720377E-004 0.0  9.6575148E-007 -6.3025637E-005 0.0  1.2815100E-006 -5.8424681E-005 0.0  1.6197370E-006 -6.0136124E-005 0.0 -1.9032794E-007 -1.3762550E-004 0.0  1.8985698E-006 -5.3346591E-005 0.0  2.3146199E-006 -5.2598532E-005 0.0  2.6863566E-006 -4.3567135E-005 0.0  7.2671063E-007 -1.4694498E-004 0.0  2.8954726E-006 -3.8075204E-005 0.0  3.0229138E-006 -2.6890301E-005 0.0  1.9436921E-006 -1.5028281E-004 0.0  3.0531952E-006 -1.7285032E-005 0.0  2.2730498E-006 -6.6703644E-006 0.0  1.2141457E-006 -3.3334857E-006 0.0  3.6432741E-006 -1.4017514E-004 0.0  4.9268017E-006 -1.1104961E-004 0.0 -5.5457698E-007  2.7945873E-005 0.0 -1.8755877E-006  2.7748294E-005 0.0  2.1376399E-006 -6.5897626E-005 0.0 -9.8396554E-007 -7.1689863E-005 0.0  2.4394385E-007  2.9044436E-005 0.0  2.4711583E-005 -2.4593112E-005 0.0 -1.1177640E-006 -8.2795465E-005 0.0  2.5952401E-005 -3.4721808E-005 0.0 -1.1942061E-006 -1.0465590E-004 0.0 -1.0004882E-006 -1.2142110E-004 0.0 -8.2288555E-007 -1.3092771E-004 0.0 -3.6735602E-007 -1.4292837E-004 0.0  4.1819969E-007 -1.5499277E-004 0.0  1.6255550E-006 -1.6164829E-004 0.0  3.8853204E-006 -1.5824981E-004 0.0  5.1781025E-006 -1.1483891E-004 0.0  5.7351004E-006 -7.0260968E-005 0.0  4.0963285E-006 -8.5367322E-005 0.0  1.9982250E-006  2.0528512E-005 0.0 -3.5909621E-006 -5.8503187E-005 0.0  3.1331756E-006 -1.2554979E-004 0.0  1.0262794E-005 -5.3122080E-005 0.0  1.5281231E-005 -4.3552871E-005 0.0  1.2894839E-005 -7.5662701E-006 0.0  1.3184182E-006 -1.3940192E-004 0.0 -4.3064341E-006 -5.1505098E-005 0.0  2.5879388E-006 -6.7059644E-005 0.0 -2.3132274E-007 -1.4248339E-004 0.0  5.1495945E-006 -6.6865805E-005 0.0  1.4986777E-006  2.3089827E-005 0.0 -9.9740919E-007 -1.3670891E-004 0.0 -1.1910854E-006 -1.2825102E-004 0.0 -1.6602099E-006 -1.1825715E-004 0.0 -1.7822901E-006 -1.1078736E-004 0.0 -9.7561566E-007 -7.7722511E-005 0.0 -9.8345731E-007  2.8222862E-005 0.0 -1.6067482E-006 -9.5756897E-005 0.0  9.3919481E-005  1.6969033E-004 0.0  1.1439462E-003  5.0696393E-005 0.0  3.5605354E-004  2.0613400E-004 0.0  8.5801021E-004 -6.3302026E-004 0.0  5.2204764E-004  3.9655469E-004 0.0  4.9567239E-004 -1.0948330E-003 0.0  6.2001596E-004 -1.0190043E-003 0.0  9.6725965E-004 -1.0994693E-003 0.0  8.8948205E-004 -2.9510883E-004 0.0  1.9281901E-004  2.6191211E-004 0.0  1.3648890E-004  2.1074110E-004 0.0  3.9243585E-004 -1.3718419E-003 0.0  9.3683455E-005 -1.1728922E-003 0.0  2.6993730E-004 -1.1658567E-003 0.0  1.7925134E-004 -1.1707638E-003 0.0  6.1269704E-004  1.5046905E-004 0.0  1.1841164E-003 -7.1662185E-004 0.0  7.3169223E-004 -9.0344288E-004 0.0  1.4893499E-004  1.5158702E-004 0.0  8.1496597E-004 -1.2322447E-003 0.0  6.2423699E-004 -1.3257044E-003 0.0  1.2578421E-004 -1.3453615E-003 0.0  2.2054503E-004 -1.3611862E-003 0.0  2.0152343E-004  1.7898656E-004 0.0  7.9480674E-004 -3.7256841E-005 0.0  1.2479869E-003 -3.6748074E-004 0.0  2.9983847E-004  3.2918490E-004 0.0  3.8361825E-004 -1.1437185E-003 0.0  1.1090701E-004  1.3194554E-004 0.0  3.1444755E-005 -1.2984849E-003 0.0  8.4971060E-005  1.4263097E-004 0.0  1.2018775E-004  1.9335375E-004 0.0  1.1777284E-004  1.6677541E-004 0.0  9.9895609E-005  1.5202426E-004 0.0  1.1911643E-004  1.4862255E-004 0.0  1.4276775E-004  1.8561299E-004 0.0  1.6624779E-004  2.0723427E-004 0.0  1.6153462E-004  1.7165990E-004 0.0  7.7658791E-004  3.9627201E-004 0.0  6.0817745E-004  2.7345223E-004 0.0  4.6008790E-004  3.0109089E-004 0.0  7.8640987E-004  2.7187703E-004 0.0  5.2741556E-004  2.0342161E-004 0.0  4.1203653E-004  2.3957818E-004 0.0  1.0785681E-003 -8.9157736E-004 0.0  1.0378519E-003 -7.0771411E-004 0.0  1.0744328E-003 -5.5485338E-004 0.0  9.8459404E-004 -8.5568585E-004 0.0  9.5124748E-004 -5.6513916E-004 0.0  9.6677219E-004 -4.3063426E-004 0.0  2.7564893E-004  1.9414228E-004 0.0  2.9796770E-004  2.4304256E-004 0.0  2.4601124E-004  2.1795784E-004 0.0  2.5636025E-004  2.6957343E-004 0.0  7.9944573E-004 -8.1160842E-004 0.0  8.2657375E-004 -9.6150367E-004 0.0  7.6652436E-004 -1.0238246E-003 0.0  8.5146785E-004 -1.1037262E-003 0.0  8.8705853E-004 -8.5824103E-004 0.0  3.3722644E-004 -1.1534484E-003 0.0  3.0778078E-004 -1.2476953E-003 0.0  2.4404828E-004 -1.2390120E-003 0.0  2.8093603E-004 -1.3330339E-003 0.0  3.4114130E-004 -1.3170634E-003 0.0  6.7906940E-004 -1.2957751E-003 0.0  6.4286735E-004 -1.1960911E-003 0.0  5.6188490E-004 -1.2546842E-003 0.0  5.7847258E-004 -1.1151653E-003 0.0  7.1093436E-004 -1.1633450E-003 0.0  7.2027364E-004  7.7762477E-005 0.0  8.3977932E-004  6.7110983E-005 0.0  9.6187427E-004 -7.6798592E-005 0.0  9.9828034E-004 -1.0218473E-003 0.0  1.4027505E-004 -1.1728229E-003 0.0  1.5964361E-004 -1.2447867E-003 0.0  1.1433774E-004 -1.2418179E-003 0.0  7.2133224E-005 -1.2294455E-003 0.0  9.2005516E-005 -1.3066136E-003 0.0  5.6123182E-005 -1.1778890E-003 0.0  6.9032724E-004 -9.6823742E-004 0.0  1.5947214E-004 -1.3545945E-003 0.0  1.9590238E-004 -1.2819513E-003 0.0  4.7131365E-004 -1.3693993E-003 0.0  4.3409719E-004 -1.2710417E-003 0.0  5.0169184E-004 -1.2677890E-003 0.0  4.5653650E-004 -1.1678708E-003 0.0  2.2952655E-004 -1.1705901E-003 0.0  2.3003234E-004  1.8032861E-004 0.0  2.0321636E-004  2.0467026E-004 0.0  1.1101586E-003 -4.1749224E-004 0.0  8.7959156E-004 -1.4638029E-004 0.0  1.0134794E-003 -2.1397546E-004 0.0  1.0962318E-003 -1.1729883E-004 0.0  1.6496578E-004  2.4415508E-004 0.0  9.4265347E-004  2.7003731E-004 0.0  8.3344030E-004 -7.1456621E-004 0.0  3.9788868E-004  3.5471772E-004 0.0  1.1550426E-003 -5.5524147E-004 0.0  3.7177727E-004  2.7879110E-004 0.0  5.0645808E-004 -1.3639357E-003 0.0  3.7192788E-004 -1.2246712E-003 0.0  8.0130914E-005  1.5348823E-004 0.0  9.3017118E-005  1.3188122E-004 0.0  4.2608110E-005 -1.2132888E-003 0.0  5.7822096E-005 -1.3386389E-003 0.0  4.5772633E-004  1.9369989E-004 0.0  1.3206440E-004  1.3948574E-004 0.0  6.7147775E-004  2.0462919E-004 0.0  2.8594682E-004 -1.4029887E-003 0.0  9.5746310E-004  4.3021345E-005 0.0  1.1635458E-003 -1.4349628E-004 0.0  5.5140508E-004 -1.0334225E-003 0.0  9.5325474E-004 -7.1452218E-004 0.0  8.4185214E-004 -4.9001769E-004 0.0  6.4964259E-004 -1.0941559E-003 0.0  9.5017261E-004 -9.8085189E-004 0.0  5.1373434E-004  1.5711761E-004 0.0  1.3767376E-004  1.6365286E-004 0.0  5.2307458E-004 -1.1777593E-003 0.0  1.7350590E-004  1.5689887E-004 0.0  8.4047345E-004 -1.2091803E-003 0.0  8.8101328E-004 -4.1296790E-004 0.0  2.2331861E-004  3.0211754E-004 0.0  2.2026234E-004 -1.4043286E-003 0.0  2.0553585E-004 -1.2226028E-003 0.0  1.5087840E-004 -1.3066507E-003 0.0  4.4149337E-004 -1.0928377E-003 0.0  2.1683579E-004  2.2712289E-004 0.0  8.3627567E-005 -1.3608027E-003 0.0  6.8187744E-005 -1.2844742E-003 0.0  4.5561517E-005 -1.1603175E-003 0.0  6.8041701E-005  1.4519459E-004 0.0  9.7737641E-005  1.1635524E-004 0.0  3.8413112E-005 -1.3514199E-003 0.0  1.0185604E-004  1.4195093E-004 0.0  3.8575354E-004 -1.2781349E-003 0.0  8.8238137E-004  1.2733591E-004 0.0  1.0798955E-003 -3.1722193E-004 0.0  8.9806948E-004 -7.5344482E-004 0.0  7.5464677E-004 -1.1285450E-003 0.0  7.4357664E-004  1.4812153E-004 0.0  2.3838652E-004 -1.3046900E-003 0.0  1.8312722E-004  2.0389621E-004 0.0  1.0097535E-003 -3.2816029E-004 0.0  7.0024770E-004 -1.0595493E-003 0.0  3.3871697E-004  2.5097058E-004 0.0  3.1250423E-004  2.7701008E-004 0.0  8.9133203E-004 -9.9869819E-004 0.0  4.1093453E-004 -1.2114281E-003 0.0  1.8794277E-004  2.2963160E-004 0.0  1.3197595E-004 -1.2887078E-003 0.0  1.3204380E-004  5.8032794E-005 0.0  1.6420258E-004  5.5876445E-005 0.0  3.1594155E-004 -6.2203528E-004 0.0  3.6830997E-004 -5.6138312E-004 0.0  2.5014624E-004  2.7098406E-005 0.0  2.0377883E-004  4.5809758E-005 0.0  3.0302448E-004 -6.1770795E-006 0.0  4.1044905E-004 -4.8564535E-004 0.0  4.3698829E-004 -4.0065986E-004 0.0  3.5626898E-004 -5.7364254E-005 0.0  4.4348489E-004 -2.6111726E-004 0.0  4.0265240E-004 -1.2782298E-004 0.0  4.3262353E-004 -1.7150129E-004 0.0  4.5555741E-004 -3.1253344E-004 0.0  4.2791774E-004 -4.4250813E-004 0.0  3.9456866E-004 -5.2402558E-004 0.0  1.8292933E-004  5.4890509E-005 0.0  3.8310952E-004 -8.6328034E-005 0.0  2.8604180E-004 -6.6045661E-004 0.0  3.2948982E-004 -2.8443063E-005 0.0  3.4877930E-004 -5.9240618E-004 0.0  2.2474523E-004  3.7537448E-005 0.0  1.4531582E-004  5.8105974E-005 0.0  2.7567630E-004  1.3964211E-005 0.0  4.4921363E-004 -3.5363234E-004 0.0  4.3871179E-004 -2.1277301E-004 0.0  2.6083826E-004 -6.4962013E-004 0.0  1.2116918E-004  6.1663292E-005 0.0  1.1967879E-004  5.3616514E-005 0.0  2.6948865E-004 -6.9918669E-004 0.0 -2.7836883E-006 -6.0551074E-005 0.0 -4.1822231E-006 -4.4775997E-005 0.0 -5.6086719E-006 -8.5278356E-005 0.0 -7.6290533E-006 -1.1428765E-004 0.0 -9.0677842E-006 -1.5132240E-004 0.0 -9.7885188E-006 -1.9415606E-004 0.0 -1.1940619E-005 -2.5159958E-004 0.0 -6.2680218E-004 -1.8257005E-004 0.0 -9.4773868E-006 -3.1402907E-004 0.0 -2.9740467E-006 -2.7455086E-005 0.0  8.3053973E-005 -7.6994180E-004 0.0 -2.4168612E-006 -5.2672225E-005 0.0  4.1260372E-004 -8.1070930E-005 0.0 -4.9404157E-004 -6.2383306E-004 0.0 -3.1921199E-006 -3.5715413E-004 0.0  2.8015104E-004 -4.0452658E-005 0.0  7.2073659E-005  1.0233281E-004 0.0 -2.8355763E-006 -4.1666317E-005 0.0  9.9874460E-005  5.9542257E-005 0.0 -4.3942438E-006 -7.0302270E-005 0.0 -6.8662451E-006 -9.8887615E-005 0.0 -4.4772608E-004  1.2670663E-004 0.0 -4.6110026E-004  2.5399295E-006 0.0  1.3719331E-004 -7.2577319E-004 0.0  4.8777746E-005 -7.2117956E-004 0.0  9.2172763E-006 -3.6099934E-004 0.0  3.4995473E-005 -2.9695554E-004 0.0  2.0205513E-004 -3.3240203E-005 0.0  5.5349629E-004 -1.6875142E-004 0.0 -8.6566437E-007  5.2724807E-006 0.0 -2.0949418E-004 -8.0532190E-004 0.0  4.0783393E-005  1.6868325E-004 0.0 -1.3420841E-006 -1.0482859E-005 0.0 -3.2877921E-007  7.9955752E-006 0.0 -8.7530934E-006 -1.3080493E-004 0.0 -1.1812090E-005 -2.8290725E-004 0.0 -1.1650275E-005 -2.2116664E-004 0.0 -9.7556494E-006 -1.7221591E-004 0.0  1.4598494E-004 -3.6634053E-005 0.0 -4.7866709E-007  2.0225721E-006 0.0  6.2418886E-007  7.3937357E-006 0.0 -1.1435266E-006 -9.4931857E-008 0.0  9.1493801E-005  2.8379806E-004 0.0  3.5422365E-004 -2.5454585E-004 0.0  3.0776317E-004 -1.1768430E-004 0.0  2.2942178E-004 -1.7804070E-005 0.0  1.3916376E-004  3.1679940E-005 0.0  3.1817635E-004 -4.0773570E-004 0.0  2.4548189E-004 -4.9090819E-004 0.0  7.4536097E-004 -5.0302918E-004 0.0  4.8621899E-005 -2.2175816E-004 0.0  1.1191086E-004 -6.6550579E-004 0.0  3.8324941E-005 -6.4693329E-004 0.0 -3.6157467E-004  1.1939896E-004 0.0 -3.1498526E-004  2.1167419E-005 0.0  1.1002953E-004 -3.7518756E-005 0.0  6.5453815E-004 -2.8907146E-004 0.0  1.8824689E-005  3.3850394E-006 0.0 -6.3270236E-007 -4.0369392E-006 0.0  8.9348492E-005 -6.0211167E-004 0.0  1.2413368E-005 -5.9385893E-004 0.0  2.6262492E-004 -8.1137585E-004 0.0 -3.6012831E-004  5.0567848E-004 0.0 -2.8737947E-007  9.4514873E-007 0.0  5.4410769E-005  1.1376288E-004 0.0  3.5607053E-005  1.3238914E-004 0.0  3.5362776E-005  9.2631101E-005 0.0  2.3637915E-007  1.1212790E-004 0.0  2.3706836E-005  6.5017025E-005 0.0 -1.7753996E-005  6.7274285E-005 0.0  7.7745233E-006  4.9794260E-005 0.0 -2.0753063E-005  4.2685211E-005 0.0 -6.0374231E-004 -4.6872821E-004 0.0  2.6905911E-005 -3.4280436E-004 0.0 -4.4522439E-006 -7.7523847E-005 0.0 -7.1208677E-006 -3.3575049E-004 0.0 -3.8546062E-006 -4.7388392E-005 0.0 -2.8368744E-006 -5.6980513E-005 0.0  4.9139608E-005 -1.2880318E-004 0.0 -3.1732251E-009  3.4091367E-005 0.0 -1.7086437E-005  2.8971888E-005 0.0  5.7054219E-005 -5.4674305E-004 0.0 -1.5749736E-006 -5.4000100E-004 0.0 -1.0227162E-006 -3.1387862E-007 0.0 -2.1529241E-006  2.4994493E-005 0.0 -1.1804012E-005  1.8310457E-005 0.0 -2.4165182E-005  2.3138732E-005 0.0 -1.4858377E-005  1.2975508E-005 0.0 -2.4710583E-005  1.2541491E-005 0.0 -1.5198406E-005  8.6206065E-006 0.0 -2.1291226E-005  5.4835413E-006 0.0 -1.3997553E-005  4.8603028E-006 0.0 -1.7726912E-005  8.5759604E-007 0.0 -1.2084046E-005  2.7301222E-006 0.0 -2.7071413E-005  1.2260518E-007 0.0 -1.4130023E-005 -1.1827059E-006 0.0 -9.9614631E-006  1.0843466E-006 0.0 -1.1126551E-005 -1.8293417E-006 0.0 -8.0592638E-006  3.6108222E-007 0.0 -8.4340207E-006 -2.1947762E-006 0.0 -6.3771093E-006 -2.0042849E-007 0.0 -6.5808095E-006 -1.9935607E-006 0.0 -5.0682560E-006 -3.1382789E-007 0.0 -4.9783199E-006 -1.7872626E-006 0.0 -3.9535103E-006 -4.3815145E-007 0.0 -3.9034005E-006 -1.4586853E-006 0.0 -3.1429528E-006 -3.7099104E-007 0.0 -8.4165732E-007  9.8005319E-008 0.0  1.3331198E-004 -5.3999977E-004 0.0  7.8225280E-005 -4.9500421E-004 0.0  1.5071452E-004 -4.6739376E-004 0.0  4.2825065E-005 -2.2124758E-008 0.0  1.7576006E-004 -9.9780865E-004 0.0 -9.2243185E-005  7.2817783E-004 0.0 -1.1656626E-005 -4.2441334E-006 0.0 -2.9525703E-006 -1.1636123E-006 0.0 -1.0239117E-005  8.4997462E-006 0.0  7.3691573E-004 -7.6294457E-004 0.0 -6.1059644E-006  1.3154443E-006 0.0  7.4006474E-006  2.2755147E-006 0.0  7.6454246E-005 -3.9935241E-005 0.0 -3.7060048E-006 -2.0508734E-006 0.0 -3.6982423E-006  1.8025659E-005 0.0  1.9432371E-006  2.0052917E-005 0.0 -2.5027044E-006 -3.9821302E-007 0.0  4.8989078E-005 -2.0682025E-005 0.0 -2.5516690E-006  1.2546040E-007 0.0  9.4770483E-005 -4.4316714E-004 0.0  1.4836097E-004 -4.0418322E-004 0.0 -7.0449982E-007 -3.7106291E-005 0.0 -2.6833576E-006 -1.5974310E-006 0.0  1.9237941E-004 -6.7327065E-004 0.0  1.5803137E-005  3.6779503E-005 0.0 -5.1738090E-007  1.5436040E-005 0.0  4.3006162E-006  1.5951245E-005 0.0 -6.2816491E-005 -5.9305291E-004 0.0 -5.2456338E-005 -5.1124530E-004 0.0 -1.1972905E-004 -5.4176610E-004 0.0 -1.0070137E-004 -4.6155958E-004 0.0 -1.7023925E-004 -4.7458047E-004 0.0 -1.2958023E-004 -3.9117396E-004 0.0 -2.2551172E-004 -3.8061804E-004 0.0 -1.1724804E-004 -2.9116542E-004 0.0 -2.0442957E-006  2.2929713E-008 0.0 -3.2188272E-006 -2.4926582E-006 0.0  3.9411246E-004 -9.7232357E-004 0.0 -2.0212265E-006  4.9675884E-007 0.0  1.9725330E-004 -4.1970694E-004 0.0  1.9151447E-004 -3.5761679E-004 0.0 -2.3253655E-006 -1.9046561E-006 0.0  1.3694252E-004 -3.5938007E-004 0.0  1.7269027E-004 -3.1096092E-004 0.0  2.1517900E-004 -2.9821948E-004 0.0  1.9826161E-004 -2.5659962E-004 0.0  1.5252011E-004 -2.7904196E-004 0.0  1.7452097E-004 -2.3096732E-004 0.0  6.3052284E-005 -2.2674911E-004 0.0 -2.0692349E-004 -2.3602417E-004 0.0 -9.7862011E-005 -1.9057152E-004 0.0 -1.4223343E-004 -1.0886861E-004 0.0 -7.6423851E-005 -1.0057114E-004 0.0 -2.6200466E-006 -1.9185988E-005 0.0 -4.6801949E-006 -2.2962115E-005 0.0 -8.6225543E-006  3.4219743E-006 0.0 -6.3472074E-006 -3.2115279E-006 0.0 -3.9851789E-006  4.0914452E-007 0.0 -7.3607802E-007  3.7874075E-006 0.0 -7.7998766E-007  6.8372058E-006 0.0  1.2487112E-006  5.5016378E-006 0.0  4.9277584E-005 -8.5746429E-005 0.0 -5.0619971E-005 -4.5195852E-004 0.0  2.3652942E-004 -2.4641280E-004 0.0  2.6367176E-004 -2.8768914E-004 0.0 -1.6049842E-006  3.1375094E-007 0.0  3.2940498E-004 -5.0861024E-005 0.0  2.3737107E-004 -3.5404822E-005 0.0  4.7725411E-004 -1.1243778E-004 0.0  1.7216087E-004 -3.4729816E-005 0.0 -3.5412046E-007 -2.0493471E-006 0.0  1.4103276E-004 -2.4765955E-004 0.0  1.5472061E-004 -2.0517134E-004 0.0 -2.1746283E-006 -1.0866521E-006 0.0 -4.8759162E-007  1.4971553E-007 0.0 -4.0919101E-005  1.7627067E-005 0.0 -9.4348754E-005 -8.2158797E-004 0.0  1.8127138E-004 -1.8598293E-004 0.0  1.6303251E-004 -1.6265273E-004 0.0  1.3540790E-004 -1.8638869E-004 0.0  1.4322399E-004 -1.4921756E-004 0.0  1.1941009E-004 -1.6672004E-004 0.0  1.1841333E-004 -2.0276293E-004 0.0  1.5458260E-006  1.2475514E-005 0.0  4.4337685E-006  1.2140014E-005 0.0 -1.6338855E-006  1.2213114E-005 0.0  8.1798775E-006  1.6285053E-005 0.0  1.2642292E-004 -2.8884369E-004 0.0  1.2458740E-004 -1.3564967E-004 0.0  7.4370524E-006  1.0578432E-005 0.0  1.7052740E-004 -5.8163020E-004 0.0 -1.6382346E-006 -4.1518379E-008 0.0 -2.5565333E-006 -2.8039052E-006 0.0 -3.6664171E-006 -3.7860333E-006 0.0 -1.9500558E-006 -2.0456032E-006 0.0  2.7101858E-004 -2.2584486E-004 0.0  3.0164581E-004 -2.6516149E-004 0.0  1.9181395E-004 -6.6766540E-004 0.0  1.0063313E-004 -1.8054447E-004 0.0  2.5113578E-004 -9.9057009E-004 0.0 -1.4661669E-006  6.5823587E-007 0.0 -1.9975290E-006  9.8168021E-007 0.0 -1.2562387E-006  4.8380011E-007 0.0 -4.0059523E-006 -4.3510307E-005 0.0 -2.3248076E-006 -4.0742875E-005 0.0  1.4617910E-004  4.5340834E-004 0.0  5.6532153E-007  1.0699518E-005 0.0 -1.5390227E-006  9.8283097E-006 0.0  1.8642624E-004 -1.4676891E-004 0.0  3.1064923E-004 -2.0566528E-004 0.0  3.4645881E-004 -2.3841124E-004 0.0  3.1967769E-004 -2.9646808E-004 0.0  3.7453584E-004 -2.7643787E-004 0.0  3.4407499E-004 -3.3067405E-004 0.0  4.0276431E-004 -3.1636416E-004 0.0  3.5644657E-004 -3.7777673E-004 0.0  4.2470789E-004 -3.6978163E-004 0.0  3.7241012E-004 -4.2631504E-004 0.0  4.4785600E-004 -4.3009404E-004 0.0  3.7656741E-004 -4.8719039E-004 0.0  4.5347187E-004 -4.9855221E-004 0.0  2.8247717E-004 -1.8550064E-004 0.0  7.9797585E-005 -1.0277625E-003 0.0  3.2545942E-004 -4.7329127E-004 0.0  2.7372920E-004 -5.3732727E-005 0.0  2.6212031E-004 -8.2768805E-005 0.0  8.9699852E-005  8.1601829E-005 0.0  3.2650086E-004 -1.6848345E-004 0.0 -4.2941010E-004  3.4025578E-004 0.0 -3.3785001E-004  3.7841222E-004 0.0  5.5300745E-005  2.2213189E-004 0.0 -1.5228999E-005  1.9349443E-004 0.0  2.7031239E-004 -4.5867113E-004 0.0  2.4767853E-004 -3.7506951E-004 0.0  1.1390640E-004  3.1555481E-005 0.0  1.0216923E-004  4.1426936E-005 0.0  1.2926937E-004  2.3012859E-005 0.0  9.7206376E-005  2.3269269E-005 0.0  1.2441470E-004 -1.0596407E-006 0.0  8.0077054E-005  2.3705138E-006 0.0  6.2897034E-005  2.7171488E-005 0.0  9.8970442E-005 -1.7923512E-005 0.0  1.7840373E-004  1.8342551E-005 0.0  3.2805268E-004 -3.5069094E-004 0.0  2.9693283E-004 -2.7286113E-004 0.0  1.1244589E-005  1.2775840E-005 0.0 -3.4977242E-004 -7.2714371E-004 0.0 -3.4338344E-006 -6.6045332E-005 0.0 -4.5879943E-006 -6.2774647E-005 0.0  5.7681649E-005  9.7315709E-006 0.0 -6.5538873E-007 -4.2718292E-007 0.0 -7.1487410E-006 -1.0648735E-004 0.0 -1.0364886E-005 -1.0869776E-004 0.0 -8.2789740E-006 -1.2022669E-004 0.0 -9.9012896E-006 -1.2417479E-004 0.0 -6.0480277E-006 -9.1296759E-005 0.0 -8.3666039E-006 -9.3255985E-005 0.0 -1.2473522E-005 -2.9630616E-004 0.0 -1.7826078E-005 -2.9065038E-004 0.0 -1.5044448E-005 -2.3166899E-004 0.0 -2.0207885E-005 -2.4386831E-004 0.0 -1.4623245E-005 -2.6489778E-004 0.0 -1.2151103E-005 -1.8097957E-004 0.0 -1.8580225E-005 -1.7747279E-004 0.0 -1.4348408E-005 -2.0428240E-004 0.0 -2.0943394E-005 -2.0260764E-004 0.0  4.3401450E-007 -3.6478960E-004 0.0  2.9355624E-006 -3.7050926E-004 0.0  1.4959070E-005 -3.5628933E-004 0.0  2.4245689E-005 -3.5788838E-004 0.0 -1.2555865E-005 -1.5936107E-004 0.0 -2.0266803E-005 -1.5494297E-004 0.0 -9.8141195E-006 -1.4085525E-004 0.0  3.7846959E-004 -5.4839905E-004 0.0  4.4114631E-004 -5.6832446E-004 0.0 -1.3107043E-006  1.0157299E-006 0.0 -1.7207582E-006  1.4495117E-006 0.0  1.3110358E-004  1.0514104E-004 0.0  3.5723555E-004  3.7944145E-005 0.0  2.9846425E-004 -8.2015727E-004 0.0  4.1922030E-004 -9.1166884E-004 0.0  1.6380112E-004  9.1480709E-005 0.0  4.5682498E-004 -4.7838114E-005 0.0  2.7822797E-004  8.4119789E-005 0.0  4.8500257E-004 -8.5243704E-004 0.0  6.6622031E-004 -5.7694462E-004 0.0  2.1670612E-004  8.7542589E-005 0.0  6.8962215E-004 -3.1432737E-004 0.0  5.9808232E-004 -7.3050690E-004 0.0  6.7461848E-004 -4.0455356E-004 0.0  1.4270505E-004 -1.1477522E-004 0.0  1.2847250E-004 -1.0587391E-004 0.0  1.0853791E-004 -1.2370821E-004 0.0 -2.5773591E-006 -3.8912842E-006 0.0 -3.7749511E-006 -5.2958662E-006 0.0 -1.9570427E-004  1.4253050E-004 0.0 -2.0275719E-004  1.5588307E-005 0.0  3.9649331E-006  9.9494492E-006 0.0  6.5129225E-006  8.2530426E-006 0.0  1.1847910E-004 -9.2982368E-004 0.0  9.9743697E-005 -2.1918368E-004 0.0  2.0739040E-004 -1.6910115E-004 0.0  2.0682879E-004 -1.2506411E-004 0.0  1.8808009E-004 -1.1686382E-004 0.0  6.5343823E-004 -9.8101621E-004 0.0 -7.7330740E-005 -5.4335556E-005 0.0 -4.9639903E-005 -5.4318136E-005 0.0  4.7243309E-004 -3.4856180E-004 0.0  5.1022831E-004 -5.1570098E-004 0.0  5.1984756E-004 -5.9537085E-004 0.0  4.2369414E-004 -6.3670210E-004 0.0  5.0641840E-004 -6.8485769E-004 0.0 -2.2729208E-006 -6.9639403E-004 0.0  3.8269708E-004 -2.1704704E-004 0.0  1.1226604E-004 -9.4514205E-005 0.0  9.4885717E-005 -1.1163502E-004 0.0  9.9039919E-005 -8.5337672E-005 0.0  8.1442153E-005 -1.0056557E-004 0.0  8.4727930E-005 -1.2206291E-004 0.0  3.1615971E-004 -1.6068469E-004 0.0  2.8995199E-004 -1.4170014E-004 0.0 -2.4973433E-006 -5.3401500E-006 0.0 -2.3212960E-007  4.7836514E-007 0.0 -3.5763736E-006  1.1775460E-005 0.0 -2.6720401E-006  8.8176624E-006 0.0  4.0250109E-004 -7.1216828E-004 0.0  4.8340143E-004 -7.6363563E-004 0.0  3.5314124E-004 -6.6308154E-004 0.0  3.4604862E-006  7.8791047E-006 0.0  4.9200260E-006  6.5014432E-006 0.0  7.8771848E-006  7.0337576E-006 0.0 -1.9687651E-007  9.4127662E-006 0.0 -1.8874491E-006 -3.8201397E-006 0.0 -3.4754449E-005 -8.5630460E-005 0.0 -2.9729393E-005 -4.6411008E-005 0.0 -3.4131175E-005 -3.0466587E-005 0.0 -2.1555243E-005 -2.8325330E-005 0.0 -1.5793835E-005 -3.7748591E-005 0.0 -2.2190963E-005 -1.8904973E-005 0.0 -1.5306933E-005 -1.7471829E-005 0.0  1.2384292E-004 -7.8492419E-005 0.0  2.2996156E-004 -1.4496362E-004 0.0 -3.7048049E-006 -7.4098707E-006 0.0 -5.1445199E-006 -7.0286867E-006 0.0 -5.1491406E-006 -1.0076048E-005 0.0 -1.9626756E-006 -4.0311056E-005 0.0  2.2431397E-004 -1.0447198E-004 0.0  5.7467886E-004 -6.3114979E-004 0.0 -7.5470813E-006 -9.5562565E-006 0.0  1.3857893E-004 -6.7975300E-004 0.0  1.6472695E-006  2.7721723E-006 0.0  2.5898234E-004  7.4918921E-004 0.0  5.3683559E-005 -4.1148503E-005 0.0 -3.6630783E-004 -6.1517979E-004 0.0  1.3454287E-005  1.8624277E-005 0.0  1.7365962E-005  1.3462156E-005 0.0  8.4411075E-005 -7.5916243E-005 0.0  2.2973274E-005  2.1064515E-005 0.0  2.5939341E-005  1.3782337E-005 0.0  3.1406502E-004 -3.7945522E-004 0.0 -6.5383694E-005 -3.4228563E-004 0.0 -4.9720994E-006  9.6047980E-006 0.0 -3.6058789E-006  7.9372067E-006 0.0 -1.6654211E-006  8.1758946E-006 0.0 -2.3621696E-006  6.9190035E-006 0.0 -3.9104539E-006  7.0031732E-006 0.0 -2.5034109E-006  5.9696138E-006 0.0 -3.8812580E-006  5.5980791E-006 0.0 -2.4678039E-006  5.0113252E-006 0.0 -3.6339528E-006  4.5515185E-006 0.0 -2.2938999E-006  4.1918770E-006 0.0 -3.2606751E-006  3.5207262E-006 0.0 -2.0453727E-006  3.3931356E-006 0.0 -2.8476117E-006  2.8118579E-006 0.0 -1.7794570E-006  2.7899606E-006 0.0 -4.7666052E-006  3.7031683E-006 0.0 -5.5884652E-006  6.2031223E-006 0.0 -2.3731175E-006  2.1172867E-006 0.0 -1.6162010E-006  2.2168308E-006 0.0 -3.5399664E-006  2.1601498E-006 0.0  1.2562592E-006  9.5519388E-006 0.0  3.9852461E-007  8.5765319E-006 0.0  1.4172986E-005  9.0624651E-006 0.0 -2.4264591E-006  1.2185050E-006 0.0 -1.0279350E-006  1.4124624E-006 0.0 -9.1363714E-007  1.0481451E-006 0.0  9.4262442E-005 -5.5607189E-004 0.0  1.4448560E-004 -4.6186501E-004 0.0  2.1442433E-004 -4.8018912E-004 0.0 -5.4335279E-005  1.1403636E-004 0.0  7.0533987E-005  8.0001695E-005 0.0  4.0822104E-005 -4.6699173E-004 0.0  5.6961122E-005 -4.2478487E-004 0.0  6.0315076E-004 -1.0876892E-004 0.0  4.9119662E-004  2.1465902E-005 0.0  5.4584352E-004 -1.8240105E-004 0.0  4.8441649E-004 -6.3636701E-004 0.0  4.0651934E-004 -7.2545328E-004 0.0  5.3376443E-004 -5.3022558E-004 0.0  5.5849838E-004 -2.9039152E-004 0.0  1.8718397E-004  1.1489456E-004 0.0  3.6045634E-004  1.0470454E-004 0.0  2.4329285E-004  1.2254289E-004 0.0  1.1253152E-004  8.0266921E-005 0.0  5.5241687E-004 -4.2579913E-004 0.0  2.8621017E-005 -5.9551586E-005 0.0  6.8712216E-005 -8.9824952E-005 0.0  5.0511909E-004 -1.0999867E-003 0.0 -2.3630103E-007 -7.6148092E-007 0.0  2.4894780E-004 -1.2140386E-004 0.0 -1.1316659E-004 -6.2597764E-004 0.0 -7.5166681E-006 -1.3911900E-005 0.0  7.2596624E-005 -6.7365465E-005 0.0 -9.9228262E-007  2.7543609E-006 0.0 -4.1751507E-004 -4.9031488E-004 0.0  2.4508845E-004 -8.3462397E-005 0.0  3.1857501E-004 -1.1225784E-004 0.0  3.4820683E-004 -1.3793248E-004 0.0  2.9029907E-004 -1.0744684E-004 0.0 -5.1215159E-006 -5.8302387E-005 0.0 -8.0148583E-006 -6.0573106E-005 0.0 -8.5799002E-006 -5.1855274E-005 0.0 -1.1173728E-005 -5.7654324E-005 0.0 -1.5796827E-005 -6.9710560E-005 0.0 -3.4661272E-005 -1.7570229E-005 0.0 -2.0962575E-005 -9.1237801E-006 0.0  3.7438880E-004 -7.8350972E-004 0.0  2.2448645E-004 -7.7363676E-005 0.0  5.9091267E-006  4.5920104E-006 0.0  7.3937496E-005 -4.1791857E-004 0.0  2.0163248E-004 -5.2090202E-004 0.0  2.2463056E-004 -1.8369779E-004 0.0 -5.9004594E-007  1.3462123E-006 0.0  9.6170931E-005 -6.2433703E-005 0.0 -6.7075713E-006  1.2276204E-005 0.0 -6.5605988E-006 -6.3592431E-006 0.0 -9.2027156E-006 -8.3686143E-006 0.0  7.8587546E-005 -1.9757883E-004 0.0  7.7423353E-005 -2.3362098E-004 0.0  9.4190245E-005 -2.5783589E-004 0.0  6.5413531E-005 -2.6941601E-004 0.0  8.0107320E-005 -2.9929703E-004 0.0 -2.9285865E-004 -9.9159618E-005 0.0 -4.5041398E-004 -2.5944203E-004 0.0  3.4921155E-004 -9.5181711E-004 0.0 -2.6329982E-004 -6.3629851E-004 0.0 -4.7209549E-005 -1.3711939E-004 0.0  1.9809265E-004 -5.7231069E-004 0.0  1.2445873E-005 -4.3682143E-004 0.0  4.4617261E-004 -8.4404806E-004 0.0  5.2845820E-004 -8.2343847E-004 0.0  7.3932244E-005  6.0786145E-005 0.0  4.8292807E-005  6.0284859E-005 0.0 -1.5454510E-006 -5.0643676E-006 0.0 -4.3626156E-006 -1.2887386E-005 0.0  2.5952729E-004 -8.3425043E-004 0.0 -1.5742460E-004  4.5545729E-004 0.0 -1.4302866E-004  2.6639967E-004 0.0  2.7815348E-004 -1.9451623E-004 0.0  2.2811614E-004 -2.2777032E-004 0.0  2.1767026E-004 -4.5733138E-005 0.0  2.0075670E-004 -8.5551439E-005 0.0  3.9572173E-005  2.3481178E-005 0.0  3.3176192E-006  5.2506174E-006 0.0  4.3591971E-006  3.5707413E-006 0.0  2.6099570E-004 -1.6216446E-004 0.0  1.3539734E-006  8.3967317E-006 0.0 -6.3482248E-006 -3.1199543E-005 0.0  3.4442686E-004 -7.9705567E-005 0.0  1.6099249E-004 -1.2632850E-004 0.0  1.5777297E-004 -9.8305023E-005 0.0 -4.5671488E-007  8.3841769E-006 0.0  2.5296321E-005 -4.0166771E-004 0.0 -1.0436445E-005 -4.0576562E-004 0.0  6.1738841E-005 -3.6631125E-004 0.0  3.8214876E-004 -1.0657074E-004 0.0  3.7043648E-004 -1.5441786E-004 0.0 -4.4016653E-006 -4.3184816E-005 0.0 -3.9889406E-006 -4.5427724E-005 0.0 -4.7628276E-006 -4.9014469E-005 0.0 -6.3752703E-006 -4.4258855E-005 0.0 -5.4003301E-006 -3.7424478E-005 0.0  8.7062358E-006  4.3703592E-006 0.0 -2.7011368E-004 -1.8206617E-004 0.0  8.7148631E-005 -1.6173241E-004 0.0  6.2725113E-005 -1.8041068E-004 0.0  5.0758407E-004 -4.4187843E-004 0.0  5.6821320E-004 -4.5862095E-004 0.0  5.5006926E-004 -3.6133892E-004 0.0  6.0732566E-004 -3.8547141E-004 0.0 -6.0694832E-006 -6.6662882E-005 0.0 -6.7487675E-006 -7.0976630E-005 0.0 -8.6093181E-006 -7.5431220E-005 0.0  8.2201777E-005 -6.7241158E-004 0.0  2.4046787E-004 -3.3900283E-004 0.0  4.0778023E-005 -3.4208837E-004 0.0 -1.0514698E-005 -1.0080811E-004 0.0 -1.8169417E-005 -1.0521178E-004 0.0 -9.2392134E-006 -8.6982891E-005 0.0 -5.1470479E-006 -3.6590801E-004 0.0 -1.0993870E-005 -3.5381701E-004 0.0 -2.5243014E-005 -3.2971276E-004 0.0 -1.4468337E-005 -1.3466247E-004 0.0 -1.8525385E-005 -1.2199622E-004 0.0 -2.4720442E-005 -1.0893102E-004 0.0 -1.2254509E-006 -3.6988388E-006 0.0 -1.4667325E-006 -2.7038578E-006 0.0 -1.0092054E-006 -2.5406449E-006 0.0 -1.1850153E-006 -1.8941019E-006 0.0 -8.1626701E-007 -1.7786813E-006 0.0 -9.3748981E-007 -1.2697710E-006 0.0 -1.3504842E-006 -1.4289128E-006 0.0 -1.0620451E-006 -9.0416787E-007 0.0 -1.3571367E-006 -9.8226824E-007 0.0 -6.8953673E-007 -1.1500427E-006 0.0 -1.1440432E-006  7.3519820E-006 0.0  4.2610063E-005  5.6512136E-004 0.0 -1.0376475E-005  4.0746506E-004 0.0  1.4146149E-004 -3.1951195E-004 0.0  9.2770676E-005 -1.6476117E-004 0.0 -1.2438551E-005 -9.1274153E-005 0.0  3.5611610E-004 -8.4999171E-004 0.0 -2.6528323E-006 -3.7650106E-005 0.0 -4.5811491E-006 -3.1840455E-005 0.0  5.8936304E-004 -5.2865821E-004 0.0  6.4774970E-004 -4.6348052E-004 0.0  6.5432306E-004 -5.5374568E-004 0.0  6.7412019E-004 -6.4000961E-004 0.0  5.7905376E-004 -7.2054595E-004 0.0  6.6543395E-004 -3.7923993E-004 0.0  1.4289044E-004 -8.5671123E-005 0.0  1.5678080E-004 -7.1967210E-005 0.0  1.7414953E-004 -8.3529702E-005 0.0  1.3492893E-004 -6.6037914E-005 0.0  1.2518499E-004 -5.7393524E-005 0.0  4.0817668E-004 -1.2882386E-004 0.0  8.1958915E-005 -5.3045307E-005 0.0  9.2397572E-005 -4.3341744E-005 0.0 -1.2194693E-004 -3.1247706E-005 0.0 -6.3834345E-005 -1.8411741E-005 0.0 -7.9605744E-005  9.3529487E-006 0.0 -1.5789156E-005  1.5543889E-004 0.0  1.3086969E-007  8.2540972E-006 0.0  1.0943123E-004 -6.8944912E-005 0.0 -1.4474480E-006  5.7138604E-006 0.0  6.3306566E-004 -7.9440187E-004 0.0  6.0268520E-004 -8.9622328E-004 0.0  4.4813340E-004 -3.0223398E-004 0.0  5.0299726E-004 -2.8889170E-004 0.0  4.7674572E-004 -2.4524467E-004 0.0  4.1655008E-004 -2.4344847E-004 0.0  4.2113203E-004 -1.9108583E-004 0.0  5.2636001E-004 -2.2589820E-004 0.0  4.9457955E-004 -1.8690229E-004 0.0  5.6463956E-004 -2.7650083E-004 0.0  2.0000733E-004 -9.5287597E-005 0.0  2.0402823E-004 -7.0346029E-005 0.0 -3.0170696E-004 -4.7820910E-004 0.0  5.3996099E-005 -3.1058902E-004 0.0  6.8376572E-005 -1.5132324E-004 0.0 -9.6709025E-005  7.5022394E-005 0.0 -1.3079374E-006  4.0759341E-006 0.0 -3.1472497E-004 -3.3757650E-004 0.0  5.1406892E-005 -9.7950387E-004 0.0  3.9384748E-005  1.2728298E-005 0.0  4.6496205E-005  3.9007764E-006 0.0  3.3981043E-005  5.7654122E-006 0.0  2.5055372E-005  6.3154620E-006 0.0  3.0595689E-005  3.2407597E-006 0.0  1.5198352E-004 -4.7706111E-005 0.0  1.1179741E-004 -5.5367012E-005 0.0  7.4825085E-005 -2.3660727E-005 0.0  8.0268534E-005 -5.0099312E-005 0.0  5.9049958E-005 -2.3770629E-005 0.0  5.2729310E-005 -6.7639511E-006 0.0  4.9126534E-004 -9.1475100E-004 0.0  5.4130186E-004 -1.0125905E-003 0.0 -1.1561832E-005 -4.7362084E-004 0.0  1.0213112E-004 -1.5280695E-004 0.0 -2.4130393E-005 -1.3755419E-004 0.0  2.4258736E-004 -4.2138537E-004 0.0  2.1097342E-006  4.2676386E-006 0.0 -4.3656528E-005 -1.8241931E-006 0.0 -7.0951135E-005  3.6989871E-005 0.0 -2.3241094E-005 -3.7205291E-004 0.0 -9.3190438E-007  2.1608957E-006 0.0  4.6154894E-005 -6.3392022E-005 0.0 -1.9795340E-005 -5.6737332E-005 0.0  1.4175202E-005  2.6431290E-005 0.0  2.0067009E-004 -8.9248422E-004 0.0  5.8051984E-005 -7.4999349E-005 0.0  6.2059382E-005 -5.3872894E-005 0.0  5.9982707E-005 -9.5699960E-005 0.0  6.7547608E-005 -1.1392617E-004 0.0 -9.3182830E-007  8.1767524E-006 0.0  3.6875303E-004 -6.3729476E-005 0.0  5.1071550E-005 -1.5774550E-004 0.0 -4.2318918E-005 -1.5041452E-005 0.0  4.3995400E-004 -1.1056028E-004 0.0  4.5345516E-004 -1.6178608E-004 0.0  2.4538386E-004 -2.0049269E-004 0.0  1.6741424E-004 -5.4434343E-005 0.0  1.8589480E-004 -6.5722588E-005 0.0  1.5256288E-004 -5.2495027E-005 0.0  2.1241821E-004 -7.3518853E-004 0.0  2.5627229E-004 -6.7480336E-004 0.0 -5.7810403E-007  2.7039709E-006 0.0  2.7126643E-004 -7.5103223E-004 0.0  2.7053548E-004 -9.6577178E-005 0.0  2.6202681E-004 -6.2081668E-005 0.0  5.8035010E-004 -2.0404854E-004 0.0 -5.7644671E-007  7.6447462E-006 0.0 -1.2642641E-006  6.3925995E-006 0.0 -8.0162485E-007  6.1504107E-006 0.0 -1.2864902E-006  4.7607594E-006 0.0 -7.7796273E-007  4.5624011E-006 0.0 -1.0646858E-006  3.3259657E-006 0.0 -1.2134411E-005 -4.0890682E-005 0.0 -1.3582712E-006  1.7804067E-006 0.0 -4.9032047E-005 -2.7299879E-005 0.0 -2.1830019E-006  1.7205556E-006 0.0 -7.4701530E-006  9.3212205E-006 0.0 -2.8659311E-006  1.3963659E-006 0.0 -3.9727116E-006  1.2608337E-006 0.0 -4.6990507E-006  1.8402477E-006 0.0 -5.3877143E-007  1.0155744E-006 0.0 -7.1789558E-007  7.4838546E-007 0.0 -1.0196240E-005  1.3133167E-005 0.0 -7.5829498E-006  6.5330502E-006 0.0  2.6091040E-004 -4.8307874E-004 0.0  2.7050427E-004 -5.6886632E-004 0.0 -1.1104393E-005 -2.5338522E-005 0.0  7.0600278E-006  2.4654706E-005 0.0 -7.5528058E-006  1.4765003E-005 0.0 -1.6446391E-005 -1.2435862E-005 0.0 -9.1150850E-006  5.1562837E-006 0.0 -6.3127641E-006  4.6335037E-006 0.0 -6.2987703E-006  3.5001357E-006 0.0 -4.9984076E-006  4.7525038E-006 0.0  2.3512050E-006  9.2154615E-006 0.0  2.1038225E-006  7.6613905E-006 0.0  2.8486411E-006  6.2434869E-006 0.0  1.3963439E-006  6.7311590E-006 0.0 -3.9136512E-006  1.4051563E-005 0.0  2.2874140E-006  1.0677353E-005 0.0 -2.0481870E-005 -4.1417275E-006 0.0  7.8746586E-006  2.0262286E-005 0.0  1.1403524E-005  6.9653925E-006 0.0  1.2519702E-005  4.4972558E-006 0.0  1.5581301E-005  7.1944030E-006 0.0 -1.2282387E-006  8.8017152E-006 0.0 -1.4275269E-005 -5.0046385E-006 0.0  9.5637908E-006  9.1183702E-006 0.0  6.3753242E-007  8.0174531E-006 0.0 -5.4109732E-006  7.7911991E-006 0.0 -8.1040715E-006 -4.3227644E-006 0.0 -1.0453771E-005 -6.6842645E-006 0.0 -4.6969002E-006 -2.7883423E-006 0.0 -3.2544836E-006  4.1641249E-007 0.0 -2.1860212E-006 -6.8888675E-006 0.0 -1.1384240E-006 -6.1635354E-006 0.0 -1.0326867E-006  7.1939986E-007 0.0 -8.5281494E-007  5.2457626E-007 0.0 -1.0517035E-006  3.1900897E-007 0.0 -7.6570671E-007  4.0993856E-007 0.0 -8.9904893E-007  1.9790325E-007 0.0 -1.1673470E-006  1.5170670E-007 0.0 -6.8009681E-007  2.6081216E-007 0.0 -5.3516704E-007  4.0686397E-007 0.0 -9.7095462E-007  6.2983308E-008 0.0 -1.2244924E-006 -7.2656256E-009 0.0 -1.0477178E-006 -3.1388802E-008 0.0 -1.2095320E-006 -1.2409767E-007 0.0 -1.3960793E-006 -1.7993520E-007 0.0 -1.3571522E-006 -3.2719726E-007 0.0 -1.6326746E-006 -4.7371742E-007 0.0 -1.4693335E-006 -6.0669838E-007 0.0 -1.2426229E-006 -3.8510840E-007 0.0 -1.3004071E-006 -6.4018287E-007 0.0 -1.1532627E-006 -3.7348339E-007 0.0 -1.7667809E-006 -8.7878337E-007 0.0 -1.7000723E-006 -2.4271728E-007 0.0 -2.0479293E-006 -6.3951294E-007 0.0 -2.0731017E-006 -4.1226097E-007 0.0 -1.7981264E-006 -1.2888047E-006 0.0 -3.1507362E-006 -9.2683028E-006 0.0 -8.5103279E-007 -3.6168531E-007 0.0 -2.0051598E-007  2.4178960E-007 0.0 -2.5843942E-007  6.6250529E-007 0.0 -6.1005893E-007  6.0838821E-007 0.0 -1.4297662E-006  6.2171790E-008 0.0 -1.3418051E-006  2.2980789E-007 0.0 -4.4006347E-006 -3.2805939E-006 0.0 -7.1957757E-006 -5.0798160E-006 0.0  4.3284739E-006  2.1194560E-006 0.0 -6.7545875E-007  1.4904119E-007 0.0 -1.0470012E-005 -1.3126848E-005 0.0 -1.9780650E-006 -2.7100869E-006 0.0 -2.6758245E-006  7.2945786E-007 0.0 -2.3880729E-006 -8.2863986E-007 0.0 -5.0652856E-006 -4.6454794E-006 0.0 -1.6631087E-006 -1.9882627E-006 0.0 -3.1556789E-006  9.4247341E-007 0.0 -1.6428513E-006 -1.4017612E-006 0.0 -1.5538928E-006 -9.2980650E-007 0.0 -5.6347321E-006 -4.0307416E-006 0.0 -4.9678890E-006  8.0235923E-007 0.0 -6.9717692E-006  2.1352231E-006 0.0 -4.3211073E-006  2.8074748E-006 0.0  6.8904553E-004 -8.6985618E-004 0.0 -5.4518876E-006  2.6210932E-006 0.0  2.0626587E-004 -2.0928090E-004 0.0  3.0499614E-004 -4.5967113E-005 0.0  2.5494953E-004 -4.0188656E-005 0.0  1.8678631E-004 -3.2684492E-005 0.0  2.1944723E-004 -3.1802605E-005 0.0  5.0932300E-004 -1.3611724E-004 0.0  6.1279085E-004 -2.4549267E-004 0.0  1.3251088E-004 -3.8117661E-005 0.0  1.2104580E-004 -4.0388073E-005 0.0  7.6887649E-004 -5.7610760E-004 0.0  7.1734690E-004 -6.6080930E-004 0.0  6.7066733E-005 -3.9031797E-005 0.0 -6.6546535E-007  1.7136558E-006 0.0  3.4724878E-004 -1.8108766E-004 0.0  2.9343561E-004 -7.0745210E-005 0.0  5.3356017E-005 -1.8471518E-004 0.0 -3.3026900E-007  1.5322042E-006 0.0 -1.9463577E-005  2.4120096E-004 0.0 -1.0666916E-004  1.5603491E-004 0.0  2.5102751E-004 -3.0562467E-004 0.0  1.7877982E-004 -2.6013082E-004 0.0  1.4936571E-004 -1.5586423E-004 0.0  2.5572105E-004 -1.3166176E-004 0.0  1.5232957E-004  2.1176126E-005 0.0  1.6888399E-004  5.5502223E-006 0.0  2.0903988E-004 -3.9151662E-004 0.0 -8.3427859E-007 -7.5476828E-007 0.0  3.3677454E-004 -9.0437253E-004 0.0 -5.0572348E-007 -2.8678751E-006 0.0 -3.0574610E-007 -1.3844180E-006 0.0  9.5523861E-005 -3.9511700E-004 0.0  9.6222164E-005 -3.5986424E-004 0.0  5.4058244E-005 -1.0828900E-004 0.0 -2.2534197E-005 -7.7541674E-005 0.0  4.4984469E-005  4.0590256E-005 0.0 -1.1602763E-006 -1.5082657E-007 0.0 -2.7184431E-004 -7.5232811E-004 0.0  1.6763854E-004 -6.0466186E-004 0.0 -2.8037540E-005 -8.0427651E-004 0.0 -7.0641008E-005 -7.4887940E-004 0.0 -1.4410601E-004 -7.8158410E-004 0.0 -1.9296436E-004 -7.0017852E-004 0.0  4.2716135E-004 -1.0226986E-003 0.0  5.9399396E-004 -3.1753472E-004 0.0  2.8983812E-004 -3.2572149E-004 0.0  2.7120542E-004 -3.7222888E-004 0.0 -3.2330375E-007  1.2480247E-006 0.0 -3.4021897E-005 -1.6678122E-004 0.0 -4.7622374E-005 -1.9644041E-004 0.0  2.4166252E-004 -6.1449974E-004 0.0 -1.0116566E-005 -1.9024011E-005 0.0 -3.8946560E-006 -5.8969723E-005 0.0 -1.1171087E-006 -5.9982840E-007 0.0  3.1387254E-004 -7.9551532E-005 0.0  4.4177367E-005 -1.3174612E-004 0.0  5.7399860E-005 -7.7992264E-005 0.0 -4.2970317E-007  7.0815232E-007 0.0 -6.2889475E-007  3.1887996E-006 0.0 -3.7328583E-007  3.4143290E-007 0.0 -2.7200159E-005 -1.9217652E-004 0.0 -4.1841317E-005 -2.2102701E-004 0.0  1.9733332E-005  8.2993181E-006 0.0  3.4621142E-004 -4.6431559E-005 0.0 -3.2613016E-007  1.7793178E-007 0.0  2.2731299E-006  1.7401904E-006 0.0  1.7561615E-005 -7.8908777E-004 0.0  4.6226258E-005 -2.4883486E-004 0.0  1.3504036E-005  2.5923638E-006 0.0 -3.9772731E-007  5.3604959E-007 0.0 -3.8953618E-007 -4.6532998E-007 0.0 -1.8675169E-004 -6.3483554E-004 0.0  1.0502591E-004 -4.8546916E-005 0.0  2.3593011E-004 -5.9250721E-005 0.0  4.1969448E-005  7.2416757E-005 0.0 -1.9941907E-006 -1.4542916E-005 0.0  1.9635558E-004 -1.4622513E-004 0.0  3.9907533E-005 -2.8756610E-005 0.0  4.4179827E-005 -4.6032943E-005 0.0 -3.0791529E-004  1.5307390E-004 0.0  2.6262825E-005  3.3783912E-005 0.0  1.2938768E-004 -2.2511934E-004 0.0  9.2200938E-005 -1.3784481E-004 0.0  3.5329312E-004 -6.0730070E-004 0.0 -3.0757954E-005 -6.2851910E-006 0.0  5.9846035E-004 -1.1081583E-003 0.0  7.0520533E-004 -4.2741750E-004 0.0  1.2392272E-004 -3.2428677E-004 0.0  3.3574747E-004 -7.3454461E-004 0.0 -3.0619293E-005  4.7840678E-006 0.0 -1.0599444E-006 -1.7036061E-008 0.0  1.5706195E-004 -3.5493546E-005 0.0  4.9509345E-005 -5.0759576E-006 0.0 -2.1781508E-005 -1.6461259E-004 0.0 -2.1322845E-005 -2.5522762E-004 0.0 -6.9340982E-005 -2.5018979E-004 0.0 -2.3602729E-005 -2.7334059E-004 0.0 -1.5163493E-005 -1.1292681E-004 0.0  1.4054731E-005 -3.6563220E-004 0.0 -1.6830084E-005 -1.4221041E-004 0.0 -1.9251976E-005 -3.0496916E-004 0.0 -1.7861967E-005 -1.8879748E-004 0.0 -2.6483553E-005 -2.2709501E-004 0.0  3.6144758E-004 -8.5280724E-004 0.0  1.1690386E-004 -2.5923348E-004 0.0  1.0396237E-005  2.9354108E-006 0.0  7.0912779E-005 -8.5020451E-004 0.0  1.8681524E-004 -9.4322582E-005 0.0  7.4726983E-005 -3.2569821E-004 0.0 -1.3448313E-005 -8.2257550E-006 0.0  3.1638671E-004 -4.2291898E-004 0.0  3.2806235E-004 -5.3066533E-004 0.0  3.3654136E-004 -5.9047779E-004 0.0  3.0740757E-004 -6.3219677E-004 0.0  2.2043158E-004 -2.2179835E-004 0.0 -3.4858942E-005 -2.9484531E-004 0.0  6.6616730E-004 -7.2324012E-004 0.0  6.3455037E-005 -3.8234402E-006 0.0  3.0552280E-004 -3.4049315E-004 0.0 -1.2426349E-004 -6.8506817E-004 0.0  4.0341069E-005  2.2783829E-006 0.0  7.5619954E-005 -5.3476802E-004 0.0  6.4543777E-005 -2.1372643E-004 0.0  1.9164384E-004 -7.7300057E-004 0.0  9.4899026E-005  4.3321579E-005 0.0  8.4295159E-005  5.2134063E-005 0.0  1.1254038E-004  8.9815426E-005 0.0  1.3770351E-004  9.8773549E-005 0.0 -6.4651596E-006 -1.7388017E-005 0.0  7.4987013E-005  3.6421197E-005 0.0  3.9386063E-004 -1.7507304E-004 0.0 -4.8155309E-004 -1.5213614E-004 0.0  8.3966279E-005 -3.7163929E-005 0.0 -2.5101831E-005 -2.1517687E-004 0.0  7.2536903E-005 -5.1840764E-005 0.0  4.5439446E-004 -2.1005052E-004 0.0 -3.0780701E-005 -7.3652408E-004 0.0  2.9157294E-004 -8.4356409E-004 0.0 -1.2327198E-005 -1.0159929E-005 0.0  3.1062946E-004 -7.9339651E-004 0.0  6.0722283E-006  3.3724263E-006 0.0 -8.0957307E-007  1.5716171E-007 0.0 -9.6578491E-007  4.2075781E-008 0.0 -5.6629957E-005 -6.6443029E-004 0.0  5.0977565E-005 -9.5136942E-006 0.0  2.6454964E-004 -1.3706483E-004 0.0 -4.0391314E-005  4.7539708E-005 0.0  3.5098335E-005  2.7163858E-006 0.0 -5.0059671E-007  2.3717928E-007 0.0  2.2714355E-005  3.8181605E-006 0.0 -4.8915398E-005 -3.8961411E-004 0.0  2.4327601E-004 -1.6017064E-004 0.0  1.6495100E-004  1.1100586E-004 0.0  1.9422569E-004 -4.8487743E-005 0.0  1.7488908E-004 -1.1132662E-004 0.0  4.2287087E-004 -9.1440791E-004 0.0  2.1722936E-004 -5.5105377E-005 0.0 -1.7606031E-006 -3.3545737E-005 0.0 -1.7059396E-005 -6.3221223E-004 0.0 -3.5043565E-005  3.3568072E-005 0.0 -1.1194161E-005 -6.4327458E-005 0.0  9.4294974E-005 -3.2287736E-004 0.0  2.7056929E-005 -5.0263675E-004 0.0  2.4486062E-005  4.3402889E-005 0.0  6.9894820E-004 -5.1436860E-004 0.0  9.3178560E-005  7.0633759E-005 0.0  2.9265561E-004 -7.8945868E-005 0.0  6.1851250E-005  1.0296290E-004 0.0  4.1568120E-004 -1.8414105E-006 0.0  4.1616250E-004  4.1940825E-005 0.0  5.6332990E-004 -4.8252430E-004 0.0  4.2926988E-005  1.9424583E-004 0.0  2.5334499E-005  1.5541720E-004 0.0  9.2589078E-005  3.1613466E-004 0.0  1.0319168E-004  3.3695316E-004 0.0 -3.5024124E-004  6.1330988E-004 0.0  2.8201867E-005  7.1069646E-004 0.0  3.8022342E-004 -7.5218966E-004 0.0 -4.7551003E-004  2.2442647E-004 0.0 -4.6597422E-004  1.4386310E-004 0.0  6.5082784E-004 -5.0416236E-004 0.0  6.2256665E-004 -2.0126119E-004 0.0  5.3021400E-004 -7.8729831E-004 0.0  2.4922359E-004  6.0420155E-004 0.0  3.0025307E-004  1.0431572E-004 0.0  2.1797454E-004 -1.0002490E-003 0.0 -2.4874631E-004  5.9616896E-004 0.0  4.0775674E-004  6.2598608E-005 0.0  2.2479482E-004 -5.3524471E-004 0.0  3.3516634E-004 -7.7405063E-004 0.0  2.3123048E-004  7.6901045E-005 0.0  3.4869185E-004 -3.0058318E-004 0.0  3.4006753E-004 -2.0929204E-004 0.0  5.5908578E-004 -2.2255099E-004 0.0  2.4684558E-004 -3.3616830E-005 0.0  5.2467401E-004 -5.8938478E-004 0.0  1.9999844E-004  4.6292437E-007 0.0  3.2191224E-004  5.9239151E-005 0.0  1.5589021E-004  2.8897562E-005 0.0  2.1698117E-004  1.1621492E-004 0.0  5.5346423E-004 -3.8484142E-005 0.0  1.4281419E-004 -1.0235974E-003 0.0 -1.5362175E-004 -8.3889887E-004 0.0  1.9479193E-005  4.8727185E-006 0.0  2.0865871E-005 -3.7667202E-004 0.0 -1.4812594E-005 -2.3858445E-005 0.0  1.9886830E-004  1.0005125E-004 0.0  4.8031727E-004 -7.1972112E-004 0.0  6.0435264E-004 -3.7363709E-004 0.0  5.0945217E-004 -1.0283044E-004 0.0  5.8700837E-004 -6.1471853E-004 0.0 -6.0551125E-004 -3.2722196E-004 0.0 -5.4984924E-004 -5.2360381E-004 0.0 -4.1998986E-004 -7.0031950E-004 0.0  5.7791792E-005  4.8138403E-005 0.0  3.4725378E-005 -3.1915130E-004 0.0 -3.8209370E-006 -3.8552409E-004 0.0  2.1926108E-004 -7.8079636E-004 0.0  1.4203966E-004 -5.2035398E-005 0.0  1.2064175E-006  4.1634766E-006 0.0  7.3392478E-005 -4.3533877E-005 0.0 -3.8802236E-006 -1.5241032E-005 0.0  1.1363174E-004 -5.1681973E-005 0.0 -5.4617277E-005 -3.2137289E-004 0.0  2.9550158E-005  2.1530956E-005 0.0 -7.8455081E-006 -1.1086772E-004 0.0 -4.2668814E-006 -6.9226624E-005 0.0 -4.4564277E-006 -7.3154492E-005 0.0 -3.0642891E-006 -6.4787920E-005 0.0  4.6407858E-005 -2.7886198E-004 0.0 -6.6108096E-006 -9.5478252E-005 0.0 -5.6494104E-006 -8.0099061E-005 0.0 -6.5276578E-006 -7.3851669E-005 0.0 -1.4539876E-005 -1.6480058E-004 0.0 -1.1266413E-005 -3.2146629E-004 0.0 -1.1122748E-005 -3.0199408E-004 0.0  1.9519342E-005 -3.4324080E-004 0.0 -7.6389833E-006 -1.0337582E-004 0.0 -1.6191994E-005 -2.1188576E-004 0.0 -1.4178629E-005 -2.3976243E-004 0.0 -4.7387265E-006 -8.2673651E-005 0.0 -1.5883965E-005 -2.6934672E-004 0.0 -1.2543541E-005 -1.8721104E-004 0.0  3.9217920E-006 -3.5615557E-004 0.0 -1.1981515E-005 -1.4387596E-004 0.0 -1.4186302E-005 -3.2332263E-004 0.0 -1.1406395E-005 -3.4144794E-004 0.0 -6.5095760E-006 -8.9087448E-005 0.0 -1.0030429E-005 -1.3627286E-004 0.0 -7.4693391E-006 -3.4299707E-004 0.0 -1.9469611E-006 -3.5561924E-004 0.0 -8.0545226E-006 -1.2563783E-004 0.0  1.8142541E-004 -4.7896350E-005 0.0 -3.1002708E-006 -2.9140323E-005 0.0 -5.1969143E-005 -2.4366428E-004 0.0 -1.7014413E-006 -3.8558314E-005 0.0 -1.0359452E-006 -7.9909319E-006 0.0 -2.8442510E-006 -4.2363642E-005 0.0 -3.0071302E-006 -5.5508516E-005 0.0 -4.1582531E-006 -5.2031007E-005 0.0 -3.6192005E-006 -5.0149128E-005 0.0 -3.9690035E-006 -5.0284537E-005 0.0 -4.4140128E-006 -4.4856937E-005 0.0 -4.2219563E-006 -4.7435100E-005 0.0  2.0725794E-006  5.6434365E-006 0.0  1.1171911E-004 -7.4334159E-005 0.0 -9.7531750E-007 -4.6938466E-006 0.0  6.2645020E-005 -1.3030119E-004 0.0 -9.8878129E-007 -5.6615408E-007 0.0 -1.7335808E-007  1.3934685E-007 0.0  1.2700411E-006  1.5817965E-006 0.0  6.3163394E-005 -3.9129656E-004 0.0 -1.2163714E-006 -2.2122321E-007 0.0  8.1588100E-007  6.5875156E-006 0.0  9.9000064E-005 -3.4410094E-005 0.0  4.1982296E-005 -3.2883709E-005 0.0 -2.0863071E-004 -5.0583001E-004 0.0  3.6067011E-004  6.8212426E-004 0.0 -2.7716623E-006 -1.0971605E-005 0.0  1.5274106E-004 -7.9852603E-004 0.0  2.2488353E-004 -3.8492485E-004 0.0  2.9089980E-006  2.9385915E-006 0.0 -5.3469607E-007 -1.5687677E-006 0.0 -5.3717253E-007 -1.0295937E-006 0.0  6.0544014E-005 -2.4220302E-004 0.0 -3.0912890E-007 -4.2362811E-007 0.0  1.1024221E-004 -2.3460325E-004 0.0 -6.7357630E-007 -2.3481581E-006 0.0 -8.1342225E-005 -4.0286698E-004 0.0  4.7480403E-004 -1.6131403E-004 0.0  4.5583090E-004 -9.6478417E-004 0.0 -1.7810513E-006 -4.0989646E-005 0.0  1.1569502E-006  7.5703085E-006 0.0 -8.8140442E-007 -3.0265650E-006 0.0  3.6515999E-004 -1.9496303E-004 0.0 -6.2848267E-006 -5.4279563E-005 0.0 -4.9546155E-004 -4.0893686E-004 0.0  1.7324298E-004 -1.3419970E-004 0.0 -8.2537418E-007 -4.9463695E-006 0.0 -8.0300225E-006 -8.1662552E-005 0.0 -6.6663860E-007 -7.1898108E-007 0.0 -1.2731702E-004 -3.9893993E-007 0.0 -1.1087013E-006 -1.6218050E-007 0.0  7.6625428E-005 -1.2952470E-004 0.0  8.1834857E-005 -1.4320494E-004 0.0 -4.0619573E-006 -2.2266923E-005 0.0  5.3335569E-005 -5.7043135E-005 0.0  3.2144156E-005 -2.9160705E-005 0.0  2.0623156E-007  7.8972474E-006 0.0  5.2773259E-004 -3.4210570E-004 0.0  4.2320589E-004 -1.5392479E-004 0.0  4.7170779E-004 -1.8267837E-005 0.0  3.4483482E-004  7.6421689E-005 0.0  6.1767926E-004 -2.8247989E-004 0.0  4.3029503E-004 -8.0781327E-004 0.0  5.4029681E-004 -6.7746400E-004 0.0  2.4448287E-004  1.0402744E-004 0.0  6.0556181E-004 -4.9660557E-004 0.0  3.0326427E-004 -6.8657190E-004 0.0  5.2172069E-004 -1.2001487E-003 0.0 -3.4260527E-005 -3.3353228E-006 0.0  7.0561652E-004 -5.7657806E-004 0.0 -2.1187570E-006 -8.1751845E-006 0.0  3.0364128E-004 -9.2401845E-004 0.0  4.3707136E-004 -2.6405966E-004 0.0 -1.7669872E-004 -6.0229119E-005 0.0  1.9311040E-004 -4.2878491E-004 0.0 -5.6066946E-004 -3.8703237E-004 0.0  9.6251792E-009  8.1448223E-006 0.0  1.8291658E-004 -2.6220266E-005 0.0  6.8201469E-004 -3.4116838E-004 0.0  4.4163029E-004 -7.7726665E-005 0.0  4.8703948E-005  2.6213233E-008 0.0  2.2517293E-004 -5.2385819E-004 0.0 -1.6220126E-004 -5.4886708E-004 0.0  4.9923382E-005  2.9274262E-004 0.0 -2.6425160E-005  3.2470244E-004 0.0  6.1832464E-004 -6.9520780E-004 0.0  2.8935596E-004 -4.5629321E-004 0.0  2.8446248E-004 -4.0813211E-004 0.0  2.7578993E-004 -5.0999879E-004 0.0 -1.6435484E-005 -7.5466007E-005 0.0  6.4226798E-004 -3.3884609E-004 0.0  4.0023801E-005 -1.0393366E-003 0.0  1.8100202E-004 -5.1327814E-004 0.0 -2.6718933E-005 -4.3043917E-004 0.0  1.4588951E-004 -6.6313088E-005 0.0  1.4530489E-004 -8.3786501E-005 0.0  2.0699473E-004 -4.9210417E-005 0.0  1.5735103E-005  4.6306052E-006 0.0  5.8571598E-004 -1.7966252E-004 0.0  5.1196178E-004 -3.8741041E-004 0.0  1.0019878E-004 -2.8914270E-004 0.0  5.4025025E-004 -4.0112690E-004 0.0  5.1829736E-004  6.9323901E-004 0.0
        </DataArray>
        <DataArray type="Float64" Name="jxb re" NumberOfComponents="3" format="ascii">
 -8.9784764E+001 -7.6154139E+001 0.0 -3.5199378E-001 -1.4723218E+000 0.0 -1.3215535E+001 -4.8730030E+000 0.0 -1.0167315E+002  1.3784509E+002 0.0 -4.5351895E-003 -1.0586680E-005 0.0 -3.5548151E-003 -1.5707508E-002 0.0 -1.1928501E+000 -1.4455084E-001 0.0 -2.3020696E-001 -2.2213031E-001 0.0 -3.1675935E-001  2.9124297E-002 0.0 -1.2698970E+000 -1.0705108E+000 0.0 -8.9908299E-005 -4.8146229E-005 0.0  1.6087957E+003  2.1819529E+002 0.0 -5.7728923E+002  2.1097167E+002 0.0 -7.6648073E+002 -3.3796546E+002 0.0  1.3807548E+003 -3.0819908E+002 0.0 -2.0725190E-006  3.3212327E-005 0.0  7.4095572E-016  1.4545499E-016 0.0 -2.9984903E-017 -2.3745336E-017 0.0 -1.8937073E-006 -1.0614088E-006 0.0  4.5340060E-003 -9.3370690E-004 0.0 -2.1042298E+002  3.4472985E+002 0.0 -9.5717009E-004  3.0084709E-004 0.0  8.3116506E-002 -1.2736455E-001 0.0 -2.4627978E+001 -1.2026851E+001 0.0 -2.6892050E+001 -1.5999549E+001 0.0 -2.0654646E+001 -1.5102068E+001 0.0 -1.7547959E+001 -1.5344770E+001 0.0 -1.5038112E+001 -1.5239555E+001 0.0 -9.8516584E+000 -1.1170667E+001 0.0 -1.1877059E+001 -1.5883021E+001 0.0 -6.5708902E+000 -1.0371905E+001 0.0 -5.5507901E+000 -9.2825871E+000 0.0 -3.6417029E+000 -6.8689088E+000 0.0 -3.1094103E+000 -6.4685615E+000 0.0 -2.8059467E+000 -6.2057236E+000 0.0 -2.1758940E+000 -5.3056608E+000 0.0 -1.6386101E+000 -4.4158222E+000 0.0 -1.3834774E+000 -4.0745202E+000 0.0 -9.2047723E-001 -3.3745835E+000 0.0 -1.9186378E+002  2.0386787E+002 0.0 -1.6415899E+002  1.3180879E+002 0.0 -1.5023860E+002  9.6419489E+001 0.0 -1.3491589E+002  7.1185101E+001 0.0 -1.3210042E+002  5.5664864E+001 0.0 -9.7715745E+001  3.2619292E+001 0.0 -7.4486899E+001  1.9128939E+001 0.0 -1.0498801E+002  1.8897564E+001 0.0 -6.6001858E+001  4.2723622E+000 0.0 -6.5079178E+001 -2.4335945E+000 0.0 -4.2613310E+001 -7.4311410E+000 0.0 -2.7326746E-002 -3.4092457E-002 0.0 -5.8223201E-002 -4.2263506E-002 0.0 -1.3616661E-001 -8.1718447E-002 0.0 -1.4358452E-001 -8.0959578E-002 0.0 -1.9696431E-001 -1.0489748E-001 0.0 -2.3847301E-001 -1.3641159E-001 0.0 -4.6572872E-001 -1.9174547E-001 0.0 -4.2490140E-001 -1.4043715E-001 0.0 -6.1076485E-001 -2.0457767E-001 0.0 -6.7678087E-001 -2.1909843E-001 0.0 -7.2704650E-001 -2.2881170E-001 0.0 -1.1540162E+000 -2.7083788E-001 0.0 -9.0699515E-001 -2.4463130E-001 0.0 -9.7183680E-001 -2.2747300E-001 0.0 -1.5996549E+000 -4.1847504E-001 0.0 -1.2272564E+000 -2.1204274E-001 0.0 -3.7566976E-001 -3.0088238E-001 0.0 -4.7129028E-001 -3.1632911E-001 0.0 -5.9961005E-001 -2.9398131E-001 0.0 -7.3001980E-001 -2.5912573E-001 0.0 -1.0637888E+000 -2.3591092E-001 0.0 -1.4872519E+000 -2.4221777E-001 0.0 -1.7973167E+000 -2.2430505E-001 0.0 -2.5402480E+000 -1.2413847E-001 0.0 -3.0145571E+000 -2.0034064E-001 0.0 -3.7516633E+000 -2.2839456E-001 0.0 -4.1434470E+000 -1.2478168E-001 0.0 -4.8407784E+000 -3.8373979E-001 0.0 -6.7126162E+000 -3.9065489E-001 0.0 -5.1690719E+000 -3.0899602E-001 0.0 -6.2518858E+000 -3.0292550E-001 0.0 -7.3173776E+000 -4.7548244E-001 0.0 -6.1644165E+000 -1.5239839E-001 0.0 -9.6912275E+000 -8.4634983E-001 0.0 -7.8553646E+000 -4.2820898E-001 0.0 -7.9770870E+000 -4.0333822E-001 0.0 -7.6007297E+000 -4.2000450E-001 0.0 -7.4880443E+000 -3.6925371E-001 0.0 -9.3406741E+000 -3.5607458E-001 0.0 -7.6196457E+000 -6.6089729E-001 0.0 -7.4180215E+000 -3.8542454E-001 0.0 -7.4918756E+000 -3.5237335E-001 0.0 -7.9839646E+000 -4.1651442E-001 0.0 -7.4184671E+000 -4.0022442E-001 0.0 -7.2814354E+000 -2.1755501E-001 0.0 -8.7173675E+000 -6.4410126E-001 0.0 -7.3953364E+000 -3.5802280E-001 0.0 -6.4294302E+000 -2.3578003E-001 0.0 -8.6241120E+000 -3.8491152E-001 0.0 -6.7776225E+000 -3.4242172E-001 0.0 -6.2963136E+000 -1.8431940E-001 0.0 -5.7247527E+000 -3.6246582E-001 0.0 -7.8286539E+000 -3.1029579E-001 0.0 -6.2039493E+000 -2.7149078E-001 0.0 -5.8447926E+000 -2.5311555E-001 0.0 -5.0441631E+000 -1.8372957E-001 0.0 -6.7563155E+000 -1.4368490E-001 0.0 -5.3180451E+000 -3.7129283E-001 0.0 -5.0768877E+000 -1.8303121E-001 0.0 -4.5430321E+000 -1.1528702E-001 0.0 -6.1400069E+000 -1.9547409E-001 0.0 -4.8445441E+000 -1.8380594E-001 0.0 -4.4521391E+000 -8.1100538E-002 0.0 -3.9837770E+000 -2.0880125E-001 0.0 -5.3616911E+000 -1.4821205E-001 0.0 -4.1163112E+000 -1.1736123E-001 0.0 -3.8021716E+000 -6.3978462E-002 0.0 -3.4389767E+000 -1.7181565E-001 0.0 -4.6541309E+000 -1.1401731E-001 0.0 -3.6397991E+000 -1.0207337E-001 0.0 -3.3999311E+000 -8.4710577E-002 0.0 -3.2460609E+000 -9.2210116E-002 0.0 -3.0303328E+000 -5.5637129E-002 0.0 -3.9345880E+000 -9.8359308E-002 0.0 -2.8851367E+000 -4.3221602E-002 0.0 -2.8935125E+000 -1.5290040E-001 0.0 -2.4656954E+000 -3.4671960E-002 0.0 -3.4243276E+000 -5.5897383E-002 0.0 -2.5400395E+000 -7.0334215E-002 0.0 -2.5553647E+000 -6.4120940E-002 0.0 -2.2631663E+000 -4.4518646E-002 0.0 -2.2986605E+000 -4.1444786E-002 0.0 -2.7210720E+000 -5.5622003E-002 0.0 -2.1344512E+000 -4.8856502E-002 0.0 -2.0059930E+000 -1.2944074E-002 0.0 -1.9072328E+000 -5.3652609E-002 0.0 -1.8050291E+000 -3.8677320E-002 0.0 -2.2783660E+000 -3.6455184E-002 0.0 -1.6327640E+000 -4.0699722E-002 0.0 -1.5737705E+000 -4.0184655E-002 0.0 -1.4990019E+000 -2.9261370E-002 0.0 -1.4870392E+000 -1.8300979E-002 0.0 -1.3742162E+000  2.7183003E-003 0.0 -1.4423711E+000 -4.3066527E-002 0.0 -1.3037180E+000 -2.3787936E-002 0.0 -1.3874531E+000 -8.6142487E-003 0.0 -1.7072639E+000 -3.1152186E-002 0.0 -1.4027878E+000 -5.1032884E-002 0.0 -1.4435369E+000 -7.5218468E-002 0.0 -1.6357007E-002  1.6653944E-003 0.0 -2.5317995E-002  2.4441141E-003 0.0  4.3435171E-002 -3.9442810E-003 0.0  2.9552881E-002 -1.5353889E-003 0.0  1.1515731E-001 -2.0205566E-002 0.0  5.9981993E-002 -3.5467984E-003 0.0  1.5300845E+000 -5.2959293E-001 0.0  1.8488369E+000 -6.4142736E-001 0.0  3.3827821E-001 -1.1358731E-001 0.0  2.0827682E-001 -1.0068602E-001 0.0  7.3910427E-001 -3.2372619E-001 0.0  1.3671535E+000 -6.0876458E-001 0.0 -8.8321362E-001  3.9382379E-001 0.0 -1.0765761E-001  4.2483755E-002 0.0  3.0423298E-001 -2.2295375E-001 0.0  5.5248060E-001 -3.4181630E-001 0.0  8.6036446E-001 -5.6314064E-001 0.0  1.1514907E+000 -7.5740730E-001 0.0 -3.6271418E-001  2.0632128E-001 0.0  3.2143449E-001 -2.3731739E-001 0.0  7.2113034E-001 -6.4645106E-001 0.0  1.3591502E+000 -1.1974015E+000 0.0 -7.6478479E-001  6.7653904E-001 0.0 -1.2109446E-001  7.4594147E-002 0.0 -9.6692627E-002  3.9703850E-002 0.0  1.3375844E-001 -2.3133902E-001 0.0  5.4018121E-002 -1.0627826E-001 0.0  3.3230480E-002 -1.4261516E-001 0.0  8.6666832E-002 -2.7371726E-001 0.0  1.0617489E-002 -4.5670824E-001 0.0  1.1665022E-002 -1.0568151E+000 0.0 -9.2957559E-001 -1.3469618E+000 0.0 -1.1968986E+000 -2.3777943E+000 0.0 -1.4398397E+000 -2.7824997E+000 0.0 -5.5174666E-001 -3.3252166E-001 0.0  4.6094702E-002  4.2343251E-002 0.0 -1.0540687E-003 -1.8707298E-003 0.0  7.2451892E-005  9.5524185E-005 0.0  3.2934676E+003  6.0693275E+002 0.0  3.5970579E+003  7.0394119E+002 0.0  2.6797669E+003  6.0440262E+002 0.0  3.5083924E+003  9.6024790E+002 0.0  2.2826659E+003  5.7626952E+002 0.0  3.0420664E+003  1.0058071E+003 0.0  2.0627232E+003  6.0807597E+002 0.0  2.6420672E+003  9.7775311E+002 0.0  2.0283406E+003  6.6062028E+002 0.0  1.8439611E+003  7.9974174E+002 0.0  1.6651737E+003  7.3506928E+002 0.0  2.1569073E+003  8.9989179E+002 0.0  1.4065631E+003  7.9357368E+002 0.0  1.1898764E+003  7.1289360E+002 0.0  1.5409018E+003  9.1202802E+002 0.0  1.1244580E+003  8.8960747E+002 0.0  9.8000710E+002  7.5976768E+002 0.0  8.0885708E+002  8.7041097E+002 0.0  6.5677435E+002  7.4975420E+002 0.0  6.9899678E+002  1.1357964E+003 0.0  3.0111110E+002  7.2147150E+002 0.0  1.9771279E+002  8.0884675E+002 0.0  2.1593823E+001  1.0059087E+003 0.0 -2.3859187E+002  9.1248357E+002 0.0 -4.7067136E+002  7.9645495E+002 0.0 -6.0019563E+002  8.0756738E+002 0.0 -1.1994007E+003  8.8145120E+002 0.0 -1.2862614E+003 -5.6000049E+001 0.0 -9.4575148E+002 -7.2234140E+002 0.0 -8.8044579E+002 -9.0526358E+002 0.0 -3.8688836E+002 -8.5619808E+002 0.0 -1.2496860E+002 -7.2647296E+002 0.0  3.8918450E+000 -9.3244878E+002 0.0  2.3084637E+002 -1.0954287E+003 0.0  4.0991533E+002 -1.0791084E+003 0.0  5.0372363E+002 -9.5991721E+002 0.0  7.3818188E+002 -1.2271944E+003 0.0  8.2885145E+002 -1.0453656E+003 0.0  1.2525384E+003 -1.5667247E+003 0.0  1.1213106E+003 -1.1119983E+003 0.0  1.0642391E+003 -1.0832676E+003 0.0  1.0391706E+003 -8.6090896E+002 0.0  1.4380256E+003 -1.1401612E+003 0.0  1.7042459E+003 -1.4201741E+003 0.0  1.5268263E+003 -1.0350449E+003 0.0  1.6079121E+003 -1.0463504E+003 0.0  2.0441956E+003 -1.3977367E+003 0.0  2.3045651E+003 -1.2738107E+003 0.0  2.4274557E+003 -1.3906825E+003 0.0  2.5922293E+003 -1.2230278E+003 0.0  2.1965350E+003 -1.0995455E+003 0.0  2.3867253E+003 -9.7204869E+002 0.0  3.2204827E+003 -1.2572162E+003 0.0  3.6570058E+003 -1.2044821E+003 0.0  3.3035125E+003 -1.0574197E+003 0.0  2.6587450E+003 -7.6177216E+001 0.0 -2.6819559E-005 -9.8014895E-006 0.0 -2.1909809E-005 -5.4820262E-006 0.0 -1.2391626E-005 -1.6499399E-005 0.0 -2.7345437E-004  1.3751970E-004 0.0 -3.6783016E-004  1.8950741E-004 0.0 -3.2554227E-004  1.6519223E-004 0.0  8.9864919E-004 -3.3377301E-004 0.0  6.1802150E-003 -4.3941984E-003 0.0 -7.7380277E-002  7.5453982E-002 0.0 -3.3502432E-001  4.3602214E-001 0.0  1.6809391E+000 -2.8657122E+000 0.0 -3.2420065E+000 -3.3695873E+000 0.0 -4.1682430E+000 -4.3361501E+000 0.0 -3.4227046E+000 -4.1485401E+000 0.0 -2.3314119E+000 -3.5492920E+000 0.0 -2.0319495E+000 -3.6959528E+000 0.0 -1.4836641E+000 -3.5154697E+000 0.0 -1.0406416E+000 -3.2561939E+000 0.0 -1.2735609E+002 -1.3586173E+002 0.0 -9.1954101E+001 -1.2382495E+002 0.0 -6.6273158E+001 -1.0888498E+002 0.0 -5.0171053E+001 -1.0113750E+002 0.0 -3.4481588E+001 -8.2450130E+001 0.0 -3.1330076E+001 -8.8510437E+001 0.0 -2.3959057E+001 -7.8660677E+001 0.0 -1.5403756E+001 -6.0494134E+001 0.0 -1.3150043E+001 -5.9215914E+001 0.0 -8.5345056E+000 -5.1616184E+001 0.0 -5.5982104E+000 -3.8544011E+001 0.0 -3.4588623E+000 -3.4147152E+001 0.0 -2.2197311E+000 -2.8898930E+001 0.0 -9.0757716E-001 -2.0687166E+001 0.0 -4.0170836E-001 -1.7283967E+001 0.0  5.4487705E-002 -1.5528748E+001 0.0  2.2872240E-001 -1.2553990E+001 0.0  3.8681091E-001 -8.6739784E+000 0.0  4.9578800E-001 -7.9622195E+000 0.0  5.0768784E-001 -6.7521853E+000 0.0  4.3797167E-001 -5.2364424E+000 0.0  4.0072887E-001 -4.2071825E+000 0.0  3.3328931E-001 -3.4203849E+000 0.0  2.7894496E-001 -2.8356470E+000 0.0  2.4413975E-001 -2.5095371E+000 0.0  2.0101910E-001 -2.1635703E+000 0.0  1.5622037E-001 -1.7760000E+000 0.0  9.7695111E-002 -1.4554129E+000 0.0  6.8367352E-002 -1.2433589E+000 0.0  4.0493937E-002 -1.0421996E+000 0.0  1.2925953E-002 -8.6716082E-001 0.0 -6.7696132E-003 -6.8503285E-001 0.0 -1.8492732E-002 -6.3609775E-001 0.0 -3.5607806E-002 -6.1034115E-001 0.0 -3.8560684E-002 -3.7373195E-001 0.0 -5.6414276E-002 -3.7323082E-001 0.0 -5.9131318E-002 -2.5251603E-001 0.0 -6.1072604E-002 -1.7343919E-001 0.0 -7.5984035E-002 -1.5090977E-001 0.0  1.6165952E+000 -1.6463630E-001 0.0 -1.4737878E+000  1.4932321E-001 0.0  2.5814755E+000 -2.6966438E-001 0.0 -2.1124312E-001  3.4612255E-002 0.0  1.6929549E-001 -1.7825882E-002 0.0 -1.1203630E-002  7.3568067E-003 0.0  3.3670928E-003 -1.2111126E-003 0.0 -1.8225797E-004  4.1473270E-004 0.0  7.0364694E-005 -9.3961392E-005 0.0 -5.4919535E-007 -3.5020252E-006 0.0  3.0918603E-006  1.7325572E-007 0.0  5.9555826E-006  9.9056909E-006 0.0  1.4515743E-006  3.2851303E-006 0.0  6.3502789E-007 -2.8715958E-007 0.0  1.2858669E-006 -1.2304547E-006 0.0  3.7708108E-007 -3.7084534E-007 0.0 -1.5251740E-008  1.8370894E-008 0.0  1.4459952E-009 -1.1164387E-009 0.0 -2.4659702E-011  6.1569359E-011 0.0  2.5438591E-011  2.4481960E-013 0.0 -7.2746062E-013  5.8955679E-014 0.0  7.8355553E-014  1.3401836E-014 0.0 -4.0491254E-015 -8.6584065E-016 0.0 -2.8120276E-016 -1.5582958E-016 0.0  2.3646032E-015  8.6889341E-016 0.0  1.1244820E-015  3.6235714E-016 0.0  5.6862463E-016  2.5617707E-016 0.0 -2.6606755E-015 -7.6592283E-016 0.0  7.4607695E-015  2.2033742E-015 0.0  5.9346720E-015  1.7493390E-015 0.0  1.7294383E-015  5.0426524E-016 0.0  1.2516276E-014  3.7275565E-015 0.0  1.1185081E-014  3.3012831E-015 0.0 -9.2700591E-017 -2.4309061E-017 0.0  2.0338807E-016  4.6447970E-017 0.0 -9.2438021E-018 -2.3845337E-018 0.0 -3.5274708E-017 -2.0344067E-017 0.0 -1.7590125E-017  6.3602110E-019 0.0 -5.2885812E-017 -1.5496908E-017 0.0 -4.6463252E-017 -2.6541159E-017 0.0  4.8934625E-017  1.0012859E-017 0.0 -6.4048489E-017 -1.9414993E-017 0.0  7.6733572E-017 -7.1896541E-019 0.0 -7.0031820E-017 -2.0088338E-017 0.0 -6.6394527E-017 -2.5311981E-017 0.0  8.8746876E-017  9.5021121E-018 0.0 -4.7577070E-017 -1.5120625E-017 0.0  8.5180454E-018 -3.9605852E-018 0.0 -5.6623767E-017 -2.6286480E-017 0.0  5.1299175E-017  3.9770048E-018 0.0  7.4218097E-020 -7.8570119E-017 0.0  3.4989808E-017  6.9023124E-017 0.0 -2.9377317E-016 -1.6060084E-016 0.0  7.3325794E-017  1.0546879E-016 0.0 -2.7725644E-016 -3.1327157E-016 0.0 -1.0965456E-014 -7.0719331E-015 0.0  3.6687330E-013  2.0790737E-013 0.0 -9.9599221E-012 -5.6193672E-012 0.0  3.0208971E-010  1.7091412E-010 0.0  3.2574381E-009  1.7628800E-009 0.0 -5.6636708E-008 -3.1048687E-008 0.0 -1.2235882E-007 -6.9495209E-008 0.0  2.8806248E-008  1.6356553E-008 0.0 -8.4099551E-009 -4.7730874E-009 0.0  1.8541695E-009  1.0523862E-009 0.0 -5.2035594E-010 -2.9544853E-010 0.0  1.4498259E-010  8.2729339E-011 0.0 -4.0414655E-011 -2.4908506E-011 0.0 -9.9925422E-012  2.3313327E-012 0.0  1.0652855E-010  1.7844442E-011 0.0 -3.0344394E-010 -1.0428033E-010 0.0  1.1323477E-009  4.2683735E-011 0.0 -1.5207499E-008 -3.7570880E-009 0.0  1.6925132E-008 -2.2847101E-008 0.0 -4.6015400E-007  4.4847962E-007 0.0  4.0223809E-006 -7.6545839E-006 0.0 -3.2278190E-005  2.4857311E-005 0.0  4.4344284E-004 -5.3288317E-004 0.0  1.4953234E-002  8.6814705E-002 0.0  3.7915592E-002  3.1879844E-001 0.0  6.3143023E-002  6.9411007E-001 0.0  8.7238434E-002  1.2729910E+000 0.0  1.2503188E-001  2.1461416E+000 0.0  1.3453700E-001  3.0241498E+000 0.0  1.6905748E-001  3.7501623E+000 0.0  2.0391910E-001  5.1207848E+000 0.0  2.6116826E-001  6.7164444E+000 0.0  2.9926217E-001  7.8146530E+000 0.0  3.1745545E-001  9.4822640E+000 0.0  3.5807936E-001  1.1401046E+001 0.0  5.4000615E-001  1.2954711E+001 0.0  4.7753682E-001  1.4841477E+001 0.0  6.3391282E-001  1.8904313E+001 0.0  7.9873586E-001  1.9462680E+001 0.0  5.2340026E-001  2.2528120E+001 0.0  1.1949781E+000  2.6302751E+001 0.0  1.2144800E+000  2.8593051E+001 0.0  1.4817257E+000  2.9542762E+001 0.0  1.0672810E+000  3.1944071E+001 0.0  2.4066126E+000  3.7804664E+001 0.0  2.7282213E+000  4.7327203E+001 0.0  2.4905005E+000  4.4063922E+001 0.0  3.5746784E+000  4.4864557E+001 0.0  3.7645539E+000  5.3460642E+001 0.0  5.4284542E+000  5.7676003E+001 0.0  5.3305307E+000  6.3314007E+001 0.0  8.0910964E+000  7.2339553E+001 0.0  9.1210637E+000  8.0620580E+001 0.0  1.0653617E+001  8.9401711E+001 0.0  1.1896998E+001  9.3712014E+001 0.0  1.2967078E+001  1.0350911E+002 0.0  1.4897026E+001  1.1247317E+002 0.0  1.9559951E+001  1.5067766E+002 0.0  1.6210952E+001  1.2826555E+002 0.0  1.6695437E+001  1.6489254E+002 0.0  1.9851594E+001  1.9507913E+002 0.0  1.9869449E+001  2.2549238E+002 0.0  1.5048464E+001  2.4280007E+002 0.0  1.1267081E+001  3.0118544E+002 0.0  2.2101974E+000  3.3593790E+002 0.0 -6.3033515E+000  3.6240644E+002 0.0 -3.4630794E+001  4.4136004E+002 0.0 -5.2868841E+001  4.4498584E+002 0.0 -8.4886710E+001  4.8537733E+002 0.0 -1.4969182E+002  5.7755031E+002 0.0 -2.0502070E+002  6.0435281E+002 0.0 -2.3346764E+002  5.0691950E+002 0.0 -3.4766162E+002  4.1978672E+002 0.0 -4.4239182E+002  4.1835106E+002 0.0 -4.9464557E+002  3.8510351E+002 0.0 -4.4443446E+002  2.7579378E+002 0.0 -3.9257591E+002  2.0067024E+002 0.0 -4.1352268E+002  1.7951858E+002 0.0 -3.7810582E+002  1.3598871E+002 0.0 -3.6231004E+002  1.0829584E+002 0.0 -3.3664857E+002  8.0439565E+001 0.0 -3.2451088E+002  6.1635281E+001 0.0 -3.3096177E+002  4.4374592E+001 0.0 -3.0871554E+002  2.6575151E+001 0.0 -2.6897968E+002  7.5675633E+000 0.0 -2.6936320E+002 -6.0935441E+000 0.0 -2.4946000E+002 -2.4864754E+001 0.0 -2.4439187E+002 -4.1783298E+001 0.0 -2.3316167E+002 -6.6703047E+001 0.0 -2.0943558E+002 -8.7231295E+001 0.0 -1.7290968E+002 -1.0107059E+002 0.0 -2.8566742E-001 -1.9548037E-001 0.0 -2.1547264E-001 -9.9896168E-002 0.0 -1.4496420E-001 -3.5732126E-002 0.0 -1.0243022E-001 -4.6416149E-003 0.0 -5.0490534E-002  1.4694449E-002 0.0 -3.0287464E-002  1.5921917E-002 0.0 -1.2191936E-002  1.3249983E-002 0.0 -4.2083338E-003  6.4808087E-003 0.0 -4.5280480E-004  2.2003973E-003 0.0 -1.2301330E-004  7.9441093E-004 0.0 -3.2888000E-004  2.5228912E-004 0.0 -6.0285769E-004  6.7541693E-004 0.0  6.4648434E-006  3.4773198E-004 0.0 -3.0079059E-003  3.9953306E-003 0.0 -6.5672800E-004  2.8466063E-003 0.0 -1.2996108E-002  1.6639026E-002 0.0 -7.2440701E-003  1.5429389E-002 0.0 -9.3249286E-003  1.9206035E-002 0.0 -6.4161788E-003  1.7733611E-002 0.0 -5.8447142E-003  2.5598584E-002 0.0 -2.2460138E-002  7.8702227E-002 0.0 -9.8035016E-003  3.7663454E-002 0.0 -3.7314500E-003  5.8856329E-002 0.0  4.8531568E-004  2.0861214E-002 0.0  1.0459101E-004 -3.0907625E-004 0.0 -1.4483212E-003  4.9184225E-003 0.0 -4.0687715E-003  8.1013667E-003 0.0 -4.0012797E-003  4.6283637E-003 0.0 -1.6876883E-003  1.3154311E-002 0.0 -1.4433595E-002  8.7938641E-003 0.0 -2.2195025E-002  7.8120448E-002 0.0 -3.3937663E-002  6.0857191E-002 0.0 -5.2387525E-002  7.9501274E-002 0.0 -2.4382073E-001  2.1426359E-001 0.0  2.0312770E-002  5.3012710E-001 0.0  1.8637858E-001  1.0375295E+000 0.0  6.5673539E-001  3.9720550E+000 0.0  8.8480328E-001  8.7892929E+000 0.0  1.7304405E+000  1.5730870E+001 0.0  2.4530201E+000  2.1952723E+001 0.0  3.4501956E+000  3.7870818E+001 0.0  6.7615065E+000  5.7094432E+001 0.0  6.3898130E+000  6.5757850E+001 0.0  7.4013394E+000  7.9107072E+001 0.0  8.2902997E+000  1.0410970E+002 0.0  8.6361572E+000  1.2439539E+002 0.0  8.5655305E+000  1.5152218E+002 0.0  7.4066112E+000  1.7182376E+002 0.0  4.5342366E+000  2.1761797E+002 0.0  7.3071962E-001  2.4920198E+002 0.0 -6.7009397E+000  2.4229486E+002 0.0 -1.4937471E+001  2.6725085E+002 0.0 -2.5919483E+001  2.8531926E+002 0.0 -4.4517156E+001  3.0250038E+002 0.0 -5.8355541E+001  3.1257574E+002 0.0 -9.3954210E+001  3.4246341E+002 0.0 -1.2344070E+002  3.4012134E+002 0.0 -1.3730700E+002  2.6717585E+002 0.0 -4.7408227E-003 -1.7438340E-001 0.0 -4.3669806E-002  5.4700902E-002 0.0 -9.8833213E-002 -9.1819023E-003 0.0 -1.1499993E-001  4.2331853E-003 0.0 -1.7216987E-001  2.6313538E-002 0.0 -5.1561291E-002 -3.8174653E-002 0.0 -2.3856503E-001 -7.1036991E-002 0.0 -1.2559106E-002 -1.8587334E-002 0.0 -8.6262057E-002 -2.4680839E-002 0.0 -1.8574079E-001 -4.1365059E-002 0.0 -3.0950751E-002 -2.3731000E-002 0.0 -1.0640921E-001 -2.3839653E-002 0.0 -7.2460944E-002 -1.6885108E-002 0.0 -2.8887471E-002 -1.0865342E-002 0.0 -8.0248792E-002 -1.4887457E-002 0.0 -5.8495268E-002 -8.9593109E-003 0.0 -2.3326897E-002 -5.4293304E-003 0.0 -5.6826998E-002 -9.6172667E-004 0.0 -2.9246849E-002  8.7248173E-006 0.0 -5.6277006E-002 -1.9730010E-003 0.0 -3.2576662E-002  1.5689084E-003 0.0 -6.1612881E-002  1.1733991E-003 0.0 -2.6546422E-002 -1.9496104E-003 0.0 -7.4977336E-002  2.3623491E-003 0.0 -3.1379013E-002 -9.2855482E-004 0.0 -7.6084507E-002  3.2704542E-003 0.0 -3.4966529E-002 -6.6915244E-004 0.0 -7.0647033E-002 -1.5125124E-003 0.0 -4.6596288E-002  8.2642281E-004 0.0 -8.0438086E-002  1.8782439E-003 0.0 -3.5267181E-002 -2.9122604E-003 0.0 -9.8637406E-002  2.7324269E-003 0.0 -4.2037109E-002 -1.1298399E-003 0.0 -1.0219348E-001  4.4321116E-003 0.0 -4.4320195E-002 -1.9457767E-003 0.0 -1.0875651E-001  4.0427521E-003 0.0 -5.0837219E-002 -1.9977530E-004 0.0 -1.0390463E-001 -6.2265829E-003 0.0 -7.0650639E-002  6.0006101E-003 0.0 -1.2546119E-001  9.7839843E-003 0.0 -5.3835472E-002 -5.1391429E-003 0.0 -1.4675525E-001  3.9193067E-003 0.0 -5.7554510E-002 -2.5471528E-003 0.0 -1.4611191E-001  5.3070789E-003 0.0 -6.8070691E-002 -5.2692362E-004 0.0 -1.3864801E-001 -8.8035464E-003 0.0 -9.5408703E-002  7.7016739E-003 0.0 -1.6629289E-001  1.2203548E-002 0.0 -7.7973221E-002 -3.7657453E-003 0.0 -1.7449170E-001 -1.1510923E-002 0.0 -1.0647425E-001  8.4801407E-003 0.0 -1.9492075E-001  1.4468242E-002 0.0 -8.1253022E-002 -8.6096240E-003 0.0 -2.2302446E-001  4.3731011E-003 0.0 -9.1726008E-002 -1.2376216E-003 0.0 -1.9541126E-001 -1.3173224E-002 0.0 -1.3037124E-001  8.4865147E-003 0.0 -2.3399364E-001  1.4624473E-002 0.0 -9.7319564E-002 -1.0952485E-002 0.0 -2.6814377E-001  4.2139184E-003 0.0 -1.0961167E-001 -2.6226819E-003 0.0 -2.3393452E-001 -1.7192062E-002 0.0 -1.5530163E-001  9.0911516E-003 0.0 -2.8048309E-001  1.6830538E-002 0.0 -1.1433898E-001 -1.4705131E-002 0.0 -3.2156090E-001  7.2731985E-003 0.0 -1.3005388E-001 -5.0566480E-003 0.0 -2.8262862E-001 -2.0368621E-002 0.0 -1.7905210E-001  7.7084335E-003 0.0 -3.3076749E-001  1.4286445E-002 0.0 -1.2928933E-001 -1.7954193E-002 0.0 -3.7167871E-001  9.2688986E-003 0.0 -1.4689114E-001 -8.0916613E-003 0.0 -3.2247353E-001 -2.6396395E-002 0.0 -1.9420119E-001  4.9033056E-003 0.0 -3.6494526E-001  1.0377006E-002 0.0 -1.3222356E-001 -2.0827390E-002 0.0 -3.9246879E-001  5.7645043E-003 0.0 -1.4310501E-001 -1.0685219E-002 0.0 -3.2358786E-001 -2.8911492E-002 0.0 -1.7988251E-001 -1.0650511E-003 0.0 -3.5131289E-001  8.1860205E-003 0.0 -1.0840581E-001 -1.9589380E-002 0.0 -3.3825067E-001 -2.7251265E-003 0.0 -1.0624178E-001 -1.2089896E-002 0.0 -2.5608320E-001 -2.6160883E-002 0.0 -1.1734716E-001 -6.5128437E-003 0.0 -2.3950420E-001 -5.4927514E-003 0.0 -5.1790546E-002 -1.2449600E-002 0.0 -1.7362920E-001 -2.0455599E-002 0.0 -1.6736750E-002 -9.8558955E-003 0.0 -7.8963779E-002 -1.2987817E-002 0.0 -3.6475371E-003 -1.9449927E-003 0.0 -9.3547342E-003 -5.0784414E-003 0.0 -9.3287211E-003 -4.2651428E-003 0.0  4.0792604E-004 -1.0302669E-003 0.0 -1.3934638E-003 -9.5552697E-004 0.0 -3.0982135E-004  6.8284742E-005 0.0 -8.1079409E-004  3.7563843E-004 0.0  1.0710801E-002  2.1444740E-001 0.0 -1.6098432E-002 -3.6549748E-002 0.0  6.1108191E-002  5.1697049E-003 0.0  1.8032531E+001  1.5031736E+002 0.0  1.2643283E+000  4.3658533E+001 0.0  5.1758668E+000  7.6097324E+001 0.0 -5.6000908E+000 -4.3097637E+001 0.0  6.3258587E-001  2.3882469E+001 0.0  1.8809010E+001  3.8535128E+002 0.0 -1.2308975E-001 -2.1975600E-001 0.0  4.5614389E-001 -8.7004060E+000 0.0  1.1306090E-001 -2.4580865E+000 0.0 -7.1499531E-002 -8.9680104E-001 0.0 -5.3471573E+002  8.8624344E+001 0.0 -3.8707671E-001 -1.9826423E+001 0.0  2.5380962E+001  2.2579088E+002 0.0 -2.5146093E+001 -9.2364652E+001 0.0  1.8003246E-001  1.1483830E+001 0.0 -5.4630743E+001  6.3206665E+002 0.0 -1.1928484E-002  3.3188495E-002 0.0 -6.4684711E+002  2.8102183E+002 0.0 -4.3648721E+002 -3.6105905E+001 0.0  3.1059066E-001 -4.9658528E+000 0.0  9.1603101E-002  5.6834862E+000 0.0 -6.2426650E+001 -1.3793909E+002 0.0 -4.0333582E-004 -1.4803951E+000 0.0  9.9701801E+000  1.0805074E+002 0.0 -6.3667659E-002 -2.6635758E-002 0.0  2.4676828E+000  5.6116588E+001 0.0 -1.5240742E-002  8.6085773E-003 0.0 -3.2456772E-003  3.0136223E-002 0.0 -6.9800647E+002  5.4005085E+002 0.0 -3.1268899E-004  2.0793906E-003 0.0 -1.4590348E+002 -2.0428891E+002 0.0 -2.5214822E+002  8.6275833E+002 0.0  6.5205143E-002  1.5889939E+000 0.0  1.9868681E-001 -1.3182240E+001 0.0  2.4328429E-001 -3.3786789E+000 0.0 -5.9111661E+002  1.7218188E+002 0.0 -2.1795185E+000 -2.9452322E+001 0.0 -3.8663703E+002 -1.0504429E+002 0.0 -4.9617593E+002  2.6542561E+001 0.0 -1.2106350E+001 -6.3661520E+001 0.0 -2.7607116E+000  5.0448712E+002 0.0  3.4894168E-001  1.7035971E+001 0.0  9.7122681E-001  2.7974719E+001 0.0 -1.0652835E-001 -5.3856288E-001 0.0  2.8037333E+001  2.9861489E+002 0.0  2.2598282E+001  1.8581908E+002 0.0  7.0909548E+000  9.0765058E+001 0.0 -3.3662310E-003  5.0395331E-003 0.0 -9.4377538E-003  1.1551683E-001 0.0 -3.6834506E-004  9.3125435E-004 0.0 -4.9581701E+002  9.5138701E+002 0.0 -2.4229995E+002 -2.2504822E+002 0.0  2.5469051E-002  3.0616850E-001 0.0 -1.4313945E-003  1.1426244E-002 0.0 -6.7366113E-003  7.7557677E-002 0.0 -2.0241543E-002  1.5490116E-001 0.0 -2.7993465E-002  2.9924447E-001 0.0 -6.3769154E-003  1.4301576E-001 0.0 -1.3711744E-002  3.3747285E-001 0.0 -3.5291467E-002  6.6887410E-001 0.0 -3.6580214E-002  8.6058791E-001 0.0  3.6751158E-003  4.1048689E-001 0.0 -3.4656546E-002  1.0371072E+000 0.0  7.2842220E-003  4.4275977E-001 0.0  2.6893003E-002  9.2106177E-001 0.0  1.1605752E-002  1.8071785E+000 0.0  4.1753745E-002  1.9653868E+000 0.0  1.1815984E-001  8.3353598E-001 0.0  1.2216328E-001  1.6434803E+000 0.0  2.2952303E-001  3.3250348E+000 0.0  2.8363738E-001  3.3919082E+000 0.0  3.0957029E-001  1.5199451E+000 0.0  3.9723348E-001  3.5325955E+000 0.0  4.1023610E-001  1.3346076E+000 0.0  5.8792809E-001  2.9656180E+000 0.0  7.3998906E-001  6.0880241E+000 0.0  9.2805303E-001  5.9635812E+000 0.0  7.4801023E-001  2.5328396E+000 0.0  8.7626126E-001  6.0185639E+000 0.0  6.0733869E-001  2.1026008E+000 0.0  6.8877948E-001  5.2629059E+000 0.0  1.6789859E+000  9.7071212E+000 0.0  1.0017871E+000  1.1638259E+001 0.0  2.1899763E-001  4.3972522E+000 0.0 -4.9454171E-001  1.0075223E+001 0.0  1.3809882E+000  2.0412302E+001 0.0 -2.0741207E+000  2.1448945E+001 0.0 -2.9345260E+000  8.2797799E+000 0.0 -7.2643259E+000  2.3411903E+001 0.0 -9.0539902E+000  6.0040713E+000 0.0 -1.4805363E+001  1.8754922E+001 0.0 -1.0759729E+001  4.1373190E+001 0.0 -2.5670503E+001  4.3957877E+001 0.0 -2.7423096E+001  1.3556930E+001 0.0 -4.4600563E+001  3.5898299E+001 0.0 -3.8100086E+001  7.5262853E+001 0.0 -7.3900674E+001  7.2182193E+001 0.0 -7.5355298E+001  2.8621214E+001 0.0  1.4221579E+000  9.7547884E+000 0.0  7.7298335E-001  9.5649649E+000 0.0  2.2371725E+000  3.2741768E+001 0.0 -5.9222949E+001  1.2243834E+002 0.0 -1.0496651E+002  1.1509309E+002 0.0 -2.1189458E-002  1.3822150E+000 0.0  3.4804293E+000  2.9670427E+001 0.0 -2.4985774E+001  1.0301329E+002 0.0 -4.3234742E-002  1.1023891E+000 0.0  1.5045796E-001  4.9522871E-001 0.0 -2.2533790E-002  2.0336892E-001 0.0 -1.0446734E-002  1.7348877E-001 0.0 -9.5882992E+001  1.8149202E+002 0.0 -4.4467766E+000 -2.4781292E-001 0.0 -9.2958044E+000 -4.2341780E+000 0.0  2.5212878E-001  6.9932788E-002 0.0 -1.6044426E+002  1.7296756E+002 0.0 -1.6281010E+002  1.0974136E+002 0.0  1.4438609E+000  1.4442924E+001 0.0  7.8189688E-001  1.4941649E+001 0.0 -1.3857340E+002  2.5422036E+002 0.0  6.0389843E+000  4.3768994E+001 0.0 -4.1912504E-003  2.0476866E+000 0.0 -4.5052465E-002  4.3007593E-002 0.0  5.7592183E+000  4.4552783E+001 0.0  6.9685241E-002 -3.4518988E-001 0.0 -6.7813894E-002  1.9098372E+000 0.0 -4.1345129E-002 -2.6486656E-002 0.0 -2.1851168E+002  2.3575385E+002 0.0 -1.9541698E+002  3.3901394E+002 0.0 -7.6028667E+001  2.4625895E+002 0.0 -5.0732963E+000 -8.7421306E+000 0.0  1.3982834E-001 -7.3745368E-001 0.0  1.7772114E-002  8.2740006E-001 0.0 -4.7421075E-002  1.4465234E+000 0.0 -7.1747032E+000 -1.4061571E+001 0.0  1.3789894E+000  2.3334095E+001 0.0  2.0444900E+000  2.1464906E+001 0.0  3.0835172E-001  3.9188650E-001 0.0  3.5172745E-001 -2.1346361E-001 0.0  1.6887737E-001 -1.2030268E+000 0.0  2.0072228E-001 -2.2709345E+000 0.0 -2.1106093E+000 -3.6112541E+000 0.0 -3.0540918E+002  3.1939508E+002 0.0  7.8739128E-001  2.3146740E+001 0.0  1.0491171E+000  1.4638739E+001 0.0  9.9990892E-002  4.2925036E-002 0.0  3.2529793E-003 -5.4289611E-001 0.0  2.4055202E-002 -2.1836676E-001 0.0 -3.5702222E-002  6.7946669E-002 0.0 -5.7583122E-002  3.4159288E+000 0.0 -2.5872844E-002  3.4975628E+000 0.0 -2.0987895E-002  9.9809092E-002 0.0  4.8979535E+000  2.6851403E+001 0.0  5.4103645E+000  4.2312102E+001 0.0 -3.1538876E+002  2.2687461E+002 0.0  4.5196047E+000  2.7704550E+001 0.0 -2.9609530E+000 -9.8517075E+000 0.0 -1.2498423E+000 -5.8566542E+000 0.0 -1.9735454E-002 -1.5026778E+000 0.0  2.1829636E-002 -3.6007166E+000 0.0  8.5851537E+000  6.3906204E+001 0.0  7.2620607E+000  6.4114195E+001 0.0 -4.2396321E-002  8.8543530E-003 0.0 -2.2589091E-002  4.2421739E-002 0.0 -5.2719207E-002 -1.4303473E-001 0.0 -1.2810598E+001 -1.0938984E+001 0.0 -2.7678660E+002  4.4320229E+002 0.0 -1.0530406E+001 -2.2167288E+001 0.0 -1.7370215E+001 -1.9734135E+001 0.0  4.5507210E+000  4.2890402E+001 0.0  2.0843585E+000  3.2394398E+001 0.0 -1.7140716E+002  4.4032658E+002 0.0  1.0819650E+001  8.8507444E+001 0.0  1.0667595E+001  9.7113653E+001 0.0  6.9928533E+000  6.8086715E+001 0.0  6.7279355E+000  1.0264857E+002 0.0  9.9058363E-002 -2.5558714E+000 0.0  2.2033361E-001 -1.6206362E+000 0.0 -1.5050903E+001 -3.2649526E+001 0.0 -2.2361943E+001 -3.3105259E+001 0.0  1.2672959E-002  6.4582156E-001 0.0 -7.0116890E-002  1.0897523E+000 0.0  4.4823986E-001  2.4134202E+001 0.0  6.7272396E-001  1.6748227E+001 0.0  5.2502063E-001  1.0336379E+001 0.0  5.7593461E-001  1.1361626E+001 0.0  1.4648787E-001  1.8523213E+001 0.0  3.9016806E-001  1.2725712E+001 0.0  2.3993365E+000  3.0401387E+001 0.0 -3.7724748E-002 -2.0440759E-004 0.0 -1.9885298E-002  2.1344087E-002 0.0 -5.5472010E-002 -3.2464046E-002 0.0 -2.9223342E-002  1.7060600E-003 0.0 -1.4571379E-002  1.1797468E-002 0.0 -1.0825178E-002  2.5039943E-002 0.0 -6.9793218E-003  1.1197272E-002 0.0 -3.8985572E-002 -6.1632837E-001 0.0 -2.0086862E-002 -3.7976512E-001 0.0  2.7749919E+000  2.0693653E+001 0.0 -4.7150844E-003 -2.1814820E-002 0.0 -5.2711662E-003  1.9213823E-002 0.0  3.3737148E+000  7.2428473E+001 0.0  2.4290910E+000  1.0805936E+002 0.0  1.0138830E+001  1.4127116E+002 0.0  4.8166644E+000  1.4801240E+002 0.0 -1.5078236E-001  5.6040623E+000 0.0 -1.5427374E-001  6.0797110E+000 0.0  5.9972766E-002  3.6857258E+000 0.0 -1.4659114E-001  6.6571855E+000 0.0 -1.7649359E-001  4.9366089E+000 0.0  1.3527911E-001  3.8636578E+000 0.0 -1.5685611E-002  6.3548133E+000 0.0 -3.2068311E-002  9.7249128E+000 0.0 -8.2561523E-002 -1.5961444E-001 0.0  1.2282366E-001  4.0736260E+000 0.0 -1.4517557E+000 -9.8997301E+000 0.0 -4.8955910E-001 -6.5099808E+000 0.0 -6.2216437E-001 -3.1219270E+000 0.0 -7.3096187E-002  2.0648175E+000 0.0  9.8883793E+000  8.5140915E+001 0.0  2.8282051E-003 -8.9697963E-001 0.0  7.1204543E+000  6.0699857E+001 0.0  2.9517513E-001  7.9079392E+000 0.0 -6.3033760E+000 -2.1587638E+001 0.0 -8.4454424E-002 -2.8554535E-001 0.0 -4.1839044E+002  4.1702390E+002 0.0 -3.8148599E+002  5.3972429E+002 0.0  6.5003061E-002  9.2330898E+000 0.0  1.7465535E-001 -3.5664779E-001 0.0 -2.5053359E+001 -1.5621620E+001 0.0 -3.4027870E+001 -2.7845206E+001 0.0 -2.8221832E+001 -4.6957111E+001 0.0 -4.3014206E+001 -4.5697906E+001 0.0 -5.0229486E+001 -2.0865453E+001 0.0 -6.5814735E+001 -4.2182482E+001 0.0 -5.3439257E+001 -6.6705538E+001 0.0 -8.1924386E+001 -6.6360667E+001 0.0 -9.1908502E+001 -3.4818308E+001 0.0 -1.1763734E+002 -6.2448483E+001 0.0 -1.3133527E+002 -2.3004896E+001 0.0 -1.7581647E+002 -4.8625421E+001 0.0 -1.8633513E+002 -9.3124236E+000 0.0 -1.4225688E+002 -9.0633809E+001 0.0 -2.1188792E+002 -7.6802734E+001 0.0 -1.7633294E+002 -1.2233431E+002 0.0 -1.2281854E+002 -1.2590718E+002 0.0 -6.5968946E+001 -9.0170926E+001 0.0 -1.3387433E+002  1.0063230E+001 0.0 -2.0032892E+002  3.1078027E+001 0.0 -2.5822843E+002  1.0751730E+001 0.0 -2.7547898E+002  5.0655053E+001 0.0 -3.7148792E+000  8.2791771E+001 0.0 -4.5766981E-002  1.9760664E+001 0.0 -1.8480656E+000 -1.3215942E+001 0.0 -1.2777862E-001  8.3145849E+000 0.0 -2.5564814E+002 -9.9450374E+001 0.0 -2.7711106E+002 -6.4423433E+001 0.0 -8.9585761E-003  4.4091533E-002 0.0 -2.1752343E-002  1.0820389E-001 0.0  5.1187393E+000  6.3207331E+001 0.0  7.7117828E-003  4.2291318E-001 0.0  3.1861464E-003  3.2457667E-001 0.0 -4.8690944E-002  7.3797815E-001 0.0  5.3301534E+000  4.5000847E+001 0.0  9.3871574E-002 -2.5891368E+000 0.0  1.5165037E-001 -1.8176697E+000 0.0  1.4838036E+000  3.2925743E+001 0.0  1.2511518E+001  1.9258651E+002 0.0  1.9924491E+000  2.1473271E+002 0.0 -3.2178813E+000  1.5731475E+002 0.0 -9.5164994E+000  2.3562684E+002 0.0 -2.0632218E+001  1.7905072E+002 0.0 -2.5885414E+001  2.5026687E+002 0.0 -1.4461586E+002  4.3979545E+001 0.0 -2.1572619E+002 -1.4944549E+002 0.0  3.3738861E+000  4.3546556E+001 0.0  1.9612211E+000  4.5238848E+001 0.0 -7.9170023E-002  1.4158459E+001 0.0  2.0394518E+000  5.2823450E+001 0.0  3.9102608E-002  2.5933528E+000 0.0 -6.5183907E-002 -2.8824554E-001 0.0  1.4142946E+001  1.1826030E+002 0.0  5.9641185E-002  1.3714821E+001 0.0 -2.5767472E-003  7.4665535E-003 0.0 -3.9688919E-003  6.2517489E-003 0.0 -6.1930141E-001 -9.3533841E+000 0.0 -1.6495678E-001 -6.9118398E+000 0.0  1.8720987E-001 -3.4434006E+000 0.0 -1.1092158E+001  3.0820462E+002 0.0 -3.4646297E+001  3.5081380E+002 0.0 -4.5278603E-003  2.6589034E-002 0.0 -3.5250142E+002  3.2925474E+001 0.0 -3.1858180E+002 -1.0055726E+001 0.0 -3.7033864E+002  7.5453353E+001 0.0 -2.7640386E+002  8.8724840E+001 0.0 -3.8784467E+002  1.1304666E+002 0.0 -3.0862750E+002  1.3109634E+002 0.0 -6.2410488E-002 -8.9759249E-001 0.0  4.4749188E-001  3.4559533E+001 0.0  7.4239689E-001  2.6828238E+001 0.0 -4.3081369E+001 -8.7361977E+001 0.0  3.2440993E+000  1.8876194E+001 0.0  4.6971865E-001  5.3022295E+000 0.0  3.2744034E-002  2.2280047E-001 0.0  8.2885072E-002 -2.5921338E+000 0.0  1.3001832E-001 -1.8581528E+000 0.0 -5.1031335E+001  1.6956880E+002 0.0 -4.1250548E+002  1.6410805E+002 0.0 -5.7284883E-002  1.4135366E+001 0.0 -1.2371324E-001  9.9055075E+000 0.0  4.3126198E-001  6.1930453E-001 0.0  1.6673075E+001  1.8010556E+002 0.0  1.4903575E+001  1.3043762E+002 0.0  1.8073779E+001  1.6436993E+002 0.0 -3.1140622E-002  1.9996209E+001 0.0 -1.0125847E+002 -9.7847264E+001 0.0  2.6584808E-002 -8.8430397E-001 0.0  2.4525773E-002 -1.2031698E+000 0.0  9.0611078E-002 -1.2297539E+000 0.0  5.7564437E-002 -1.6035432E+000 0.0  3.5032589E-001  2.6371419E+001 0.0 -1.8488038E+000  1.4876503E+000 0.0 -1.4353768E-001  7.8942342E+000 0.0 -6.8251595E-002  6.2976393E+000 0.0  4.4431075E-003  3.8526100E+000 0.0  1.4873644E-001 -1.1439512E+000 0.0 -9.1827637E+000 -3.0377916E+001 0.0 -1.1376810E+001 -4.0840329E+001 0.0 -9.3210945E-002  1.5006193E+000 0.0 -5.4360485E-002  2.6673304E+000 0.0 -5.3196459E-002 -2.4428679E-002 0.0 -8.1172730E-002 -6.4430059E-002 0.0 -7.8734006E-002 -8.9047751E-002 0.0 -6.3207173E-002 -7.2642968E-002 0.0  4.8334690E-001  6.2030625E+000 0.0  1.3228329E+001  1.1362907E+002 0.0 -4.3113072E-002 -5.1504261E-003 0.0 -8.6912131E-001 -1.2797138E+001 0.0 -3.7410286E+001 -6.6510805E+001 0.0 -2.4504655E+001 -6.2392997E+001 0.0 -1.9724524E+001 -4.7487898E+001 0.0  7.2096944E+000  6.1772547E+001 0.0  9.4549449E+000  7.8333296E+001 0.0 -1.0949202E-001 -2.4700547E-001 0.0 -1.0146932E-001 -3.6960732E-001 0.0 -4.3487327E+002  3.1045905E+002 0.0 -5.4533622E+002  3.8649089E+002 0.0 -4.3772148E+002  2.3090761E+002 0.0 -5.4387620E+001 -1.1003305E+002 0.0  3.3478823E-002 -3.7424797E+000 0.0  1.4321934E-001 -4.8687003E+000 0.0 -6.8765528E-002 -6.7400385E-001 0.0  5.2761645E-004  4.3185173E-001 0.0 -4.4771582E+000 -1.5031509E+001 0.0 -3.8049191E+000 -2.0760973E+001 0.0  1.2994458E-001  6.4919217E-001 0.0 -2.4511419E+002  1.6704455E+002 0.0  1.2402199E+000  3.5434338E+001 0.0 -1.0804469E+002  3.3568012E+002 0.0 -1.0481726E+002  4.4800054E+002 0.0 -1.5458612E+002  5.8018276E+002 0.0 -6.5919247E+001  3.4080445E+002 0.0 -5.8635398E+001  4.7587289E+002 0.0 -2.4621917E+002 -2.4201979E+001 0.0 -1.8997852E+001  2.8554792E+000 0.0 -2.3546134E-002  5.6021044E-003 0.0 -1.1304407E-002  8.5986520E-003 0.0 -4.1229704E-002 -1.1922426E+000 0.0 -1.2067661E+002  6.4637398E+001 0.0 -2.2943714E+002  1.0379985E+002 0.0 -2.4918262E+002  6.0008165E+002 0.0 -8.8063591E+001 -1.2678803E+002 0.0 -1.0851162E+002 -1.5490963E+002 0.0 -1.5519983E+002 -1.6235987E+002 0.0  1.7532646E+001  2.4011890E+002 0.0  9.7586454E-003  1.4579500E+000 0.0  8.2587166E+000  2.8991945E+002 0.0 -3.3863731E+002  7.3011906E+002 0.0 -4.9375502E+002  6.5305647E+002 0.0 -8.3223277E-003  7.2244541E-003 0.0 -1.3564904E-001  2.6983949E+000 0.0 -3.0229112E+002 -1.2347253E+002 0.0 -1.8144066E-002  4.6911903E-001 0.0  4.1052493E+000  2.8612871E+001 0.0  2.0050379E-001 -6.4924072E-001 0.0 -2.8858618E-002 -7.7840009E-002 0.0 -6.5446867E-002 -4.1545061E-001 0.0 -9.4141463E-002 -5.8143479E-001 0.0 -4.4676254E+002  6.7306800E+001 0.0 -3.6656301E+002  1.8216841E+002 0.0  4.2764041E-001  9.1007838E+000 0.0  6.2340358E-002  5.9214668E+000 0.0 -1.1931919E-001 -1.2045641E-001 0.0 -1.3005495E+001  6.5391802E+001 0.0  1.2326981E+000  4.9547633E+001 0.0  3.6885486E+000  6.5611312E+001 0.0 -2.8467574E-002  2.7320947E+001 0.0 -4.4900316E-002  4.6025435E-001 0.0 -5.6140805E+000 -2.8541871E+001 0.0 -2.1705582E-001 -3.3191380E+000 0.0 -6.2958638E-002 -1.0562761E+000 0.0 -2.6684022E+002 -1.7841571E+002 0.0 -3.3177765E+002 -1.4091792E+002 0.0  9.0008850E-001  3.4787518E+001 0.0 -3.2754187E+002 -7.4449171E+001 0.0  5.1112737E+000  6.6806266E+001 0.0 -9.0658663E-003  4.3730676E-002 0.0 -9.7804088E-003  4.4189489E-002 0.0 -2.4321409E-003  8.5019248E-003 0.0 -2.1627024E-005  5.9778159E-004 0.0 -1.2506103E-003  2.9882297E-003 0.0 -4.9190660E+001  5.3460412E+000 0.0 -7.7584283E+001  3.9620268E+000 0.0 -9.7157510E-002  1.1889462E+001 0.0  3.7801096E+000  1.8302203E+001 0.0  2.0624341E+000  1.3488083E+001 0.0 -7.0091811E-004  1.4943372E-003 0.0  1.4228430E-001 -4.7621237E+000 0.0  2.3322096E-001 -5.9172272E+000 0.0  8.1810926E-002 -6.6770455E+000 0.0 -1.9267861E+002  7.0087216E+002 0.0 -1.1315640E+002  6.6021410E+002 0.0 -5.5302939E+002  5.0638839E+002 0.0 -3.6763065E+002  8.0728516E+002 0.0 -8.1828959E-001 -3.1952336E-001 0.0  8.2974780E+000  8.1853639E+001 0.0  5.9366057E+000  8.6513900E+001 0.0  5.3953903E+000  6.9448974E+001 0.0  4.7236803E+000  4.9805563E+001 0.0  1.4040279E+000  4.4596534E+001 0.0 -2.1357063E+000  3.9829731E+001 0.0 -6.2699297E+002  3.4263917E+002 0.0  2.2303404E-001 -1.3896241E+001 0.0  3.0350817E-001 -9.4530937E+000 0.0 -1.2011365E+000 -2.1370385E+001 0.0  5.4905199E-002  7.0618968E-001 0.0  5.3127440E-002  2.6550546E+000 0.0 -6.3191748E+002  6.9503606E+002 0.0  1.0416652E-001 -2.4644414E+000 0.0 -7.4274331E+000 -4.5425635E+001 0.0  2.6798809E-001 -3.6027694E+000 0.0 -3.0999921E+000 -3.0609328E+001 0.0 -3.4797027E+002 -6.3227838E+001 0.0 -4.0308337E+002 -4.7354905E+000 0.0 -3.6856193E+002 -2.3883883E+001 0.0 -4.8178365E+002  1.1054231E+002 0.0  5.1790297E-002 -1.8983640E+000 0.0 -1.7791911E+001 -6.6368422E+001 0.0 -2.4896600E+001  4.7708720E+002 0.0 -5.3268223E+002  1.9646332E+002 0.0 -3.7701828E+001 -1.0436282E+002 0.0  6.1909706E+000  3.8965518E+002 0.0  2.7622701E-001  1.1703113E+001 0.0  2.5390544E+001  2.8536114E+002 0.0 -1.2338706E-002  1.6796455E+001 0.0  8.0513865E-001  2.1744138E+001 0.0 -1.6778804E+002 -1.9014276E+002 0.0  1.7515128E+001  1.4444219E+002 0.0  1.1026723E+000  4.3129626E+001 0.0  1.4856362E+001  1.2603893E+002 0.0  1.3528022E+001  1.1068617E+002 0.0  1.1261180E+001  1.0420292E+002 0.0  4.8710098E-003  9.8046913E-002 0.0  1.6614574E-001 -1.0468091E+000 0.0  8.2491134E-002  2.9822455E+000 0.0 -3.2859196E+001 -1.3556728E+001 0.0  4.9900452E-004  9.7215301E-001 0.0  1.6078123E+001  2.4748594E+002 0.0 -5.5718733E-002 -4.7674567E-001 0.0  5.3161628E-002  3.6425271E-001 0.0 -4.5560454E-003  1.9558186E-001 0.0 -9.5658155E-003 -8.8675782E+000 0.0 -5.1661976E-002  1.8191789E+000 0.0 -5.0011503E+000  1.1833906E+002 0.0 -3.5587398E-002  2.2940819E-003 0.0  1.5168887E+000  1.0206337E+001 0.0 -5.4838847E+002  3.8774652E+002 0.0 -1.5522864E+000 -2.1200777E+000 0.0  4.3713264E-002  3.0083351E-001 0.0  2.2191577E+001  1.7236234E+002 0.0 -8.5724914E+000  3.9845632E+002 0.0 -4.4351826E+001  2.6253161E+002 0.0  1.9487260E-001  8.3423911E+000 0.0  2.8412512E+000  1.7897224E+001 0.0  2.2912196E+000  1.4045814E+001 0.0 -1.8671280E-002  2.7042121E-001 0.0  7.6907798E-001  9.1135802E+000 0.0  3.7838499E-003 -1.4936363E+000 0.0 -1.9993785E+001 -6.9132260E+000 0.0 -5.5137978E+002  2.9518355E+002 0.0 -6.0622723E+002  8.2461273E+002 0.0 -1.0133895E-002  1.0536870E-001 0.0 -1.2104003E-001 -3.3459644E-001 0.0 -6.1492679E-003  6.8117649E-002 0.0 -1.9990092E+002  6.2533272E+001 0.0  2.4175542E-001  5.9345937E+000 0.0  1.7984560E+001  1.4511328E+002 0.0 -2.2846331E-003  1.1210048E-002 0.0  8.7547903E-003 -4.7086736E+000 0.0 -8.6850309E-001 -1.5624139E+001 0.0 -9.9932992E+001 -1.7112395E+002 0.0  3.8821935E-002  3.5396880E+000 0.0 -1.5626044E-002  5.2983990E-002 0.0 -1.5539608E-001 -1.0399697E-001 0.0 -1.5743127E+001  1.2949842E+002 0.0 -9.0420413E-002 -1.4648088E-001 0.0  2.2921023E+000  6.1092207E+001 0.0 -1.5872097E-003  2.8568301E-003 0.0  4.6909770E-002  2.3125481E+000 0.0 -1.4155555E+001 -5.0420531E+001 0.0  4.8499851E+000  4.7216847E+001 0.0 -6.6816232E-002 -6.1681354E-001 0.0  5.3579234E-001  1.9553825E+001 0.0 -1.7338044E-003  3.5287029E-003 0.0 -9.4287991E+001 -9.2064730E+000 0.0 -3.9099912E+000  5.4505377E+001 0.0  7.7926888E-002  2.6254166E+000 0.0 -3.2672297E+002 -5.2653380E+001 0.0  2.0202893E-001  6.2242402E+000 0.0  2.6114240E-001 -6.5678689E+000 0.0 -3.1753966E+001 -3.3729664E-001 0.0 -1.8132774E-002  1.0037174E+001 0.0 -1.7131210E+002  7.8726929E+001 0.0 -3.1465802E+001 -7.6027000E+001 0.0 -7.3698538E+000 -3.4838538E+001 0.0 -9.8916955E+001  5.6017525E+002 0.0  4.0347605E-001  7.3814652E+000 0.0 -1.1021240E+002  2.7080753E+001 0.0 -3.9111527E+002  1.4301087E+001 0.0  1.7438887E-001 -3.3424058E+000 0.0  4.0807341E+000  5.9568431E+001 0.0  7.3498381E-002 -1.9094909E+000 0.0 -3.4502215E-002 -1.0331317E+000 0.0  7.0956761E-001  3.3687212E+001 0.0 -1.6516463E+000 -1.9881119E+001 0.0 -6.9558123E-003  4.1446609E-002 0.0  5.7966821E-001  2.6333177E+001 0.0 -4.0071760E+001 -9.9556247E+001 0.0  1.3024132E+001  9.6807125E+001 0.0 -2.8550500E+002 -1.6687541E+002 0.0 -1.7873388E-001  3.5209123E+000 0.0  3.9822197E-002  1.5012741E-001 0.0  3.1735116E-001  4.9628437E+000 0.0 -3.0236729E-002  1.7926494E+001 0.0  3.9740238E+000  3.6880884E+001 0.0 -1.4002983E+002  6.2945899E+002 0.0 -4.8994374E-003  5.5917509E-003 0.0  1.9850414E+000  1.5443280E+001 0.0  4.5547148E-001  7.4843929E+000 0.0 -3.9228651E-002 -2.6063839E-001 0.0 -1.3480452E+001  9.6928741E+001 0.0 -6.0383061E-003  1.6559081E-001 0.0 -6.9164884E-002 -6.8819501E-001 0.0 -5.4283795E+002  2.3547122E+002 0.0 -3.2142545E+000 -2.4274568E+001 0.0  2.4278132E-001 -4.6728634E+000 0.0 -9.2995661E-002 -3.4370161E-001 0.0 -1.9423538E+002 -1.7543963E+002 0.0 -2.4563389E+001  4.3277034E+002 0.0 -4.7751440E+002  1.4068128E+002 0.0 -4.4827100E+002  9.9153955E+001 0.0 -6.9312262E+001 -1.4196280E+002 0.0 -2.8455120E+002 -4.2224924E+001 0.0 -4.5257993E+002  4.5905761E+001 0.0 -8.9641065E-002 -1.4795253E-001 0.0  9.5828909E-002  1.3571561E+001 0.0 -3.7127510E-001 -4.9080056E+000 0.0 -4.8583384E+002  7.7737028E+002 0.0  2.9735507E+000  3.5141789E+002 0.0 -4.6914127E+002  1.9167534E+002 0.0 -2.8867767E-001 -1.0796888E+001 0.0  2.1340148E-001 -4.0453270E+000 0.0  8.3985372E-002  7.8243576E-001 0.0  1.5762135E+000  4.1247059E+001 0.0 -8.0620444E-002 -1.5809809E-002 0.0 -3.6626768E+001  1.5353052E+002 0.0  3.0187102E+000  5.8328734E+001 0.0  1.8269953E-002  4.8342526E-001 0.0  7.8597107E-003  1.5792832E-001 0.0  9.7258791E+000  9.4609776E+001 0.0  2.2342821E+000  1.3847186E+001 0.0 -7.4694293E-002 -8.5516591E-001 0.0  2.1414047E+001  1.4939535E+002 0.0  2.4099259E+000  5.1294986E+001 0.0  7.1185359E+000  8.2094233E+001 0.0  9.8173446E-001  3.2490958E+001 0.0  7.0186281E-003  1.8207007E+000 0.0 -1.3135430E-002  1.0040131E-001 0.0 -2.2632399E-002  1.8239894E-001 0.0 -4.0175741E+001  2.0587155E+002 0.0  2.3312014E-002  4.5609900E-001 0.0  1.0843116E-001 -1.5155061E+000 0.0 -4.6537287E-001 -1.2632775E+000 0.0 -1.7781634E+002 -1.3675775E+002 0.0 -3.7484257E+002  5.7801919E+002 0.0  2.1826748E+001  2.1128790E+002 0.0  1.2047707E+001  7.8560931E+001 0.0 -5.9363684E-004  1.7283752E-003 0.0 -1.5597586E-002  1.0062385E-002 0.0  5.3412447E+000  6.7395508E+001 0.0 -3.5061718E+001 -9.0397035E+001 0.0  5.2749374E-003 -1.3936330E+000 0.0  6.3316914E-002  4.5858086E+000 0.0  1.7436690E-002  1.1451102E-001 0.0 -1.4712231E-003  5.1572986E-003 0.0  2.9147026E-001  3.8141459E-001 0.0  1.6639039E-001  1.4889271E+001 0.0 -5.9312064E+002  5.9964823E+002 0.0  1.5464263E+000  4.2630381E+001 0.0 -2.3595315E+002 -5.0085982E+001 0.0  1.9428660E-001  4.0803080E+000 0.0 -7.6820750E+001 -1.9226104E+001 0.0 -2.9045930E+002  1.4838073E+002 0.0 -4.2757670E+002  3.8456687E+001 0.0 -7.6376307E+001 -1.1154886E+002 0.0 -1.8089943E+001 -5.8407096E+001 0.0  8.4316701E-002 -2.2632087E+000 0.0 -2.6724499E+000 -1.6759151E+001 0.0 -5.9465071E-002 -2.9079842E-002 0.0  8.8414253E+000  6.5128626E+001 0.0 -8.2653896E+001 -1.3977618E+002 0.0  1.6088270E+001  1.3133521E+002 0.0 -6.0787151E-002  3.2363604E+000 0.0  2.0411200E-002  3.8898581E+000 0.0  1.1725870E-001  4.5831388E+000 0.0  3.5246963E+000  2.8393701E+001 0.0  1.6157897E+001  1.2916032E+002 0.0 -3.2205835E+001  3.4850076E+001 0.0 -3.3476070E+001  1.2451638E+001 0.0 -3.5564814E+001  3.8266628E+000 0.0  8.0198383E-003  1.5954835E+000 0.0  4.8349234E-002  2.9033616E+000 0.0  2.3030875E-001  4.7946108E+000 0.0  7.1389532E-001  7.7559189E+000 0.0  1.8009531E+000  1.5865650E+001 0.0  1.3105881E+000  2.0819785E+001 0.0 -3.0607345E+000  4.1788436E+001 0.0 -2.2318789E+001 -3.2711080E+000 0.0 -1.3265870E+001 -9.8625781E+000 0.0 -1.5331791E+001  5.7867175E+001 0.0  1.9616606E-003  8.9723133E-001 0.0 -1.5494743E+001 -1.5448207E+001 0.0 -1.2992077E+001  4.0763046E+002 0.0 -6.1029066E-003  8.2986630E-002 0.0 -7.9183214E-003  3.8754619E-001 0.0 -5.7328427E+000 -7.4497967E+000 0.0 -2.1497499E+002  1.0202667E+002 0.0 -5.2792831E+001  3.3206380E+001 0.0 -7.3827190E+000 -9.8361317E+000 0.0 -5.2670310E-005  1.8920495E-002 0.0 -3.3994929E+001 -2.3533572E+001 0.0  7.6266448E+000  2.8905570E+002 0.0 -7.4311593E+001  5.2283964E+002 0.0  1.1197454E+001  1.2189343E+002 0.0  1.4684855E+000  1.9666715E+001 0.0 -4.9439918E-003  8.5792939E-002 0.0 -4.8448220E+000 -9.0378041E+000 0.0 -1.4241111E+002  2.2574312E+001 0.0 -3.6222369E+000 -6.9697490E+000 0.0 -2.4065828E-003  1.0834324E-002 0.0 -2.6741663E+002  1.9986892E+002 0.0  4.8034364E+000  5.0383599E+001 0.0  1.3834661E+001  1.9925749E+002 0.0 -1.5107262E+002  5.4344241E+002 0.0 -1.8847837E+001 -6.7910211E+000 0.0 -3.3337112E-002  3.9427754E+001 0.0 -7.4989327E+000  4.7430227E+001 0.0 -2.5938291E+001 -1.4794889E-001 0.0 -2.9936028E+001  7.5483962E+000 0.0 -8.5250627E-003  5.4225715E-001 0.0  2.0216495E+000  2.2058037E+001 0.0 -1.2876984E-002  1.1597179E+000 0.0  2.5741156E-002  1.9722168E+000 0.0  1.0457550E+000  1.0054206E+001 0.0  1.4089589E-001  4.1365767E+000 0.0  4.6221568E-001  6.1456562E+000 0.0 -5.1991718E+001 -2.8416779E+001 0.0  8.0948363E-004  5.6713922E-003 0.0  3.0241461E-001  3.5198167E+000 0.0 -9.3843012E+001 -1.2242435E+001 0.0 -2.5652585E+002  4.8169194E+002 0.0 -3.0809307E+000 -7.3704025E+000 0.0 -2.9447481E-003  1.6797696E-002 0.0 -3.8542426E+000 -7.1893770E+000 0.0 -5.7623432E+000 -7.4897349E+000 0.0 -6.3379453E+000 -7.8395910E+000 0.0 -7.3397366E+000 -6.3094921E+000 0.0 -6.8287120E+000 -6.6214935E+000 0.0 -8.7074011E+000 -5.0836632E+000 0.0 -8.7875684E+000 -4.4807916E+000 0.0 -1.0437933E+001 -3.0505406E+000 0.0 -1.0147378E+001 -2.3990731E+000 0.0 -1.2166373E+001 -4.6293452E-001 0.0 -1.1524752E+001  6.7066079E-001 0.0 -1.3463503E+001  2.7816419E+000 0.0 -1.2572535E+001  4.2348927E+000 0.0 -1.4609319E+001  7.2361517E+000 0.0 -1.3536768E+001  9.3268051E+000 0.0 -1.5207415E+001  1.3059673E+001 0.0 -1.3759893E+001  1.5315513E+001 0.0 -1.5245564E+001  2.0677553E+001 0.0 -1.4341063E+001  2.3663318E+001 0.0 -1.4804998E+001  3.0950393E+001 0.0 -1.4169771E+001  3.4311059E+001 0.0 -1.3627678E+001  4.4174723E+001 0.0 -1.4503406E+001  4.8171348E+001 0.0 -1.2593973E+001  6.1520202E+001 0.0 -1.5539604E+001  7.4333991E+001 0.0 -1.8508478E+001  5.3189624E+001 0.0 -2.1871720E+001  8.5633647E+001 0.0 -2.5675817E+001  5.9842487E+001 0.0 -3.1216066E+001  9.7657220E+001 0.0 -3.5491268E+001  6.6903628E+001 0.0 -4.4411310E+001  1.0726301E+002 0.0 -4.9196960E+001  7.1238320E+001 0.0 -6.0263906E+001  1.1722892E+002 0.0 -1.1429098E+001  5.0168247E+001 0.0 -9.9393258E+000  6.8803788E+001 0.0 -8.9540875E+000  5.8218725E+001 0.0 -6.5990652E+000  7.3777439E+001 0.0 -5.9557447E+000  6.6768063E+001 0.0 -4.1303049E+000  8.2499644E+001 0.0 -2.8542271E+000  7.2216586E+001 0.0 -4.7389235E+000  9.2228124E+001 0.0 -8.1214706E-001  9.0029819E+001 0.0 -5.6907451E-002  7.6322308E+001 0.0 -1.2694231E+001  5.4274871E+000 0.0 -6.5018777E+001  7.6668778E+001 0.0 -1.1985209E+001  4.4478161E+001 0.0 -3.5805747E+000  6.2591522E+001 0.0 -6.1501298E-001  6.5683304E+001 0.0 -1.6158678E+001  1.5929938E+001 0.0  1.7924156E+000  7.9673558E+001 0.0  2.3062732E+000  6.9433102E+001 0.0 -3.1647058E-001  5.7869970E+001 0.0  2.2580925E+000  6.0805555E+001 0.0 -3.4237364E-001  5.2683172E+001 0.0  2.0241662E+000  5.1896957E+001 0.0  3.8611527E+000  6.1093424E+001 0.0  4.0632153E+000  5.2158708E+001 0.0  2.5650950E+000  4.4669415E+001 0.0  4.2763780E+000  4.4157828E+001 0.0  2.8068529E+000  3.9168708E+001 0.0  3.9456139E+000  3.6493437E+001 0.0  4.6542604E+000  4.3587562E+001 0.0  4.6838745E+000  3.5830818E+001 0.0  4.7968692E+000  6.2595755E+001 0.0  3.9192835E+000  3.0097699E+001 0.0  4.2212648E+000  2.8770294E+001 0.0  4.6837943E+000  3.5261328E+001 0.0  3.9869922E+000  2.6410151E+001 0.0  4.2085627E+000  3.4580430E+001 0.0  3.5433282E+000  2.6428586E+001 0.0  3.2217598E+000  2.0237933E+001 0.0  2.6775452E+000  2.0478411E+001 0.0  2.6029060E+000  1.5858009E+001 0.0  2.4414994E+000  1.4800813E+001 0.0 -8.3113962E+001  1.1855181E+002 0.0 -2.9909874E+000  5.2349634E+001 0.0  3.4969250E+000  2.5188593E+001 0.0 -1.4814591E+001  3.5867583E+000 0.0  2.4075324E+000  1.9484982E+001 0.0  2.0982771E+000  1.3870466E+001 0.0  3.4745936E+000  3.5500783E+001 0.0  1.7255203E+000  1.1389091E+001 0.0  1.4983416E+000  1.0313317E+001 0.0  1.5026097E+000  1.3451773E+001 0.0  1.2034647E+000  9.2816625E+000 0.0  9.5296280E-001  1.2527542E+001 0.0  9.0023829E-001  8.4670519E+000 0.0  8.5717860E-001  6.9707173E+000 0.0  6.4041188E-001  5.9420094E+000 0.0  5.1425089E-001  7.6615371E+000 0.0  4.0239428E-001  5.1773741E+000 0.0  4.2801300E-001  4.4536128E+000 0.0  2.5408934E-001  3.6345363E+000 0.0  2.2498068E-001  4.4104482E+000 0.0  1.1452019E-001  2.8666280E+000 0.0  6.8651879E-002  3.6502666E+000 0.0  6.6482831E-002  2.1709488E+000 0.0  1.2384335E+000  8.8853707E+000 0.0  1.2010129E-001  2.0310769E+000 0.0  4.2426329E-002  1.5098822E+000 0.0 -3.7353189E+001  1.3735248E+002 0.0 -3.8726526E+001  4.5071564E+001 0.0 -8.9317579E+001  8.1782000E+001 0.0  1.5929389E+000  9.5379568E+000 0.0  2.2356759E-001  3.3019198E+000 0.0  3.1021125E-001  3.9625312E+000 0.0  1.6088526E-002  2.6768726E+000 0.0 -1.1576322E+001 -2.3675758E+000 0.0 -7.2225205E+001  1.6107439E+002 0.0  1.0898182E-001  5.2672709E+000 0.0 -6.6849332E+001  4.8847787E+001 0.0 -9.9948664E+001  1.6095242E+002 0.0  3.3796227E+000  8.6053189E+001 0.0 -3.0278852E+000  4.8834215E+001 0.0  6.3677857E-002  1.4420583E+000 0.0  3.8901024E-002  1.0537480E+000 0.0  2.0452524E+000  1.7486908E+001 0.0  7.1248345E-001  1.6403463E+001 0.0  4.3310874E-003  1.1481433E+000 0.0  8.0173180E-003  7.5068518E-001 0.0  6.0184770E+000  4.4526630E+001 0.0  3.3885439E+000  2.7232217E+001 0.0 -2.0982031E+001  3.7988102E+001 0.0  3.0105987E+000  2.3041670E+001 0.0 -6.2647074E+000  4.8727199E+001 0.0  4.4230509E+000  1.0040915E+002 0.0  2.1561043E-001  3.1105785E+000 0.0  1.0570251E+000  7.9159933E+000 0.0  4.4109825E-002  7.9177708E-001 0.0 -1.7266436E-003  5.2138739E-001 0.0 -7.0298202E-003  5.1058965E-001 0.0 -8.2809909E+000 -5.8301210E+000 0.0  2.7619740E-001  3.5031715E+000 0.0 -2.7261983E-003  3.2297274E-001 0.0  2.8120239E+000  2.5002593E+001 0.0  1.2431965E+000  8.3992096E+000 0.0 -9.2878138E+001  5.6750723E+001 0.0 -1.4590495E+001  1.7312786E+001 0.0 -6.8841703E+001  2.8408181E+001 0.0 -1.0315651E+001 -1.7280069E+000 0.0 -8.6973133E+001  2.1707334E+002 0.0 -1.2463228E+002  2.2239967E+002 0.0  7.9413346E-002  1.8540985E+000 0.0  6.5147793E-002  1.4712765E+000 0.0  6.9807375E-002  1.7630892E+000 0.0 -5.6129905E+000  4.6591580E+001 0.0  1.2173600E-002  3.7304072E-001 0.0 -3.4276675E-003  2.2527053E-001 0.0  2.5288282E+000  2.1681628E+001 0.0  2.7132920E+000  1.9899986E+001 0.0 -1.6758399E+001  1.0545024E+002 0.0  2.2218552E+000  2.9324848E+001 0.0 -9.9283222E+000  4.6853921E+001 0.0 -9.5797682E+000  4.8016890E+001 0.0  4.9078618E+000  1.0734975E+002 0.0  7.2597747E+000  1.2863361E+002 0.0  1.4729891E+000  1.0229153E+001 0.0  1.3673837E+000  9.1585249E+000 0.0  1.5674271E+000  1.0971414E+001 0.0 -1.3762910E+002  1.6562399E+002 0.0  1.7634351E-001  2.9825465E+000 0.0  8.7844341E-001  7.1525333E+000 0.0  8.0008924E-001  6.7541595E+000 0.0  3.2099602E-001  4.4126412E+000 0.0  3.0327686E-001  3.9112355E+000 0.0  3.6120547E-001  4.7480255E+000 0.0  3.5914924E-001  4.3177940E+000 0.0  1.0828203E+000  4.1129376E+001 0.0 -6.6249612E+000 -6.9037003E+000 0.0 -8.1284877E+000 -6.5661348E+000 0.0 -9.2993165E+001  3.1569473E+001 0.0 -1.1581108E+002  5.7900074E+001 0.0 -1.4321185E+001  4.6592128E+001 0.0 -1.2805841E+001  4.6074526E+001 0.0 -1.7780953E+001  4.4547679E+001 0.0 -1.5191619E+001  4.3917904E+001 0.0 -2.0537240E+001  4.1060950E+001 0.0 -1.6790233E+001  4.1246193E+001 0.0 -2.1501010E+001  3.7388293E+001 0.0 -1.3273342E+001  4.6242237E+001 0.0 -1.7579796E+001  3.8740676E+001 0.0 -2.1784090E+001  3.3857623E+001 0.0 -1.7941567E+001  3.5442821E+001 0.0 -2.0490389E+001  3.0838908E+001 0.0 -1.5138763E+001  4.2361452E+001 0.0 -2.4900247E+001  2.9070505E+001 0.0 -2.3042461E+001  2.6119996E+001 0.0 -1.9801799E+001  2.7979344E+001 0.0 -2.2175936E+001  2.2811198E+001 0.0 -1.8903481E+001  2.5749841E+001 0.0 -2.0100626E+001  2.0243014E+001 0.0 -2.3525721E+001  1.7821757E+001 0.0 -2.0932644E+001  1.6105403E+001 0.0 -2.4086735E+001  1.3675875E+001 0.0 -2.1326558E+001  1.2580913E+001 0.0 -2.5949942E+001  1.6033349E+001 0.0 -1.7979841E+001  2.2700534E+001 0.0 -9.9492107E+000 -5.4011652E+000 0.0 -9.1181680E+000  4.9894315E+001 0.0  2.0112865E+000  2.7404067E+001 0.0  1.0798462E+000  3.1465906E+001 0.0  5.7584060E-002  1.4447365E+000 0.0  2.6438017E-002  1.1954397E+000 0.0  1.2131473E-002  2.7113954E-001 0.0  1.8803696E-003  1.5480075E-001 0.0 -1.2280465E-003  3.9540336E-001 0.0 -2.4094006E+001  1.0122982E+001 0.0 -2.1818534E+001  9.1339153E+000 0.0 -1.9957431E+001  1.1272335E+001 0.0 -1.9794571E+001  7.7483381E+000 0.0 -2.2064293E+001  6.1673802E+000 0.0 -1.9625675E+001  5.2645877E+000 0.0  5.6290878E-002  1.7161425E+000 0.0 -1.0490471E+002  2.9282652E+002 0.0 -7.3424211E+001  2.6572359E+002 0.0 -1.4775205E+002  2.9507653E+002 0.0  1.3630623E-001  2.5785982E+000 0.0  6.8999411E-001  6.2391594E+000 0.0  6.0582862E-001  5.7883699E+000 0.0  6.4501111E-001  6.3009893E+000 0.0 -4.9177699E-003  2.7600780E-001 0.0 -2.1518136E-002  4.7806633E-001 0.0  2.3657609E+000  1.8542492E+001 0.0  2.5279904E+000  1.6872214E+001 0.0  2.6454198E+000  1.8592565E+001 0.0  2.3484922E+000  1.5380025E+001 0.0  2.1882296E+000  1.4825452E+001 0.0 -1.8459325E+001  9.4692508E+000 0.0 -1.6418727E+001  2.9867415E+001 0.0  1.4963017E+000  9.8657190E+000 0.0  1.1228885E-001  2.5242588E+000 0.0 -6.9563417E+001  7.7611439E+000 0.0 -5.3228936E+001  8.4291943E+000 0.0 -2.6766010E+001  2.4047682E+001 0.0  6.4588822E-003  1.9587543E-001 0.0  2.0118435E-003  2.1193403E-001 0.0 -3.4119887E-003  1.2438654E-001 0.0 -9.1811724E+001  1.2799951E+001 0.0  1.6980933E+000  1.1645525E+001 0.0 -6.0791428E-003  7.7227107E-002 0.0 -6.2112022E-002  4.5368352E-001 0.0  5.2047881E-001  5.4900536E+000 0.0 -2.1848253E+001  3.6970688E+000 0.0 -1.9723636E+001  2.7249212E+000 0.0 -2.4150316E+001  5.2491943E+000 0.0 -1.8102856E+001  4.2233579E+000 0.0 -1.7595218E+001  1.7110416E+000 0.0 -1.9642101E+001  3.3319234E-001 0.0 -1.7262028E+001 -5.0319318E-001 0.0 -1.5971992E+001  5.7882227E-001 0.0 -1.5181610E+001 -1.3897798E+000 0.0  1.1045147E+000  8.6636113E+000 0.0  7.8755009E-001  6.7086358E+000 0.0 -8.8412377E+000  4.6408292E+001 0.0 -4.8481022E+000  4.4566138E+001 0.0 -7.4858741E+000  4.4948062E+001 0.0 -3.7661680E+000  4.1947721E+001 0.0 -1.7010428E+001 -2.7724241E+000 0.0 -1.4346904E+001 -3.2256798E+000 0.0 -9.8637457E+000 -6.5522536E+000 0.0  1.0438591E+000  2.6999015E+001 0.0  5.7230597E-001  2.3008910E+001 0.0 -2.8730636E+001  2.8195741E+001 0.0  2.4372602E-001  3.7544594E+000 0.0  2.8215138E-001  4.1719366E+000 0.0  1.8903819E+000  1.2836974E+001 0.0  4.3930342E-001  5.0757527E+000 0.0  9.8550122E-002  2.2312807E+000 0.0  1.0376420E+000  2.9978264E+001 0.0  1.0269032E-001  3.3789421E+001 0.0  1.4894818E+000  2.6917412E+001 0.0  1.6121428E+000  1.0804316E+001 0.0  5.8953780E-001  3.4688379E+001 0.0  4.7347497E-002  1.4785760E+000 0.0  2.3231793E+000  2.0189092E+001 0.0  1.4752300E-001  2.7989473E+000 0.0  8.4346948E-002  2.5906305E+000 0.0 -1.0286076E+001  4.9056449E+001 0.0 -8.5699623E+000  5.4506164E+001 0.0 -1.5361316E+001  3.8505341E+001 0.0 -1.3638586E+001  3.9007628E+001 0.0  4.6434913E+000  1.4243567E+002 0.0  7.8485831E+000  1.0821214E+002 0.0  2.5205141E+000  1.7844740E+001 0.0  1.0159430E-001  2.2387667E+000 0.0 -7.1776218E-003  1.7777848E-001 0.0 -6.4535874E+000 -7.1105076E+000 0.0 -5.0948978E+000 -7.1770689E+000 0.0  5.0437237E-001  1.2070800E+001 0.0 -1.5899742E+001  2.6005948E+001 0.0 -5.3212471E+001 -6.9838541E+000 0.0 -1.1754157E+001 -5.0069912E+000 0.0 -1.2181765E+001 -6.6269268E+000 0.0  3.1266535E+000  2.0767501E+001 0.0 -2.3945061E+001  4.4589900E+001 0.0  5.4459486E+000  1.7692255E+002 0.0  1.8968875E+000  1.5062905E+002 0.0  4.6123617E-001  5.0789804E+000 0.0  5.4205621E-001  5.5560847E+000 0.0 -1.4983834E-002  8.4311819E-001 0.0 -1.0454297E-001  8.7824244E-001 0.0  2.2230142E+000  2.5739510E+001 0.0  3.2475765E+000  3.9860608E+001 0.0 -1.6248238E+001 -4.6683271E+000 0.0 -9.9642229E-001  3.7255278E+001 0.0 -1.5766644E+000  3.6752555E+001 0.0 -5.7593015E+000  4.3647351E+001 0.0 -1.2053511E+002  3.7962349E+002 0.0 -1.7177931E+002  4.1395023E+002 0.0 -2.0176911E+002  2.9395877E+002 0.0  2.2160340E+000  1.8335744E+001 0.0 -1.5966916E+001  9.5452668E+000 0.0  5.8003386E+000  7.2987498E+001 0.0 -3.5467326E+000  5.6414877E+001 0.0 -6.3357247E+000  5.5482496E+001 0.0  1.7813601E+000  1.2285958E+001 0.0 -1.8045921E+001  1.3192831E+001 0.0  7.1525390E-002  4.6651575E+001 0.0  2.3130757E-001  3.3911170E+000 0.0  1.8034759E-001  3.4305110E+000 0.0  2.6229599E-001  2.8111195E+000 0.0 -1.1133674E+001 -4.0420091E+000 0.0 -1.3647329E+001 -2.0092030E+000 0.0  3.7396299E-002  1.7471376E+000 0.0 -2.3076375E+002  4.0204057E+002 0.0  1.4706128E+000  1.1116194E+001 0.0 -1.3676664E+001  6.9748878E-001 0.0  3.1871123E-002  1.0660786E+000 0.0  3.0116716E-002  8.2586195E-001 0.0  2.0235991E-002  6.2190981E-001 0.0  1.5881295E-002  6.6652724E-001 0.0 -1.3855924E-003  8.5696249E-001 0.0  1.4261676E-002  7.2079772E-001 0.0  3.9645326E-003  5.5585547E-001 0.0 -1.4985038E+000  4.1918049E+001 0.0 -4.0333308E+001 -8.9852108E+000 0.0 -4.1407649E+001  1.0584723E+001 0.0 -3.1225408E+001 -8.2754298E+000 0.0 -3.1108965E+001  1.1164823E+001 0.0 -2.4506321E+001 -5.9372676E+000 0.0 -2.4079671E+001  9.4823398E+000 0.0 -2.6416021E+001  1.1747300E+001 0.0 -2.6474270E+001  8.9513932E+000 0.0 -2.9173836E+001  1.4239602E+001 0.0 -2.8189112E+001  1.7524306E+001 0.0 -2.5601209E+001  1.9804382E+001 0.0 -3.7378660E+001  1.8652283E+001 0.0 -2.4293573E+001  7.1210506E+000 0.0 -2.6968660E+001  3.3361595E+001 0.0 -2.7699494E+001  6.5216681E+000 0.0  1.1504473E+000  7.7079667E+000 0.0 -7.7499863E+000 -7.3307415E+000 0.0  1.2908874E+000  9.4372819E+000 0.0  8.8176094E-001  7.7659093E+000 0.0  9.1058013E-001  7.8234834E+000 0.0  1.0575356E+000  8.0264324E+000 0.0  1.0590389E-002  3.2390630E-001 0.0  2.1555895E+000  1.3130832E+001 0.0  6.1814976E-001  6.1050418E+000 0.0  5.0038303E-001  5.9897617E+000 0.0 -2.8013847E+001  3.9922954E+001 0.0 -3.0248384E+001  2.2263668E+001 0.0 -4.6419747E+001  3.5402355E+001 0.0  3.8801031E-001  5.0866831E+000 0.0  2.3990487E+000  1.6292805E+001 0.0  1.8764883E+000  1.4112773E+001 0.0  3.5113414E-002  1.2250577E+000 0.0 -1.3402716E+001  4.6092881E+001 0.0 -9.7290590E+000 -7.6548492E+000 0.0  8.7443384E-002  2.2023504E+000 0.0 -7.1214491E+000 -7.1610241E+000 0.0  2.2901765E+000  2.4246501E+001 0.0  1.6210242E+000  2.3307841E+001 0.0  1.1128791E+000  3.2718523E+001 0.0  5.6267800E-001  5.4466674E+000 0.0 -3.1177962E+001  4.6643869E+000 0.0 -2.3724612E+001  5.3006639E+001 0.0  1.6937417E-001  2.6488504E+000 0.0  6.3950833E+000  7.9566589E+001 0.0  7.1577479E+000  9.7022365E+001 0.0  5.6986196E+000  6.3863918E+001 0.0  6.4662597E+000  7.5437626E+001 0.0 -9.8184962E+000  4.3740250E+001 0.0  8.4412095E-003  2.7600329E-001 0.0 -1.9840021E-003  1.4332208E-001 0.0  1.0701684E-002  1.1095482E-001 0.0 -2.2969950E-003  5.3122418E-002 0.0  2.9551978E+000  3.2385074E+001 0.0  3.2622071E-001  4.5907066E+000 0.0 -5.1928548E-002  1.6955311E+001 0.0  5.6943488E-001  8.3998765E+000 0.0 -2.4945931E+001 -1.9190278E+001 0.0  2.4940367E+000  2.3192055E+002 0.0 -2.0791008E+000  1.8045976E+002 0.0 -4.0390636E+000  2.7693079E+002 0.0 -1.0484936E+001  2.2006357E+002 0.0 -5.6107439E+000  1.4794433E+002 0.0 -1.6134436E+001  1.7873342E+002 0.0 -2.0321669E+001  2.6480780E+002 0.0 -2.6342043E+001  2.0018783E+002 0.0 -3.2183246E+001  3.0044475E+002 0.0 -4.0947061E+001  2.2825705E+002 0.0 -4.7821283E+001  3.1609284E+002 0.0 -4.0791721E+001  3.8918089E+002 0.0 -2.0219422E+001  1.4647597E+002 0.0  5.3959940E-001  1.2463774E+002 0.0 -9.1733916E+000 -1.1204223E+001 0.0 -9.9725277E+000 -5.0966628E+000 0.0 -1.2120490E+001 -6.3904422E+000 0.0 -1.2623413E+001  1.9823470E+000 0.0 -1.5162515E+001  1.1007381E+000 0.0 -8.1714971E+000 -6.7270989E+000 0.0 -1.5421386E+001  1.1379582E+001 0.0 -1.9057695E+001  1.1539358E+001 0.0 -3.7222764E-003  3.0068994E-002 0.0 -6.7181954E-004  9.5117332E-001 0.0  2.2290234E+000  1.8496505E+001 0.0  1.4983810E+000  1.3526333E+001 0.0 -2.8459683E+001  7.1120281E+001 0.0 -7.5729747E-002  2.6597009E-001 0.0 -1.9468029E+001 -4.9646305E+000 0.0 -2.3219182E+001  2.5848861E+001 0.0 -2.9076450E-001  3.3439796E+001 0.0 -3.5299321E+001  3.3850936E+001 0.0 -1.9335296E+001 -1.6925003E+000 0.0 -7.8518968E+000 -6.1052387E+000 0.0 -2.1825007E+001  1.6547043E+000 0.0 -2.2576029E+001 -9.2954345E-001 0.0 -1.0223856E+001  8.5156490E+001 0.0 -1.6945028E+001  2.0429454E+001 0.0 -1.3737695E-001  7.2669620E-001 0.0  7.8044051E-002  1.9546961E+000 0.0 -8.8045891E-002  6.2987721E+000 0.0 -3.0014590E-001  4.7228898E+000 0.0 -1.2286683E-002  6.4375765E-002 0.0  9.0365698E-002  2.0507107E+000 0.0 -3.7133262E-003  4.7643233E-002 0.0 -3.0664291E-003  9.5973101E-002 0.0 -2.4278804E+001  3.0150936E+000 0.0 -2.7279625E-002  1.5967594E+000 0.0 -4.2569356E-002  2.0301724E+000 0.0 -5.2735482E+000 -7.3548966E+000 0.0 -1.6098088E-003  1.7150636E-002 0.0 -2.0203328E+001 -4.3964251E+000 0.0 -1.3936693E+001  5.1934010E+001 0.0 -1.2703893E+001  3.2089918E+002 0.0 -1.8715423E-002  3.8061385E+001 0.0 -5.0632120E+000 -8.2992747E+000 0.0 -5.0384746E+001  1.5613228E+002 0.0 -4.0947093E+001  2.8082574E+001 0.0 -6.1397904E+001  1.9846251E+002 0.0 -1.1254695E+002  1.1961804E+002 0.0 -1.4240739E+002  1.1494054E+002 0.0 -1.7695446E+002  1.7084552E+002 0.0 -1.8147472E+002  1.1699841E+002 0.0 -2.1640442E+002  1.6645323E+002 0.0 -1.7195981E+002  7.3518576E+001 0.0 -1.2028951E+002  8.9782349E+001 0.0 -5.4826919E+001  4.7437895E+001 0.0 -1.7337836E+002  2.3226732E+002 0.0 -1.1705049E+002  3.5217397E+001 0.0 -8.5440506E+001  3.5313871E+002 0.0 -6.9597879E+001 -5.1527640E+000 0.0 -8.6498034E+001 -2.5518056E+000 0.0 -5.5035399E+001  2.8748672E+001 0.0 -4.6723702E+001  4.5714022E+002 0.0  4.6996380E+000  6.0526457E+001 0.0 -1.7531545E+002  4.2164720E+002 0.0 -3.0155383E+002  3.5083043E+002 0.0  8.8569853E+000  2.0449786E+002 0.0  7.5641980E-001  2.8315745E+001 0.0  6.4418529E+000  7.6013457E+001 0.0  8.3558990E+000  7.9941482E+001 0.0  1.0883735E+001  1.3376146E+002 0.0 -1.0223026E+002  1.4792475E+000 0.0 -1.6163835E+002  4.5859321E+001 0.0 -1.0339072E+002  4.5394605E+002 0.0 -2.1683438E+002  2.3965973E+002 0.0 -1.1234081E+002  1.5060062E+001 0.0 -4.9514500E+000 -7.2495524E+000 0.0 -3.9196475E+000 -7.1999098E+000 0.0  2.1662156E-001  3.7803307E+000 0.0  2.8058646E-001  4.7571742E+000 0.0 -1.3548873E+001 -4.8903144E+000 0.0 -1.5592209E+001 -7.1159368E+000 0.0 -6.2139058E+001  8.5576099E+001 0.0  5.1163724E-003  1.2653984E-001 0.0 -1.3565958E-003  2.7210449E-002 0.0 -1.5128059E+001  1.1121930E+002 0.0 -5.8926836E+001 -1.8951203E+001 0.0 -4.7679099E+000  1.0202390E+002 0.0 -6.3585451E+001 -7.3963845E+000 0.0 -7.2861774E+001  1.3163134E+000 0.0 -8.2839967E+001  2.3344497E+001 0.0 -2.8252646E+001  1.0613275E+001 0.0  2.3980030E-002  1.0660630E+000 0.0  4.8814553E-002  1.8874987E+000 0.0  1.7201335E+000  3.7842019E+001 0.0  3.6671056E-002  2.7059488E+000 0.0 -3.0334386E-003  1.1990179E+000 0.0  4.5587534E+000  5.1350860E+001 0.0  8.2485186E-002  3.4019068E+000 0.0  4.2612344E-002  3.2152465E+000 0.0  1.3058882E-001  4.8003217E+000 0.0  2.4603431E-002  2.0783536E+000 0.0  2.2614502E+000  1.9641277E+001 0.0  3.5203024E+000  2.8769813E+001 0.0  2.5052251E-001  7.4832674E+000 0.0  3.0942696E-001  8.2691661E+000 0.0  1.4813852E+000  1.5920782E+001 0.0  5.6152190E+000  5.4487938E+001 0.0 -2.7875858E+000 -6.6123117E+000 0.0 -1.4428327E+001 -1.5806341E-001 0.0 -6.1969466E+001 -2.5562982E+001 0.0 -3.7848941E+001 -2.1680421E+001 0.0  1.7208123E+000  3.6583255E+001 0.0 -1.8569612E+001  1.7674177E+001 0.0 -9.9594504E+000 -4.6595015E+000 0.0 -1.6464284E+001  3.1098147E+000 0.0 -1.6941059E+001  5.6845264E+000 0.0 -7.0596930E-002  3.0889504E+002 0.0 -2.6250902E+002  3.0015596E+002 0.0 -1.4987594E+002  8.1528229E+001 0.0 -3.7022035E+001 -2.2896493E+001 0.0 -9.6633805E+000  1.1135726E+002 0.0 -1.4618698E+002  5.3846634E+001 0.0  4.8304557E+000  3.9145401E+001 0.0 -5.3853607E+001  9.9389725E+000 0.0 -1.6737449E+001  3.3654797E+001 0.0 -6.9503316E+001  4.1016449E+002 0.0  1.8842391E+000  1.3546592E+001 0.0  1.8813108E+000  1.5719641E+001 0.0  1.8052072E+000  2.1618428E+001 0.0  2.2080624E+000  1.4970632E+001 0.0  5.7831564E-001  6.2972671E+000 0.0  2.5192729E-003  8.9609732E-002 0.0  1.0384375E-002  1.2718187E+000 0.0  6.2123137E-002  1.6230970E+000 0.0  1.6404296E+000  1.2684674E+001 0.0 -1.5506077E+001  2.3624408E+001 0.0 -8.4500540E-003  3.6862400E-001 0.0  9.5062445E-001  7.2869269E+000 0.0  5.5715025E-001  1.0422035E+001 0.0 -6.1375609E+000  5.1703952E+001 0.0  9.4128759E+000  1.4353310E+002 0.0 -1.4997774E+001  3.5513067E+001 0.0 -1.8122774E+001  7.1632279E+000 0.0  1.7842777E+000  1.1997027E+001 0.0 -7.1383239E+001 -2.3037253E+001 0.0  2.4501394E-001  2.9970210E+001 0.0 -2.4692561E-003  1.0460398E+000 0.0 -1.5095299E-002  9.4710217E-001 0.0  3.5468430E-001  4.8306590E+000 0.0 -1.0495548E+001 -1.0262527E+001 0.0 -7.0420812E-004  1.3450089E-001 0.0  2.8026324E+000  1.0737796E+002 0.0  9.0329135E+000  1.0849868E+002 0.0 -1.9421785E+001  1.5178594E+001 0.0 -5.2694146E+000  2.9530167E+002 0.0 -3.9500997E+001  2.2955674E+001 0.0  1.4290629E-003  1.1148117E-002 0.0 -1.1231684E+001  7.0831774E-001 0.0  3.8538615E-001  5.2841680E+000 0.0  5.6566210E-001  7.8305163E+000 0.0  2.9484671E+000  2.2103601E+001 0.0 -2.1336849E+000  4.5755524E+001 0.0  6.7126512E-002  2.0077016E+000 0.0  6.0831025E-002  3.1542746E+000 0.0 -1.3590233E+001  4.4288994E+001 0.0 -1.2072465E+001  4.7116657E+001 0.0 -9.3165019E+000  5.2211780E+001 0.0 -4.5429822E+000 -6.5125266E+000 0.0 -1.1606687E+001  4.7543739E+001 0.0  5.6617837E+000  5.5313491E+001 0.0 -5.0246936E+000  4.4285466E+001 0.0  2.8476240E+000  2.8920054E+001 0.0 -5.9679754E+000  5.8058433E+001 0.0 -7.3103548E+001  6.3956519E+001 0.0  3.0009944E+000  2.6663737E+001 0.0 -1.1145734E-002  2.0973700E-001 0.0  1.6343525E+000  3.3284615E+001 0.0 -3.7276260E-002  8.1863086E-001 0.0 -1.7460267E+001  3.3975859E+001 0.0  4.2841040E-002  3.1522921E+000 0.0 -4.1444309E+000 -7.2945008E+000 0.0  2.8565017E+000  1.7329199E+001 0.0  4.7941323E+000  5.2112893E+001 0.0  1.6637678E+000  1.3371790E+001 0.0 -1.4367125E+001  4.4285948E+001 0.0 -2.8505240E+001  3.6718084E+002 0.0  3.7619042E+000  2.3727923E+001 0.0 -3.0226702E+001  4.0462192E+001 0.0  3.4632296E+000  7.4441753E+001 0.0  1.0430854E-001  5.8005916E+000 0.0 -2.0589014E-003  1.3518822E-002 0.0  9.1780616E-001  1.0750944E+001 0.0  7.4737544E-001  7.9285392E+000 0.0 -3.2142351E+001  2.6826216E+001 0.0 -3.1733194E+000  3.9900684E+001 0.0 -7.4391133E+000 -6.4755066E+000 0.0  2.2439269E+000  1.4461943E+001 0.0 -4.4289994E+001  1.8634164E+002 0.0  1.8961025E-003  2.6526584E-001 0.0  2.7566303E-002  1.7978000E+000 0.0  1.2702212E+000  1.6230965E+001 0.0  7.0152139E-001  6.4092715E+000 0.0  3.7572491E-001  6.6543779E+000 0.0  2.3259084E-001  8.3072585E+000 0.0  4.5883463E+000  4.4828409E+001 0.0 -8.2323362E+001  3.3794859E+001 0.0 -1.7442718E+001  3.1843267E+001 0.0  2.0119368E+000  1.8535311E+001 0.0  1.0166765E+000  9.6203589E+001 0.0  7.0476104E-001  6.4073891E+000 0.0  6.9967244E+000  6.2936204E+001 0.0  4.4577964E-002  1.1393267E+000 0.0 -7.3967446E+000  9.1792895E+001 0.0 -2.7660450E+001 -3.1887808E+000 0.0 -6.9653868E+000 -7.9365374E+000 0.0  6.3968226E+000  5.5588966E+001 0.0 -2.8123645E+001  1.2688049E+002 0.0 -2.1942531E+000  1.0538242E+002 0.0 -1.5637442E+002  7.5691885E+001 0.0 -2.5992683E+001  3.5485883E+002 0.0 -1.7542463E+001  2.2856865E+001 0.0 -2.2789414E+002  2.1666867E+002 0.0  4.7493296E-001  5.4458598E+000 0.0 -9.2030502E+000 -3.8601897E+000 0.0 -1.2754237E+001 -3.2510026E+000 0.0 -4.5116350E+001  1.6254475E+002 0.0 -3.4739922E-002  4.1440435E-001 0.0 -1.1604569E+001  1.5113307E+000 0.0 -3.7708423E+000  4.8125071E+001 0.0  9.5637986E-002  3.0406057E+000 0.0 -2.7681328E+001  8.2195031E-001 0.0 -2.8130811E+001  2.1933639E+001 0.0 -1.6481083E+001 -1.0165538E+001 0.0 -1.4478188E+001  1.3741974E+002 0.0 -1.3161954E+001  6.8641987E+000 0.0 -1.6046417E+001  3.7371825E+001 0.0  4.7869153E-001  9.2439570E+000 0.0 -1.4924730E+001  1.6988671E+000 0.0  7.4480014E+000  1.8954752E+002 0.0 -1.9330546E+002  1.2085859E+002 0.0  2.4144298E+000  3.8145255E+001 0.0 -1.4252533E+001  3.3832237E+001 0.0 -1.5219441E+001  3.1406268E+001 0.0  5.2070113E+000  4.4137586E+001 0.0 -1.8788926E+000  3.9892985E+001 0.0  1.1937329E-002  5.1305726E-001 0.0  8.8355816E-003  4.5337950E-001 0.0 -6.0862308E+000 -7.1576512E+000 0.0 -6.9306955E-003  1.0389925E+000 0.0  7.4589201E-001  7.3043940E+000 0.0  1.0036085E+000  8.7995573E+000 0.0  4.0589462E-001  1.1057198E+001 0.0 -1.6395086E+001 -1.5858933E+001 0.0  1.8908029E-001  4.5474971E+000 0.0  1.0848345E+000  1.8857641E+001 0.0 -3.1064608E-002  1.8916718E-001 0.0 -1.7583586E-004  5.5928635E-001 0.0 -1.5665698E+001  2.5230186E+001 0.0 -1.4434892E+002  5.5870809E+001 0.0 -1.3582034E+001  4.1431501E+001 0.0 -1.3601327E+002  3.4240199E+001 0.0  3.3761871E-001  5.6653998E+000 0.0 -7.7738628E+001 -1.6618345E+001 0.0 -5.5564889E+001  2.5980218E+002 0.0 -1.6195179E+000 -4.2810814E+000 0.0 -9.4694689E+000  5.0106992E+001 0.0 -6.7802041E+001  1.1671938E+002 0.0 -4.7563354E-004  6.0451017E-001 0.0 -1.5071673E+001 -7.4517961E+000 0.0 -1.6586481E+001  1.0733420E+001 0.0 -1.6597832E+001  7.9336589E+000 0.0 -2.1042622E+002  1.4974266E+002 0.0 -2.4527638E+001 -7.9298565E+000 0.0  1.1854545E-001  2.3591586E+000 0.0 -3.6834763E+001  1.0669875E+001 0.0  5.4314703E-002  2.3566379E+000 0.0 -3.4025056E+001  1.6975317E+002 0.0 -6.3463445E+001 -2.0492381E+001 0.0 -2.0168408E+002  2.8833704E+002 0.0  1.4952446E-002  1.0038294E+000 0.0 -6.3679870E+000  5.4334864E+001 0.0 -3.3498205E+001  2.1795929E+000 0.0  2.7305455E+000  1.3801758E+002 0.0 -1.6320326E-003  2.9084266E-002 0.0 -3.1422130E+001 -1.8221935E+001 0.0 -5.1606432E+001 -2.0415486E+001 0.0  3.1791072E+000  2.1577206E+001 0.0  8.8625104E+000  6.9708068E+001 0.0  5.6071472E-001  5.7740488E+000 0.0  2.5035161E+000  2.6222779E+001 0.0 -4.7051360E+001 -1.0802746E+001 0.0 -1.4112791E+002  1.6410565E+001 0.0  9.3907494E-001  7.5629036E+000 0.0  4.0369908E-001  1.0878287E+000 0.0 -1.3662781E+001  1.0832911E+001 0.0  1.5810061E+000  2.3661608E+001 0.0 -4.3366911E+001 -1.6080263E+001 0.0 -4.9506317E+000  6.0522557E+001 0.0  4.1569123E-003  3.2307542E-002 0.0  6.6627407E-001  7.8838026E+000 0.0  5.2306218E-002  2.4411540E+000 0.0  4.8056504E+000  5.4907279E+001 0.0 -3.6081351E+001  4.4149769E+001 0.0 -5.8587395E+000  1.1425346E+002 0.0 -9.4791584E+001 -2.4536003E+000 0.0  1.2318490E+000  1.1467292E+001 0.0 -9.8371092E+000 -3.6495310E+000 0.0 -1.2404230E+001 -2.4875850E+000 0.0  2.0125642E+000  1.3899516E+001 0.0 -1.0141021E+002  4.4878734E+002 0.0  2.0605077E+000  2.2559979E+001 0.0  1.5809119E-001  3.1558221E+000 0.0 -1.1813075E+001  4.8398652E+001 0.0  2.2454988E+000  1.1873632E+002 0.0 -5.4848551E-001  3.1239442E+001 0.0  1.3830024E+000  1.1626751E+001 0.0  4.6411309E-002  2.4601733E+000 0.0 -6.8320567E+001  3.2446802E+002 0.0 -2.7351319E+000  4.7062184E+001 0.0 -2.4968466E+001  2.2731476E+001 0.0  6.6434300E-003  6.9359564E-002 0.0  7.1877771E+000  2.1869294E+002 0.0 -1.8492972E-002  1.2400494E+000 0.0  5.0707512E+000  5.2636527E+001 0.0 -2.1741440E+001 -1.7595292E+001 0.0  1.1569847E-001  2.5403679E+000 0.0 -1.4124994E+001  6.7761676E+001 0.0 -9.0232771E-001  4.9526870E+001 0.0 -7.9848543E+000  5.7262852E+001 0.0 -1.7574953E+001  1.6138318E+001 0.0 -1.4033323E+001  3.8454887E+001 0.0 -6.0631420E-001  4.3887929E+001 0.0  2.6517602E-004  4.9278207E-001 0.0 -2.0744116E+001 -1.1937068E+001 0.0 -1.3198564E+002  4.4365210E+002 0.0  2.4436817E+000  3.5860583E+001 0.0 -4.1023570E+000  5.9600028E+001 0.0 -1.5584375E+001  6.3819328E+000 0.0  1.5741406E-001  2.6848866E+000 0.0  1.6904311E+000  1.1378801E+001 0.0 -1.2925319E+001 -1.1113245E+000 0.0  4.4679145E+000  9.0623283E+001 0.0  2.8228237E-002  1.2627450E+000 0.0 -4.0507656E+001  1.7153961E+001 0.0 -1.1036850E+001 -3.4419616E+000 0.0 -1.2004477E-001 -1.6715412E-002 0.0 -6.4261697E-003 -4.4275526E-003 0.0 -1.4009808E+000 -3.7170996E-001 0.0 -2.8639846E-002 -1.0303457E-002 0.0 -3.6519029E-002  7.8339031E-003 0.0 -3.0164480E-001 -1.4162094E-001 0.0 -2.3249509E+000 -2.5773587E-001 0.0 -3.2395998E+000 -1.6944470E-001 0.0 -1.9807959E+000 -1.5697655E-001 0.0 -5.2430880E+000 -9.6314100E-002 0.0 -7.2259093E+000 -3.2635746E-001 0.0 -8.5440975E+000 -2.6260972E-001 0.0 -9.3539898E+000 -5.0848707E-002 0.0 -1.0610984E+001 -3.6405006E-001 0.0 -1.0748111E+001 -2.4855117E-001 0.0 -1.1196173E+001 -2.7831058E-001 0.0 -1.1182166E+001 -3.9317140E-001 0.0 -1.0728163E+001 -2.2157265E-001 0.0 -1.0575057E+001 -2.1354347E-001 0.0 -1.0167174E+001 -2.8710882E-001 0.0 -9.5429205E+000 -1.5519487E-001 0.0 -9.2313997E+000 -1.6332892E-001 0.0 -8.7594660E+000 -2.2006998E-001 0.0 -8.0297175E+000 -1.2895043E-001 0.0 -7.7738401E+000 -1.0346587E-001 0.0 -7.2855504E+000 -1.8003060E-001 0.0 -6.7274530E+000 -5.8444174E-002 0.0 -6.4349170E+000 -6.6267354E-002 0.0 -1.0361876E-003 -8.7520085E-004 0.0 -6.0806898E+000 -1.0816730E-001 0.0 -5.6270306E+000 -5.8232713E-002 0.0 -5.2953517E+000 -8.9785137E-002 0.0 -4.7654870E+000 -3.2563996E-002 0.0 -4.4938781E+000 -7.3874452E-003 0.0 -4.1798188E+000 -1.6931032E-002 0.0 -3.9109490E+000 -5.6004284E-002 0.0 -3.5312586E+000 -1.1549394E-002 0.0 -3.3523092E+000 -7.2739250E-003 0.0 -3.1498451E+000 -3.1892616E-003 0.0 -2.9223831E+000 -2.1081405E-002 0.0 -2.7315630E+000 -3.4950836E-002 0.0 -2.4047023E+000 -6.0519293E-003 0.0 -2.3423862E+000 -4.8524874E-003 0.0 -2.2061530E+000 -6.5905991E-003 0.0 -2.0776089E+000 -1.7918479E-002 0.0 -1.9085806E+000 -1.8376000E-003 0.0 -1.7691729E+000 -3.7312864E-001 0.0 -4.1186451E-002  1.0205458E-003 0.0 -1.0200896E-001 -3.4638622E-002 0.0 -8.1155354E-001 -4.0762488E-001 0.0 -7.3968474E-002 -1.7298753E-002 0.0 -7.9349172E-002 -1.2011623E-002 0.0 -1.3478412E-001 -1.9858627E-002 0.0 -1.9917989E-001  3.8153685E-003 0.0 -1.2924930E-001 -9.3114015E-003 0.0 -1.7862617E-001 -2.1588045E-002 0.0 -2.3776619E-001  1.3087325E-002 0.0 -1.3756127E-001 -1.7355543E-002 0.0 -1.8194086E-001 -1.8006804E-002 0.0 -2.2803527E-001  1.6033782E-002 0.0 -1.2655663E-001 -1.2391103E-002 0.0 -1.6212254E-001 -1.2508878E-002 0.0 -1.9568492E-001  1.2939975E-002 0.0 -1.0592747E-001 -7.2130363E-003 0.0 -1.3512548E-001 -1.1677063E-002 0.0 -1.6062463E-001  8.5306256E-003 0.0 -8.8079453E-002 -5.3220169E-003 0.0 -1.1302772E-001 -7.9667550E-003 0.0 -1.3326567E-001  8.4237412E-003 0.0 -7.2184930E-002 -2.0827477E-003 0.0 -9.5664103E-002 -6.7886058E-003 0.0 -6.2288643E-002 -1.0683655E-003 0.0 -8.0768674E-002 -4.3889037E-003 0.0 -9.0913576E-002  7.9784352E-003 0.0 -8.7034932E-002  6.1486069E-003 0.0 -4.7135828E-002 -8.9692371E-004 0.0 -6.0544799E-002 -2.6689840E-003 0.0 -6.7887052E-002  6.0995323E-003 0.0 -6.2857578E-002  5.7779855E-003 0.0 -6.2407290E-002  3.2945860E-003 0.0 -3.2807106E-002  1.6727487E-004 0.0 -3.9730724E-002  3.6162402E-004 0.0 -4.7237273E-002  4.6296283E-003 0.0 -4.7258488E-002  2.9645985E-003 0.0 -2.4262425E-002 -4.2054318E-004 0.0 -3.0745107E-002  2.8292891E-004 0.0 -7.3375497E-002 -1.3996590E-002 0.0 -1.1287379E+000 -2.7009337E-001 0.0 -1.5443646E-001 -7.4322818E-002 0.0 -7.4588195E-001 -2.3659491E-001 0.0 -2.8801413E-003  3.4012081E-003 0.0 -1.4535668E-001 -8.3769869E-002 0.0 -4.3323286E-001 -1.8731450E-001 0.0 -2.0429724E-002 -5.3067523E-003 0.0 -1.9400553E-001 -4.5169564E-002 0.0 -2.5944004E-001 -3.8329603E-002 0.0 -9.4337711E-002 -3.3392221E-002 0.0 -4.2253036E-001 -9.9868154E-002 0.0 -2.2149378E-001 -7.7429159E-002 0.0 -6.4516598E-001 -1.7724139E-001 0.0 -3.9761980E-001 -1.3861483E-001 0.0 -1.2856422E-001 -6.9938859E-002 0.0 -2.6480604E-001 -1.2467864E-001 0.0 -9.9901394E-002 -5.8129134E-002 0.0 -5.8157625E-002 -2.9989074E-002 0.0 -4.2122940E-002 -2.2621180E-002 0.0 -1.8788662E-001 -9.3603472E-002 0.0 -3.7787965E-001 -1.9574996E-001 0.0 -2.3240529E-002 -1.1737563E-002 0.0 -1.6131409E-002 -5.8227758E-003 0.0 -2.7193070E-001 -1.3970177E-001 0.0 -8.2415687E-002 -3.4092204E-002 0.0 -4.9363271E-001 -2.7999646E-001 0.0 -7.1462642E-001 -3.2861840E-001 0.0 -5.3244049E-001 -3.3824044E-001 0.0 -7.7759384E-002 -3.4911732E-002 0.0 -8.4447402E-001 -9.4410461E-002 0.0 -1.4720261E+000 -1.9629279E-001 0.0 -1.7643100E-002 -8.8206314E-003 0.0 -1.3279212E+000 -2.4363900E-001 0.0 -1.9791313E-003 -2.1728171E-003 0.0 -1.5174502E-001 -7.1805354E-002 0.0 -5.4386352E-001 -3.8821473E-002 0.0 -1.8650486E+000 -1.6337761E-001 0.0 -1.7886990E+000 -6.6388778E-002 0.0 -5.5639170E+000 -4.1907092E-001 0.0 -8.4677716E-002 -3.4443043E-002 0.0 -5.2689470E-001 -1.7202832E-001 0.0 -3.9857290E-001 -1.0922893E-001 0.0 -7.6880399E-002 -2.2174468E-002 0.0 -3.2684611E-001 -6.8648394E-002 0.0 -3.0070152E-001 -2.8122473E-002 0.0 -6.3405356E-001 -3.3798093E-002 0.0 -2.1342237E+000 -1.7359592E-001 0.0 -1.9260155E+000 -7.2847197E-002 0.0 -5.5979900E+000 -2.2746365E-001 0.0 -3.2299234E-001 -9.0898673E-003 0.0 -1.0749610E+000 -5.3458007E-002 0.0 -9.1723491E-001 -7.5339385E-003 0.0 -2.7208081E+000 -3.2334499E-002 0.0 -5.2630236E-001 -1.9959294E-002 0.0 -1.7413687E+000 -1.1406954E-001 0.0 -1.5088757E+000 -3.4112395E-002 0.0 -4.4764769E+000 -1.0532036E-001 0.0 -1.7366804E-001 -5.2941634E-002 0.0 -5.7144641E-001 -2.0869997E-001 0.0 -1.5915633E-001 -3.1642657E-003 0.0 -5.0622461E-001 -7.6777716E-003 0.0 -3.8986429E-001  4.9651734E-003 0.0 -1.2830866E+000 -1.5492321E-002 0.0 -1.6872193E-001 -7.4938922E-004 0.0 -5.1206501E-001 -1.5798857E-002 0.0 -2.4191903E-001 -5.0906565E-003 0.0 -7.9423987E-001 -3.8181958E-002 0.0 -6.8162751E-001 -3.7356924E-003 0.0 -2.0318027E+000 -2.4865385E-002 0.0 -1.8015741E-001 -2.3832694E-003 0.0 -5.3481091E-001 -2.0475571E-002 0.0 -6.0355393E-001 -2.5975233E-002 0.0 -2.0004471E+000 -1.4055289E-001 0.0 -1.7635626E+000 -4.9659721E-002 0.0 -5.1921372E+000 -1.5509855E-001 0.0 -4.4309630E-001 -1.4446360E-002 0.0 -1.4570593E+000 -8.5643946E-002 0.0 -1.2687466E+000 -2.3362726E-002 0.0 -3.7573771E+000 -8.5768837E-002 0.0 -2.6435136E-001  2.1325033E-002 0.0 -2.4135508E-001 -3.3234013E-003 0.0 -7.1192969E-001 -2.5400186E-002 0.0 -3.6885498E-001 -1.0241668E-002 0.0 -1.2160611E+000 -6.5832339E-002 0.0 -1.0533110E+000 -9.6648998E-003 0.0 -3.1168392E+000 -4.5049954E-002 0.0 -3.6043428E-001 -1.0748210E-002 0.0 -1.0756831E+000 -5.6859775E-002 0.0 -4.9256776E-001  3.1722663E-002 0.0 -1.2064092E-001 -2.0411012E-003 0.0 -3.8502227E-001 -4.9297753E-003 0.0 -3.0220726E-001  6.3890515E-003 0.0 -9.8369686E-001 -5.8131768E-003 0.0 -1.2605382E-001 -7.9145782E-004 0.0 -3.8379927E-001 -1.2073445E-002 0.0 -4.0987346E-001  3.1063830E-002 0.0 -4.3253460E-001 -1.6073759E-002 0.0 -1.2911241E+000 -7.9120358E-002 0.0 -5.1807143E-001 -2.2992429E-002 0.0 -1.5413906E+000 -1.0207107E-001 0.0 -8.8251961E-002 -9.9221804E-003 0.0 -1.3190480E-001 -2.7403921E-003 0.0 -3.9411918E-001 -1.8328502E-002 0.0 -1.9206857E-001 -4.2350923E-003 0.0 -5.7529186E-001 -2.8201286E-002 0.0 -2.5752929E-001 -6.4574696E-003 0.0 -7.7075650E-001 -4.0020483E-002 0.0 -5.8873672E-001  3.5156544E-002 0.0 -6.8777258E-001  3.0569813E-002 0.0 -4.6087077E-001 -4.1499725E-002 0.0 -1.4486982E+000 -1.5025366E-001 0.0 -1.0446285E-001 -2.2194429E-003 0.0 -3.2014724E-001 -1.6353644E-002 0.0 -1.6246230E-001  2.0446625E-003 0.0 -3.5559092E-001  2.7384684E-002 0.0 -1.1269561E-001 -2.8104420E-002 0.0 -7.5653043E-001  2.2010453E-002 0.0 -7.1732319E-001  6.2376085E-003 0.0 -1.2477260E-001  4.7059502E-003 0.0 -5.8992096E-001 -3.9766226E-002 0.0 -1.7817727E+000 -1.5196753E-001 0.0 -2.9703983E-001 -3.3786421E-002 0.0 -1.0982325E+000 -1.3784507E-001 0.0 -1.1794917E+000 -6.3717947E-002 0.0 -3.4188114E+000 -3.4457739E-001 0.0 -4.8917947E-001 -1.5566895E-002 0.0 -5.9085762E-001 -3.2622072E-002 0.0 -1.7551923E+000 -1.3132247E-001 0.0 -1.5722617E+000 -5.6498263E-002 0.0 -2.1011597E+000 -5.4809586E-002 0.0 -1.3670609E+000  1.0051650E-002 0.0 -1.1009402E+000 -5.8386055E-003 0.0 -7.4051880E-001  1.1021002E-002 0.0 -5.9697373E+000 -3.6005842E-001 0.0 -4.1468544E+000 -4.8102524E-002 0.0 -2.1467109E+000 -6.5377873E-002 0.0 -1.3698234E+000  1.0147671E-002 0.0 -2.8818536E+000 -8.9793342E-002 0.0 -1.8324195E+000  8.6749860E-003 0.0 -2.7176088E+000 -1.1505043E-001 0.0 -1.7723703E+000  3.2063642E-002 0.0 -6.6662326E+000 -5.0468529E-001 0.0 -4.6794022E+000 -2.5307281E-002 0.0 -2.8575352E+000 -8.6633882E-002 0.0 -1.8378226E+000  1.1926545E-002 0.0 -1.4939974E+000 -5.4315162E-003 0.0 -9.4805935E-001  9.0353984E-003 0.0 -2.5524393E+000 -1.8983571E-001 0.0 -1.3443143E+000 -7.0849394E-002 0.0 -2.0710049E+000 -1.4152414E-001 0.0 -4.7688045E+000 -2.6739387E-001 0.0 -3.2551336E+000  2.9769780E-002 0.0 -4.1741396E+000 -2.1101221E-001 0.0 -2.7038792E+000  3.4979626E-002 0.0 -3.7948709E+000 -1.4384996E-001 0.0 -2.5679038E+000  1.3227975E-003 0.0 -4.4623232E+000 -3.9757401E-001 0.0 -3.1644222E+000 -7.6273924E-002 0.0 -1.9838330E+000 -4.6670201E-002 0.0 -1.3134600E+000 -7.6665528E-004 0.0 -5.3977943E+000 -2.7536168E-001 0.0 -3.6824197E+000 -2.6046604E-002 0.0 -4.8430374E+000 -2.2175587E-001 0.0 -3.0733242E+000 -1.5443609E-002 0.0 -1.4443253E+000 -4.3739851E-002 0.0 -9.5075120E-001  1.0080973E-002 0.0 -3.3290111E+000 -1.3810704E-001 0.0 -2.1788758E+000  3.2838241E-002 0.0 -5.9487044E+000 -3.7113070E-001 0.0 -3.9049961E+000  1.6836304E-002 0.0 -6.5558994E+000 -4.5811727E-001 0.0 -4.4893587E+000 -4.8856751E-004 0.0 -5.9735674E+000 -4.3153858E-001 0.0 -4.1110993E+000 -6.9520999E-002 0.0 -1.2292882E+000 -3.2703717E-002 0.0 -8.1830283E-001 -2.5946563E-002 0.0 -1.9798168E+000 -4.7837883E-002 0.0 -1.2781156E+000  1.5119683E-002 0.0 -1.4067188E+000 -3.1634276E-002 0.0 -9.9234803E-001  3.4406703E-003 0.0 -5.6666175E+000 -3.0878111E-001 0.0 -3.8337665E+000 -1.4581226E-001 0.0 -1.7597633E-002  1.6563722E-003 0.0 -1.9815567E-001 -8.1103972E-002 0.0 -7.1405097E-002 -2.3952037E-003 0.0 -3.5502500E+000 -1.6576444E-002 0.0 -1.2272977E+000  2.4721645E-002 0.0 -3.2133519E+000  1.2086210E-002 0.0 -1.6512524E+000  2.8244433E-002 0.0 -2.2635205E+000  2.4171659E-002 0.0 -1.0376335E+000  7.4637459E-003 0.0 -1.9067407E+000  3.0312384E-002 0.0 -2.7518422E+000  1.2667050E-002 0.0 -7.8396365E-001  9.3616593E-003 0.0 -3.4408056E+000 -6.0213997E-002 0.0 -2.4229086E+000 -8.0734289E-002 0.0 -4.1237382E-001 -8.9137458E-002 0.0 -1.9795022E-001 -3.2141187E-002 0.0 -1.2590636E+000 -2.7336497E-001 0.0 -2.5995881E-001 -6.3854904E-002 0.0 -1.7380640E-001 -2.2396978E-002 0.0 -1.0197290E+000 -2.0840457E-001 0.0 -6.2077619E-001 -2.5612458E-001 0.0 -9.7863216E-001 -2.4602897E-001 0.0 -8.9797403E-001 -2.3204719E-001 0.0 -1.3759286E-003  4.0911821E-004 0.0 -8.6986415E-001 -3.3433991E-001 0.0 -1.4865897E-001 -2.9735852E-002 0.0 -8.8831042E-001 -2.0528081E-001 0.0 -3.3808258E-002 -1.8643271E-002 0.0 -1.3593279E-001 -2.2436617E-002 0.0 -6.7187579E-001 -1.8374975E-001 0.0 -1.1263199E+000 -1.9058648E-001 0.0 -4.1791905E-002 -8.3416906E-003 0.0 -1.1754132E+000 -1.2696083E-001 0.0 -1.5405028E-001 -6.5731113E-002 0.0 -4.4035347E-001 -2.6958547E-001 0.0 -1.0698229E-002 -2.3336492E-003 0.0 -9.7668489E-002 -1.7941431E-002 0.0 -7.8736035E-001 -6.4298098E-002 0.0 -6.9023699E-001 -1.6335265E-001 0.0 -3.8862225E-001 -1.2405360E-001 0.0 -8.8263650E-001 -1.0552853E-001 0.0 -4.2442347E-001 -1.0753326E-002 0.0 -5.5211785E-001 -1.6868579E-002 0.0 -1.0193441E+000 -1.9100583E-001 0.0 -1.3686750E+000 -5.0139853E-002 0.0 -7.4077215E-001 -1.5402504E-002 0.0 -9.9856635E-001 -2.3352413E-002 0.0 -1.8035873E+000 -6.6452904E-002 0.0 -1.1751160E+000 -2.4952988E-002 0.0 -1.3863398E+000 -4.0183111E-002 0.0 -1.6709673E+000 -5.7221879E-002 0.0 -2.7872273E+000 -1.4299771E-001 0.0 -4.5260650E-001 -2.5556367E-002 0.0 -1.9616237E+000 -7.7047147E-002 0.0 -4.2694649E-001  2.6073001E-003 0.0 -2.1885591E+000 -1.0345949E-001 0.0 -1.1063246E+000 -1.8798829E-002 0.0 -2.1330623E+000 -1.2184498E-001 0.0 -1.5592664E+000 -1.2189581E-001 0.0 -3.6775648E+000 -1.8884901E-001 0.0 -5.2913079E-001  8.5673135E-004 0.0 -5.3671043E-001  1.1242287E-002 0.0 -4.2311955E+000 -2.2627711E-001 0.0 -1.3184982E+000 -6.3896960E-003 0.0 -5.4442604E-001  3.9223848E-003 0.0 -1.3461642E+000 -9.7159128E-003 0.0 -5.3074350E+000 -2.8580261E-001 0.0 -7.0013471E-001 -1.4031959E-003 0.0 -7.2193982E-001  1.7681016E-002 0.0 -6.0523354E+000 -3.8845178E-001 0.0 -7.7003748E-001  1.4566140E-002 0.0 -1.7939787E+000 -8.2719472E-003 0.0 -7.2024083E+000 -4.7278937E-001 0.0 -7.8161738E-001  5.4450858E-003 0.0 -1.8458085E+000 -2.6197899E-003 0.0 -1.9699496E+000 -1.4348095E-002 0.0 -7.7436204E+000 -5.4781424E-001 0.0 -1.0016365E+000  1.0767855E-002 0.0 -7.9783198E+000 -4.7816637E-001 0.0 -1.0312901E+000  1.9014343E-002 0.0 -4.7609510E+000 -3.7395968E-001 0.0 -1.0502607E+000  5.2920812E-003 0.0 -2.5165887E+000 -1.1898818E-002 0.0 -2.6436013E+000 -2.5178278E-002 0.0 -1.2891787E+000  1.5048340E-003 0.0 -1.5296013E+000  5.2082875E-003 0.0 -1.4695787E+000  1.5734601E-003 0.0 -3.7985824E+000 -5.5902933E-002 0.0 -1.8403145E+000 -1.4385254E-003 0.0 -1.7648593E+000 -8.2192075E-003 0.0 -2.1933583E+000 -1.4862848E-002 0.0 -4.4899665E+000 -8.5350402E-002 0.0 -2.0589021E+000 -2.4053999E-002 0.0 -2.5123733E+000 -3.3138140E-002 0.0 -2.3110049E+000 -4.9766639E-002 0.0 -5.4580041E+000 -1.3059854E-001 0.0 -2.6224494E+000 -6.1435300E-002 0.0 -2.2955452E+000 -7.4558368E-002 0.0 -6.1435231E+000 -1.8070103E-001 0.0 -2.1760368E+000 -1.1653993E-001 0.0 -1.7710425E+000 -9.6727283E-002 0.0 -1.2448619E+000 -1.4100698E-001 0.0 -6.1990630E+000 -2.2142760E-001 0.0 -5.0229419E+000 -2.3501903E-001 0.0 -1.3168952E-002 -6.2104605E-003 0.0 -6.1147052E-002 -2.5015965E-002 0.0 -1.1451669E+000 -6.9551543E-002 0.0 -1.2329303E+000  1.3097891E-002 0.0 -1.6538341E-003  9.8422822E-004 0.0 -5.5115756E-001 -3.6925206E-001 0.0 -1.6155299E+000  1.0439455E-002 0.0 -5.5039278E-001 -3.3762095E-001 0.0 -2.5900575E+000 -1.7257296E-002 0.0 -3.4282034E+000 -3.4699761E-002 0.0 -3.9656167E+000 -4.3219630E-002 0.0 -4.8842733E+000 -6.1108362E-002 0.0 -5.6930190E+000 -1.0180899E-001 0.0 -6.6551540E+000 -1.3636891E-001 0.0 -7.0867805E+000 -2.0757779E-001 0.0 -5.5108367E+000 -2.5609889E-001 0.0 -3.1086910E+000 -2.6190669E-001 0.0 -4.0941176E+000 -1.3384333E-001 0.0 -9.3848080E-002 -2.5063676E-002 0.0 -1.5660257E-002  1.6086704E-002 0.0 -6.2057552E+000 -5.7219384E-002 0.0 -1.2889346E+000 -2.4426724E-001 0.0 -9.2197241E-001 -3.0160243E-001 0.0 -4.0108144E-001 -2.3196802E-001 0.0 -6.2930151E+000  6.1994991E-003 0.0 -3.2137777E-002 -9.0735821E-003 0.0 -8.9666554E-001 -2.4436549E-001 0.0 -5.7533508E+000  5.7654959E-002 0.0 -1.1114753E+000 -2.5016091E-001 0.0 -6.4532847E-002 -1.2993454E-002 0.0 -4.9363340E+000  7.2438733E-002 0.0 -4.1210899E+000  6.7137542E-002 0.0 -3.4384134E+000  7.9888592E-002 0.0 -2.9944646E+000  7.3732866E-002 0.0 -2.8847320E-001 -6.4988195E-002 0.0 -1.9861521E-002 -9.1692549E-003 0.0 -2.2178934E+000  6.1537552E-002 0.0  6.1714947E-005  1.1821493E-004 0.0 -3.7491141E+000  1.3110481E+001 0.0 -7.1929124E-004 -7.8061796E-004 0.0  3.3023605E-002 -1.2100054E-002 0.0  2.2450320E-001 -3.3842263E-001 0.0  5.0694979E-002  2.9192030E-002 0.0 -3.9754249E-002  3.0816199E-002 0.0  1.4452941E-001  1.0400453E+001 0.0 -6.1472067E-003  6.7028682E-002 0.0  6.4045013E-005 -2.1284067E-004 0.0 -5.8605256E-005 -1.2485339E-004 0.0  8.9767462E-002  8.0148969E-001 0.0  2.3184027E-003 -1.0125085E-003 0.0  4.1527480E-002 -1.6667933E-002 0.0  3.5426877E-003  9.5244505E-004 0.0 -2.9928089E-002  5.3546906E-002 0.0 -6.2499289E-001  6.4143998E+000 0.0  5.7060715E-003 -1.3396920E-002 0.0 -5.7156665E-002 -1.3022121E-001 0.0  1.3022408E-001  3.7558852E+000 0.0  2.8072274E-001  3.3651016E+000 0.0  2.4041079E-002  2.4077031E-001 0.0  8.4474226E-002  6.3385187E-001 0.0 -7.9305104E-003 -5.4819346E-002 0.0 -4.7552026E-002  3.0670311E-002 0.0 -2.7992108E+000  1.4746163E+001 0.0 -1.8992740E-003  1.8193327E-003 0.0 -3.0213744E-002  1.1165602E-002 0.0 -3.1850404E-002 -1.0559892E-002 0.0  2.6315449E-003  6.6410033E-003 0.0 -1.6207905E-003 -1.4231204E-003 0.0 -1.8886913E-004 -3.3533965E-004 0.0 -2.1326924E-003 -4.4882756E-003 0.0 -3.2748795E-004  2.5222182E-004 0.0 -2.4022373E-002 -4.7893795E-002 0.0 -8.2587227E-004 -1.7208680E-003 0.0 -4.6172355E-004 -1.4525953E-003 0.0 -7.9347246E-003 -2.0886728E-002 0.0 -5.9864991E+000  8.6595233E+000 0.0 -2.5413406E-001  3.7345214E-001 0.0 -1.5016843E-002  2.1897229E-002 0.0  5.7308449E-001 -1.0479017E+000 0.0 -1.0406517E-002  1.4281693E-002 0.0 -1.3526057E-004 -8.7813854E-005 0.0 -2.5797347E+000  3.4321055E+001 0.0 -8.9790970E-002  9.9724864E-001 0.0 -1.1239585E+000  6.5879434E+000 0.0 -5.6664185E-002  4.9355199E-001 0.0  2.1922104E-002 -1.2105719E-001 0.0 -3.4591121E-002  2.1584481E-001 0.0  6.5344932E-003 -2.6838779E-002 0.0  2.9355538E-004 -1.3563354E-003 0.0 -8.7932834E-005  1.8193124E-003 0.0  7.2786970E-005 -3.2502008E-006 0.0  5.6402278E-002 -1.8757632E-002 0.0  1.3998096E-003  4.4361563E-001 0.0 -7.4450609E-003 -8.4582712E-002 0.0  4.1941684E-002  4.8526576E+000 0.0  7.2437519E-003  3.1621320E-002 0.0  2.8885857E-001 -9.8573740E-002 0.0  1.7712016E-002  5.4284120E-002 0.0  8.4819663E-004 -3.5852692E-004 0.0  7.4107961E-002  6.6527122E-001 0.0  9.8805247E-002  9.5954856E-001 0.0  1.4621746E+000  2.9870926E+001 0.0 -3.2318967E-002 -6.8191850E-001 0.0  2.0630640E-001  2.7484612E+000 0.0  3.2357402E-002  1.4963539E-001 0.0  1.2342526E-001  2.5591517E+000 0.0 -1.1724287E-001  1.4700469E-001 0.0 -1.3146322E-001  2.5918067E-001 0.0 -1.0754943E-001  3.0615613E-001 0.0 -2.8090692E+000  6.2195933E+001 0.0  6.0560167E-003  1.7038802E-003 0.0 -5.4681646E-004 -7.1434174E-003 0.0  2.5468873E-003  1.8309300E-002 0.0 -2.5454441E-005  1.3013958E-004 0.0  1.6597387E-002  1.4676920E-001 0.0 -3.9298518E-004 -7.6696512E-005 0.0 -1.0586956E-001  9.7334702E-002 0.0  3.8287028E-001  3.4478732E+000 0.0  2.0344695E-002  1.8199215E-001 0.0  4.3257734E-001  4.6855815E+000 0.0 -3.5371416E-003 -3.3444922E-002 0.0  1.7068581E-001  2.3323726E+000 0.0  5.1777107E-003 -7.8312696E-003 0.0  2.4376421E-002 -1.6440662E-003 0.0  1.0190390E-002 -8.5119812E-002 0.0  3.6322495E-004 -1.0869151E-002 0.0 -1.2375766E+000  7.4182345E+000 0.0  2.1463898E-001 -1.9114458E-001 0.0  7.2387710E-002 -1.3892350E-001 0.0 -2.0584254E+000  6.0774204E+000 0.0 -8.5489559E-005 -2.1564223E-004 0.0 -2.5527491E+001  4.3486573E+001 0.0  1.7290724E-001 -9.9350412E-002 0.0 -2.1276381E-002  2.0459995E-002 0.0 -1.8871241E+001  1.1181415E+002 0.0 -3.8137040E-003  4.3867727E-003 0.0  3.0523476E+000  4.1177717E+001 0.0  2.4597905E-002 -3.1356235E-002 0.0 -1.8956415E-004 -9.6840416E-005 0.0 -2.4850553E-002 -2.0429568E-002 0.0  1.0141497E-003  4.9769886E-003 0.0  5.4115180E-003  6.4153370E-002 0.0 -4.3917920E-004 -3.4405418E-003 0.0 -5.0883548E-001 -9.9108038E-001 0.0 -5.5502323E-002  9.5584927E-002 0.0  1.4893218E+000  1.4359928E+001 0.0 -4.5776659E-001  8.7669053E-001 0.0 -4.3832623E+001  1.3655251E+002 0.0  3.9123798E-001 -1.2514585E-001 0.0 -1.1612476E-002  1.6897194E-001 0.0  1.2217308E-001 -7.2278782E-002 0.0 -9.4266048E-003 -1.0914508E-001 0.0 -3.8846620E-001  9.9874592E+000 0.0 -3.7927497E-003 -2.0477479E-002 0.0 -1.9709217E-002 -4.3856525E-002 0.0  9.1703899E-002  1.0159841E+000 0.0 -1.7897336E-001 -4.8246787E-001 0.0  9.8483798E-001  9.2161104E+001 0.0  2.5255182E-002  7.0553664E-003 0.0  8.9658952E-004 -5.1442033E-004 0.0  2.2869043E+000  2.1143988E+001 0.0  9.8599359E-003  3.4593463E-002 0.0  6.6401950E-002  5.9963248E-001 0.0  1.0722048E-001 -3.1872092E-002 0.0 -1.7833174E-005 -7.9617999E-004 0.0  3.1768722E-001  2.8479328E+000 0.0  7.6201351E-003  7.0390973E-002 0.0  2.6822582E-002 -2.4757115E-003 0.0 -3.5701043E-004 -2.8532818E-004 0.0 -3.9310363E-001 -3.0161740E-001 0.0  5.5204116E-002  3.7553815E-001 0.0 -1.6559733E-002 -1.5624027E-002 0.0  2.3623052E-002  2.0437975E-001 0.0 -3.2942963E+000  6.4492996E+000 0.0 -7.1290590E-001  3.2302301E+000 0.0  3.3488955E-002  9.6684378E-002 0.0  2.4748480E-002  1.1535414E+000 0.0 -4.9493047E-001  9.6290732E-001 0.0  4.6769474E-002  3.8734560E-001 0.0 -1.9173717E-003 -8.4290518E-003 0.0 -3.5894163E-001  2.0239576E+000 0.0 -8.5617756E-003  5.7521473E-001 0.0  7.7121614E-006 -3.1723097E-004 0.0 -1.0847320E-003  9.4025772E-004 0.0 -3.4328530E-002  4.6471894E+000 0.0  2.2860582E-003  2.1806255E-002 0.0 -3.2722385E-004 -3.3755430E-003 0.0  2.1878915E-002  1.9953317E-001 0.0 -1.9481807E+003 -8.7149111E+001 0.0 -5.8998325E+002 -1.1757775E+002 0.0  6.4533253E+003 -4.1235023E+002 0.0  5.3629235E+003 -4.2468762E+002 0.0  9.4278858E+002 -2.1852048E+002 0.0  2.7985045E+002 -1.5286141E+002 0.0  1.5624071E+003 -2.6074032E+002 0.0  4.6758448E+003 -4.5890226E+002 0.0  4.1038162E+003 -4.7775993E+002 0.0  2.1007310E+003 -3.1073820E+002 0.0  3.4167616E+003 -4.5401530E+002 0.0  2.6671887E+003 -3.8781238E+002 0.0  2.5673875E+003 -6.5357488E+002 0.0  3.2322253E+003 -7.0342960E+002 0.0  3.1349835E+003 -3.8520188E+002 0.0  3.4613590E+003 -3.2686127E+002 0.0 -6.7302838E+001 -3.0783963E+001 0.0  1.6599977E+003 -2.0789536E+002 0.0  6.5042888E+003 -5.8766561E+002 0.0  1.3057452E+003 -2.8116267E+002 0.0  4.0686170E+003 -3.0137601E+002 0.0  4.3936345E+002 -1.8479342E+002 0.0 -7.6543102E+002 -9.2166752E+001 0.0  8.9645548E+002 -1.4090657E+002 0.0  2.5360859E+003 -3.9447702E+002 0.0  2.1652219E+003 -3.5866974E+002 0.0  6.6794582E+003 -3.3710443E+002 0.0 -2.4038722E+003 -8.8788579E+001 0.0 -1.4204692E+003  1.9502035E+002 0.0  4.1820698E+003 -5.3973187E+002 0.0 -6.2481685E-003  1.7257868E-003 0.0 -5.4464243E-004 -6.4920104E-005 0.0 -5.4464001E-002 -8.9078327E-004 0.0 -3.8185667E-002 -1.8145125E-004 0.0 -3.8757319E-002 -1.1190655E-003 0.0 -5.9431009E-002 -1.0645222E-003 0.0 -1.0655225E-001 -4.6046624E-003 0.0 -1.3036164E-001  8.6047992E-003 0.0 -9.2885742E-002  3.1330349E-003 0.0 -1.3079263E-008 -1.0254125E-008 0.0 -2.8278641E-002 -9.1567012E-002 0.0 -5.0292250E-003  3.0950162E-004 0.0  1.3108388E-003 -4.4264301E-001 0.0 -5.8423320E-001 -7.1015759E-001 0.0 -2.6117333E-001 -6.3417780E-003 0.0  4.5158610E-003 -4.7161347E-002 0.0  1.6610617E-001  6.2706998E-002 0.0 -5.2662960E-004 -1.0979795E-005 0.0  6.0376631E+000  7.8033406E+000 0.0 -9.3323512E-003 -3.4216813E-004 0.0 -7.9769650E-002 -1.2861513E-003 0.0 -1.3970073E+000 -9.1497648E-002 0.0  9.2234321E-002  3.1571317E-002 0.0  7.4221747E-003  3.2133286E-002 0.0  2.8300117E-003  8.9885502E-003 0.0 -1.2551651E-001 -1.2074596E-002 0.0 -3.4780745E-002  4.1447240E-003 0.0  3.0613603E-003 -3.1985457E-002 0.0 -1.1312390E-001 -1.2597045E+000 0.0  1.5198283E-016  6.2953586E-017 0.0 -2.4792468E-002 -5.5349707E-002 0.0 -1.9773219E-005 -2.5214473E-007 0.0  8.3293007E-012 -8.8733573E-014 0.0  3.9931515E-015  1.1844457E-015 0.0 -1.1741107E-001 -3.5136606E-003 0.0 -1.0010467E-001 -3.0308602E-003 0.0 -7.0489284E-002  1.8839493E-003 0.0 -5.2070407E-002 -1.6778550E-003 0.0  1.8694394E-003 -2.7934998E-002 0.0 -1.9768353E-017 -9.3451813E-018 0.0  5.1180637E-014  1.5322060E-014 0.0  8.4290360E-018  5.2237422E-017 0.0 -5.4507681E-003  3.0335582E-003 0.0  5.7752350E+001  2.4799361E+001 0.0  3.1230478E+001  1.7324336E+001 0.0  3.3891736E+001  4.1220469E+001 0.0  5.7489745E-001  7.8957968E+000 0.0  2.2787194E+001  9.2834543E+000 0.0 -3.8787998E+000 -2.0875549E+000 0.0 -4.9551276E-001 -1.2914168E+000 0.0  4.5474118E-002  4.5799791E-003 0.0 -8.5936923E-005 -4.5100021E-004 0.0  5.0526314E-005  1.8060633E-004 0.0 -8.9536578E-002 -8.7764064E-003 0.0 -3.8560727E-003 -1.7503604E-003 0.0 -7.2018222E-004 -2.0748526E-002 0.0 -8.4663129E-002 -3.9450494E-001 0.0  7.4781477E-009 -7.9934546E-010 0.0  2.6736202E-011  1.5194956E-011 0.0  3.1138051E-006  1.2361134E-005 0.0 -1.4443986E-005 -3.3049564E-005 0.0 -3.3947147E-002 -1.2788332E-001 0.0 -1.2496240E+000  6.4811279E-001 0.0 -4.1891904E-017 -1.8034245E-017 0.0  1.3645576E-003  7.4300675E-004 0.0  4.8905560E-005  1.3484892E-005 0.0 -5.6168139E-004 -1.0064853E-004 0.0 -7.7090619E-005 -2.1226157E-005 0.0  1.3408011E-003  4.2240539E-004 0.0  2.7113225E-005  1.0649740E-005 0.0 -5.0540005E-004 -1.4922856E-004 0.0 -1.6780513E-005 -4.4777250E-006 0.0 -4.7531576E-001 -3.2008413E-001 0.0 -8.0912185E-002 -6.6728604E-003 0.0  1.5505016E-003 -1.4613100E-004 0.0 -9.3282195E-002 -4.2568677E-003 0.0 -5.3675409E-003 -2.0535041E-003 0.0 -1.0040357E-002 -3.2164679E-003 0.0  3.0983733E-002  3.6068020E-003 0.0  2.3116712E-006  6.8043372E-007 0.0  1.7556039E-008  5.4055051E-008 0.0 -7.3203160E-007 -1.5547077E-006 0.0  4.2676506E-006  1.0665499E-005 0.0  9.9336278E-013  5.2398899E-013 0.0 -2.4967958E-006 -7.4086309E-007 0.0 -9.8731663E-008 -2.9055860E-008 0.0 -6.7439195E-007 -1.4643120E-007 0.0  1.9103206E-008  4.5058223E-009 0.0  4.7976659E-008  3.0659586E-008 0.0 -7.5758309E-010 -7.0462086E-010 0.0  5.4788240E-009  4.2990550E-009 0.0 -2.1876231E-010 -1.6836037E-010 0.0 -5.3403343E-010 -2.0854208E-010 0.0  7.4690239E-012 -3.8894321E-013 0.0 -9.8043589E-009 -1.7877304E-009 0.0 -3.4930117E-011 -1.4781908E-011 0.0  1.3125765E-012  4.3573954E-013 0.0 -1.4381619E-012 -4.7742301E-013 0.0  8.2680003E-014  2.7887094E-014 0.0 -5.7238985E-013 -2.1405473E-013 0.0  2.0730208E-014  8.1358019E-015 0.0 -2.2273806E-014  5.3072581E-015 0.0  1.3475560E-015  1.0538072E-016 0.0 -7.3126884E-015 -1.5965878E-015 0.0  1.3930563E-016  2.2866197E-017 0.0 -2.1789120E-015 -4.6544569E-016 0.0  1.7589123E-020  2.4809898E-018 0.0  4.2956273E-016  5.7530305E-016 0.0 -1.8825776E-008 -9.5618763E-007 0.0 -1.3324319E-007  7.7712119E-008 0.0 -5.2802636E-008 -1.4435750E-008 0.0  9.8010511E-006 -9.0645365E-006 0.0 -4.8903928E-001  5.8321285E-002 0.0 -5.8958453E+000  4.0641896E+000 0.0 -1.7248141E-011 -6.8124302E-012 0.0 -1.7906815E-016 -4.2824330E-017 0.0 -4.6571473E-011 -3.1173006E-011 0.0 -1.9843737E+000 -3.3721193E+000 0.0 -3.4435666E-015 -2.0493085E-015 0.0  9.9245286E-012  9.0658304E-013 0.0 -2.3914423E-003 -1.9394828E-002 0.0 -3.7264388E-015 -7.6630603E-016 0.0 -1.0225466E-007 -3.0339800E-008 0.0  1.0637521E-006  3.1520523E-007 0.0  7.7150857E-018  2.3509229E-017 0.0  4.8091154E-005  8.3146911E-005 0.0 -4.2811753E-017  3.2296441E-018 0.0  6.1025772E-007  4.2791209E-008 0.0  1.3245647E-006  9.0982299E-008 0.0 -6.4741712E-007 -9.4254491E-006 0.0 -1.9712990E-017  7.9527594E-018 0.0  4.6904224E+000 -8.1774043E+000 0.0 -5.5978521E-004 -1.6576005E-004 0.0  2.6378729E-008  7.8085784E-009 0.0  2.4845120E-007  7.3880708E-008 0.0 -9.1481244E-005 -2.2835061E-004 0.0 -1.0351629E-006 -3.8553716E-006 0.0 -5.4177805E-005 -6.2735978E-005 0.0  1.0622590E-005  1.4701486E-005 0.0 -4.0595177E-004 -4.3852523E-004 0.0  2.1926371E-004  1.8652489E-004 0.0 -3.6291740E-003 -3.1174311E-003 0.0  7.1178442E-005  8.2370531E-005 0.0  3.5165852E-017  1.9824696E-017 0.0 -2.2924548E-015 -4.5632555E-016 0.0 -3.4631466E-002 -5.5522214E-002 0.0 -6.9696898E-017 -1.5264833E-017 0.0  6.2767260E-008  6.5629962E-011 0.0  5.0345102E-007  3.1213713E-008 0.0 -1.5464370E-015 -8.6321998E-016 0.0 -6.3600168E-006 -3.8738072E-007 0.0 -1.4279825E-005 -8.7522289E-007 0.0 -6.7354751E-007 -2.5380871E-008 0.0 -1.6365298E-007 -1.5507529E-007 0.0 -1.5118608E-005 -9.2306118E-007 0.0 -6.1889512E-007 -8.8360382E-008 0.0  1.7996694E-002  2.2050548E-003 0.0 -2.3127838E-003 -2.0508160E-003 0.0 -2.5664796E-005 -1.8953890E-005 0.0 -2.2443597E-004 -1.0608006E-004 0.0 -8.7503773E-006 -4.0398219E-006 0.0 -3.9090904E-010 -2.0894158E-010 0.0  3.6275940E-009  3.1710685E-010 0.0  9.1614284E-013  5.4176023E-013 0.0 -1.6330781E-013 -2.7505610E-014 0.0  1.6950677E-016  4.7430291E-017 0.0  3.4793402E-017  2.8578806E-017 0.0  5.4310271E-015  1.6337081E-015 0.0  5.5303725E-015  2.0913423E-015 0.0  2.1992928E-003 -6.8104886E-004 0.0  1.7008992E-006  4.0176818E-006 0.0  5.4573726E-008 -5.6577527E-007 0.0  2.3992989E-008 -4.2133020E-008 0.0  7.9421408E-019  2.7686183E-017 0.0  1.9601906E-002 -2.9080941E-001 0.0  1.6565593E-003 -1.6350139E-002 0.0 -8.2770606E-003 -3.4661196E-001 0.0  2.5294206E-003 -3.8710569E-002 0.0  4.9514824E-010  2.8119111E-010 0.0 -5.2253853E-006 -3.5742706E-007 0.0 -1.4171486E-006 -8.2364219E-008 0.0 -6.5023832E-016 -3.6178816E-016 0.0  4.3457126E-018 -9.6920332E-018 0.0  4.3351413E-007  4.8344675E-007 0.0 -8.3880081E-002 -1.8646172E-001 0.0 -3.8304939E-008 -3.4231744E-008 0.0  3.8527504E-008 -3.3731625E-007 0.0 -1.9218278E-006 -7.5026856E-008 0.0 -1.4921968E-007  4.7186892E-007 0.0  2.3165913E-007 -8.6412135E-008 0.0 -2.2766870E-005 -1.2136589E-006 0.0  6.5838415E-009  1.9589846E-009 0.0  5.4569499E-011  1.5010793E-011 0.0 -1.4133027E-009 -4.1957440E-010 0.0  2.8832684E-007  8.5775304E-008 0.0 -1.5060423E-005 -9.6011100E-007 0.0  1.4859402E-006 -1.6739653E-006 0.0  9.5693608E-009  2.8556714E-009 0.0 -2.0981712E+001 -2.9898915E+000 0.0 -6.5159895E-017 -1.1077329E-017 0.0 -1.7993293E-016  8.5109686E-017 0.0 -1.7044445E-015 -5.2727909E-016 0.0  4.9118431E-015  2.7326086E-015 0.0  5.9839780E-008 -7.2178308E-007 0.0 -8.0451253E-009  1.6301731E-006 0.0 -3.3332916E-004 -1.0770653E-003 0.0  7.4750961E-005  5.9701872E-006 0.0  9.9102101E-001 -4.1983181E-001 0.0 -7.9910496E-017 -1.4892309E-017 0.0 -4.7491753E-017 -7.8222184E-018 0.0  6.1700896E-018 -1.2374821E-017 0.0 -2.0255735E-003 -9.6270106E-004 0.0 -3.1451989E-005 -3.6380170E-005 0.0  4.0759030E-002 -8.2644384E-004 0.0  3.1264139E-010  9.2980333E-011 0.0  2.9371505E-011  8.6931192E-012 0.0  1.9885515E-007 -2.0806663E-006 0.0 -9.0472378E-007  1.1872885E-005 0.0  1.1182305E-006 -6.0444474E-005 0.0  5.5583901E-009 -4.0078987E-006 0.0  9.9839248E-007  3.8821588E-005 0.0  7.1399915E-007  2.0164539E-005 0.0 -1.8516689E-005 -5.1313768E-004 0.0 -6.6856590E-007 -1.7762225E-005 0.0 -2.8788686E-006 -7.4135936E-005 0.0  1.6530317E-006  7.4871726E-006 0.0 -4.9802778E-005 -2.6634903E-004 0.0 -1.4823549E-006 -8.5910910E-006 0.0 -1.8249463E-005 -7.1660732E-005 0.0  1.9365236E-006 -2.5586358E-005 0.0 -4.2014127E-001  4.0467205E-002 0.0 -2.6121345E-007 -1.0178078E-006 0.0  3.4661122E+001  2.5174072E+001 0.0  8.3549354E+000  6.6900348E+000 0.0 -5.1162725E+000 -2.0915513E+000 0.0  1.1823412E+002  6.5798931E+001 0.0 -4.3217613E+000  1.0842269E+000 0.0  1.0059773E-001 -3.6852988E-002 0.0 -1.1598980E-004  9.5295861E-005 0.0 -9.2161062E-004 -5.2958200E-005 0.0  2.6078463E+002  6.6047149E+001 0.0  6.0255457E+000  1.4166669E+000 0.0 -3.5477409E+001  3.8912634E+001 0.0  1.0334158E+001 -4.1543185E+000 0.0  7.5348216E-001 -2.4836480E-001 0.0 -8.2733078E-001  7.6021759E-001 0.0  7.0777369E-002  6.7729651E-004 0.0  1.3378883E-002 -1.2506775E-002 0.0 -4.7935291E-002 -1.4815713E-002 0.0 -1.6120049E-003 -6.8240045E-003 0.0  4.0228091E+000  3.2026799E+001 0.0  1.0778966E+002  3.8116705E+001 0.0  1.2187486E+001  4.7820604E+000 0.0 -4.1261883E-008 -1.2098359E-008 0.0 -1.9854942E-001 -3.1099563E-001 0.0 -4.6238532E-002 -3.2364018E-004 0.0 -8.5874371E-003 -4.4469690E-004 0.0  1.4196391E-003  1.6144213E-004 0.0  1.8286792E-010  9.9120859E-011 0.0 -3.4282059E-002 -1.0527831E-003 0.0 -1.4603261E-002 -3.9476806E-004 0.0 -1.6835481E-001 -4.7729629E-003 0.0 -1.0553549E-002 -4.5105672E-004 0.0 -2.7792946E-002  3.4659582E-004 0.0 -1.0290318E-002 -1.5281072E-004 0.0 -5.7674479E-001 -2.6145942E-002 0.0 -2.3315723E-003 -1.4202648E-004 0.0 -3.6862179E-001 -1.4790086E-002 0.0 -3.4324945E-002 -1.5287772E-003 0.0 -4.3328473E-001 -2.1674509E-002 0.0 -2.6096038E-001 -1.0095980E-002 0.0 -9.3613861E-003 -2.8673823E-004 0.0 -2.9082937E-001 -9.9511827E-003 0.0 -1.2405704E-002 -5.3754457E-004 0.0 -1.1626186E-001 -5.2055076E-003 0.0 -5.5875099E-002 -2.8064944E-003 0.0 -4.9700990E-001 -2.0365723E-002 0.0 -3.2747921E-002 -2.1097775E-003 0.0 -2.1637000E-001 -7.7561421E-003 0.0 -6.9728870E-003 -1.8961267E-004 0.0 -5.2530707E-002 -1.0519430E-003 0.0 -3.5982065E-006 -1.0294329E-005 0.0  3.5065140E-005  8.4405709E-005 0.0  6.3710735E-018 -1.0859740E-017 0.0 -3.7521441E-017 -1.4407259E-017 0.0 -7.7488680E+000 -1.0243672E+001 0.0 -2.3205915E+000 -3.0612484E+000 0.0  1.0990974E+002 -3.9199065E+001 0.0  3.9750470E+000 -1.8412205E+000 0.0  4.1219725E+000  1.1199313E+001 0.0 -6.9612589E+000  9.6872451E+000 0.0  1.8211179E+000 -1.1076258E+001 0.0  1.8403573E+001 -8.2208122E+000 0.0  5.7968617E+000 -3.6966417E+000 0.0 -3.1374567E+000  4.5145159E+000 0.0  6.2982576E+000 -4.8301230E+000 0.0  8.1966397E+000 -3.9920365E+000 0.0 -4.2633880E+000  2.4437658E+000 0.0  1.2070466E-006 -2.6961579E-005 0.0  1.5116171E-006 -2.3818665E-005 0.0 -4.1782084E-007 -2.9220587E-006 0.0 -6.3534763E-015 -1.2164929E-015 0.0  1.9000422E-014  3.9967900E-017 0.0 -2.8072615E-002 -2.8596010E-003 0.0  1.1657698E-004  4.7252209E-005 0.0  3.4355656E-010  1.0209029E-010 0.0  3.4441177E-010  1.1608501E-010 0.0  4.2982598E+000 -4.1197457E-001 0.0 -1.7813117E-004 -1.1945030E-005 0.0 -8.4412786E-008  9.6924332E-007 0.0  1.3548946E-006 -1.4541566E-005 0.0  2.8920945E-006 -3.3661259E-005 0.0 -4.1351427E+000 -5.2514377E+000 0.0  1.4448877E-006  4.0380077E-007 0.0  1.9774633E-007  1.4897719E-007 0.0  8.2073383E-005  4.9079150E-004 0.0 -3.5203948E-004 -1.1234824E-003 0.0 -1.1217700E-003 -2.4543797E-003 0.0  1.2728063E-004  2.2471733E-004 0.0 -5.4401086E-003 -9.8682463E-003 0.0  9.2430388E-004  2.7970220E-003 0.0  2.6290464E-006 -3.6783311E-004 0.0 -1.1515664E-006 -1.0081467E-004 0.0 -1.5285169E-005 -4.8692292E-006 0.0  6.6281770E-006 -6.8927066E-005 0.0 -2.5574496E-004 -8.7114153E-005 0.0 -2.6793821E-004 -7.6521990E-005 0.0 -2.7540764E-005  3.5202148E-004 0.0  8.4044981E-005 -1.0992175E-003 0.0 -1.3750450E-013 -2.4437694E-015 0.0 -1.3179447E-017 -5.2292058E-018 0.0 -7.5634000E-010 -2.2550129E-010 0.0  2.4701921E-011  7.3568097E-012 0.0 -1.7923264E-004 -3.3842469E-004 0.0 -4.5112770E-003 -8.2229596E-003 0.0 -1.9390686E-004 -6.7848149E-004 0.0  2.3267850E-012  1.1220452E-012 0.0  1.2558472E-011  3.9342763E-012 0.0 -6.1331095E-011 -9.5995846E-012 0.0  6.5233129E-012  1.9411879E-012 0.0 -4.1533219E-014 -2.2177441E-014 0.0 -3.7393009E-006 -5.3047809E-008 0.0 -6.1260111E-008  3.8670468E-009 0.0 -3.6904370E-008 -1.7178462E-008 0.0 -6.8627043E-009 -1.1328189E-009 0.0 -1.4645579E-007 -4.8675828E-009 0.0  1.3138632E-009  5.6290908E-010 0.0 -1.2943333E-009 -9.0260755E-012 0.0 -2.3167697E-006 -2.0443887E-004 0.0  1.0102178E-006 -1.3028827E-005 0.0 -9.1975838E-013 -2.8580211E-014 0.0 -1.2462023E-013  4.1142203E-015 0.0 -1.9332791E-011 -7.0818993E-013 0.0  3.6723478E-005  1.9560700E-004 0.0  1.7589868E-005 -1.8028372E-004 0.0 -2.0324528E-002 -3.8567292E-002 0.0  1.2471657E-011  1.0415491E-013 0.0 -2.6103271E+000  1.3921734E-001 0.0  1.0190994E-014  4.0845480E-015 0.0 -7.0342731E+000  7.8814467E+000 0.0 -5.9532326E-003 -1.0793394E-002 0.0 -4.5437625E-002 -8.4598616E-002 0.0  2.2593320E-006  6.7188491E-007 0.0 -1.4323691E-007 -5.1109155E-008 0.0 -5.1651969E-005 -4.4447452E-004 0.0  2.7451139E-006  8.7451249E-007 0.0  8.3340114E-006  2.8509269E-006 0.0 -3.7817604E-008 -9.3115298E-007 0.0 -5.6199748E-005 -4.0210221E-006 0.0  7.4579574E-012  2.1134759E-012 0.0  4.1555498E-013  6.9291361E-014 0.0  1.3308981E-012  3.9748370E-013 0.0  2.6521778E-014  7.7809778E-015 0.0 -8.9397814E-014 -8.2126884E-014 0.0  3.1585308E-015  2.3361277E-015 0.0 -2.0502584E-014 -1.6070552E-014 0.0  9.1510341E-017  9.9086472E-017 0.0 -1.7894212E-014 -1.3950824E-014 0.0  5.5291322E-016  4.4991738E-016 0.0  1.8107745E-016  8.4060318E-017 0.0 -4.6745364E-017 -4.5671994E-018 0.0  9.7909127E-017  7.6691089E-018 0.0 -1.0039318E-017  1.3746790E-017 0.0 -1.1693709E-014 -9.8925068E-015 0.0 -1.4958714E-013 -1.2998896E-013 0.0 -3.3320765E-017 -1.5778913E-017 0.0 -3.5687507E-017 -1.7194118E-017 0.0  1.6345152E-017 -1.2771071E-017 0.0  8.3772775E-011  2.4911348E-011 0.0  2.4995582E-012  7.4325992E-013 0.0  4.2646560E-008  1.4028396E-008 0.0 -1.8570546E-017 -1.0050631E-017 0.0 -3.4611481E-017  1.0381631E-017 0.0 -3.2878044E-017 -1.3264458E-017 0.0  2.1622491E-001  2.1066993E-002 0.0  1.3658831E+000  2.0491720E-001 0.0 -7.8849950E-009 -6.0702746E-008 0.0 -4.4490188E-004 -2.0624604E-005 0.0  3.9491825E-002  1.9604207E-002 0.0 -1.0538133E-006  5.8441547E-008 0.0  2.8186139E-005  1.7589267E-006 0.0  1.6787645E+001 -1.5476111E+001 0.0  5.5711451E+000 -5.6944949E+000 0.0  1.2085832E+001 -1.2025564E+001 0.0  1.3807476E+001 -3.0402633E+000 0.0 -3.7252777E+001  1.4343942E+001 0.0 -8.8798463E+000  7.1171640E+000 0.0  5.1107138E+000 -1.3783639E+001 0.0 -1.5802816E+000 -1.5096113E+001 0.0  1.1545640E+000 -2.3260968E+000 0.0  4.8930486E-001 -3.7128200E+000 0.0  3.1294142E+000  5.1053594E+000 0.0 -1.1434782E+001  9.7088992E+000 0.0  5.7313765E-005 -8.4359375E-006 0.0 -7.8980907E-004 -2.7311534E-004 0.0 -1.6852948E+000 -1.5487554E+000 0.0  1.9603039E-008  1.1098886E-008 0.0 -1.9064066E-005  2.1077971E-004 0.0 -4.7192371E-004 -1.0040139E-003 0.0 -3.1561889E-010 -1.2127486E-011 0.0 -1.1990245E-004 -1.0089806E-003 0.0  3.3766707E-017  2.9612842E-017 0.0 -2.8854529E-002 -1.8884272E-002 0.0  3.9129592E-004 -4.0272001E-003 0.0  1.2883003E-003 -1.7256780E-002 0.0 -2.9499311E-004  4.5729296E-003 0.0  7.9612625E-004 -1.0054621E-002 0.0 -9.6467756E-004 -1.9509932E-004 0.0 -6.9024917E-006  4.1833232E-006 0.0 -8.4914444E-005 -9.5673908E-006 0.0 -2.5776718E-005  1.7751049E-007 0.0 -2.3420898E-005 -7.6068662E-007 0.0 -4.8631507E-008 -2.2990894E-008 0.0 -2.6474333E-009 -1.1151097E-009 0.0 -4.3304020E-003 -9.7535750E-003 0.0  1.7960331E-004 -1.8203879E-003 0.0 -2.8864217E-012 -6.9467295E-013 0.0  2.0751540E-002  1.9550422E-004 0.0  4.0810172E+000 -2.2455111E+000 0.0  8.9503968E-007 -1.1469753E-005 0.0 -1.1109022E-017 -1.1115571E-017 0.0 -4.2556079E-005 -7.8095440E-004 0.0 -4.2392705E-010 -1.2200306E-010 0.0  8.3319670E-013  6.5895046E-014 0.0 -1.3596679E-011 -1.5338317E-012 0.0 -2.7650381E-003 -2.2204562E-004 0.0 -1.0237069E-003 -8.0449198E-005 0.0 -1.0767526E-003 -5.1500845E-005 0.0 -3.0078658E-002 -1.2796342E-003 0.0 -4.2947700E-003 -2.7503107E-004 0.0 -3.3149460E-002 -1.3900022E-002 0.0 -1.6968563E-001 -9.4373151E-002 0.0  4.2803848E+000 -1.4131985E+000 0.0 -8.8273961E-003 -1.8422434E-002 0.0  1.8565107E-006 -6.7633950E-007 0.0 -1.1659408E-006 -4.2943615E-006 0.0 -4.0895289E-005 -2.1359338E-006 0.0 -4.6381632E-003 -6.2397512E-003 0.0  6.2142581E-002  1.1220327E-001 0.0 -2.7035738E+000 -1.1847501E+000 0.0 -4.8098062E-002 -1.4281195E-002 0.0 -2.8230493E-014  5.2407914E-014 0.0 -2.5666196E-010 -8.7242376E-012 0.0 -1.9212191E+001  5.4604650E+000 0.0 -5.4050972E-001  2.3125736E-001 0.0 -1.8947242E-002  9.2126793E-004 0.0  1.0195856E+001  4.8087484E+000 0.0 -1.2124303E-001 -4.8033605E-002 0.0  3.7642872E+000  4.6207023E+000 0.0 -1.1886915E-001 -8.8069467E-002 0.0  7.3551512E-004  2.2993943E-004 0.0 -4.9222383E-013 -1.4562461E-013 0.0  8.0454798E-013  2.5776826E-013 0.0  1.9885930E-006 -2.3578479E-005 0.0  7.6759877E-013  2.2743613E-013 0.0  9.2316797E-008 -1.2675526E-009 0.0  9.2999227E-003 -1.4733399E-001 0.0  8.8521181E-008 -2.8274890E-006 0.0 -1.6915908E-006  4.2723359E-005 0.0  4.4282618E-013  1.3139844E-013 0.0 -6.5901691E-004 -3.8151994E-005 0.0 -4.5593458E-004 -2.4360082E-005 0.0  2.5296552E-003  1.6120864E-004 0.0  2.5020910E-003 -3.3078142E-002 0.0  1.0073495E-004 -6.2212045E-004 0.0 -2.4761174E-004 -1.4130864E-004 0.0 -2.2339086E-003 -9.6508944E-004 0.0 -1.8521226E-003 -6.4119884E-004 0.0 -2.1647021E-005 -5.1254577E-006 0.0 -1.0033874E-006 -5.3923801E-008 0.0  6.8348982E-011  2.3617545E-011 0.0  1.0736214E-003 -9.7326988E-005 0.0  1.7365734E-004  1.1951661E-005 0.0 -1.5747103E-002 -1.3163011E-003 0.0 -9.8348533E-005 -4.7467567E-004 0.0  1.4234647E-003  7.6529756E-003 0.0 -2.2212031E-003 -1.4444361E-002 0.0 -2.3567156E-002 -1.1454743E-001 0.0 -8.0897608E-003 -1.1158145E-004 0.0 -9.5966321E-003 -6.2383540E-005 0.0 -1.8981735E-003 -7.5859961E-006 0.0  1.7135060E+000 -1.7332090E-001 0.0 -7.1837967E-008 -1.3823596E-008 0.0 -5.3637121E-002 -3.4355487E-003 0.0 -1.1127927E-002 -2.0135678E-004 0.0 -2.3681810E-004 -7.7422130E-006 0.0 -6.9437679E-003 -1.8611107E-004 0.0 -2.7200084E-002 -1.5808596E-003 0.0 -4.1488551E-002 -2.8263402E-003 0.0 -2.3194630E-002 -1.2263056E-003 0.0 -1.6903729E-002 -4.1028990E-004 0.0 -4.3058452E-004 -7.9347971E-006 0.0 -1.1323889E-004 -2.7806285E-006 0.0 -7.4759920E-013 -4.2766430E-013 0.0  2.0215682E-014  1.1410550E-014 0.0 -7.6198837E-014 -5.0660499E-014 0.0  7.9795008E-013  4.3635241E-013 0.0 -3.8750153E-012 -2.1310295E-012 0.0  2.1289461E-011  1.1637770E-011 0.0 -2.6322438E-013 -1.4379259E-013 0.0  1.4946809E-011  8.1770522E-012 0.0 -1.5328686E-012 -8.5671165E-013 0.0  1.2963354E-010  7.1161828E-011 0.0  2.3498051E-014  7.0620859E-015 0.0 -1.8663395E+000  1.2784170E+000 0.0 -2.4258323E-001  1.4647234E-001 0.0  5.3532326E-001  8.3312278E-002 0.0  2.2155834E-002  7.9424121E-003 0.0 -1.8174199E-004 -1.0401796E-006 0.0  1.5905534E-002  2.9268719E-002 0.0 -3.4140693E-006 -1.0195351E-005 0.0 -2.2114441E-007 -1.0333893E-007 0.0 -4.3742915E-003 -1.3329843E-002 0.0  9.0322366E-003  4.9554460E-002 0.0 -6.2599718E-002 -1.7367400E-001 0.0  1.9081553E-001  4.6362593E-001 0.0 -1.0442273E-001 -1.8994518E-001 0.0 -2.1440312E-001 -1.0125535E+000 0.0  2.0996278E-005 -4.8777179E-004 0.0  9.8924651E-005 -2.0685530E-003 0.0 -3.9776040E-005  7.1334802E-004 0.0  1.4507449E-005 -2.7059850E-005 0.0 -1.4803170E-004 -4.4198518E-003 0.0  1.8766337E-004 -2.5348902E-002 0.0 -9.5432320E-004 -6.9882532E-003 0.0  1.8081214E-004  7.3350726E-004 0.0 -1.9762462E-004 -8.6176555E-005 0.0 -4.4983983E-006 -1.9804383E-006 0.0 -2.6542537E-005 -1.0926987E-005 0.0 -7.8875369E-004 -4.0081777E-005 0.0  1.3081975E-013  3.8856473E-014 0.0 -2.0066125E-005 -1.5928596E-003 0.0  4.7375355E-017  8.1445570E-017 0.0 -1.2097426E+000 -2.1702704E+000 0.0 -1.0557115E+000 -1.9354668E+000 0.0 -6.8222383E-005 -1.2870237E-003 0.0 -7.8949509E-004 -4.9030083E-003 0.0 -2.1484864E-004 -9.1051265E-003 0.0  2.8488171E-005  8.7119896E-004 0.0 -4.1648538E-006 -4.1209903E-003 0.0  8.6797841E-004  1.6456197E-003 0.0 -5.5945000E-003 -2.2048894E-001 0.0  1.7779250E-002  1.3102964E-001 0.0  1.3559683E-005 -1.5047545E-004 0.0  2.9670006E-004 -3.0512488E-003 0.0 -6.1831261E-003 -6.9676808E-003 0.0 -8.7530369E-002 -5.0991716E-003 0.0  1.7100313E-004  1.3189241E-004 0.0 -5.8958244E-004 -4.5236665E-005 0.0  5.0377939E-017  4.6971918E-017 0.0 -4.3877458E-002 -3.7933082E-002 0.0 -1.8112276E-001  1.7813466E-002 0.0  2.5861674E-005  6.4449371E-007 0.0  3.4295181E-005  1.4879905E-005 0.0  3.9269927E-006 -1.1706053E-006 0.0 -1.1578992E-007 -1.2649064E-007 0.0  1.1370580E-007 -1.1537434E-008 0.0  1.1387490E-001  2.7227350E-001 0.0  1.0571529E-002  1.9530932E-002 0.0  3.8270633E-004  5.8798105E-004 0.0  8.0654539E-004  1.5147988E-003 0.0  4.9704061E-005  8.3980276E-005 0.0  5.9052448E-005 -1.0211818E-004 0.0 -3.1272353E-002 -6.2512402E-002 0.0 -1.7169503E+000 -2.1181891E+000 0.0 -7.3615369E-006 -4.4239528E-007 0.0  2.1451265E-005  1.3071999E-006 0.0 -1.3220793E-003 -3.3309618E-005 0.0 -5.6203005E-009 -6.0349288E-008 0.0  5.5206571E-014  1.8549698E-014 0.0 -1.5877610E-006 -6.3278863E-007 0.0  5.7626672E-006 -7.5476872E-006 0.0 -3.1588784E-004 -2.8331319E-005 0.0 -1.6716709E-017  1.3516147E-017 0.0 -6.2568270E-002 -3.3843944E-002 0.0 -2.6594678E-006 -8.2967125E-008 0.0  6.1273378E-005  1.8170908E-005 0.0  6.9274015E+000 -9.5800790E-001 0.0 -4.2708011E-003 -2.1505756E-003 0.0 -1.1756222E-003  1.3371795E-004 0.0 -1.1940549E-002 -3.3647101E-003 0.0 -3.8099368E-003 -1.0857387E-003 0.0  6.8406859E-013  2.0321421E-013 0.0  3.6339640E-002 -8.6031160E-001 0.0 -2.5939000E-002 -4.8383037E-003 0.0  7.0888235E-009  5.7753649E-009 0.0  3.8493403E-003 -3.1868098E-001 0.0 -2.6925392E-003 -7.6233376E-002 0.0  7.2319840E-007 -9.3186045E-006 0.0  1.1784599E-003 -2.3126762E-002 0.0  3.2282037E-004 -4.5993408E-003 0.0  1.0719748E-003 -2.2979837E-002 0.0 -4.4479189E-003 -8.0736913E-003 0.0 -6.9396335E-004 -2.3912641E-003 0.0 -3.7741652E-017  1.0902639E-017 0.0 -1.5892371E-002 -5.1512670E-002 0.0  2.3081373E-004 -2.6800727E-003 0.0  2.4263660E-003 -2.5165590E-002 0.0 -1.2348021E-001 -1.2544128E+000 0.0  1.0729392E-013  3.1887014E-014 0.0  5.4560545E-015  1.7557551E-015 0.0  1.9132169E-015  5.9144436E-016 0.0  2.1347676E-017  5.0834064E-017 0.0  1.8069446E-016  5.5443039E-017 0.0 -5.8246666E-017 -4.7413835E-018 0.0 -1.5197805E-006 -4.9725789E-008 0.0 -4.9866826E-017 -1.1540759E-017 0.0 -7.2876483E-007 -3.4517583E-007 0.0 -6.3686730E-017 -5.1078059E-018 0.0 -1.7857174E-011 -1.1325692E-011 0.0  3.8085065E-017 -3.4136353E-018 0.0  2.5526162E-016  8.1789551E-017 0.0  1.1294440E-015  9.6737513E-017 0.0 -5.5395164E-018 -1.3151628E-018 0.0 -6.7074465E-017 -7.3825943E-018 0.0 -5.0112159E-010 -2.5274202E-010 0.0 -7.9306632E-014 -1.4785441E-013 0.0 -2.3988812E-007 -7.4141963E-007 0.0 -1.6983212E-005 -5.1640779E-005 0.0 -5.3620423E-008 -1.8028659E-009 0.0 -4.0479570E-005 -1.1985167E-005 0.0 -1.3331941E-008 -4.0462420E-009 0.0  5.6864995E-012 -1.8384590E-011 0.0 -2.2852490E-011 -1.7637942E-011 0.0 -1.7106588E-012 -1.3213839E-012 0.0 -9.3621083E-014 -7.0196703E-014 0.0 -2.9148999E-013 -2.2749633E-013 0.0  7.4904818E-011  2.2294479E-011 0.0  5.3752765E-012  1.6145212E-012 0.0  9.3223540E-013  3.2780586E-013 0.0 -4.3311966E-014 -1.1021946E-014 0.0 -1.2402199E-008 -3.6953022E-009 0.0  1.1077746E-009  3.2940358E-010 0.0 -1.4029896E-009 -5.7945712E-010 0.0  3.2010747E-006  9.5235056E-007 0.0 -3.4288180E-009 -1.1205389E-009 0.0  7.8896285E-010  1.1517237E-010 0.0 -2.2278440E-008 -7.2782682E-009 0.0  9.2826992E-012  2.7565487E-012 0.0 -4.3217957E-011 -1.6083867E-011 0.0  1.1488972E-009  5.4452038E-010 0.0  2.9045201E-013  8.6521940E-014 0.0 -1.2994511E-012 -1.3183052E-012 0.0 -6.5106625E-013 -2.6176106E-014 0.0 -2.0973902E-011 -4.6040435E-012 0.0 -3.6530359E-014 -7.6549346E-015 0.0  6.5702437E-017  3.5355680E-017 0.0 -1.6058032E-012 -3.1847254E-014 0.0 -9.3195769E-013  2.8678705E-013 0.0 -7.8659435E-017 -1.8384683E-018 0.0 -2.8949302E-017 -1.8907301E-018 0.0 -6.2332746E-017 -3.1849201E-017 0.0 -3.9074762E-017  2.2161478E-017 0.0  2.8775765E-016  3.2557903E-016 0.0 -5.6135055E-017 -1.7197436E-017 0.0 -1.1712558E-016 -7.2381927E-017 0.0 -6.3449495E-018  2.3301497E-017 0.0  2.2448793E-016  2.3276053E-016 0.0 -1.1065700E-016 -8.1336798E-017 0.0  5.7341843E-016  5.4955984E-016 0.0  1.6067830E-015  9.9894118E-016 0.0  1.4496455E-016  8.4070242E-017 0.0 -5.9526100E-015 -3.1878109E-015 0.0  4.5855003E-017  4.9619333E-018 0.0 -2.3413026E-015 -1.2136326E-015 0.0 -7.1450003E-014 -3.8914552E-014 0.0 -7.9950465E-013 -4.5268466E-013 0.0 -5.9311629E-013 -3.3559146E-013 0.0 -2.2621054E-014 -1.2717401E-014 0.0 -2.8723504E-017 -1.0445176E-017 0.0 -1.5773683E-015 -8.5083716E-016 0.0 -1.7715384E-016 -7.3960451E-017 0.0 -2.8622363E-014 -1.6018522E-014 0.0 -3.4346435E-012 -5.1072728E-014 0.0 -6.4205075E-012 -3.5341129E-012 0.0  2.8243595E-017  6.4931357E-018 0.0  7.5484037E-017  4.6633815E-018 0.0 -3.9073310E-017 -1.7402931E-017 0.0  7.4846365E-017  5.7015015E-017 0.0 -7.5900724E-018  1.0147366E-017 0.0 -3.9016231E-014 -7.8336434E-015 0.0 -3.2907156E-012 -5.9578226E-013 0.0  4.8052598E-013  2.3629486E-013 0.0  9.7268185E-017  5.7287272E-017 0.0  1.3617767E-010 -2.5223815E-013 0.0 -1.5033454E-015 -3.8384188E-016 0.0 -1.6375727E-017 -1.5398645E-017 0.0 -3.5873314E-016 -1.7323311E-016 0.0 -4.7209555E-015 -4.8587357E-015 0.0  7.5207941E-014  4.1256747E-014 0.0  1.3836446E-016  6.1177465E-017 0.0  2.2384346E-014  1.2612582E-014 0.0 -3.2723187E-013 -1.8386421E-013 0.0 -4.8875307E-013 -9.9192153E-014 0.0  2.8006856E-015  8.2907332E-016 0.0  2.0675056E-013  8.9895700E-014 0.0  1.7861838E-015  3.3548395E-016 0.0 -2.0201121E+001 -3.5870114E+001 0.0  1.1500219E-014 -1.0439292E-015 0.0 -1.2876596E-008 -9.4478782E-007 0.0  6.4828020E-002 -7.3467783E-001 0.0  6.0068274E-002 -6.1409408E-001 0.0  2.5543182E-002 -3.2257654E-001 0.0  4.0472841E-002 -4.2458904E-001 0.0 -1.5721196E-001 -4.3445858E+000 0.0 -3.6762844E-001 -2.5430712E+000 0.0  1.0121549E-003 -4.7901647E-002 0.0 -2.4185649E-003 -1.4499239E-001 0.0 -3.2038519E+000 -1.0035004E+001 0.0 -4.5587831E+000 -1.1511320E+001 0.0 -1.4404564E-002 -5.1133575E-002 0.0 -5.6554710E-017  4.2492369E-018 0.0 -2.7770059E-005  3.9958185E-004 0.0  5.1598509E-003 -5.9740473E-002 0.0 -3.4820956E-001 -2.7735443E-002 0.0  2.3342613E-017  6.2702298E-018 0.0 -1.4633379E-003  9.5135391E-004 0.0 -9.6202533E-003 -4.7863864E-004 0.0  7.8365403E+000  2.8424727E+000 0.0  1.6816026E+000  4.4983761E-001 0.0  6.9591423E-002  2.7641993E-002 0.0  8.2183652E+000  4.7502062E+000 0.0 -4.4300711E+000  9.1166051E+000 0.0 -1.5382588E-001  2.0357249E+000 0.0  2.2732497E+001  5.4252338E+000 0.0  2.6552106E-010  1.4493508E-010 0.0 -2.4396392E-001 -4.0416272E-001 0.0 -1.3770236E-010 -7.8147296E-011 0.0 -2.7865071E-009 -1.5796561E-009 0.0  2.2212647E-005  1.5054297E-006 0.0 -2.4699824E-004 -1.5375465E-005 0.0 -1.2843291E-001 -3.5974421E-002 0.0 -3.9082961E-005 -8.7604245E-007 0.0 -2.9060789E-002 -8.6061799E-003 0.0 -9.0264649E-014 -5.0668921E-014 0.0 -5.1659742E-001 -1.0040955E+000 0.0  7.6590998E-007 -1.3589802E-005 0.0 -6.8019966E-002 -1.7581569E-001 0.0  9.8910971E-004  2.5994869E-003 0.0 -4.0969034E-002 -9.4594083E-002 0.0 -3.6090121E-002 -7.0236548E-002 0.0 -9.8373429E-001 -1.0579331E+000 0.0 -6.1048997E-002 -3.6105872E-001 0.0  1.5996769E-008  1.4589908E-007 0.0  1.4277595E-008  1.1285413E-007 0.0  1.5278146E-016  8.8951475E-018 0.0 -1.5254454E-003 -3.9204585E-005 0.0 -5.7563339E-005  4.1882226E-007 0.0 -3.3493658E-005 -1.0004112E-004 0.0  7.4218144E-010  1.0432692E-011 0.0 -7.6850538E-002 -1.1094698E-002 0.0 -1.5072428E-011 -8.5204685E-012 0.0  1.5788497E-002 -1.9729789E-001 0.0  1.3390493E-003  2.3043227E-004 0.0 -5.5732462E-004  9.5576654E-005 0.0  1.7258376E-017  7.2415626E-018 0.0  1.7297749E-016  5.1068862E-017 0.0 -8.5522783E-018 -1.0619148E-017 0.0 -3.4789404E-003 -1.0489818E-004 0.0 -2.5827766E-003 -1.1483900E-004 0.0  7.8927171E-007  2.6229112E-007 0.0  1.8544558E-001 -2.7863169E+000 0.0  5.4613270E-017 -5.8464945E-018 0.0  7.6733713E-015 -6.0109332E-016 0.0 -1.5941484E-001 -5.0982622E-001 0.0 -3.6125958E-002 -2.0920603E-003 0.0  5.2340992E-010 -1.3210476E-011 0.0  4.7709875E-017  2.4472682E-017 0.0  2.4069818E-008  1.3059502E-008 0.0  2.9099499E-004  4.4505751E-004 0.0 -9.7121865E-004 -1.4195473E-002 0.0  5.7330531E-003 -5.8645329E-002 0.0 -6.0493623E-003 -1.2580427E-003 0.0  1.3898555E-010 -5.4511304E-014 0.0  9.4182602E-001  5.0349904E-001 0.0  6.2787993E-005  6.8042314E-005 0.0 -6.2557798E-002 -4.7244122E-002 0.0 -5.3463102E-001 -5.2963787E-002 0.0  4.4177491E-004  1.3120689E-004 0.0 -1.9336655E-005 -9.3921121E-007 0.0  1.1276302E-005 -1.3853564E-006 0.0 -1.9956609E-005 -7.8367376E-005 0.0 -2.7530953E-008 -1.0445856E-008 0.0 -2.4836839E+001 -2.9313293E+001 0.0 -8.3466290E-001 -3.1906566E+000 0.0 -2.1211444E-004 -1.2945876E-005 0.0 -3.7943162E-003 -7.8287811E-003 0.0  1.0313575E-007  8.0069349E-008 0.0  1.1389065E-015  1.1033086E-015 0.0  1.9066960E-002 -3.9401074E-001 0.0  1.2912477E-005 -6.9686387E-006 0.0 -5.7839920E-002 -1.4815340E-003 0.0 -7.4172021E-003 -3.7062131E-004 0.0 -2.3124025E-004  3.5751305E-007 0.0 -4.4234791E-002 -1.8388948E-003 0.0 -1.2495323E-002 -3.1730542E-004 0.0 -1.6664243E-002 -9.1300300E-004 0.0 -4.5775134E-002 -1.1758305E-003 0.0 -8.5667119E-002 -4.3235043E-003 0.0 -8.2658261E-002 -2.5235817E-003 0.0 -9.0776808E-003 -5.1324931E-004 0.0  3.7844383E+001 -1.2142465E+001 0.0 -7.8034579E-005 -5.5923628E-006 0.0  2.2035313E-010  3.2042725E-011 0.0 -6.2564002E-001  5.9107725E-002 0.0  6.3003724E-005 -7.6682156E-004 0.0 -1.5196176E-002 -9.2929068E-004 0.0 -2.6241662E-010 -1.0291340E-010 0.0  8.1171933E-008 -9.5699732E-007 0.0 -2.2471117E-006 -7.1395433E-006 0.0 -4.1547305E-005 -1.2728680E-004 0.0 -3.0451830E-004 -9.2863879E-004 0.0  2.4334757E-007 -3.8605917E-006 0.0 -9.1947983E-005 -1.4211798E-005 0.0 -9.8619404E-001 -2.1814597E+000 0.0  1.4123731E-003 -1.6264358E-003 0.0  1.2945422E-007  2.7403520E-006 0.0 -6.2036511E-003 -1.3159950E-002 0.0  2.0517314E-005 -2.0346297E-005 0.0  4.4681711E-001 -2.0922318E-002 0.0 -3.5519276E-002 -2.8271507E-003 0.0  2.1655178E+002 -2.0273946E+001 0.0 -8.8946062E+001  6.8964131E+000 0.0 -2.2358256E+000 -8.8519012E-001 0.0 -1.3585992E+001 -1.2574809E+001 0.0 -1.2686522E+002 -1.4880455E+002 0.0 -5.2972778E-009 -1.9143766E-010 0.0 -2.7174727E+000  1.6858827E-001 0.0  2.3741595E-005 -6.4621204E-003 0.0 -3.0634399E+000 -1.3576897E+000 0.0 -1.7508933E-002 -1.4051466E-001 0.0 -8.4514958E-002 -4.0155041E-003 0.0 -3.5115251E-003 -1.4782227E-002 0.0 -1.8810221E-003 -5.2787530E-002 0.0 -1.7035602E-002 -5.1554955E-002 0.0 -2.7287180E-001 -5.5735559E-001 0.0 -2.0422171E-010 -2.8687788E-011 0.0 -5.7472758E-002 -1.3242269E-001 0.0  1.4533016E-011  4.5862045E-012 0.0  1.2059012E-016  2.2275251E-016 0.0  5.1012676E-016  4.2980762E-016 0.0 -1.7706459E-003 -4.7258380E-003 0.0  2.2657815E-005  3.1662300E-005 0.0  1.1049995E-004 -1.3760299E-003 0.0 -7.5285224E-005 -4.1161423E-006 0.0  5.3601035E-006 -5.1828439E-006 0.0 -4.2718217E-017  4.4333204E-018 0.0  5.7840974E-008 -2.5188636E-008 0.0 -7.9764635E-005 -1.1530301E-006 0.0  1.3867909E-005 -1.7633749E-004 0.0 -1.5408942E+001 -3.0173166E+001 0.0  3.1961833E-004 -2.7258755E-003 0.0  2.7951031E-006 -8.8334742E-006 0.0 -7.4944561E-002 -1.0201009E-001 0.0 -9.0837339E-005  1.2409801E-003 0.0 -3.6231663E-007 -6.9997390E-007 0.0 -1.9279259E-004 -4.5293680E-004 0.0 -1.0734515E-005 -2.1584995E-006 0.0 -7.4989034E-004 -6.4345490E-006 0.0 -1.7873396E-003 -1.0899608E-004 0.0 -1.3127909E-006  1.8802537E-006 0.0 -8.2348695E-003 -2.4388713E-003 0.0 -2.6256402E-001 -8.2710565E-001 0.0 -6.2630868E+001 -2.7665776E+001 0.0  3.3898352E+002  2.6363795E+002 0.0  3.4384200E-002  1.6261323E-002 0.0  1.7780642E+002 -2.0378482E+002 0.0 -7.9203485E-001  6.3900126E-001 0.0  2.4584733E+002 -1.5234396E+002 0.0 -2.5705141E-004  6.1698232E-006 0.0 -2.6752648E-004 -1.8047948E-005 0.0 -7.2927718E-003  4.0890846E-003 0.0  1.2562227E-002 -5.3960433E-003 0.0 -2.3414740E+001  9.2187259E+000 0.0 -5.1225070E+001  3.7156163E+001 0.0  1.7241867E+002 -6.9217117E+001 0.0 -5.0576102E+000  4.2793362E-001 0.0 -1.8488376E+001 -1.6828279E+000 0.0  1.8530961E+001 -1.2080904E+001 0.0  1.6076246E+001 -1.3969258E+001 0.0 -5.3027708E+000  2.3010811E+000 0.0 -1.6909119E+000  1.7691569E+000 0.0  1.2470409E+000 -3.7786878E+000 0.0  2.1710427E+000 -3.8590858E-001 0.0 -4.5211044E+001  2.1412061E+001 0.0  1.5821679E+000 -2.7676232E+000 0.0  4.2404176E+002  8.1107305E+001 0.0  1.2537610E+003 -4.1079162E+002 0.0  6.6628643E+001 -2.2312779E+002 0.0  6.2644407E+002  2.4355285E+002 0.0  5.9127802E+002  2.8961968E+002 0.0  2.8958880E+002 -2.3460645E+002 0.0  2.2649363E+002  2.5137580E+002 0.0  2.7476296E+002 -1.4410484E+002 0.0  2.9478076E+001  9.6635610E+001 0.0  9.9647300E+001 -1.7538348E+002 0.0 -1.1164546E+002  2.6267701E+002 0.0  4.4518443E-001 -1.0715641E+001 0.0 -4.7771333E+000  3.9325178E+000 0.0  8.1346089E-001 -7.3421919E-002 0.0 -9.1125861E-001 -2.0945179E+000 0.0  8.8380616E-008  1.4305856E-008 0.0 -3.2760737E-003 -2.1236810E-004 0.0 -2.7314709E-008 -1.1091305E-009 0.0 -1.1178873E+001 -1.2903546E+002 0.0  2.5583316E+002 -1.1672499E+002 0.0  1.7684508E+002 -1.1843079E+002 0.0  2.0956273E+002 -1.9268905E+002 0.0  7.1055918E+000 -4.4319046E+000 0.0 -1.5657181E+000 -8.8942438E-001 0.0 -1.9917672E+000 -2.1091683E+000 0.0 -2.0554361E+000 -3.2831850E+000 0.0 -7.7634464E-001 -2.3024321E-001 0.0 -1.0986447E+000 -6.9722618E-002 0.0 -6.8597112E-003 -3.8284527E-004 0.0 -2.4811435E-001 -8.5742123E-001 0.0  4.1731200E-004 -1.1816580E-002 0.0  1.5237394E-014  5.3144666E-015 0.0  6.2192519E-004  1.0964208E-003 0.0 -8.7875013E-010 -1.8217344E-011 0.0 -7.7425110E-004 -3.2376370E-002 0.0 -1.0032767E-003 -5.0526019E-005 0.0  2.0808638E-004  6.2513191E-005 0.0 -5.4878297E-001 -1.4261890E-002 0.0 -2.6989759E-001 -3.0493743E-003 0.0 -1.3454721E-001 -2.5979818E-003 0.0 -3.0580988E-001 -1.3054930E-002 0.0 -6.7070498E-001 -2.9860449E-002 0.0 -4.5051221E-001 -6.1114693E-003 0.0 -5.9476141E-002 -1.3179759E-003 0.0 -1.5572114E-001 -1.1051047E-003 0.0 -8.3882803E-001 -1.9528603E-002 0.0 -6.3072498E-001 -2.7130195E-002 0.0 -2.4557385E+000 -1.4446564E-001 0.0 -1.8223725E+000 -1.0453186E-001 0.0 -4.7646137E-001 -8.9329191E-003 0.0 -1.1581525E+000 -5.6270614E-002 0.0 -1.4464027E+000 -6.2604953E-002 0.0 -1.8146720E-001 -4.5768449E-003 0.0 -1.4234528E+000 -5.6414759E-002 0.0 -1.0465557E+000 -2.9099733E-002 0.0 -1.8091757E+000 -9.5210202E-002 0.0 -6.6674768E-001 -1.7445933E-002 0.0 -1.7291301E+000 -8.9539097E-002 0.0 -5.6399044E-001 -3.0127950E-002 0.0 -3.8468464E-001 -9.0680498E-003 0.0 -6.6140349E-001 -1.5276930E-002 0.0 -1.7758247E+000 -1.1349501E-001 0.0 -1.6308319E+000 -8.1895609E-002 0.0 -6.9448136E-001 -2.5327745E-002 0.0  5.7065195E-003 -7.4832249E-002 0.0 -5.9665525E-008 -1.3149384E-007 0.0 -4.0207069E-003 -1.8155346E-004 0.0 -1.6871411E-005 -1.2016221E-004 0.0  2.9727851E-012  1.1884030E-012 0.0 -3.6756214E-003 -2.6891952E-003 0.0 -5.3753460E-002 -1.3671047E-002 0.0 -1.9518145E-003 -4.9435674E-004 0.0 -5.0647027E-003 -1.3304498E-003 0.0 -9.7187577E-002 -3.1931610E-002 0.0 -1.6637238E-002 -8.9831718E-003 0.0 -3.0862567E-002 -1.3251083E-002 0.0  9.4145419E-014  3.8266854E-014 0.0  4.6645120E-003  8.9286200E-003 0.0  1.0284795E-012  6.0403817E-013 0.0 -1.3175031E-002 -3.9229855E-003 0.0  3.4344079E-011  1.8670502E-011 0.0  1.7902148E-016  1.1018947E-017 0.0  2.7052126E-015  5.3832310E-016 0.0  3.4578247E-004  2.2984130E-005 0.0 -2.8613197E-014 -1.5771217E-014 0.0  1.4150257E-015  9.2073807E-016 0.0 -1.6321802E-002 -2.1710224E-001 0.0 -1.3209153E-001 -1.3321120E-001 0.0 -2.6093798E-003 -3.4551830E-003 0.0 -6.8347837E+000  7.8988206E+000 0.0 -1.3670312E-010 -3.4910186E-012 0.0  6.7065151E+001 -6.3888862E+000 0.0  1.0477100E-007  8.7489211E-009 0.0  2.5457970E-013  9.6669935E-014 0.0  8.5378929E-011  5.1647433E-011 0.0 -5.1217585E-010 -2.6274792E-010 0.0 -1.5372353E-002 -6.1730620E-004 0.0  2.0570107E-007  1.1542788E-007 0.0 -3.0556664E-004 -1.5701403E-005 0.0  1.5632976E-011  9.1588054E-012 0.0  3.0320284E-005  4.8977764E-005 0.0 -3.0998021E-002 -8.9043209E-001 0.0 -5.5907438E-001 -6.6894762E-001 0.0 -2.2295266E-004 -2.8325646E-003 0.0  1.0860229E-012  3.2597340E-013 0.0 -1.9403715E-013 -1.5583110E-013 0.0  1.6186915E-005 -1.1590261E-003 0.0 -7.6715690E-003 -1.5161760E-003 0.0 -6.7607037E-001 -5.6940041E-001 0.0  1.0403293E-006 -8.4230053E-006 0.0 -7.9597726E-012 -3.9991721E-012 0.0 -8.4837043E-003 -1.9247488E-004 0.0  2.8547750E-009  1.5511146E-009 0.0 -3.6197658E-004 -1.3937154E-004 0.0  6.2174411E-014  2.6963288E-014 0.0 -2.0525162E-003 -6.0769874E-004 0.0 -2.3966524E-004 -6.3388752E-005 0.0  2.8654102E-010 -1.9113728E-009 0.0 -2.5270186E-002 -1.6885942E-002 0.0  4.6120478E-005  4.3962121E-005 0.0  3.4738094E-014  1.0355409E-014 0.0 -5.0664459E-003 -2.7691252E-002 0.0  2.6524851E-004 -8.5722077E-002 0.0  6.4537788E+001 -6.5644270E+001 0.0  1.1682783E+001 -2.3082966E+001 0.0  5.9712820E+001 -4.5765592E+001 0.0  7.8647193E+001 -3.3938780E+001 0.0  8.4447047E+001 -4.0769109E+001 0.0  7.4091274E+000 -5.1261602E+001 0.0  8.5470570E+001 -5.4339365E+001 0.0 -3.8670105E-003 -1.1851785E-002 0.0 -5.0426068E+001 -5.0053527E+001 0.0 -2.7800702E-007 -1.0111612E-007 0.0 -1.2506982E+000 -3.4717687E+000 0.0 -2.3475684E-011 -5.1722861E-013 0.0  2.2717594E+001 -7.8839018E+000 0.0 -4.1865711E-004 -1.2183008E-002 0.0 -3.3603824E-003 -1.4755477E-003 0.0  3.8609273E+001  7.3789389E+000 0.0 -4.7260283E+000 -3.6853928E+000 0.0  3.6972407E-014  1.0974213E-014 0.0  8.7314737E+000  2.0749417E+001 0.0 -2.3024294E+000 -1.1643279E+001 0.0  5.5182384E-002 -5.4812356E+000 0.0  2.6174423E-004 -2.9525270E-004 0.0  1.7674666E-007  4.6609932E-007 0.0 -6.9204955E-004 -9.3453826E-004 0.0 -4.5901503E-003  2.5645894E-003 0.0 -6.4463271E-002  3.5880644E-002 0.0 -3.5245216E-001 -6.7024360E-001 0.0 -2.5109681E-007 -7.6731088E-007 0.0 -3.3802550E-008 -4.6132670E-007 0.0 -3.7753754E-006 -1.1576638E-005 0.0 -6.8182369E-004 -1.1346331E-005 0.0 -5.6576778E-001 -2.8503217E+000 0.0 -1.3645179E-001  1.3730570E-002 0.0 -1.7839454E-007 -8.1968551E-007 0.0 -1.1151120E-004 -4.2913739E-006 0.0  3.1337135E-004 -7.1131943E-003 0.0  8.4906655E-002  1.0950899E-001 0.0  7.7097861E-003 -8.0654921E-002 0.0  1.1750217E-008  7.1813997E-010 0.0 -1.2018620E+000 -1.3153228E+001 0.0 -1.1536237E-003 -6.1608671E-003 0.0 -1.5802132E-003 -9.6855820E-005 0.0 -4.1222024E-003 -2.0623847E-002 0.0 -6.8769030E+001  7.9614600E+001 0.0
        </DataArray>
        <DataArray type="Float64" Name="jxb im" NumberOfComponents="3" format="ascii">
 -1.3423947E+002 -1.9964539E+001 0.0 -3.5008898E+000 -3.5789284E-001 0.0 -1.1686429E+001  7.8969831E+000 0.0 -1.2993823E+002  2.0347983E+002 0.0 -3.2604805E-001  3.7318310E-004 0.0 -3.0477918E-001 -1.2266123E-003 0.0 -2.6904287E+000 -1.1798929E-001 0.0 -2.5602771E-001  5.8228642E-003 0.0  1.1492694E-001 -1.2274874E-002 0.0 -3.3389493E-002  7.0166952E-002 0.0 -1.1343616E-005  1.0623720E-005 0.0  1.0328584E+002  4.0998119E+001 0.0 -7.6353164E+000  1.5592217E+001 0.0 -1.2936211E+001  2.2963802E+001 0.0  1.0198233E+002  3.5949210E+001 0.0 -5.5278826E-007  6.8626974E-007 0.0  6.7304012E-018 -1.8795930E-017 0.0 -2.8105141E-019  2.1286846E-018 0.0 -2.5356302E-007 -3.0482436E-007 0.0  1.1326532E+000 -2.3065435E-003 0.0 -3.8329652E+002  2.7636328E+002 0.0  2.0778384E-002  1.8064229E-004 0.0  2.1047129E+001 -1.0147486E-001 0.0 -2.0891614E+001  1.5288671E+001 0.0 -2.4218218E+001  1.8441249E+001 0.0 -2.0924932E+001  1.6227624E+001 0.0 -2.1277872E+001  1.6057654E+001 0.0 -2.1068523E+001  1.5607985E+001 0.0 -1.6332310E+001  1.1739176E+001 0.0 -2.5495879E+001  1.6451917E+001 0.0 -1.8026051E+001  1.0298519E+001 0.0 -1.8883953E+001  9.6545178E+000 0.0 -1.5018499E+001  6.4827331E+000 0.0 -1.5429243E+001  5.2464037E+000 0.0 -1.5977923E+001  4.0381641E+000 0.0 -1.3518737E+001  2.4068056E+000 0.0 -1.1388335E+001  9.6307635E-001 0.0 -1.0272732E+001  2.5312171E-001 0.0 -8.1179211E+000 -3.8343974E-001 0.0 -1.9649799E+002  3.0081404E+002 0.0 -1.4756279E+002  2.0916976E+002 0.0 -1.2003118E+002  1.6223082E+002 0.0 -1.0289070E+002  1.2897304E+002 0.0 -9.3349234E+001  1.1141886E+002 0.0 -6.8163984E+001  7.4598500E+001 0.0 -5.0138618E+001  5.1306102E+001 0.0 -7.1678599E+001  6.7871324E+001 0.0 -4.7188462E+001  3.9580623E+001 0.0 -4.7290540E+001  3.7144880E+001 0.0 -3.3356708E+001  2.3703459E+001 0.0 -9.1630314E-001 -3.6502354E-003 0.0 -8.3931051E-001 -7.3785980E-003 0.0 -1.4279563E+000 -1.9022128E-002 0.0 -1.2350821E+000 -2.8385450E-002 0.0 -1.4184056E+000 -4.9520913E-002 0.0 -1.3171200E+000 -6.7016002E-002 0.0 -1.6389551E+000 -9.3256391E-002 0.0 -1.3038799E+000 -8.7088222E-002 0.0 -1.8305167E+000 -1.4075529E-001 0.0 -1.8237944E+000 -1.6317334E-001 0.0 -1.6570203E+000 -1.5330456E-001 0.0 -2.6450842E+000 -2.3806148E-001 0.0 -1.9674963E+000 -1.8580541E-001 0.0 -2.2028589E+000 -2.0677639E-001 0.0 -3.5526593E+000 -3.1065818E-001 0.0 -2.5446835E+000 -1.5986822E-001 0.0 -3.9103804E-001 -9.0849153E-002 0.0 -5.6701517E-001 -2.0955333E-001 0.0 -8.5819173E-001 -3.4630840E-001 0.0 -1.1163824E+000 -4.2464137E-001 0.0 -1.8228998E+000 -5.8874011E-001 0.0 -2.6436477E+000 -7.2417295E-001 0.0 -3.8520543E+000 -8.1341478E-001 0.0 -5.4818818E+000 -9.0682026E-001 0.0 -6.7806918E+000 -9.0121508E-001 0.0 -8.1429987E+000 -8.5843803E-001 0.0 -8.7064312E+000 -7.4393256E-001 0.0 -9.6128452E+000 -7.0327052E-001 0.0 -1.5218685E+001 -8.6898970E-001 0.0 -1.1189791E+001 -5.5924490E-001 0.0 -1.3870820E+001 -5.2109659E-001 0.0 -1.5615822E+001 -4.9536923E-001 0.0 -1.2999138E+001 -2.7543209E-001 0.0 -1.9126364E+001 -4.4430985E-001 0.0 -1.7951025E+001 -3.0994390E-001 0.0 -1.7193277E+001 -2.1437695E-001 0.0 -1.6670878E+001 -1.6009063E-001 0.0 -1.5675562E+001 -9.1435632E-002 0.0 -1.9498010E+001 -1.6511709E-002 0.0 -1.5605843E+001 -1.4195026E-001 0.0 -1.6906475E+001 -1.0540447E-002 0.0 -1.6140557E+001  5.1861527E-002 0.0 -1.7483212E+001  6.5375063E-002 0.0 -1.5509221E+001  7.6414742E-002 0.0 -1.5275639E+001  1.6948925E-001 0.0 -1.7786667E+001  7.1354363E-002 0.0 -1.6829168E+001  1.0533031E-001 0.0 -1.3861785E+001  1.4497715E-001 0.0 -1.8816929E+001  1.9321428E-001 0.0 -1.4141689E+001  9.7685072E-002 0.0 -1.3201185E+001  1.6073840E-001 0.0 -1.1701572E+001  1.2659796E-001 0.0 -1.7710334E+001  2.3247353E-001 0.0 -1.3338748E+001  1.2431585E-001 0.0 -1.2819846E+001  1.3738818E-001 0.0 -1.0549419E+001  1.5072962E-001 0.0 -1.4079516E+001  2.4686076E-001 0.0 -1.0860453E+001  7.5109366E-002 0.0 -1.1552263E+001  1.3320246E-001 0.0 -9.7908445E+000  1.5365588E-001 0.0 -1.3397914E+001  1.9762788E-001 0.0 -1.0091839E+001  1.0408295E-001 0.0 -9.3250500E+000  1.3613783E-001 0.0 -8.1434990E+000  1.0771266E-001 0.0 -1.2122088E+001  1.9685302E-001 0.0 -8.7960592E+000  1.1649945E-001 0.0 -7.9660870E+000  1.3114813E-001 0.0 -7.0301105E+000  1.0677919E-001 0.0 -1.0534938E+001  1.9257121E-001 0.0 -7.8229139E+000  1.1831355E-001 0.0 -7.4748185E+000  1.2405715E-001 0.0 -6.8135293E+000  1.1290761E-001 0.0 -6.6593562E+000  1.2659595E-001 0.0 -8.1551478E+000  1.4365112E-001 0.0 -6.0362419E+000  9.6984680E-002 0.0 -5.9122029E+000  6.8445622E-002 0.0 -5.6379633E+000  1.0354128E-001 0.0 -7.3262639E+000  1.4115700E-001 0.0 -5.5831869E+000  8.3186338E-002 0.0 -5.3719752E+000  8.8476003E-002 0.0 -4.9750247E+000  9.1612370E-002 0.0 -4.8346719E+000  9.6587070E-002 0.0 -5.9236949E+000  1.1449888E-001 0.0 -4.4306761E+000  7.7640057E-002 0.0 -4.2185304E+000  8.4801006E-002 0.0 -3.7870117E+000  6.2955738E-002 0.0 -3.9581379E+000  6.6083226E-002 0.0 -4.8245515E+000  8.1155769E-002 0.0 -3.5850829E+000  4.5589503E-002 0.0 -3.3064609E+000  4.3134195E-002 0.0 -3.2835100E+000  4.8027864E-002 0.0 -3.0927748E+000  5.6557139E-002 0.0 -2.8731278E+000  5.8442313E-002 0.0 -2.8649866E+000  4.1609835E-002 0.0 -2.8722232E+000  3.8059743E-002 0.0 -2.9436854E+000  3.6195738E-002 0.0 -3.6973360E+000  1.5556376E-002 0.0 -2.9136245E+000 -2.5624961E-002 0.0 -2.9991265E+000 -6.1945036E-002 0.0 -3.1180761E-003 -3.0319018E-004 0.0 -1.7514422E-003 -5.9323023E-004 0.0  2.5781037E-003  1.1951246E-003 0.0  1.6066790E-003  7.8636821E-004 0.0  7.7932296E-003  3.5041128E-003 0.0  3.1656281E-003  1.6017590E-003 0.0  1.3237664E-001  5.8439093E-002 0.0  1.6002783E-001  7.0706851E-002 0.0  2.8332348E-002  1.3596461E-002 0.0  2.2034678E-002  1.1715132E-002 0.0  6.4851365E-002  4.8061390E-002 0.0  1.2746584E-001  8.2838233E-002 0.0 -8.7244454E-002 -4.7640295E-002 0.0 -1.3398303E-002 -1.0822949E-004 0.0  2.0929207E-002  3.8931581E-002 0.0  4.4411381E-002  5.6489899E-002 0.0  6.9004450E-002  9.0943042E-002 0.0  9.2072954E-002  1.2185392E-001 0.0 -3.3298317E-002 -3.3511717E-002 0.0  2.3656973E-002  3.6388204E-002 0.0  3.2041063E-002  9.7795051E-002 0.0  6.6640112E-002  1.7799384E-001 0.0 -3.8852833E-002 -9.5886969E-002 0.0 -1.1773165E-002 -9.7415102E-003 0.0 -7.7235667E-003 -7.0743176E-003 0.0 -8.9958392E-004  2.5355572E-002 0.0 -1.0925646E-003  1.0772394E-002 0.0 -2.4198720E-003  1.3703187E-002 0.0 -3.9976310E-003  2.6275483E-002 0.0 -1.0140111E-002  3.6269901E-002 0.0 -2.3916261E-002  8.3247093E-002 0.0 -3.7926771E-002  9.1175650E-002 0.0 -6.3934536E-002  1.6723686E-001 0.0 -7.5068771E-002  1.9497650E-001 0.0 -1.1322601E-002  2.0452522E-002 0.0  1.2934655E-003 -2.7800380E-003 0.0 -5.0708196E-005  1.1989857E-004 0.0  2.9346119E-006 -6.0838022E-006 0.0  2.3057439E+002  1.0114596E+002 0.0  2.5898597E+002  1.2593895E+002 0.0  2.0780047E+002  1.1883662E+002 0.0  2.8035967E+002  1.8026632E+002 0.0  1.8105519E+002  1.3339684E+002 0.0  2.4478303E+002  2.0116612E+002 0.0  1.6073529E+002  1.5193163E+002 0.0  2.0499647E+002  2.1607240E+002 0.0  1.4587084E+002  1.7969249E+002 0.0  1.2574906E+002  1.7472486E+002 0.0  1.0751356E+002  1.7279062E+002 0.0  1.2119562E+002  2.3449739E+002 0.0  6.9989301E+001  1.6102358E+002 0.0  5.2178786E+001  1.4524464E+002 0.0  5.3977467E+001  1.9525817E+002 0.0  3.0254379E+001  1.5070983E+002 0.0  1.8018966E+001  1.3908703E+002 0.0  7.6255238E+000  1.2372057E+002 0.0  5.0155006E-001  1.1287793E+002 0.0 -7.6613267E+000  1.2984056E+002 0.0 -1.0138930E+001  8.4407757E+001 0.0 -1.3267460E+001  7.7429047E+001 0.0 -2.1372287E+001  9.5295479E+001 0.0 -2.0450459E+001  7.0796043E+001 0.0 -2.2060936E+001  6.5189998E+001 0.0 -1.8454822E+001  4.8341278E+001 0.0 -2.2071355E+001  5.2908185E+001 0.0 -1.7354137E+001  3.3078155E+001 0.0 -2.2439230E+001  4.4003756E+001 0.0 -2.9573122E+001  6.4821681E+001 0.0 -2.1075506E+001  5.2852559E+001 0.0 -1.9458584E+001  5.5598484E+001 0.0 -2.0122858E+001  7.0696133E+001 0.0 -2.2078983E+001  9.9381827E+001 0.0 -1.6627531E+001  9.7476227E+001 0.0 -1.0775058E+001  1.0657615E+002 0.0 -4.3749929E+000  1.2906866E+002 0.0  4.6711610E+000  1.3372975E+002 0.0  2.0895107E+001  1.9172309E+002 0.0  3.1947180E+001  1.6062095E+002 0.0  4.0485467E+001  1.4713818E+002 0.0  4.9365833E+001  1.3625751E+002 0.0  8.3790439E+001  1.8305913E+002 0.0  1.1536845E+002  2.0898975E+002 0.0  1.1318332E+002  1.6989121E+002 0.0  1.3186442E+002  1.7020186E+002 0.0  1.8004939E+002  2.0430145E+002 0.0  2.0876171E+002  2.0347533E+002 0.0  2.3091734E+002  2.0040498E+002 0.0  2.4664330E+002  1.8635329E+002 0.0  2.1436616E+002  1.4477992E+002 0.0  2.2457470E+002  1.3160146E+002 0.0  2.9464981E+002  1.5472044E+002 0.0  3.2076510E+002  1.4547291E+002 0.0  2.7005756E+002  1.0817610E+002 0.0  1.7241445E+002  6.3622948E+001 0.0 -1.3816394E-005  1.1165884E-005 0.0 -9.4580044E-006  8.4742854E-006 0.0 -4.9098242E-006  2.6332824E-006 0.0 -2.1162660E-004  2.7093076E-004 0.0 -2.8952269E-004  3.7159087E-004 0.0 -2.5162638E-004  3.1896099E-004 0.0  5.8260941E-004 -6.7144373E-004 0.0  5.1348592E-003 -7.1289225E-003 0.0 -7.5415257E-002  1.1334954E-001 0.0 -4.1195304E-001  6.4368663E-001 0.0  2.6735049E+000 -4.2604016E+000 0.0 -6.4486110E+000 -7.4593591E-001 0.0 -9.3983479E+000 -1.2145373E+000 0.0 -9.5104988E+000 -1.2714393E+000 0.0 -8.3464726E+000 -1.1153077E+000 0.0 -9.0065976E+000 -1.1321671E+000 0.0 -8.5415337E+000 -9.3624736E-001 0.0 -7.8801201E+000 -7.8598405E-001 0.0 -1.9064075E+002 -3.0864878E+001 0.0 -1.5258112E+002 -2.8447332E+001 0.0 -1.1717557E+002 -2.3425427E+001 0.0 -9.9772633E+001 -2.2441579E+001 0.0 -7.4513750E+001 -1.7911195E+001 0.0 -7.5040256E+001 -1.8998338E+001 0.0 -6.3783182E+001 -1.7076243E+001 0.0 -4.5867075E+001 -1.2847031E+001 0.0 -4.3243546E+001 -1.2410059E+001 0.0 -3.6733911E+001 -1.1983051E+001 0.0 -2.5913171E+001 -8.6133982E+000 0.0 -2.2081271E+001 -8.0986041E+000 0.0 -1.7861327E+001 -6.7628895E+000 0.0 -1.2321273E+001 -5.2867436E+000 0.0 -9.8454575E+000 -4.4373657E+000 0.0 -8.4932718E+000 -4.3392252E+000 0.0 -6.5239263E+000 -3.5939468E+000 0.0 -4.3665819E+000 -2.7459201E+000 0.0 -3.8395538E+000 -2.6234498E+000 0.0 -3.1285188E+000 -2.4424639E+000 0.0 -2.3163184E+000 -1.9822090E+000 0.0 -1.7933615E+000 -1.7283704E+000 0.0 -1.4095306E+000 -1.4879937E+000 0.0 -1.1325145E+000 -1.2854989E+000 0.0 -9.9084448E-001 -1.2249080E+000 0.0 -8.3958763E-001 -1.0823821E+000 0.0 -6.9133042E-001 -9.3471877E-001 0.0 -5.7310398E-001 -7.7068588E-001 0.0 -5.0296876E-001 -6.7520461E-001 0.0 -4.3472402E-001 -5.6665429E-001 0.0 -3.7248126E-001 -4.5765301E-001 0.0 -3.1118827E-001 -3.5585987E-001 0.0 -3.0337352E-001 -3.1278732E-001 0.0 -3.0790958E-001 -2.8396125E-001 0.0 -2.0829223E-001 -1.6166346E-001 0.0 -2.2273169E-001 -1.3819400E-001 0.0 -1.6708256E-001 -7.8291751E-002 0.0 -1.2584033E-001 -3.6679449E-002 0.0 -1.2633594E-001 -1.3496601E-002 0.0  7.7027129E-002  4.0844006E-002 0.0 -9.6090522E-002 -3.6388808E-002 0.0  1.7435829E-001  6.3502952E-002 0.0 -1.4277269E-002 -5.1569892E-003 0.0  1.1366571E-002  4.2421405E-003 0.0 -7.6190676E-004 -2.8655249E-004 0.0  2.2635507E-004  8.1739160E-005 0.0 -1.4703318E-005 -7.9712922E-006 0.0  4.8078385E-006  3.8279465E-006 0.0 -1.5012082E-008 -2.7794223E-007 0.0  3.2272296E-007  1.4377714E-007 0.0 -1.8809307E-008  1.2418659E-006 0.0 -9.0244471E-009  3.9344091E-007 0.0  1.3784563E-008 -2.9936514E-009 0.0  3.2110623E-008 -8.9531139E-008 0.0  9.5766013E-009 -2.8334017E-008 0.0 -4.2388551E-010  1.3076378E-009 0.0  3.3535959E-011 -9.5887048E-011 0.0 -1.0179849E-012  3.4963677E-012 0.0  3.7694491E-013 -8.0507557E-013 0.0 -1.1547098E-014  2.6094554E-014 0.0  1.0366809E-015 -1.8902202E-015 0.0 -5.5473995E-017  9.7327832E-017 0.0  2.1448844E-018  2.7274808E-017 0.0  2.3511574E-017 -3.0288751E-017 0.0  1.6905737E-017 -6.5490343E-018 0.0  2.1845852E-018  1.2832335E-017 0.0 -4.8126106E-017  8.7999302E-017 0.0  1.2560936E-016 -1.9529831E-016 0.0  8.7254162E-017 -1.5630324E-016 0.0  3.1798679E-017 -5.2620393E-017 0.0  7.6350477E-017 -2.7937774E-016 0.0  7.2505208E-017 -2.5026680E-016 0.0 -2.8168965E-017  2.3454264E-017 0.0 -2.7304256E-017  1.2092386E-017 0.0  1.6301718E-018  1.4445451E-018 0.0 -5.6865279E-018 -8.7567612E-018 0.0 -7.8957346E-019 -1.8740606E-018 0.0 -3.4138314E-018 -4.5070900E-018 0.0 -2.1071674E-018 -1.7126179E-018 0.0  2.8581646E-018  1.3272908E-020 0.0 -4.2056165E-018 -4.3214648E-018 0.0  7.4135019E-018  1.4195110E-017 0.0 -4.5909259E-018 -6.5070874E-018 0.0 -3.0469892E-018 -4.1556441E-018 0.0  6.9759108E-018  1.0311156E-017 0.0 -1.7068054E-018  2.1985688E-018 0.0 -9.7404825E-019  4.0443263E-018 0.0 -2.3609514E-018 -1.4558003E-018 0.0  5.7491558E-018  9.7260901E-018 0.0  8.1982224E-019  1.1772330E-017 0.0  4.0089790E-018 -3.4918046E-018 0.0 -2.9779197E-017 -3.6108745E-017 0.0  1.5027231E-017  1.3167489E-017 0.0 -1.5639852E-017  2.8742336E-017 0.0 -1.0691888E-015 -6.4528740E-016 0.0  4.8163774E-014  5.6338166E-014 0.0 -1.3178763E-012 -1.5588850E-012 0.0  3.9767913E-011  4.6707565E-011 0.0  4.6302170E-010  5.9999633E-010 0.0 -7.8806628E-009 -9.9536425E-009 0.0 -1.5993222E-008 -1.8596194E-008 0.0  3.7669291E-009  4.3831873E-009 0.0 -1.1002543E-009 -1.2823129E-009 0.0  2.4097131E-010  2.8269120E-010 0.0 -6.1008717E-011 -7.9344115E-011 0.0 -5.2995582E-012  2.2139369E-011 0.0  1.2753864E-010 -6.1660593E-012 0.0 -4.0747662E-010 -1.2708350E-012 0.0  1.5792782E-009  1.1624983E-011 0.0 -7.0917341E-009 -6.3562666E-011 0.0  3.6166769E-008  1.4971801E-010 0.0 -4.7995675E-007 -3.3681207E-009 0.0  1.2183445E-006 -4.0717022E-009 0.0 -2.8487448E-005  6.5226703E-008 0.0  2.6737984E-004 -1.0838731E-006 0.0 -2.2388362E-003  5.0640541E-006 0.0  3.0417688E-002 -8.8641994E-005 0.0 -1.1723576E+000  9.7342505E-002 0.0 -2.2146133E+000  3.7128003E-001 0.0 -3.2911389E+000  7.9924419E-001 0.0 -4.4648521E+000  1.4860938E+000 0.0 -6.0057791E+000  2.5212284E+000 0.0 -7.1032988E+000  3.4967583E+000 0.0 -7.6116322E+000  4.4407827E+000 0.0 -9.0263006E+000  5.9719722E+000 0.0 -1.0580981E+001  7.9109616E+000 0.0 -1.1295846E+001  9.4361412E+000 0.0 -1.2300557E+001  1.1254125E+001 0.0 -1.3790035E+001  1.4015866E+001 0.0 -1.4457478E+001  1.5606413E+001 0.0 -1.5171799E+001  1.8007456E+001 0.0 -1.7888622E+001  2.2803680E+001 0.0 -1.7594556E+001  2.3849733E+001 0.0 -1.8789989E+001  2.7191380E+001 0.0 -2.1051613E+001  3.2260435E+001 0.0 -2.1519269E+001  3.5584726E+001 0.0 -2.0893653E+001  3.6372842E+001 0.0 -2.1144446E+001  3.8642975E+001 0.0 -2.4385329E+001  4.7020243E+001 0.0 -2.8849928E+001  5.9360944E+001 0.0 -2.5056412E+001  5.3552782E+001 0.0 -2.4850336E+001  5.5143167E+001 0.0 -2.7657526E+001  6.3921152E+001 0.0 -2.9333210E+001  7.0034117E+001 0.0 -3.0785962E+001  7.5142275E+001 0.0 -3.5188854E+001  8.8175912E+001 0.0 -3.7428408E+001  9.3912534E+001 0.0 -4.0626812E+001  1.0194257E+002 0.0 -4.2881517E+001  1.0583852E+002 0.0 -4.6463384E+001  1.1133771E+002 0.0 -5.1877857E+001  1.2026616E+002 0.0 -6.8841991E+001  1.5256355E+002 0.0 -6.0408957E+001  1.2476050E+002 0.0 -7.7037186E+001  1.4857897E+002 0.0 -9.7616591E+001  1.7595211E+002 0.0 -1.1512227E+002  1.9190906E+002 0.0 -1.3069515E+002  1.9918166E+002 0.0 -1.6528721E+002  2.3185034E+002 0.0 -1.9676627E+002  2.5404951E+002 0.0 -2.1769753E+002  2.5898458E+002 0.0 -2.8536590E+002  3.0925482E+002 0.0 -3.0214191E+002  3.0417218E+002 0.0 -3.3832702E+002  3.1653276E+002 0.0 -4.4996376E+002  3.8877852E+002 0.0 -5.0566642E+002  4.1073420E+002 0.0 -4.7266237E+002  3.6246836E+002 0.0 -4.9098849E+002  3.2144683E+002 0.0 -5.5585883E+002  3.3846059E+002 0.0 -5.7022001E+002  3.2218098E+002 0.0 -4.8320289E+002  2.4703462E+002 0.0 -3.9702989E+002  1.8481250E+002 0.0 -4.0687961E+002  1.7306301E+002 0.0 -3.6867632E+002  1.3846217E+002 0.0 -3.3832685E+002  1.1352773E+002 0.0 -3.1898241E+002  9.1740607E+001 0.0 -2.9780474E+002  7.3992289E+001 0.0 -3.0532106E+002  6.1397631E+001 0.0 -2.7954589E+002  4.6056181E+001 0.0 -2.5178931E+002  3.0060404E+001 0.0 -2.5165359E+002  2.1200582E+001 0.0 -2.4392869E+002  9.7073203E+000 0.0 -2.4378836E+002  1.1951732E+000 0.0 -2.4623290E+002 -9.0185553E+000 0.0 -2.3546732E+002 -1.6832144E+001 0.0 -2.1531771E+002 -2.1734667E+001 0.0 -3.0219973E-001  4.1284832E-002 0.0 -2.6693817E-001  4.6620325E-002 0.0 -2.4832890E-001  4.2780421E-002 0.0 -2.2299706E-001  3.2354625E-002 0.0 -1.7651323E-001  2.1566671E-002 0.0 -1.5347789E-001  1.3547616E-002 0.0 -1.2917093E-001  7.4449017E-003 0.0 -8.2046387E-002  2.8839942E-003 0.0 -4.1807704E-002  7.8542433E-004 0.0 -1.1176317E-002  3.7729483E-004 0.0  2.8761234E-003  3.1088734E-004 0.0 -8.1633741E-004  4.2768060E-004 0.0  3.8254163E-004  6.1135194E-004 0.0 -7.7474336E-004  1.4614893E-003 0.0  1.5626092E-003  1.9728292E-003 0.0 -1.1065814E-002  5.8096320E-003 0.0 -3.4666197E-003  8.6194487E-003 0.0 -3.5920630E-003  1.4037919E-002 0.0 -6.1052904E-003  1.2667736E-002 0.0  1.0726596E-003  3.2188646E-002 0.0 -1.7686401E-002  7.3587575E-002 0.0 -2.1693748E-003  3.2410122E-002 0.0 -1.3958242E-001  6.2957617E-002 0.0 -5.0271004E-001  2.6490621E-002 0.0  1.2147792E-001  3.2237709E-004 0.0 -2.9789211E-002  8.8924485E-003 0.0 -4.4136712E-003  1.5924940E-002 0.0 -7.3845313E-003  1.1852157E-002 0.0 -6.9622855E-004  2.6704974E-002 0.0  1.0309116E-002  3.1487122E-002 0.0 -5.1453291E-002  1.7052783E-001 0.0  1.0675663E-001  1.3904460E-001 0.0 -2.8729405E-001  1.6062462E-001 0.0  6.9963865E-001  3.4082869E-001 0.0 -2.5769081E+000  9.6631109E-001 0.0 -1.6887962E+001  1.6332801E+000 0.0 -3.3962332E+001  6.4743992E+000 0.0 -4.9442963E+001  1.3786887E+001 0.0 -6.5684694E+001  2.5723943E+001 0.0 -7.5340502E+001  3.4305581E+001 0.0 -1.0399265E+002  5.8659990E+001 0.0 -1.3532550E+002  8.7308350E+001 0.0 -1.2833295E+002  9.3005658E+001 0.0 -1.3309992E+002  1.0824067E+002 0.0 -1.5014957E+002  1.3294743E+002 0.0 -1.6068135E+002  1.5408687E+002 0.0 -1.7390689E+002  1.7797507E+002 0.0 -1.7783821E+002  1.9444122E+002 0.0 -2.0628869E+002  2.3868906E+002 0.0 -2.1714377E+002  2.6324056E+002 0.0 -1.9849895E+002  2.5252865E+002 0.0 -2.0362378E+002  2.6978616E+002 0.0 -2.0993381E+002  2.8796571E+002 0.0 -2.2042673E+002  3.1165689E+002 0.0 -2.2262466E+002  3.2465580E+002 0.0 -2.4850694E+002  3.7156383E+002 0.0 -2.5146676E+002  3.8628665E+002 0.0 -2.1161373E+002  3.3705965E+002 0.0  1.7575362E+000 -1.7350092E-002 0.0  4.0403430E-001  1.5341294E-002 0.0  6.1106240E-001  9.9520360E-003 0.0  6.3422908E-001  2.1219365E-002 0.0  7.0354455E-001  3.0402784E-002 0.0  4.8362445E-002 -4.6556070E-003 0.0  8.5062978E-002 -4.9324676E-003 0.0  1.4017590E-002 -9.1996842E-003 0.0  3.3763610E-002 -9.1219708E-003 0.0  3.1741738E-002 -7.7453312E-003 0.0  1.7382564E-002 -7.7602793E-003 0.0  2.1006953E-002 -3.9612412E-003 0.0  1.2447220E-002 -4.4078866E-003 0.0  1.4143378E-002 -2.7671727E-003 0.0  1.5720960E-002 -9.5999039E-004 0.0  8.2087229E-003 -6.6421524E-004 0.0  8.7076799E-003 -3.3926024E-005 0.0  1.0387131E-002 -9.3618998E-004 0.0  7.0836510E-003  1.3365479E-004 0.0  4.5718959E-003  1.4455597E-003 0.0  7.7566143E-003  8.3251854E-004 0.0  1.0768332E-002  1.0901897E-003 0.0  5.3483682E-003  1.8088593E-003 0.0  8.6866892E-003  1.4759452E-003 0.0  6.5779760E-003  1.3028253E-003 0.0  1.0444127E-002  2.0052389E-003 0.0  8.0690158E-003  1.5824269E-003 0.0  5.0433237E-003  3.1818152E-003 0.0  1.0790488E-002  1.9510543E-003 0.0  1.4198317E-002  2.0555407E-003 0.0  6.8490135E-003  2.5046286E-003 0.0  1.1566579E-002  2.4948415E-003 0.0  8.4156316E-003  2.0087676E-003 0.0  1.4075487E-002  3.1415104E-003 0.0  8.4596787E-003  2.4313940E-003 0.0  1.4584344E-002  3.5976915E-003 0.0  1.1165619E-002  2.4851169E-003 0.0  8.4029999E-003  5.4241261E-003 0.0  1.5272400E-002  1.5536726E-003 0.0  2.6007428E-002  1.5499898E-003 0.0  1.0451256E-002  4.0613914E-003 0.0  2.1652368E-002  4.5813403E-003 0.0  1.1155463E-002  2.8641725E-003 0.0  1.9508685E-002  4.6282417E-003 0.0  1.4940587E-002  3.4040800E-003 0.0  1.1322224E-002  7.3689727E-003 0.0  2.0646642E-002  2.2699510E-003 0.0  3.3439166E-002  2.5447389E-003 0.0  1.7401388E-002  4.8255131E-003 0.0  1.5542971E-002  8.7955846E-003 0.0  2.3512048E-002  1.7178505E-003 0.0  4.0357440E-002  1.9430796E-003 0.0  1.6093313E-002  5.8380999E-003 0.0  3.2685205E-002  6.4120492E-003 0.0  2.0780186E-002  3.7214758E-003 0.0  1.5204469E-002  9.2273992E-003 0.0  2.8561955E-002  2.5840451E-003 0.0  4.9116634E-002  2.9323460E-003 0.0  1.9248477E-002  7.0386039E-003 0.0  3.8418034E-002  7.6763220E-003 0.0  2.5122546E-002  4.5514083E-003 0.0  2.0047575E-002  1.1220975E-002 0.0  3.3695596E-002  2.9165131E-003 0.0  5.7975874E-002  3.1515651E-003 0.0  2.2595043E-002  8.1309958E-003 0.0  4.9166639E-002  7.5984613E-003 0.0  2.9312518E-002  5.3136815E-003 0.0  2.3095893E-002  1.2128268E-002 0.0  3.9422426E-002  2.3838065E-003 0.0  6.9099931E-002  3.3232465E-003 0.0  2.6093041E-002  8.3087761E-003 0.0  5.7706090E-002  6.2713434E-003 0.0  3.4025662E-002  4.7972199E-003 0.0  2.7470631E-002  1.1677457E-002 0.0  4.4242093E-002 -1.3118784E-003 0.0  7.6064781E-002 -6.2182184E-004 0.0  2.9463568E-002  5.1833284E-003 0.0  6.2124593E-002  9.5306398E-004 0.0  3.5721061E-002  3.6729696E-004 0.0  3.1048842E-002  5.3419077E-003 0.0  4.2716905E-002 -7.6661783E-003 0.0  7.6592321E-002 -1.2489869E-002 0.0  2.8620314E-002 -1.7463989E-003 0.0  5.4022901E-002 -7.6164717E-003 0.0  3.1083242E-002 -7.7400922E-003 0.0  2.8362668E-002 -7.2835448E-003 0.0  3.3724749E-002 -2.0072927E-002 0.0  4.8782720E-002 -2.4697353E-002 0.0  2.6589560E-002 -1.0958492E-002 0.0  2.9008218E-002 -1.8699551E-002 0.0  1.1675121E-002 -1.7031730E-002 0.0  8.4445785E-003 -1.7475382E-002 0.0  3.6567155E-003 -5.7739054E-003 0.0  5.2199492E-003 -5.8729666E-003 0.0  8.7766429E-004 -3.5422435E-003 0.0  5.3875566E-004 -8.7472659E-004 0.0  1.0443309E-005 -3.7633633E-004 0.0  4.6046676E-004  8.9124167E-005 0.0 -2.0725874E-003  1.3427634E-004 0.0 -8.9198562E+000  3.0873750E-001 0.0  1.6392025E+000 -5.4837611E-002 0.0 -4.5374443E-001  1.7856324E-002 0.0 -6.0624682E+001  1.4674365E+002 0.0 -2.9206305E+001  4.7166808E+001 0.0 -3.6639670E+001  8.1601910E+001 0.0 -2.6898397E+001 -1.8423468E+000 0.0 -2.3001949E+001  2.6310828E+001 0.0 -1.9304603E+002  2.5718159E+002 0.0 -2.0300371E-001  5.2695376E-002 0.0 -3.8000453E+000 -7.5371897E-001 0.0 -8.6691486E-001 -5.2686535E-001 0.0 -4.0981142E-001 -1.4133492E-001 0.0 -4.3691646E+002  1.0444637E+002 0.0 -1.0363980E+001 -1.1289518E+000 0.0 -9.6637113E+001  1.8255127E+002 0.0 -6.8213287E+001 -5.7197361E+000 0.0 -1.5306019E+001  1.2039134E+001 0.0 -3.9861724E+002  3.7793727E+002 0.0 -1.6090083E-001  1.7709826E-002 0.0 -5.7788143E+002  2.4797453E+002 0.0 -3.7725289E+002  2.3976523E+001 0.0 -1.8555060E+000 -8.0046878E-001 0.0 -1.0907839E+001  5.8563566E+000 0.0 -1.2176699E+002 -1.0219396E+001 0.0 -5.6173765E-001 -3.1413403E-001 0.0 -4.4914791E+001  1.1135164E+002 0.0 -1.4108615E-001  3.8932982E-002 0.0 -3.1145837E+001  5.9776494E+001 0.0 -8.9368201E-002  1.3392424E-002 0.0 -3.8507213E-001  2.5557983E-002 0.0 -7.4336767E+002  4.1651006E+002 0.0 -3.8135477E-002  1.5149382E-003 0.0 -2.2625184E+002 -2.7129134E+001 0.0 -6.4177339E+002  4.8476506E+002 0.0 -5.7284360E+000  1.6445235E+000 0.0 -6.2568593E+000 -8.8813322E-001 0.0 -1.2122670E+000 -6.0267327E-001 0.0 -4.9997114E+002  1.7027923E+002 0.0 -1.6710031E+001 -1.1857925E+000 0.0 -3.5529412E+002 -6.4606620E+000 0.0 -4.0243839E+002  6.0959239E+001 0.0 -4.2912232E+001 -3.1938616E+000 0.0 -2.7777113E+002  3.1150837E+002 0.0 -1.8546158E+001  1.7911938E+001 0.0 -2.3138782E+001  3.0763332E+001 0.0 -2.9703577E-001 -5.3484149E-003 0.0 -1.3838071E+002  2.2848981E+002 0.0 -7.5500957E+001  1.6788701E+002 0.0 -4.0349275E+001  9.6363471E+001 0.0 -5.1763547E-002  3.7585669E-003 0.0 -1.1225949E+000  1.1049806E-001 0.0 -2.3637041E-002  8.7422572E-004 0.0 -8.6274411E+002  6.0051667E+002 0.0 -3.2496441E+002 -3.9087800E+001 0.0 -2.4806498E+000  3.1491441E-001 0.0 -9.2951699E-002  6.7791803E-003 0.0 -2.4036258E-001  4.3135768E-002 0.0 -4.5194615E-001  1.0562292E-001 0.0 -5.3695481E-001  1.7744313E-001 0.0 -3.2938013E-001  7.8367236E-002 0.0 -5.2232250E-001  1.8822861E-001 0.0 -9.6833111E-001  4.5931126E-001 0.0 -9.2882915E-001  5.2116915E-001 0.0 -5.9432026E-001  2.4375391E-001 0.0 -9.3900280E-001  5.2883712E-001 0.0 -6.3266164E-001  2.7546941E-001 0.0 -8.9428989E-001  5.1872939E-001 0.0 -1.4023427E+000  1.1120622E+000 0.0 -1.3173105E+000  1.0410936E+000 0.0 -9.0341863E-001  4.8632102E-001 0.0 -1.1844805E+000  7.3677514E-001 0.0 -1.9261099E+000  2.1565043E+000 0.0 -1.7637353E+000  1.7151467E+000 0.0 -1.3232015E+000  7.2602897E-001 0.0 -1.8883486E+000  1.2640403E+000 0.0 -1.6083121E+000  6.7917924E-001 0.0 -2.1805757E+000  9.4578021E-001 0.0 -2.5950865E+000  2.4787392E+000 0.0 -3.0285120E+000  1.5929279E+000 0.0 -2.9233841E+000  8.6271756E-001 0.0 -4.1087403E+000  9.3115152E-001 0.0 -4.1670780E+000  1.0766827E+000 0.0 -5.8517808E+000  8.4009129E-001 0.0 -5.6009653E+000  1.8292513E+000 0.0 -8.5419367E+000  9.8661272E-001 0.0 -8.6871839E+000  1.3737190E+000 0.0 -1.2529325E+001  1.0353303E+000 0.0 -1.2791723E+001  1.9958315E+000 0.0 -1.8610147E+001  5.8072240E-001 0.0 -1.8330330E+001  2.5257462E+000 0.0 -2.6223027E+001  6.3188218E-001 0.0 -2.5666850E+001  5.2544532E+000 0.0 -3.6212017E+001  4.7026459E+000 0.0 -3.8358811E+001  2.8428390E+000 0.0 -5.2284363E+001  5.5298566E+000 0.0 -4.8956997E+001  9.7277077E+000 0.0 -6.8689599E+001  1.2430883E+001 0.0 -7.6343383E+001  1.4072751E+001 0.0 -9.7364189E+001  2.1147610E+001 0.0 -8.7251932E+001  1.9668373E+001 0.0 -3.7945066E+000  5.5156545E+000 0.0 -3.8549079E+000  6.6557166E+000 0.0 -1.8859458E+001  6.1033717E+000 0.0 -1.1257739E+002  3.2565704E+001 0.0 -1.3981888E+002  4.2411476E+001 0.0 -1.6734550E+000  1.1154063E+000 0.0 -1.3030875E+001  9.9128762E+000 0.0 -8.3922723E+001  2.5510985E+001 0.0 -1.7489458E+000  9.3555087E-001 0.0 -1.1370816E+000  5.8807605E-001 0.0 -4.4665048E-001  1.5673270E-001 0.0 -4.8561112E-001  2.0017561E-001 0.0 -1.6337633E+002  6.1191495E+001 0.0 -1.7119864E+001  5.2213373E+000 0.0 -2.3692832E+001  8.1465301E+000 0.0 -1.3173000E+000  7.3980205E-001 0.0 -1.9799831E+002  7.4805227E+001 0.0 -1.7437355E+002  5.7813996E+001 0.0 -5.7817086E+000  1.1837639E+001 0.0 -6.7178263E+000  1.3347186E+001 0.0 -2.2928173E+002  1.0487320E+002 0.0 -1.9672929E+001  1.9118905E+001 0.0 -2.8211134E+000  1.9291250E+000 0.0 -3.3970973E-001  1.3359192E-001 0.0 -1.6680159E+001  2.6980475E+001 0.0 -9.2985080E-001  6.5140122E-001 0.0 -3.2052760E+000  1.8240997E+000 0.0 -3.6946245E-001  1.7884226E-001 0.0 -2.7168428E+002  1.2101424E+002 0.0 -3.1034593E+002  1.6072827E+002 0.0 -1.9152074E+002  9.5775257E+001 0.0 -1.5998590E+001  7.6744189E+000 0.0 -1.0332233E+000  7.7143552E-001 0.0 -1.8750728E+000  8.1535991E-001 0.0 -3.0766861E+000  1.3956466E+000 0.0 -2.0607710E+001  9.3378585E+000 0.0 -1.0046180E+001  2.0575073E+001 0.0 -8.5211562E+000  1.9457835E+001 0.0 -2.7199594E+000  1.1638914E+000 0.0 -3.8141890E+000  1.6517337E+000 0.0 -2.4254872E+000  1.5361184E+000 0.0 -3.0706304E+000  1.9954483E+000 0.0 -1.2597626E+001  5.2072570E+000 0.0 -3.6515508E+002  1.8069469E+002 0.0 -1.1398627E+001  2.2622501E+001 0.0 -8.0447050E+000  1.5058333E+001 0.0 -8.5589647E-001  5.1271187E-001 0.0 -6.7953013E-001  5.2814760E-001 0.0 -6.4180108E-001  4.3434770E-001 0.0 -4.8193006E-001  2.4444551E-001 0.0 -4.7088481E+000  3.1936687E+000 0.0 -4.3313173E+000  3.5258956E+000 0.0 -3.3062635E-001  9.6159479E-002 0.0 -1.1171470E+001  1.5550426E+001 0.0 -1.5115340E+001  3.1189350E+001 0.0 -3.2681512E+002  1.4571104E+002 0.0 -1.0412162E+001  2.0433271E+001 0.0 -1.1380833E+001  6.4264996E+000 0.0 -9.1266498E+000  4.8623185E+000 0.0 -4.3776229E+000  2.2916677E+000 0.0 -3.6117564E+000  2.3958764E+000 0.0 -2.4801807E+001  3.8984398E+001 0.0 -2.7952630E+001  3.3634861E+001 0.0 -2.5724012E-001  9.0138061E-002 0.0 -2.4181503E-001  6.1768270E-002 0.0 -3.7001846E-001  2.1867638E-001 0.0 -2.8090218E+001  1.0734707E+001 0.0 -4.1339422E+002  2.3183124E+002 0.0 -2.5594482E+001  1.0948217E+001 0.0 -3.3886730E+001  1.2921448E+001 0.0 -1.5822754E+001  3.6860129E+001 0.0 -1.4270799E+001  3.0518806E+001 0.0 -3.6428343E+002  2.1907223E+002 0.0 -3.5172506E+001  5.8403696E+001 0.0 -4.1897681E+001  5.7521233E+001 0.0 -3.4821226E+001  2.9570483E+001 0.0 -4.8875368E+001  4.7713453E+001 0.0 -2.0224508E+000  1.5019104E+000 0.0 -1.6883350E+000  1.2401058E+000 0.0 -3.1950558E+001  1.2013441E+001 0.0 -4.1066770E+001  1.4695885E+001 0.0 -1.9153350E+000  6.5304009E-001 0.0 -3.0121386E+000  1.0405740E+000 0.0 -1.3503037E+001  2.4149015E+001 0.0 -9.9754148E+000  1.6908703E+001 0.0 -5.7646555E+000  1.0496734E+001 0.0 -7.2831886E+000  1.1750145E+001 0.0 -1.1897473E+001  1.8776273E+001 0.0 -8.8831248E+000  1.3057864E+001 0.0 -1.2124172E+001  2.8362203E+001 0.0 -1.9593283E-001  5.9835053E-002 0.0 -1.8054975E-001  4.0397734E-002 0.0 -2.0298776E-001  7.8026185E-002 0.0 -1.5076292E-001  3.8514563E-002 0.0 -1.3489645E-001  2.4716102E-002 0.0 -1.5587689E-001  2.7300417E-002 0.0 -1.1045568E-001  1.4597127E-002 0.0 -5.0742922E-001  3.8522923E-001 0.0 -4.8223448E-001  3.4099380E-001 0.0 -8.0546569E+000  1.8056778E+001 0.0 -5.8345633E-001  3.5048211E-001 0.0 -1.2444141E-001  1.5020039E-002 0.0 -4.4178312E+001  2.6420410E+001 0.0 -5.9412296E+001  4.3262416E+001 0.0 -6.7163759E+001  7.2937315E+001 0.0 -8.0286325E+001  7.0671693E+001 0.0 -6.8968921E+000  5.2041333E+000 0.0 -6.5216469E+000  5.8610473E+000 0.0 -4.1015736E+000  3.7688591E+000 0.0 -6.2007179E+000  6.1977119E+000 0.0 -7.1912387E+000  4.7832049E+000 0.0 -3.7637697E+000  3.9139061E+000 0.0 -5.4827026E+000  6.3976158E+000 0.0 -8.8681186E+000  9.4132973E+000 0.0 -2.8645710E-001  1.6294042E-001 0.0 -3.3407733E+000  3.8859999E+000 0.0 -8.0801855E+000  4.7357604E+000 0.0 -6.6124394E+000  3.8510037E+000 0.0 -6.9514364E+000  3.5018253E+000 0.0 -4.6021987E+000  1.9830402E+000 0.0 -3.2029051E+001  6.6779284E+001 0.0 -5.5392912E-001  3.8860218E-001 0.0 -2.2557045E+001  5.1519204E+001 0.0 -5.3687765E+000  8.2201565E+000 0.0 -1.8645030E+001  8.5318433E+000 0.0 -2.8674338E-001  1.6855613E-001 0.0 -4.7327347E+002  2.5095121E+002 0.0 -5.3507890E+002  3.1614569E+002 0.0 -7.7964127E+000  9.6782720E+000 0.0 -1.4784611E+000  9.3367949E-001 0.0 -4.3712244E+001  1.3915690E+001 0.0 -5.2826537E+001  1.6478370E+001 0.0 -5.1218185E+001  1.4077123E+001 0.0 -6.4444777E+001  1.6860334E+001 0.0 -6.8014620E+001  1.8090181E+001 0.0 -8.0858505E+001  1.9389043E+001 0.0 -7.9246693E+001  1.4843038E+001 0.0 -9.9522698E+001  1.7795375E+001 0.0 -1.0143384E+002  2.0250825E+001 0.0 -1.2444412E+002  1.7935189E+001 0.0 -1.2647272E+002  2.3458434E+001 0.0 -1.6256038E+002  2.0080614E+001 0.0 -1.6225925E+002  2.8099870E+001 0.0 -1.5641924E+002  1.0737376E+001 0.0 -1.9740086E+002  1.2278962E+001 0.0 -1.9331139E+002  2.4392823E+000 0.0 -1.5777996E+002  4.6986498E+000 0.0 -9.7604509E+001  1.0698425E+001 0.0 -1.3321911E+002  2.8828667E+001 0.0 -1.6998678E+002  3.9552463E+001 0.0 -2.0862039E+002  3.7177497E+001 0.0 -2.2224088E+002  5.5638138E+001 0.0 -5.6229087E+001  2.4851451E+001 0.0 -1.4081523E+001  2.0235101E+001 0.0 -1.0368478E+001  5.0521532E+000 0.0 -9.6083201E+000  8.0370926E+000 0.0 -2.4125628E+002  4.3221764E+000 0.0 -2.4539161E+002  1.3267527E+001 0.0 -1.8090933E-001  2.8851415E-002 0.0 -2.8958339E-001  7.1033700E-002 0.0 -2.4531685E+001  5.8787921E+001 0.0 -1.7786819E+000  4.3500337E-001 0.0 -1.1360878E+000  3.2876771E-001 0.0 -2.7463012E+000  7.1093429E-001 0.0 -1.8417602E+001  4.4213308E+001 0.0 -1.4176708E+000  9.4019095E-001 0.0 -1.2031258E+000  8.8019440E-001 0.0 -1.7915042E+001  3.3786509E+001 0.0 -9.1957583E+001  1.0975095E+002 0.0 -1.0865572E+002  1.0320301E+002 0.0 -9.9208304E+001  7.1055654E+001 0.0 -1.3070288E+002  1.0140460E+002 0.0 -1.2277712E+002  7.2751706E+001 0.0 -1.5951024E+002  1.0937159E+002 0.0 -1.4298002E+002  3.6021140E+001 0.0 -2.3712108E+002 -7.7670326E+000 0.0 -1.9736900E+001  4.4717614E+001 0.0 -2.1625512E+001  4.6317582E+001 0.0 -1.2111513E+001  1.3943776E+001 0.0 -3.2536826E+001  1.5806307E+001 0.0 -2.6751609E+000  2.5314498E+000 0.0 -3.6584880E-001  2.4281587E-001 0.0 -4.8068437E+001  8.9123656E+001 0.0 -1.3098539E+001  1.4013967E+001 0.0 -8.3000989E-002  7.3969010E-003 0.0 -7.3884372E-002  8.0003503E-003 0.0 -5.9121660E+000  3.0165584E+000 0.0 -4.8092868E+000  2.7300433E+000 0.0 -1.8119955E+000  9.7511767E-001 0.0 -1.7426812E+002  1.5260108E+002 0.0 -2.1811741E+002  1.6587252E+002 0.0 -1.3346792E-001  1.5089310E-002 0.0 -2.7604839E+002  5.2440070E+001 0.0 -2.5316064E+002  3.4255696E+001 0.0 -2.8644030E+002  7.5499829E+001 0.0 -2.4872276E+002  7.3832994E+001 0.0 -3.1711269E+002  9.9022352E+001 0.0 -2.7999541E+002  9.7864589E+001 0.0 -4.4116525E-001  2.0544003E-001 0.0 -2.0291875E+001  3.5367335E+001 0.0 -1.8125934E+001  2.7535515E+001 0.0 -7.8717689E+001  7.5848113E+000 0.0 -7.6409644E+000  1.0278142E+001 0.0 -2.6822190E+000  3.8527717E+000 0.0 -1.5395530E+000  2.4918296E-001 0.0 -1.0605715E+000  3.1944719E-001 0.0 -9.2011437E-001  4.8542250E-001 0.0 -1.4050732E+002  6.2169379E+001 0.0 -3.3738625E+002  1.2310161E+002 0.0 -1.1169714E+001  1.4628041E+001 0.0 -9.9429728E+000  9.4713017E+000 0.0 -2.1418546E+000  9.4220153E-001 0.0 -7.8264066E+001  1.1911859E+002 0.0 -5.7705207E+001  8.1719944E+001 0.0 -7.0021583E+001  1.2698513E+002 0.0 -1.6634310E+001  2.0466522E+001 0.0 -1.2130272E+002  1.2498263E+001 0.0 -7.3700065E-001  5.9436496E-001 0.0 -6.0207272E-001  3.2902395E-001 0.0 -7.8928267E-001  5.7806137E-001 0.0 -6.6989075E-001  1.3584408E-001 0.0 -1.6150596E+001  2.6261819E+001 0.0 -1.2027199E+001  3.1723685E+000 0.0 -1.0502519E+001  7.6538503E+000 0.0 -9.8917794E+000  6.3301284E+000 0.0 -6.9317336E+000  4.0322172E+000 0.0 -1.0766104E+000  7.9144271E-001 0.0 -2.4140118E+001  8.8951851E+000 0.0 -3.0497209E+001  7.4055228E+000 0.0 -4.2985484E+000  1.4326309E+000 0.0 -6.4480253E+000  2.6551066E+000 0.0 -1.5862541E-001  5.3058735E-002 0.0 -1.6661750E-001  6.4624944E-002 0.0 -2.1103323E-001  9.7916772E-002 0.0 -2.7667509E-001  1.3276480E-001 0.0 -2.7110265E+000  3.6551932E+000 0.0 -4.3632693E+001  8.9405000E+001 0.0 -1.3070869E-001  3.2295749E-002 0.0 -7.4523588E+000  2.6149784E+000 0.0 -6.2611186E+001  1.3015759E+001 0.0 -5.1216411E+001  9.0132295E+000 0.0 -4.0660344E+001  1.1253778E+001 0.0 -2.2459126E+001  4.8603654E+001 0.0 -3.0483414E+001  7.2754509E+001 0.0 -2.2770611E-001  1.1370048E-001 0.0 -2.5712989E-001  8.4995184E-002 0.0 -4.2610411E+002  2.0389278E+002 0.0 -5.3479211E+002  2.6964887E+002 0.0 -3.9833336E+002  1.7171223E+002 0.0 -9.6887232E+001  8.3778029E-001 0.0 -2.5079408E+000  1.7570215E+000 0.0 -3.0418871E+000  1.6249263E+000 0.0 -4.0606905E-001  2.4595231E-001 0.0 -6.5293355E-001  3.0489569E-001 0.0 -1.4489727E+001  7.5721887E+000 0.0 -1.4678796E+001  5.4694689E+000 0.0 -9.9408400E-001  5.1219432E-001 0.0 -2.3592276E+002  8.8658984E+001 0.0 -1.6916694E+001  3.3600958E+001 0.0 -2.6753364E+002  1.5081476E+002 0.0 -3.1827994E+002  2.1567424E+002 0.0 -4.1664534E+002  2.8650229E+002 0.0 -2.3959450E+002  1.5555750E+002 0.0 -2.8905964E+002  2.2405659E+002 0.0 -2.0020135E+002  2.5793187E+001 0.0 -3.4372711E+001  8.6563965E+000 0.0 -1.1563443E-001  2.2962155E-002 0.0 -9.9933283E-002  1.4891112E-002 0.0 -4.9663823E-001  7.9943043E-002 0.0 -1.2490031E+002  3.1730212E+001 0.0 -2.1463491E+002  7.1009528E+001 0.0 -4.6380198E+002  2.8751572E+002 0.0 -1.3177142E+002  2.0849185E+000 0.0 -1.6167792E+002 -7.2116671E+000 0.0 -1.9492120E+002 -5.2932369E+000 0.0 -1.0542252E+002  1.6243767E+002 0.0 -5.7791807E+000  1.6362513E+000 0.0 -1.4659788E+002  1.6318224E+002 0.0 -6.1620184E+002  4.0991164E+002 0.0 -6.8237029E+002  4.1847342E+002 0.0 -7.5303024E-002  8.5653216E-003 0.0 -4.7776393E+000  2.5542089E+000 0.0 -2.9111175E+002 -4.8046643E+000 0.0 -9.5466636E-001  3.8696800E-001 0.0 -1.1086486E+001  2.5927396E+001 0.0 -1.9677783E+000  1.2170470E+000 0.0 -4.8081816E-001  2.8521352E-001 0.0 -3.0805986E-001  1.5357367E-001 0.0 -3.2146951E-001  9.6297248E-002 0.0 -3.5175428E+002  7.9487616E+001 0.0 -3.0717119E+002  1.2073641E+002 0.0 -7.0760792E+000  9.6218370E+000 0.0 -4.0463921E+000  5.6748373E+000 0.0 -1.8653191E-001  5.8497523E-002 0.0 -5.6792830E+001  1.2904901E+001 0.0 -2.6295639E+001  5.2187867E+001 0.0 -3.2718233E+001  6.6761125E+001 0.0 -2.0404173E+001  2.8676229E+001 0.0 -2.3253012E+000  4.3381178E-001 0.0 -1.8689994E+001  5.5975131E+000 0.0 -4.9980774E+000  2.9818546E+000 0.0 -4.3642654E-001 -1.1894530E-001 0.0 -2.9623119E+002 -2.0865869E+001 0.0 -3.1883194E+002 -1.6359132E+001 0.0 -2.4915620E+001  3.7192745E+001 0.0 -2.9890369E+002  7.4137187E+000 0.0 -2.8322242E+001  6.7835497E+001 0.0 -2.4391694E-001  3.2883700E-002 0.0 -3.3144694E-001  3.7200283E-002 0.0 -7.0688623E-002  4.6114862E-003 0.0 -1.8148888E-002  4.2657821E-004 0.0 -4.4206321E-002  2.8405803E-003 0.0 -6.3165285E+001  1.5465627E+001 0.0 -8.2736695E+001  1.9752608E+001 0.0 -1.3483591E+001  1.2141895E+001 0.0 -7.2428865E+000  1.3865847E+001 0.0 -5.1457300E+000  8.7776612E+000 0.0 -2.9008893E-002  1.2289742E-003 0.0 -2.1475262E+000  7.1470874E-001 0.0 -2.7045094E+000  5.1753849E-001 0.0 -3.5137031E+000  1.2248355E+000 0.0 -5.1354674E+002  3.7784581E+002 0.0 -4.4043948E+002  3.6412663E+002 0.0 -6.0333710E+002  3.3399320E+002 0.0 -6.9853259E+002  4.9217889E+002 0.0 -8.0170552E+000  2.9702102E+000 0.0 -3.1775400E+001  7.5904102E+001 0.0 -3.5583946E+001  8.3407482E+001 0.0 -3.2438406E+001  7.4617999E+001 0.0 -2.2146528E+001  5.3936464E+001 0.0 -2.6019898E+001  4.6601623E+001 0.0 -2.6827558E+001  3.6046252E+000 0.0 -6.1014654E+002  2.8767738E+002 0.0 -7.4525260E+000 -7.0011935E-001 0.0 -4.4560418E+000 -7.6811448E-001 0.0 -1.1888516E+001 -8.3885827E-001 0.0 -3.7353025E+000  8.0945155E-001 0.0 -6.9717695E+000  2.7416696E+000 0.0 -7.9526312E+002  4.8820617E+002 0.0 -8.7194490E-001 -3.9316113E-001 0.0 -3.1686296E+001 -1.6100390E+000 0.0 -1.3862549E+000 -6.0741847E-001 0.0 -1.9283297E+001 -6.8849441E-001 0.0 -3.3088066E+002  6.1437007E+000 0.0 -3.5248282E+002  3.6895588E+001 0.0 -3.1189691E+002  2.8995845E+001 0.0 -4.2961776E+002  1.1892916E+002 0.0 -6.8690830E-001 -3.5906369E-001 0.0 -4.9418688E+001 -1.7640914E+000 0.0 -2.9216172E+002  3.0008859E+002 0.0 -4.9189790E+002  1.8355405E+002 0.0 -8.0388935E+001 -4.1000177E+000 0.0 -2.1436990E+002  2.6184718E+002 0.0 -1.4639134E+001  1.3083246E+001 0.0 -1.4434530E+002  2.1378075E+002 0.0 -1.7393698E+001  1.8816204E+001 0.0 -2.0509192E+001  2.5426592E+001 0.0 -2.4454583E+002 -3.0625992E+001 0.0 -6.1017823E+001  1.4149122E+002 0.0 -2.7250542E+001  4.7396396E+001 0.0 -5.2928500E+001  1.3245434E+002 0.0 -4.2909328E+001  1.0225370E+002 0.0 -4.5394570E+001  1.1328357E+002 0.0 -6.6474394E-001  1.1975819E-001 0.0 -1.4699570E+000  1.0457607E+000 0.0 -2.1059705E+000  2.2139786E+000 0.0 -5.5031153E+001  1.5436654E+001 0.0 -3.8046358E+000  9.5905523E-001 0.0 -1.2004230E+002  1.5857391E+002 0.0 -3.7189344E-001  2.3292125E-001 0.0 -7.2734326E-001  3.6326796E-001 0.0 -4.0359918E-001  1.2753919E-001 0.0 -4.6691673E+000  1.2609585E+000 0.0 -1.6401940E+000  1.2901930E+000 0.0 -7.4798948E+001  4.2996014E+001 0.0 -1.1074494E-001  2.3118982E-002 0.0 -4.2331003E+000  3.2404465E+000 0.0 -5.5999381E+002  2.8987484E+002 0.0 -9.8054240E+000  4.0190689E+000 0.0 -7.7992956E-001  4.2013817E-001 0.0 -7.4748548E+001  1.5846216E+002 0.0 -2.2303201E+002  2.2130988E+002 0.0 -1.9145918E+002  1.1877619E+002 0.0 -1.3124850E+001  9.0706505E+000 0.0 -9.1854516E+000  5.7475886E+000 0.0 -5.7628366E+000  6.1884599E+000 0.0 -7.8857245E-001  2.2609329E-001 0.0 -4.5300325E+000  8.5730308E+000 0.0 -5.5125204E-001 -2.6164964E-001 0.0 -3.6698491E+001  1.1686845E+001 0.0 -4.9306670E+002  2.2274262E+002 0.0 -8.8130704E+002  5.8163418E+002 0.0 -1.1535096E+000  1.0451549E-001 0.0 -2.2335290E-001  3.8170331E-002 0.0 -2.0979446E-001  3.5157677E-002 0.0 -1.9170968E+002  5.2932521E+001 0.0 -1.0753500E+001  6.7508479E+000 0.0 -5.7866865E+001  1.2394569E+002 0.0 -8.4156451E-002  8.1112630E-003 0.0 -4.1742719E+000  2.3993512E+000 0.0 -9.9165142E+000  2.2435046E+000 0.0 -1.6538928E+002 -1.8574696E+001 0.0 -7.9383211E+000  3.7759143E+000 0.0 -2.1487472E-001  4.3142151E-002 0.0 -2.0752528E-001  5.2317363E-002 0.0 -9.2391487E+001  4.5572693E+001 0.0 -2.1155085E-001  9.0879100E-002 0.0 -2.9020581E+001  6.2621334E+001 0.0 -4.0052804E-002  1.7091059E-003 0.0 -2.6998811E+000  2.3241323E+000 0.0 -3.7904531E+001  4.5204268E+000 0.0 -2.5379997E+001  1.7978725E+001 0.0 -3.1981409E-001 -5.6641105E-002 0.0 -1.5445710E+001  2.1379970E+001 0.0 -5.0808940E-002  3.5452380E-003 0.0 -1.0406660E+002  2.2443849E+001 0.0 -4.1085957E+001  1.2257327E+001 0.0 -2.2319091E+000  2.3253867E+000 0.0 -3.0027193E+002  1.4972913E+001 0.0 -4.7569547E+000  6.2481442E+000 0.0 -2.6626138E+000 -5.5587417E-001 0.0 -4.5746449E+001  1.2167085E+001 0.0 -1.2335627E+001  1.0348187E+001 0.0 -1.6576470E+002  4.7575846E+001 0.0 -6.2349291E+001  7.1673514E+000 0.0 -2.3524167E+001  4.6700160E+000 0.0 -3.6824626E+002  2.8216144E+002 0.0 -4.3559512E+000  7.3476041E+000 0.0 -1.0731413E+002  2.4299960E+001 0.0 -3.1944199E+002  4.6105689E+001 0.0 -1.3814159E+000  2.9683722E-001 0.0 -2.7171311E+001  6.2362222E+001 0.0 -7.5904859E-001  1.0227531E-001 0.0 -4.0488975E-001 -1.5744529E-001 0.0 -2.1469236E+001  3.5770455E+001 0.0 -1.2157897E+001  2.2266363E+000 0.0 -1.4313334E-001  2.1290469E-002 0.0 -2.0520338E+001  2.9249655E+001 0.0 -8.1509284E+001 -7.1525468E+000 0.0 -4.0251969E+001  9.9905594E+001 0.0 -3.0275129E+002 -2.4916184E+001 0.0 -6.6539450E+000  3.3480954E+000 0.0 -8.8007617E-001  1.8573395E-001 0.0 -3.1726373E+000  4.6756355E+000 0.0 -1.5614687E+001  1.8300146E+001 0.0 -1.5007010E+001  3.7611734E+001 0.0 -4.4584421E+002  3.6035453E+002 0.0 -6.0923974E-002  5.7494586E-003 0.0 -5.7419251E+000  1.2066058E+001 0.0 -3.6282686E+000  6.1595785E+000 0.0 -4.4797578E-001  3.0191936E-001 0.0 -7.0568072E+001  2.5551953E+001 0.0 -5.8614787E-001  3.0756562E-001 0.0 -3.5519082E-001  9.4162892E-002 0.0 -4.8071543E+002  1.9670155E+002 0.0 -1.4683363E+001  2.8005414E+000 0.0 -1.8576084E+000 -3.6253424E-001 0.0 -2.1051681E-001  9.9585805E-003 0.0 -2.3566385E+002 -1.6222867E+001 0.0 -2.5831545E+002  2.4032614E+002 0.0 -3.9616181E+002  1.2947870E+002 0.0 -3.5453293E+002  9.6530699E+001 0.0 -1.3011696E+002 -1.6285980E+001 0.0 -2.4830021E+002  1.9909628E+001 0.0 -3.8245181E+002  6.8807407E+001 0.0 -2.3701393E-001  1.2634636E-001 0.0 -1.4198647E+001  1.4409174E+001 0.0 -5.4861967E+000  3.2473646E+000 0.0 -7.4825968E+002  4.8611270E+002 0.0 -1.8767273E+002  2.0657065E+002 0.0 -4.2629688E+002  1.6267938E+002 0.0 -5.6658942E+000  1.2902999E+000 0.0 -1.6976189E+000  2.0963214E-001 0.0 -9.0267271E-001  4.6991946E-001 0.0 -2.5291968E+001  4.6421510E+001 0.0 -1.6779049E-001  3.4619122E-002 0.0 -1.1314822E+002  4.4736625E+001 0.0 -2.9430043E+001  6.3321249E+001 0.0 -1.2443283E+000  4.9171514E-001 0.0 -5.6247393E-001  1.5789078E-001 0.0 -3.7350855E+001  9.1109188E+001 0.0 -7.1093375E+000  4.4363544E+000 0.0 -3.9255485E-001  8.1044198E-002 0.0 -6.4026494E+001  1.2983434E+002 0.0 -2.7860182E+001  5.6140603E+001 0.0 -3.6368072E+001  8.9466158E+001 0.0 -2.1987759E+001  3.5422390E+001 0.0 -5.1922640E+000  1.8835331E+000 0.0 -2.5535791E-001  5.1029431E-002 0.0 -3.3667940E-001  9.2444801E-002 0.0 -1.5192858E+002  8.2670189E+001 0.0 -2.2898619E+000  4.9379401E-001 0.0 -8.2577598E-001  4.4976467E-001 0.0 -6.0530596E+000  2.7214657E+000 0.0 -2.1134594E+002 -2.2477112E+001 0.0 -5.6371765E+002  3.7276827E+002 0.0 -9.5259663E+001  1.7128423E+002 0.0 -3.1177259E+001  7.3371769E+001 0.0 -2.7782138E-002  8.8193228E-004 0.0 -9.8300089E-002  9.6526374E-003 0.0 -3.2656833E+001  7.6528210E+001 0.0 -7.1913654E+001  2.3726008E+000 0.0 -5.5986054E-001  3.8686012E-002 0.0 -8.7190267E+000  4.8893630E+000 0.0 -9.5467698E-001  1.3070586E-001 0.0 -5.6452555E-002  4.5996727E-003 0.0 -1.6553053E+000  8.2553752E-001 0.0 -1.0764487E+001  1.5163721E+001 0.0 -7.0367858E+002  4.1008088E+002 0.0 -2.2890453E+001  4.4551117E+001 0.0 -2.0653600E+002  1.8131396E+001 0.0 -2.6655552E+000  3.3823276E+000 0.0 -8.4626745E+001  2.0024586E+001 0.0 -2.5546058E+002  9.2229230E+001 0.0 -3.3010751E+002  5.9219517E+001 0.0 -1.0984848E+002  6.3502170E+000 0.0 -4.4129833E+001  4.6587477E+000 0.0 -8.6643122E-001  7.0883819E-002 0.0 -1.2227074E+001  4.8048750E+000 0.0 -2.5258560E-001  1.0816744E-001 0.0 -2.4127203E+001  4.9250275E+001 0.0 -1.3438911E+002 -6.6341684E+000 0.0 -5.2182459E+001  1.1970454E+002 0.0 -5.1567456E+000  3.1996774E+000 0.0 -7.9597720E+000  4.0721411E+000 0.0 -3.2032072E+000  4.1104935E+000 0.0 -1.1064617E+001  2.7164658E+001 0.0 -5.4610307E+001  9.4516274E+001 0.0 -4.9263711E+001  2.9269659E+001 0.0 -3.5420783E+001  1.2162912E+001 0.0 -3.5586270E+001  5.8644593E+000 0.0 -1.8071444E+000  2.0536087E+000 0.0 -2.4565955E+000  3.8078596E+000 0.0 -3.1579590E+000  6.3084991E+000 0.0 -4.2371216E+000  9.8001423E+000 0.0 -8.0449030E+000  1.7729429E+001 0.0 -1.1500080E+001  1.9241035E+001 0.0 -2.7366582E+001  3.1478304E+001 0.0 -2.4727051E+001  5.8078161E-001 0.0 -2.3344906E+001 -2.3829807E+000 0.0 -4.9348961E+001  4.2821896E+001 0.0 -1.4099339E+000  1.1566833E+000 0.0 -4.5331580E+001  2.5949121E+001 0.0 -3.1702169E+002  3.6903165E+002 0.0 -4.0444011E+000  2.0898312E-001 0.0 -9.9794345E-001  4.8207732E-001 0.0 -1.8859906E+001 -2.0407670E+000 0.0 -1.4642132E+002  1.8312726E+002 0.0 -6.2146420E+001  2.9827273E+001 0.0 -3.4924137E+001  1.0926740E+001 0.0 -8.7158341E-001  4.8384885E-002 0.0 -4.8433945E+001  3.8190476E+001 0.0 -2.7479948E+002  2.8025480E+002 0.0 -3.6412476E+002  4.7642843E+002 0.0 -1.9738739E+002  1.5600550E+002 0.0 -8.0710644E+001  2.9295836E+001 0.0 -4.1063011E-001  1.0876192E-001 0.0 -2.6717057E+001  3.9505742E+000 0.0 -9.0638852E+001  9.2851956E+001 0.0 -1.8052926E+001 -1.5352841E+000 0.0 -3.6910791E-001  2.3955991E-002 0.0 -2.0976848E+002  2.9127962E+002 0.0 -1.3344697E+002  7.2363046E+001 0.0 -2.4544165E+002  2.2419507E+002 0.0 -3.6413457E+002  5.1062371E+002 0.0 -2.3754039E+001 -1.0030047E+000 0.0 -2.4002217E+001  3.2253038E+001 0.0 -3.4473327E+001  3.4251815E+001 0.0 -2.7075206E+001  2.4280190E+000 0.0 -3.1093476E+001  8.2195073E+000 0.0 -1.0594876E+000  6.8817569E-001 0.0 -1.1323095E+001  2.1567534E+001 0.0 -1.5604109E+000  1.5093831E+000 0.0 -2.0019182E+000  2.5740925E+000 0.0 -5.2586644E+000  1.1998718E+001 0.0 -3.1101245E+000  5.4823253E+000 0.0 -3.6202510E+000  7.9037515E+000 0.0 -5.3305482E+001  4.3681290E+001 0.0 -1.7977742E-001  9.7110564E-003 0.0 -3.2670747E+001  5.4372136E+000 0.0 -6.5751988E+001  5.6140726E+001 0.0 -3.5493604E+002  5.3531001E+002 0.0 -1.9616418E+001 -1.4858805E-001 0.0 -2.0229599E-001  2.0666776E-002 0.0 -2.1514589E+001  1.2568703E+000 0.0 -2.7552975E+001  3.0040321E+000 0.0 -2.9907432E+001  5.8312762E+000 0.0 -3.1168473E+001  4.7014874E+000 0.0 -2.7784463E+001  2.2462188E+000 0.0 -3.1829391E+001  3.8291956E+000 0.0 -3.4378707E+001  6.6266956E+000 0.0 -3.5243564E+001  5.5496103E+000 0.0 -3.8481253E+001  8.4586595E+000 0.0 -3.9601135E+001  7.6508113E+000 0.0 -4.2965307E+001  1.1281586E+001 0.0 -4.5139751E+001  1.0602697E+001 0.0 -4.8341576E+001  1.4397789E+001 0.0 -5.0373480E+001  1.4404674E+001 0.0 -5.4096239E+001  1.9046301E+001 0.0 -5.7403084E+001  1.9571604E+001 0.0 -6.0744888E+001  2.4394316E+001 0.0 -6.5063184E+001  2.6210870E+001 0.0 -6.8510834E+001  3.1658752E+001 0.0 -7.3800524E+001  3.4770198E+001 0.0 -7.8077550E+001  4.0390057E+001 0.0 -8.5137237E+001  4.6214133E+001 0.0 -8.9872527E+001  5.2233241E+001 0.0 -9.7749458E+001  6.0041464E+001 0.0 -1.0542648E+002  6.9869311E+001 0.0 -9.5072197E+001  5.9038123E+001 0.0 -1.1250627E+002  8.0408414E+001 0.0 -1.0008091E+002  6.8335174E+001 0.0 -1.1916072E+002  9.2282095E+001 0.0 -1.0496660E+002  7.8753121E+001 0.0 -1.2453364E+002  1.0541213E+002 0.0 -1.0735879E+002  8.8869639E+001 0.0 -1.2894302E+002  1.1927903E+002 0.0 -8.9704235E+001  5.1904938E+001 0.0 -1.0316310E+002  6.7107779E+001 0.0 -9.5279870E+001  6.0881430E+001 0.0 -1.0791960E+002  7.5219143E+001 0.0 -1.0198188E+002  7.1343428E+001 0.0 -1.1294165E+002  8.4112711E+001 0.0 -1.0567439E+002  7.9461729E+001 0.0 -1.1968193E+002  8.9584956E+001 0.0 -1.1880456E+002  9.3857232E+001 0.0 -1.0836468E+002  8.6421543E+001 0.0 -5.1854530E+001  1.8361701E+001 0.0 -1.1038677E+002  1.0042927E+002 0.0 -8.5071116E+001  4.8493240E+001 0.0 -9.5292923E+001  7.2850918E+001 0.0 -9.6476130E+001  7.8922483E+001 0.0 -5.7804543E+001  2.0524081E+001 0.0 -1.1080845E+002  9.2789709E+001 0.0 -9.9726164E+001  8.5615816E+001 0.0 -8.7169304E+001  7.4969258E+001 0.0 -8.8694163E+001  7.9193444E+001 0.0 -7.7539115E+001  7.0297618E+001 0.0 -7.5873529E+001  7.1927328E+001 0.0 -9.0133067E+001  8.3303931E+001 0.0 -7.8176641E+001  7.5418736E+001 0.0 -6.5254712E+001  6.6615803E+001 0.0 -6.6637851E+001  6.8016346E+001 0.0 -5.5161422E+001  6.0418979E+001 0.0 -5.3872979E+001  5.9375827E+001 0.0 -6.7999021E+001  6.9159917E+001 0.0 -5.6909894E+001  6.0712868E+001 0.0 -9.3822234E+001  8.7304428E+001 0.0 -4.4111628E+001  5.2937395E+001 0.0 -4.6150293E+001  5.2500944E+001 0.0 -5.9755529E+001  6.1346546E+001 0.0 -4.6217106E+001  5.0269632E+001 0.0 -6.2990946E+001  6.0656377E+001 0.0 -5.0295732E+001  4.9583866E+001 0.0 -3.6780980E+001  4.2637189E+001 0.0 -3.9770840E+001  4.0771083E+001 0.0 -2.8851229E+001  3.5076999E+001 0.0 -3.0710055E+001  3.3177850E+001 0.0 -1.3109956E+002  1.3288460E+002 0.0 -7.7692078E+001  6.6047962E+001 0.0 -3.5387099E+001  4.5575507E+001 0.0 -4.3658458E+001  9.5345902E+000 0.0 -4.2513568E+001  3.9403778E+001 0.0 -3.2535556E+001  3.1592956E+001 0.0 -6.9935167E+001  6.1546680E+001 0.0 -2.2631793E+001  2.6630461E+001 0.0 -2.4563336E+001  2.4656057E+001 0.0 -3.4190471E+001  2.9648524E+001 0.0 -2.5676242E+001  2.2519553E+001 0.0 -3.5817092E+001  2.6559359E+001 0.0 -2.6578355E+001  2.0149779E+001 0.0 -1.9210977E+001  1.7772488E+001 0.0 -1.9533591E+001  1.5117482E+001 0.0 -2.6643868E+001  1.7646243E+001 0.0 -1.9483675E+001  1.2894886E+001 0.0 -1.3937578E+001  1.1519743E+001 0.0 -1.4044021E+001  9.4014979E+000 0.0 -1.8817805E+001  1.0810551E+001 0.0 -1.3102102E+001  7.3539542E+000 0.0 -1.7921772E+001  8.5082758E+000 0.0 -1.2286118E+001  5.6535609E+000 0.0 -1.7683073E+001  2.1418609E+001 0.0 -8.9458759E+000  5.2933261E+000 0.0 -8.4828834E+000  3.9670071E+000 0.0 -1.4386318E+002  1.2201323E+002 0.0 -9.0167814E+001  6.9175349E+001 0.0 -1.1089095E+002  1.1243387E+002 0.0 -1.6114053E+001  2.1876802E+001 0.0 -9.9442063E+000  8.3313441E+000 0.0 -1.0353162E+001  9.7330898E+000 0.0 -1.5889285E+001  6.2631531E+000 0.0 -3.5574953E+001  4.9893293E+000 0.0 -1.5659691E+002  1.5568408E+002 0.0 -2.4298359E+001  1.1958683E+001 0.0 -9.4489188E+001  8.7376949E+001 0.0 -1.5956066E+002  1.7265135E+002 0.0 -1.1575607E+002  1.0008025E+002 0.0 -6.8834217E+001  6.2342535E+001 0.0 -6.0453990E+000  3.6030908E+000 0.0 -5.8464864E+000  2.7187536E+000 0.0 -4.7455114E+001  3.5630571E+001 0.0 -4.9106915E+001  3.0643095E+001 0.0 -7.4791246E+000  2.9200024E+000 0.0 -5.1522907E+000  1.9402994E+000 0.0 -7.7588642E+001  7.1850541E+001 0.0 -3.4932568E+001  4.5066452E+001 0.0 -8.5410281E+001  5.2665624E+001 0.0 -2.7524946E+001  3.9124565E+001 0.0 -6.9510479E+001  5.8592517E+001 0.0 -1.2912581E+002  1.1021983E+002 0.0 -7.4744990E+000  7.3920151E+000 0.0 -1.2752674E+001  1.8022241E+001 0.0 -4.0092200E+000  1.9291305E+000 0.0 -3.3484221E+000  1.2619415E+000 0.0 -4.2566853E+000  1.2924764E+000 0.0 -2.8196721E+001  1.6971953E+000 0.0 -7.2878434E+000  8.0390511E+000 0.0 -2.8261556E+000  7.9995473E-001 0.0 -2.6981670E+001  3.8260033E+001 0.0 -1.1224073E+001  1.7713592E+001 0.0 -9.4328596E+001  9.7471653E+001 0.0 -6.4314832E+001  2.9507995E+001 0.0 -8.1489725E+001  7.6625946E+001 0.0 -4.1664427E+001  1.1741951E+001 0.0 -1.9012743E+002  2.0510131E+002 0.0 -1.9295304E+002  2.2688010E+002 0.0 -6.5836996E+000  4.5482776E+000 0.0 -4.7238600E+000  3.3974225E+000 0.0 -4.9355826E+000  3.9894719E+000 0.0 -6.1040103E+001  5.5618595E+001 0.0 -2.2295198E+000  8.3962385E-001 0.0 -1.8564394E+000  5.1474686E-001 0.0 -2.0770721E+001  3.2681644E+001 0.0 -2.2173515E+001  3.3285096E+001 0.0 -1.2873731E+002  9.5396486E+001 0.0 -3.3529410E+001  4.3696269E+001 0.0 -6.2557538E+001  5.2305084E+001 0.0 -6.8745697E+001  5.4464397E+001 0.0 -1.3831346E+002  1.2098682E+002 0.0 -1.5511769E+002  1.3651643E+002 0.0 -1.4656751E+001  2.1826586E+001 0.0 -1.0633281E+001  1.8184169E+001 0.0 -1.3622186E+001  2.1826236E+001 0.0 -1.6123436E+002  1.9005828E+002 0.0 -5.3195834E+000  6.2441385E+000 0.0 -9.1360083E+000  1.4878323E+001 0.0 -1.0179266E+001  1.4659464E+001 0.0 -9.5763834E+000  1.0323454E+001 0.0 -6.9617389E+000  8.6004640E+000 0.0 -9.0202483E+000  1.0795936E+001 0.0 -6.5736350E+000  9.0556913E+000 0.0 -5.4738091E+001  5.7738174E+001 0.0 -2.5144584E+001  7.1903369E-001 0.0 -2.5400419E+001 -5.6084262E-002 0.0 -8.1490070E+001  8.3470865E+001 0.0 -9.7120819E+001  1.0843237E+002 0.0 -6.4162315E+001  4.9519454E+001 0.0 -6.9113699E+001  5.0917614E+001 0.0 -6.4848523E+001  4.6064594E+001 0.0 -6.9305080E+001  4.7451205E+001 0.0 -6.5403648E+001  4.2397350E+001 0.0 -6.9465392E+001  4.4082416E+001 0.0 -6.5633965E+001  3.9205089E+001 0.0 -7.4645743E+001  5.0592795E+001 0.0 -6.9501750E+001  4.1119546E+001 0.0 -6.5296772E+001  3.5836255E+001 0.0 -6.9750869E+001  3.8145330E+001 0.0 -6.4647269E+001  3.2805867E+001 0.0 -7.5074967E+001  4.5190106E+001 0.0 -5.9548005E+001  3.0092005E+001 0.0 -5.9876441E+001  2.7801816E+001 0.0 -6.4014673E+001  3.0073720E+001 0.0 -5.8507258E+001  2.4795978E+001 0.0 -6.3413803E+001  2.7972242E+001 0.0 -5.8458445E+001  2.2920626E+001 0.0 -5.3455902E+001  1.9865117E+001 0.0 -5.3211331E+001  1.8569185E+001 0.0 -4.8646858E+001  1.5825538E+001 0.0 -4.8135142E+001  1.4849648E+001 0.0 -4.7512721E+001  1.7311627E+001 0.0 -6.3259946E+001  2.5831849E+001 0.0 -2.8302563E+001  1.1583407E+000 0.0 -7.4550478E+001  5.6681474E+001 0.0 -2.6643708E+001  3.7267337E+001 0.0 -3.2590248E+001  4.1744023E+001 0.0 -3.6045263E+000  2.9956163E+000 0.0 -3.4844987E+000  2.5226770E+000 0.0 -1.5164590E+000  5.4964349E-001 0.0 -1.2189293E+000  3.1834244E-001 0.0 -1.8119348E+000  7.8875892E-001 0.0 -4.3722563E+001  1.2210716E+001 0.0 -4.3926864E+001  1.1519729E+001 0.0 -4.8133589E+001  1.3903727E+001 0.0 -4.3857648E+001  1.0686331E+001 0.0 -3.9724111E+001  8.5440883E+000 0.0 -3.9555049E+001  8.1393843E+000 0.0 -3.6709634E+000  3.4185847E+000 0.0 -2.3164780E+002  2.7121800E+002 0.0 -2.2356644E+002  2.4502751E+002 0.0 -2.3758376E+002  2.9699208E+002 0.0 -5.6696547E+000  5.6746374E+000 0.0 -7.2103560E+000  1.2323671E+001 0.0 -7.8995317E+000  1.2008163E+001 0.0 -1.0623449E+001  1.4118323E+001 0.0 -3.2970309E+000  7.0288942E-001 0.0 -5.1670405E+000  1.2415177E+000 0.0 -1.6766542E+001  2.8405386E+001 0.0 -1.7535993E+001  2.8750052E+001 0.0 -2.2958678E+001  3.3637365E+001 0.0 -1.8075403E+001  2.8249577E+001 0.0 -1.3609112E+001  2.4474821E+001 0.0 -4.8152793E+001  1.3008902E+001 0.0 -6.8678762E+001  3.2405612E+001 0.0 -9.8115690E+000  1.8105318E+001 0.0 -4.1453213E+000  4.8885918E+000 0.0 -7.0367572E+001  6.6385187E+001 0.0 -7.0187233E+001  6.0317784E+001 0.0 -5.4669351E+001  2.5132225E+001 0.0 -1.0227589E+000  3.4965643E-001 0.0 -3.5462921E+000  5.4955444E-001 0.0 -1.3975135E+000  2.8180293E-001 0.0 -7.1747002E+001  7.2225889E+001 0.0 -1.2493825E+001  2.1620318E+001 0.0 -8.8960134E-001  1.5766902E-001 0.0 -6.0379900E+000  1.0998369E+000 0.0 -5.6077794E+000  1.0046881E+001 0.0 -3.5597063E+001  6.1073393E+000 0.0 -3.6174717E+001  5.7183993E+000 0.0 -3.5130406E+001  7.1738159E+000 0.0 -3.9606686E+001  7.6845834E+000 0.0 -3.6015039E+001  5.4388099E+000 0.0 -3.2849789E+001  3.5275333E+000 0.0 -3.2748941E+001  3.3767474E+000 0.0 -3.6030490E+001  5.1229406E+000 0.0 -3.2578356E+001  3.3383536E+000 0.0 -7.6561677E+000  1.5082920E+001 0.0 -6.7371368E+000  1.2335042E+001 0.0 -5.5370860E+001  5.0127625E+001 0.0 -5.3547524E+001  5.1704192E+001 0.0 -4.8115696E+001  4.6547500E+001 0.0 -4.5878392E+001  4.7613423E+001 0.0 -2.9923242E+001  1.4795766E+000 0.0 -2.9430859E+001  1.7486675E+000 0.0 -2.5268005E+001 -5.8026414E-001 0.0 -6.7631330E+001  4.3616151E+001 0.0 -6.9618355E+001  3.7099670E+001 0.0 -5.3701906E+001  2.7470510E+001 0.0 -5.0184987E+000  7.2545272E+000 0.0 -4.9140812E+000  7.6310520E+000 0.0 -1.6910075E+001  2.5354096E+001 0.0 -6.0836923E+000  9.7636808E+000 0.0 -6.5383266E+000  5.2984895E+000 0.0 -2.6507610E+001  3.5897484E+001 0.0 -3.2208078E+001  4.0480942E+001 0.0 -2.1342793E+001  3.1749925E+001 0.0 -9.0944194E+000  1.7957973E+001 0.0 -3.8752436E+001  4.5742206E+001 0.0 -2.7386260E+000  2.6357818E+000 0.0 -1.6281935E+001  2.7378411E+001 0.0 -3.9285893E+000  5.1099468E+000 0.0 -3.0413092E+000  4.1107854E+000 0.0 -8.8041766E+001  5.4763805E+001 0.0 -8.8837453E+001  6.0252059E+001 0.0 -7.4585154E+001  4.1505856E+001 0.0 -8.1207038E+001  4.2616580E+001 0.0 -1.7046654E+002  1.5112040E+002 0.0 -1.4442822E+002  1.2664528E+002 0.0 -2.4882099E+001  3.4278939E+001 0.0 -4.4597396E+000  4.5920342E+000 0.0 -3.6904450E+000  4.4059757E-001 0.0 -2.2885402E+001 -6.8870464E-001 0.0 -2.2358065E+001  8.8579134E-002 0.0 -4.6210940E+001  2.3307596E+001 0.0 -6.7469225E+001  2.9409055E+001 0.0 -6.0876020E+001  5.4465349E+001 0.0 -2.7873597E+001  7.5530390E-001 0.0 -2.5241130E+001 -8.4984480E-001 0.0 -2.9912934E+001  3.8947194E+001 0.0 -6.2003163E+001  4.2370053E+001 0.0 -1.9181592E+002  1.7514084E+002 0.0 -1.6737182E+002  1.4702824E+002 0.0 -8.4760434E+000  1.1226497E+001 0.0 -1.1305338E+001  1.3045444E+001 0.0 -7.9503498E+000  2.1524527E+000 0.0 -9.7962405E+000  1.9831935E+000 0.0 -5.9735711E+001  4.7485118E+001 0.0 -9.2459676E+001  6.1928565E+001 0.0 -2.7349478E+001  1.8412075E-001 0.0 -3.8540596E+001  4.4727371E+001 0.0 -3.2257067E+001  3.8092086E+001 0.0 -4.1171730E+001  4.2591903E+001 0.0 -2.7770937E+002  3.4868422E+002 0.0 -2.9243528E+002  3.9570767E+002 0.0 -2.3810760E+002  3.2048805E+002 0.0 -1.3316394E+001  2.4257561E+001 0.0 -5.2452080E+001  1.5373365E+001 0.0 -1.0435989E+002  9.3799755E+001 0.0 -8.4403838E+001  6.8145571E+001 0.0 -8.6093768E+001  6.4200060E+001 0.0 -1.1401358E+001  2.1095977E+001 0.0 -5.2726681E+001  1.6720387E+001 0.0 -6.4234206E+001  6.2442004E+001 0.0 -5.3688275E+000  6.9580877E+000 0.0 -4.0585728E+000  6.0284757E+000 0.0 -1.0365358E+001  7.3711634E+000 0.0 -3.0539831E+001  2.4616648E+000 0.0 -3.3027236E+001  3.5644940E+000 0.0 -2.8387428E+000  2.9750947E+000 0.0 -3.0065771E+002  4.3005244E+002 0.0 -7.8495653E+000  1.6120721E+001 0.0 -4.0108717E+001  7.4108131E+000 0.0 -4.3545341E+000  2.5412119E+000 0.0 -3.0884867E+000  1.8074566E+000 0.0 -2.7744913E+000  1.3818990E+000 0.0 -2.2076466E+000  1.3002772E+000 0.0 -2.4389081E+000  1.6274054E+000 0.0 -1.7449628E+000  1.2034292E+000 0.0 -1.6522333E+000  9.5929275E-001 0.0 -5.1144029E+001  5.3370018E+001 0.0 -5.9122309E+001  4.7343252E+001 0.0 -6.8296020E+001  5.5382764E+001 0.0 -5.8790723E+001  4.2804247E+001 0.0 -6.7459640E+001  4.9105984E+001 0.0 -5.7451579E+001  3.8079823E+001 0.0 -6.6010199E+001  4.2655402E+001 0.0 -4.3224759E+001  1.3493996E+001 0.0 -3.8678699E+001  1.0452927E+001 0.0 -4.2738904E+001  1.5173997E+001 0.0 -4.5328115E+001  1.7762839E+001 0.0 -5.1872487E+001  2.1144408E+001 0.0 -4.6846104E+001  1.8621128E+001 0.0 -3.9559615E+001  9.3065208E+000 0.0 -5.9535157E+001  3.3253180E+001 0.0 -3.5118565E+001  8.0945190E+000 0.0 -1.8189490E+001  1.9357761E+001 0.0 -2.2634005E+001 -1.3432835E+000 0.0 -7.2400132E+000  1.5147099E+001 0.0 -5.2810095E+000  1.1592985E+001 0.0 -6.2808263E+000  1.2707331E+001 0.0 -8.1269791E+000  1.5068980E+001 0.0 -1.2762019E+000  5.7539529E-001 0.0 -2.3176085E+001  2.9580449E+001 0.0 -5.3494007E+000  1.0417184E+001 0.0 -4.4547584E+000  9.1154223E+000 0.0 -6.3682371E+001  3.8914023E+001 0.0 -4.8589651E+001  2.2079454E+001 0.0 -6.2950062E+001  3.2577743E+001 0.0 -4.3112563E+000  8.1764865E+000 0.0 -1.3431965E+001  2.4574749E+001 0.0 -1.0316271E+001  2.0217285E+001 0.0 -2.6424442E+000  2.2545494E+000 0.0 -5.6400805E+001  4.6526779E+001 0.0 -2.2132855E+001 -1.6998146E+000 0.0 -3.2900485E+000  3.8892895E+000 0.0 -1.8993736E+001 -1.7422543E+000 0.0 -2.1641674E+001  3.2889307E+001 0.0 -1.6789006E+001  2.6764525E+001 0.0 -2.1401575E+001  3.0782864E+001 0.0 -1.4095159E+001  1.3606178E+001 0.0 -3.5295383E+001  6.5014580E+000 0.0 -6.7206569E+001  4.9910337E+001 0.0 -7.3365233E+000  6.4405533E+000 0.0 -1.1577746E+002  1.0375314E+002 0.0 -1.3796408E+002  1.1944284E+002 0.0 -9.9827131E+001  9.0769200E+001 0.0 -1.2042650E+002  1.0341809E+002 0.0 -4.1168387E+001  3.8070039E+001 0.0 -9.3253314E-001  4.0234839E-001 0.0 -6.9474793E-001  2.1453433E-001 0.0 -7.7117362E-001  2.0030235E-001 0.0 -5.4575340E-001  9.4497168E-002 0.0 -4.2315964E+001  5.0114344E+001 0.0 -4.7180072E+000  7.9455947E+000 0.0 -6.4533777E+001  2.7364765E+001 0.0 -4.1750061E+001  1.6659073E+001 0.0 -5.0024033E+001  3.4969039E+001 0.0 -2.2259592E+002  2.1331712E+002 0.0 -1.8932856E+002  1.7156659E+002 0.0 -2.3913734E+002  2.3899294E+002 0.0 -2.0585422E+002  1.9387562E+002 0.0 -1.6164991E+002  1.3682700E+002 0.0 -1.7936263E+002  1.5943542E+002 0.0 -2.2019048E+002  2.1781676E+002 0.0 -1.9165815E+002  1.7890081E+002 0.0 -2.3464309E+002  2.4391930E+002 0.0 -2.0280019E+002  2.0010714E+002 0.0 -2.4939140E+002  2.7303725E+002 0.0 -2.8589453E+002  3.2759290E+002 0.0 -1.5583744E+002  1.3135549E+002 0.0 -1.5237972E+002  1.2800912E+002 0.0 -3.7672739E+001  1.5668273E+001 0.0 -4.2484797E+001  1.5654692E+001 0.0 -4.5436044E+001  2.1569746E+001 0.0 -5.1659712E+001  2.2079986E+001 0.0 -5.4032384E+001  2.8161693E+001 0.0 -3.6898990E+001  1.0382397E+001 0.0 -6.1613846E+001  2.9704295E+001 0.0 -6.4654020E+001  3.6805898E+001 0.0 -5.0762510E-001  5.9056360E-002 0.0 -1.9257298E+000  1.5119045E+000 0.0 -1.1334184E+001  2.2123953E+001 0.0 -7.5951071E+000  1.5884866E+001 0.0 -7.2420793E+001  5.6872103E+001 0.0 -7.6236336E+000  5.6199889E-001 0.0 -5.4081408E+001  3.2168546E+001 0.0 -7.6480765E+001  4.6980982E+001 0.0 -2.7008742E+001  3.4980081E+001 0.0 -5.7166615E+001  3.1604881E+001 0.0 -2.9917636E+001  1.8991608E+000 0.0 -3.4099080E+001  7.5811042E+000 0.0 -3.1824527E+001  4.1624265E+000 0.0 -3.0137040E+001  2.2637649E+000 0.0 -1.1434936E+002  7.9091503E+001 0.0 -6.1414294E+001  2.3946683E+001 0.0 -1.3519284E+001  1.3596285E+000 0.0 -2.0606285E+001  3.7164774E+000 0.0 -4.0767163E+001  1.0447099E+001 0.0 -2.8470322E+001  8.6758862E+000 0.0 -1.7775259E+000  1.7324278E-001 0.0 -4.7675617E+000  4.4032584E+000 0.0 -9.1114317E-001  1.0927178E-001 0.0 -1.4900527E+000  2.3307442E-001 0.0 -3.1989318E+001  5.0159837E+000 0.0 -1.2485584E+001  3.7725287E+000 0.0 -1.6184613E+001  4.2301500E+000 0.0 -2.4194333E+001  1.4507751E+000 0.0 -5.5144675E-001  4.1960281E-002 0.0 -2.8152016E+001  2.9702282E-001 0.0 -5.3971780E+001  4.7052220E+001 0.0 -2.5558025E+002  2.6716633E+002 0.0 -4.5377678E+001  5.0835053E+001 0.0 -2.7080666E+001  5.7936615E+000 0.0 -1.5087308E+002  1.3912756E+002 0.0 -7.9064395E+001  6.1442958E+001 0.0 -1.8353203E+002  1.8295391E+002 0.0 -1.3232027E+002  1.4660735E+002 0.0 -1.3691084E+002  1.5890887E+002 0.0 -1.6498303E+002  2.1221066E+002 0.0 -1.4145046E+002  1.7541952E+002 0.0 -1.7222210E+002  2.3021527E+002 0.0 -1.2085549E+002  1.4230666E+002 0.0 -1.1060996E+002  1.2607930E+002 0.0 -9.0832893E+001  7.7267146E+001 0.0 -1.9372916E+002  2.4959625E+002 0.0 -8.4050804E+001  9.1743506E+001 0.0 -2.6536700E+002  3.1304416E+002 0.0 -6.2279747E+001  5.8915460E+001 0.0 -6.6167284E+001  6.2438321E+001 0.0 -7.9020488E+001  6.8583704E+001 0.0 -3.4107944E+002  4.2792255E+002 0.0 -1.3274877E+002  8.5815186E+001 0.0 -3.0400658E+002  4.3489093E+002 0.0 -2.9840839E+002  4.4813844E+002 0.0 -2.2894772E+002  2.2112546E+002 0.0 -8.4662867E+001  4.3315571E+001 0.0 -1.5485000E+002  1.1290707E+002 0.0 -1.3493607E+002  1.0849532E+002 0.0 -2.0025280E+002  1.7267426E+002 0.0 -7.3151787E+001  6.4362147E+001 0.0 -1.0689585E+002  1.1639537E+002 0.0 -3.1350881E+002  4.2040761E+002 0.0 -1.9959526E+002  2.7630437E+002 0.0 -7.5233965E+001  7.7779433E+001 0.0 -2.0586938E+001 -1.1598924E+000 0.0 -1.9946475E+001 -4.5155139E-001 0.0 -3.7849373E+000  6.2606334E+000 0.0 -3.9136129E+000  7.1360071E+000 0.0 -2.7287971E+001  4.3925099E-001 0.0 -2.5622777E+001 -1.0567157E+000 0.0 -1.0660150E+002  7.0556962E+001 0.0 -7.2020661E-001  1.5267804E-001 0.0 -2.9973145E-001  4.2104136E-002 0.0 -7.7694476E+001  7.7784117E+001 0.0 -6.6526169E+001 -2.5926548E+000 0.0 -6.4596683E+001  7.4857263E+001 0.0 -6.5525908E+001  2.2325103E+000 0.0 -7.1001396E+001  7.7811466E+000 0.0 -8.1410324E+001  2.4967586E+001 0.0 -3.6946609E+001  1.1348257E+001 0.0 -2.1363325E+000  1.3000009E+000 0.0 -2.9950508E+000  2.3254472E+000 0.0 -2.1336424E+001  3.2443361E+001 0.0 -3.6366529E+000  3.3976810E+000 0.0 -2.1264679E+000  1.8441448E+000 0.0 -2.6747735E+001  4.6478164E+001 0.0 -3.8555110E+000  4.2592338E+000 0.0 -2.9162302E+000  4.1033565E+000 0.0 -4.6975744E+000  6.0056793E+000 0.0 -2.7220609E+000  3.1977944E+000 0.0 -9.6054916E+000  2.3101076E+001 0.0 -1.3948839E+001  3.2193961E+001 0.0 -6.1849949E+000  9.5317148E+000 0.0 -6.0097836E+000  1.0440169E+001 0.0 -8.3501562E+000  1.9785201E+001 0.0 -1.1487536E+002  8.7211511E+001 0.0 -1.6639827E+001 -9.6419346E-001 0.0 -3.6314904E+001  5.2740043E+000 0.0 -5.4709504E+001  4.5693887E+001 0.0 -4.6906035E+001  3.8473095E+001 0.0 -4.6022579E+001  5.3025279E+001 0.0 -5.7509539E+001  2.0830345E+001 0.0 -3.1630228E+001  2.8394568E+000 0.0 -3.9676682E+001  7.4463730E+000 0.0 -4.4122997E+001  1.0094365E+001 0.0 -2.6219076E+002  2.8035356E+002 0.0 -2.3950608E+002  3.4772835E+002 0.0 -1.1302139E+002  1.3235625E+002 0.0 -5.1537425E+001 -4.9807761E+000 0.0 -1.3419529E+002  1.0208781E+002 0.0 -9.7245219E+001  1.1161804E+002 0.0 -8.0083949E+001  6.4547572E+001 0.0 -5.2368800E+001  1.1993892E+001 0.0 -8.1664837E+001  4.4595217E+001 0.0 -2.9160713E+002  3.4994347E+002 0.0 -1.5601525E+001  2.5033165E+001 0.0 -9.4879908E+000  1.9481157E+001 0.0 -1.4348693E+001  2.4490790E+001 0.0 -2.0459538E+001  2.9033161E+001 0.0 -4.8608681E+000  9.8103980E+000 0.0 -5.3353348E-001  1.3611370E-001 0.0 -2.0344710E+000  1.9997303E+000 0.0 -1.0657619E+001  4.1800776E+000 0.0 -7.7979390E+000  1.7216529E+001 0.0 -6.6394622E+001  2.7782584E+001 0.0 -1.1164907E+000  5.7039365E-001 0.0 -1.3632043E+001  1.7212540E+001 0.0 -6.5577773E+000  1.3210979E+001 0.0 -7.5677635E+001  6.0602618E+001 0.0 -1.8176864E+002  1.6049521E+002 0.0 -7.5936851E+001  3.8861228E+001 0.0 -4.3598897E+001  1.0588407E+001 0.0 -1.7990857E+001  2.5198560E+001 0.0 -5.7223199E+001  4.6505132E+001 0.0 -2.2313304E+001  3.0526804E+001 0.0 -2.6061958E+000  1.9223323E+000 0.0 -9.9558512E+000  1.9960457E+000 0.0 -6.5209499E+000  9.5427123E+000 0.0 -3.8279757E+001  1.8829445E+001 0.0 -2.0401361E+000  3.5825664E-001 0.0 -1.4159891E+002  1.1789121E+002 0.0 -1.5879517E+002  1.3665058E+002 0.0 -5.2628389E+001  1.7731997E+001 0.0 -2.4254793E+002  2.6720959E+002 0.0 -5.2720226E+001  2.2470072E+001 0.0 -1.2139171E-001  1.6406205E-002 0.0 -4.7179843E+001  1.6873967E+001 0.0 -1.2016023E+001  1.2584619E+001 0.0 -4.7492961E+000  1.0162753E+001 0.0 -2.9122828E+001  3.8973019E+001 0.0 -6.0660617E+001  5.8463188E+001 0.0 -3.5634265E+000  3.7635404E+000 0.0 -3.3745730E+000  4.7861950E+000 0.0 -7.9660856E+001  4.7681466E+001 0.0 -8.1462838E+001  5.2279589E+001 0.0 -8.4814163E+001  5.9129196E+001 0.0 -1.7334436E+001 -1.6747146E+000 0.0 -7.2954287E+001  5.2587024E+001 0.0 -9.9366974E+001  8.7180418E+001 0.0 -3.6332532E+001  3.9256505E+001 0.0 -5.6469773E+001  5.0596177E+001 0.0 -9.0227531E+001  6.5703515E+001 0.0 -9.4514015E+001  5.3980294E+001 0.0 -1.2848080E+001  3.1567413E+001 0.0 -2.1542485E+000  5.1016841E-001 0.0 -3.9859623E+001  4.7807748E+001 0.0 -6.5170891E+000  2.0625403E+000 0.0 -6.8902350E+001  3.5832246E+001 0.0 -1.9018520E+001  6.4596693E+000 0.0 -2.1486813E+001  4.0805125E-001 0.0 -2.7737041E+001  3.5486861E+001 0.0 -7.9358336E+001  7.6958935E+001 0.0 -1.0883242E+001  2.0421202E+001 0.0 -7.4740505E+001  4.7890618E+001 0.0 -2.7012432E+002  2.9458150E+002 0.0 -3.6758519E+001  4.5453006E+001 0.0 -8.7711659E+001  6.0537729E+001 0.0 -1.0298515E+002  9.0903286E+001 0.0 -2.5309979E+001  1.1279141E+001 0.0 -2.3180619E-001  2.6691264E-002 0.0 -3.5541037E+001  2.2991164E+001 0.0 -5.3530103E+000  1.1469721E+001 0.0 -7.6729785E+001  5.4161568E+001 0.0 -3.8591145E+001  4.2498317E+001 0.0 -1.6105966E+001 -1.5429000E+000 0.0 -2.2361162E+001  3.0063460E+001 0.0 -1.7645367E+002  1.6580277E+002 0.0 -8.4772782E-001  3.2769144E-001 0.0 -2.4405108E+000  2.6637753E+000 0.0 -8.8683293E+000  2.0121528E+001 0.0 -1.3002720E+001  1.5325740E+001 0.0 -2.6038403E+001  1.4851540E+001 0.0 -3.3397092E+001  1.7347989E+001 0.0 -7.2268789E+001  7.0693715E+001 0.0 -8.3515834E+001  3.2810651E+001 0.0 -6.8365287E+001  3.3775160E+001 0.0 -4.2983272E+001  3.7096010E+001 0.0 -1.2363958E+002  1.0216681E+002 0.0 -1.4809231E+001  1.5651151E+001 0.0 -3.0363889E+001  6.0520519E+001 0.0 -2.9223775E+000  1.3506385E+000 0.0 -1.1919255E+002  8.6116411E+001 0.0 -3.3675203E+001  1.4288991E+000 0.0 -3.2129909E+001  8.1554406E+000 0.0 -9.1674691E+001  8.4269111E+001 0.0 -1.3474156E+002  1.0732664E+002 0.0 -1.2938205E+002  1.0281016E+002 0.0 -1.6143396E+002  7.1040055E+001 0.0 -2.6675678E+002  3.1931378E+002 0.0 -7.2466039E+001  3.8906966E+001 0.0 -1.9293784E+002  2.8054482E+002 0.0 -8.2599918E+000  1.1573686E+001 0.0 -3.7804625E+001  9.9245080E+000 0.0 -3.0196028E+001  2.3856846E+000 0.0 -1.3160176E+002  1.1324105E+002 0.0 -5.7003821E+000  9.4037712E-001 0.0 -4.5922413E+001  1.4456442E+001 0.0 -3.5453791E+001  4.0391899E+001 0.0 -3.1627271E+000  4.7361813E+000 0.0 -3.2392891E+001  3.5614579E+000 0.0 -5.0490284E+001  2.1847633E+001 0.0 -2.8188628E+001 -2.0427104E+000 0.0 -1.5033506E+002  1.2290112E+002 0.0 -5.6727961E+001  2.2900216E+001 0.0 -7.3441978E+001  3.9177335E+001 0.0 -3.3339027E+001  1.9412835E+001 0.0 -3.8756073E+001  7.0740236E+000 0.0 -2.0865448E+002  1.9460394E+002 0.0 -1.4048755E+002  1.8611013E+002 0.0 -9.3734029E+001  5.7567148E+001 0.0 -7.3328984E+001  3.6451885E+001 0.0 -7.2775092E+001  3.4122551E+001 0.0 -8.0923111E+001  7.0133847E+001 0.0 -4.4165954E+001  4.8103844E+001 0.0 -2.0224860E+000  1.0174099E+000 0.0 -1.4999158E+000  7.9817903E-001 0.0 -2.0269731E+001 -1.4342003E+000 0.0 -3.4073169E+000  2.1849018E+000 0.0 -6.5533364E+000  1.2459963E+001 0.0 -5.3163843E+001  1.5561536E+001 0.0 -5.0246023E+001  1.8530306E+001 0.0 -4.0489991E+001  2.5441147E+001 0.0 -3.9796572E+000  6.6057018E+000 0.0 -1.2033984E+001  2.3865722E+001 0.0 -2.4592419E+000  4.2978474E-001 0.0 -1.3440189E+000  8.2596754E-001 0.0 -7.2324674E+001  3.6410746E+001 0.0 -9.4839160E+001  1.1182476E+002 0.0 -7.9124508E+001  4.4558165E+001 0.0 -8.9025503E+001  9.6898031E+001 0.0 -4.3319587E+000  8.2366335E+000 0.0 -6.2523778E+001  5.4123695E+001 0.0 -2.1203364E+002  2.2085255E+002 0.0 -1.0742611E+001 -4.6152829E-001 0.0 -7.9146544E+001  5.7062224E+001 0.0 -1.3508680E+002  9.6799679E+001 0.0 -1.3298028E+000  9.1488960E-001 0.0 -4.7056681E+001  2.5625101E+001 0.0 -5.1435437E+001  1.5362929E+001 0.0 -4.7374312E+001  1.2521050E+001 0.0 -2.4073309E+002  1.2925335E+002 0.0 -3.2692736E+001 -7.8729706E-001 0.0 -5.7467616E+000  5.3262754E+000 0.0 -4.2755757E+001  1.1837338E+001 0.0 -8.4732245E+000  5.8758060E+000 0.0 -1.6468356E+002  1.4654623E+002 0.0 -6.0050207E+001  5.0837150E+001 0.0 -2.3343290E+002  3.5386852E+002 0.0 -1.8627726E+000  1.4252695E+000 0.0 -8.0439894E+001  6.2424717E+001 0.0 -3.7777426E+001  4.9880716E+000 0.0 -7.9272739E+001  1.0716451E+002 0.0 -3.5367426E-001  5.1908962E-002 0.0 -5.0048899E+001  3.8565537E+001 0.0 -5.7234982E+001  4.7833228E+001 0.0 -3.4090919E+001  4.1514469E+001 0.0 -3.3069232E+001  7.0937326E+001 0.0 -1.0269122E+001  1.3083262E+001 0.0 -1.5250255E+001  2.7532323E+001 0.0 -3.4191837E+001  2.8286754E+001 0.0 -1.3122340E+002  2.4212438E+001 0.0 -8.2673555E+000  1.4494040E+001 0.0 -1.0654908E+001  2.1939515E+000 0.0 -5.7114070E+001  2.2884968E+001 0.0 -1.5307663E+001  2.4775496E+001 0.0 -5.3263838E+001  4.5077060E+001 0.0 -9.6542098E+001  6.8683688E+001 0.0 -5.0843130E-001  3.7679111E-002 0.0 -5.2400441E+000  1.1162307E+001 0.0 -2.7793643E+000  3.6200748E+000 0.0 -9.5467876E+001  8.0037284E+001 0.0 -6.5928864E+001  3.9528241E+001 0.0 -1.3530906E+002  1.0695578E+002 0.0 -6.6293469E+001  6.2203178E+001 0.0 -6.6974414E+000  1.5284510E+001 0.0 -4.1178835E+001  1.3154982E+001 0.0 -3.3547397E+001  3.8872804E+000 0.0 -1.3839127E+001  2.3974375E+001 0.0 -3.1147201E+002  3.9671126E+002 0.0 -1.7686832E+001  2.8632114E+001 0.0 -4.2164593E+000  5.7668936E+000 0.0 -7.8939030E+001  5.3267068E+001 0.0 -1.4146772E+002  1.2096655E+002 0.0 -2.2426990E+001  2.8974400E+001 0.0 -6.8559366E+000  1.5487196E+001 0.0 -2.9251266E+000  3.4553178E+000 0.0 -2.4561033E+002  2.7612836E+002 0.0 -3.3281979E+001  3.9057142E+001 0.0 -5.5525089E+001  2.4204383E+001 0.0 -1.1484610E+000  1.8057631E-001 0.0 -2.2629295E+002  2.1889809E+002 0.0 -8.9419694E+000  3.0971107E+000 0.0 -8.1960557E+001  7.8329123E+001 0.0 -3.7098431E+001  2.7435586E+001 0.0 -1.0238861E+001  6.4849944E+000 0.0 -5.6716069E+001  5.3820422E+001 0.0 -6.9250868E+001  6.4790965E+001 0.0 -9.2859178E+001  6.1887263E+001 0.0 -5.6724472E+001  1.9899968E+001 0.0 -7.8755246E+001  4.0581269E+001 0.0 -5.7626450E+001  5.7968101E+001 0.0 -2.4037145E+000  1.0702353E+000 0.0 -4.9025901E+001  3.1697733E+001 0.0 -3.1379999E+002  4.1529371E+002 0.0 -4.7425254E+001  5.4061530E+001 0.0 -8.8825461E+001  6.9492844E+001 0.0 -4.7517056E+001  1.2138750E+001 0.0 -8.3402295E+000  6.6861802E+000 0.0 -1.8806848E+001  2.5035722E+001 0.0 -3.6525572E+001  5.5687576E+000 0.0 -1.1967508E+002  1.0540481E+002 0.0 -4.3764545E+000  2.8849150E+000 0.0 -4.7631237E+001  1.7247370E+001 0.0 -3.3270431E+001  3.8613865E+000 0.0 -2.7961394E-001  2.8404093E-002 0.0 -8.8705574E-002 -4.6547699E-003 0.0 -1.6592015E+000 -5.7582424E-001 0.0 -2.0332707E-001 -1.6384651E-002 0.0 -1.9444243E-001  9.9716917E-003 0.0 -3.6954465E-001  3.2818898E-002 0.0 -2.7521108E+000 -6.6017503E-001 0.0 -4.1237024E+000 -6.1674014E-001 0.0 -2.2435041E+000 -7.0601798E-002 0.0 -5.3549626E+000 -5.1069928E-001 0.0 -7.5139380E+000 -5.3186211E-001 0.0 -1.0188627E+001 -4.3471328E-001 0.0 -9.6424817E+000 -2.0936824E-001 0.0 -1.0852354E+001 -2.0538552E-001 0.0 -1.2746932E+001 -1.2606684E-001 0.0 -1.3545646E+001 -4.0772710E-002 0.0 -1.1778371E+001  1.7527603E-003 0.0 -1.2765904E+001  6.3276493E-002 0.0 -1.2713384E+001  1.3494659E-001 0.0 -1.0696340E+001  1.0927380E-001 0.0 -1.1448918E+001  1.1827661E-001 0.0 -1.1049252E+001  1.5330151E-001 0.0 -9.3481582E+000  1.1729503E-001 0.0 -9.5648955E+000  1.2912871E-001 0.0 -9.4447826E+000  1.5476607E-001 0.0 -7.6845904E+000  1.0994006E-001 0.0 -8.0859481E+000  1.1876725E-001 0.0 -7.7110403E+000  1.2835615E-001 0.0 -5.0627397E-002 -2.8855057E-004 0.0 -6.4622943E+000  9.4613544E-002 0.0 -6.7726919E+000  1.1581437E-001 0.0 -5.6276749E+000  9.5097272E-002 0.0 -5.6771009E+000  1.0693394E-001 0.0 -5.2333339E+000  1.0896374E-001 0.0 -4.9925036E+000  1.0353456E-001 0.0 -4.0977857E+000  7.3177978E-002 0.0 -4.1908636E+000  8.4011566E-002 0.0 -3.9066646E+000  8.1641354E-002 0.0 -3.6558364E+000  7.6358812E-002 0.0 -3.4546301E+000  7.0512387E-002 0.0 -3.3277957E+000  5.9443874E-002 0.0 -2.8592742E+000  5.3246244E-002 0.0 -2.6912405E+000  4.6806167E-002 0.0 -2.6013640E+000  4.9269591E-002 0.0 -2.4214317E+000  3.6036349E-002 0.0 -2.2641795E+000  1.3061773E-002 0.0 -2.2595517E+000 -1.3353462E-001 0.0 -3.1761704E-001 -2.6616292E-003 0.0 -4.5597719E-001 -9.1543789E-003 0.0 -7.5576391E-001 -2.4906579E-001 0.0 -6.7694376E-001 -3.4225491E-002 0.0 -1.0290679E+000 -2.9778229E-002 0.0 -1.3195202E+000 -2.5307560E-002 0.0 -1.4450854E+000 -2.0859544E-002 0.0 -1.6756186E+000 -1.5298297E-002 0.0 -1.7982403E+000 -5.3330582E-003 0.0 -1.7378538E+000 -7.8015290E-003 0.0 -1.8498726E+000  2.4606458E-003 0.0 -1.8482087E+000  6.1070268E-003 0.0 -1.6877797E+000  1.7490827E-003 0.0 -1.7161085E+000  8.5208685E-003 0.0 -1.6573889E+000  1.0473822E-002 0.0 -1.4804868E+000  5.0945110E-003 0.0 -1.4826449E+000  8.4640639E-003 0.0 -1.4138772E+000  1.1643810E-002 0.0 -1.2523003E+000  6.3121851E-003 0.0 -1.2409815E+000  7.9998373E-003 0.0 -1.1791628E+000  9.9892918E-003 0.0 -1.0402665E+000  5.5856203E-003 0.0 -1.0306414E+000  6.3896622E-003 0.0 -9.7749190E-001  8.7690597E-003 0.0 -9.0172987E-001  6.3526303E-003 0.0 -8.4604381E-001  8.5079687E-003 0.0 -7.3619528E-001  5.6919449E-003 0.0 -6.8584057E-001  4.5723560E-003 0.0 -6.7167153E-001  4.6958706E-003 0.0 -6.3150116E-001  6.2759662E-003 0.0 -5.4934300E-001  4.4263440E-003 0.0 -5.0939811E-001  4.0613811E-003 0.0 -4.7885000E-001  3.1144825E-003 0.0 -4.6206440E-001  3.1980664E-003 0.0 -4.3179916E-001  3.9195219E-003 0.0 -3.7837164E-001  2.4801862E-003 0.0 -3.6053898E-001  1.7701388E-003 0.0 -3.5114082E-001  2.2303309E-003 0.0 -3.3508264E-001  1.6010159E-003 0.0 -3.5165974E-001 -1.9329918E-003 0.0 -1.6535741E+000 -1.1630611E-001 0.0 -7.5218735E-001 -1.9554360E-002 0.0 -1.6677695E+000 -8.4741159E-002 0.0 -8.2745771E-002  1.2678176E-003 0.0 -1.0328064E+000 -2.3336891E-002 0.0 -1.6637294E+000 -4.7860937E-002 0.0 -3.1120952E-001 -1.7295799E-002 0.0 -5.2046613E-001 -8.0072197E-002 0.0 -7.8010228E-001 -8.4275017E-002 0.0 -3.0151390E-001 -4.3040746E-002 0.0 -6.4892514E-001 -1.5296537E-001 0.0 -4.3135467E-001 -9.3107699E-002 0.0 -8.1276186E-001 -2.3162260E-001 0.0 -5.2454659E-001 -1.4389942E-001 0.0 -3.1856103E-001 -5.6037803E-002 0.0 -3.6891105E-001 -7.7172269E-002 0.0 -2.5657982E-001 -2.2614305E-002 0.0 -2.1336390E-001 -2.1045313E-002 0.0 -1.9010758E-001 -5.2449651E-003 0.0 -2.9566216E-001 -2.0673121E-002 0.0 -4.2255728E-001 -8.6997313E-002 0.0 -1.4468395E-001 -6.7791489E-003 0.0 -1.3994208E-001 -5.0550823E-004 0.0 -3.4764001E-001 -1.0456716E-002 0.0 -2.3163772E-001  9.3598808E-004 0.0 -4.9037022E-001 -9.6640176E-002 0.0 -6.8636777E-001 -2.2131163E-001 0.0 -5.2118640E-001 -7.2713181E-002 0.0 -2.5480431E-001 -3.6929459E-002 0.0 -1.0538424E+000 -2.0478638E-001 0.0 -2.1303122E+000 -4.1080864E-001 0.0 -1.2217289E-001 -8.9368781E-003 0.0 -1.8864799E+000 -5.6357938E-001 0.0 -5.8947768E-002 -1.2651839E-003 0.0 -8.8933241E-001 -2.1123632E-002 0.0 -1.4840607E+000 -6.3934251E-003 0.0 -3.3840204E+000 -2.2118698E-002 0.0 -3.6103902E+000 -6.0077366E-002 0.0 -6.3321410E+000 -8.8796257E-002 0.0 -5.0084219E-001 -1.0784619E-002 0.0 -9.6293191E-001 -3.1055155E-002 0.0 -8.6116595E-001 -3.2090743E-002 0.0 -3.7667469E-001 -4.0754282E-003 0.0 -7.3537262E-001 -1.1823548E-002 0.0 -6.4464991E-001 -8.5906405E-003 0.0 -1.7082968E+000  1.2353854E-002 0.0 -3.7670400E+000  6.1253224E-002 0.0 -3.8520955E+000 -9.5720808E-003 0.0 -6.9524343E+000 -4.1548239E-002 0.0 -8.6880520E-001  1.5054088E-002 0.0 -1.8619402E+000  5.7388042E-002 0.0 -1.8265478E+000  1.6991777E-002 0.0 -3.3976448E+000  3.6715476E-002 0.0 -1.4089159E+000  2.1920908E-002 0.0 -3.0587076E+000  8.8698091E-002 0.0 -3.0210577E+000  2.0980010E-002 0.0 -5.5221449E+000  4.4046123E-002 0.0 -5.5018053E-001 -1.2664119E-002 0.0 -1.2314443E+000 -5.0251682E-002 0.0 -4.4645805E-001  6.8138971E-003 0.0 -8.8753034E-001  2.1240295E-002 0.0 -8.6499766E-001  8.8977634E-003 0.0 -1.6527945E+000  3.1803179E-002 0.0 -4.7262290E-001  6.6290393E-003 0.0 -9.7642494E-001  2.2524693E-002 0.0 -6.4344412E-001  1.1253823E-002 0.0 -1.3932700E+000  4.4395060E-002 0.0 -1.3611033E+000  1.2317827E-002 0.0 -2.5388581E+000  2.6833072E-002 0.0 -5.0988353E-001  7.5561351E-003 0.0 -1.0576235E+000  2.2293524E-002 0.0 -1.6208032E+000  2.1897468E-002 0.0 -3.5342213E+000  9.2561582E-002 0.0 -3.5268460E+000  1.6437161E-002 0.0 -6.4315279E+000  3.0665905E-002 0.0 -1.1842675E+000  1.9380197E-002 0.0 -2.5758553E+000  7.9442966E-002 0.0 -2.5201840E+000  1.9166202E-002 0.0 -4.7173226E+000  4.7196661E-002 0.0 -5.9266472E-001  3.8329138E-003 0.0 -6.8469080E-001  9.6171719E-003 0.0 -1.4270764E+000  2.5699675E-002 0.0 -9.8246507E-001  1.6078785E-002 0.0 -2.1312771E+000  6.4352631E-002 0.0 -2.0924940E+000  1.6011896E-002 0.0 -3.8870676E+000  3.6397034E-002 0.0 -1.0426392E+000  1.4227680E-002 0.0 -2.1619720E+000  3.5644733E-002 0.0 -1.0995591E+000  6.5769228E-003 0.0 -3.3772529E-001  4.5894710E-003 0.0 -6.7324197E-001  1.5089411E-002 0.0 -6.7205157E-001  4.4877614E-003 0.0 -1.2880846E+000  1.8047102E-002 0.0 -3.5309161E-001  4.3557685E-003 0.0 -7.3070121E-001  1.4665919E-002 0.0 -9.1239775E-001  4.6437870E-003 0.0 -1.2515749E+000  1.7358443E-002 0.0 -2.5912191E+000  4.2955493E-002 0.0 -1.4789518E+000  1.9833336E-002 0.0 -3.1626458E+000  4.4430905E-002 0.0 -3.0488351E-001  1.6159926E-004 0.0 -3.7958609E-001  5.3609433E-003 0.0 -7.8314679E-001  1.4855841E-002 0.0 -5.5482026E-001  8.5982770E-003 0.0 -1.1411844E+000  2.4705313E-002 0.0 -7.4315360E-001  1.1707976E-002 0.0 -1.5284195E+000  3.3036522E-002 0.0 -1.3188856E+000  7.4482083E-003 0.0 -1.5389915E+000  6.7662527E-003 0.0 -1.3112905E+000 -1.7536782E-002 0.0 -3.0119081E+000 -8.6399204E-002 0.0 -3.0136249E-001  1.5548457E-003 0.0 -6.2944475E-001  1.6245299E-003 0.0 -4.2637951E-001  5.3708861E-003 0.0 -7.9493708E-001  5.8330152E-003 0.0 -3.9439514E-001 -5.5757059E-003 0.0 -1.6911526E+000 -3.1306080E-003 0.0 -1.6021347E+000 -2.3224049E-002 0.0 -3.1215489E-001  2.2834190E-003 0.0 -1.6703644E+000  6.3391513E-003 0.0 -3.7034246E+000 -1.0450580E-002 0.0 -7.9267473E-001 -3.3068672E-002 0.0 -1.9393160E+000 -1.2885819E-001 0.0 -2.3693174E+000 -1.3445704E-001 0.0 -3.9514125E+000 -3.3276579E-001 0.0 -1.0904791E+000 -5.6882901E-002 0.0 -1.6693087E+000  1.8820171E-002 0.0 -3.6454972E+000  3.4950602E-002 0.0 -1.9389326E+000 -3.1172605E-002 0.0 -3.1599642E+000  7.2786587E-002 0.0 -1.8338326E+000  3.8366437E-002 0.0 -1.6312466E+000  2.5911171E-002 0.0 -9.5638857E-001  7.2931120E-003 0.0 -8.6910589E+000  7.9438054E-002 0.0 -5.4530256E+000  4.8092565E-002 0.0 -2.9771397E+000  6.3442515E-002 0.0 -1.7322901E+000  3.2086116E-002 0.0 -4.3654443E+000  1.1441123E-001 0.0 -2.4582706E+000  5.2264138E-002 0.0 -3.8904521E+000  7.1997372E-002 0.0 -2.0183781E+000  3.4842064E-002 0.0 -9.3278470E+000 -5.1843452E-002 0.0 -5.2629598E+000 -2.8450089E-002 0.0 -3.9451203E+000  8.3871564E-002 0.0 -2.3232961E+000  4.1500137E-002 0.0 -2.2820140E+000  4.9128221E-002 0.0 -1.2368362E+000  2.3916302E-002 0.0 -3.7295231E+000 -4.6475487E-001 0.0 -2.0962101E+000 -2.4700818E-001 0.0 -2.2298539E+000 -2.1387896E-001 0.0 -6.7201039E+000  1.1755407E-001 0.0 -3.7276955E+000  4.9491778E-002 0.0 -6.0585806E+000  1.0390725E-001 0.0 -3.0829511E+000  4.4478660E-002 0.0 -5.5810702E+000  1.2760294E-001 0.0 -3.4512217E+000  6.0748735E-002 0.0 -6.6438914E+000 -3.3627138E-001 0.0 -4.1235697E+000 -1.5348150E-001 0.0 -2.5748491E+000  6.8246663E-002 0.0 -1.6395905E+000  2.9321473E-002 0.0 -7.9135097E+000  1.4172993E-001 0.0 -4.8651015E+000  7.0005798E-002 0.0 -7.3361932E+000  1.6052675E-001 0.0 -4.1186060E+000  7.2377611E-002 0.0 -1.9729469E+000  3.6215271E-002 0.0 -1.1884496E+000  1.7981048E-002 0.0 -4.9794816E+000  1.2179452E-001 0.0 -2.8028157E+000  5.3345616E-002 0.0 -8.5527095E+000  1.2312849E-001 0.0 -4.3984663E+000  5.2906079E-002 0.0 -9.2168267E+000  8.8473300E-002 0.0 -5.0361464E+000  3.7907732E-002 0.0 -8.8357895E+000 -8.1955249E-002 0.0 -5.3802669E+000 -2.6685773E-002 0.0 -1.6404784E+000 -1.2130466E-002 0.0 -1.0173100E+000 -1.5654551E-002 0.0 -2.7105233E+000  6.3824009E-002 0.0 -1.6012285E+000  2.9156070E-002 0.0 -1.7530848E+000  3.9659376E-002 0.0 -1.2360265E+000  1.8375358E-002 0.0 -7.9945316E+000 -3.0134552E-001 0.0 -4.5756935E+000 -1.1977271E-001 0.0 -1.3287659E-001  2.4286511E-003 0.0 -2.9411326E-001  2.3205403E-002 0.0 -2.1398934E-001  1.4798197E-002 0.0 -5.2728170E+000  5.3027292E-003 0.0 -1.8083231E+000  2.4387326E-002 0.0 -4.7842169E+000  4.0911298E-002 0.0 -2.4757349E+000  3.6486043E-002 0.0 -3.3631082E+000  4.0760058E-002 0.0 -1.2720880E+000  2.7037332E-002 0.0 -2.8357959E+000  3.4358988E-002 0.0 -4.1223069E+000  4.6922620E-002 0.0 -9.6866025E-001  1.3497007E-002 0.0 -5.0835366E+000 -6.7155383E-002 0.0 -3.6022769E+000 -1.8949162E-001 0.0 -7.8161434E-001 -2.1997201E-002 0.0 -7.9540680E-001  1.6739147E-002 0.0 -1.2035546E+000 -4.3388293E-002 0.0 -8.2869135E-001 -2.3020940E-002 0.0 -5.3042026E-001  2.2444190E-002 0.0 -1.1796753E+000 -3.0453540E-001 0.0 -5.9336601E-001 -1.8550968E-001 0.0 -9.7913050E-001 -3.1211469E-001 0.0 -1.4289623E+000 -8.2945102E-002 0.0 -4.6104786E-002  2.4728945E-004 0.0 -9.8225110E-001 -3.6698040E-001 0.0 -4.5726939E-001 -4.3262662E-002 0.0 -5.9181278E-001 -1.0127739E-002 0.0 -1.6861544E-001 -1.4155095E-002 0.0 -5.4170176E-001  1.4232543E-002 0.0 -1.0152456E+000 -4.4755533E-003 0.0 -1.5943411E+000 -5.8560214E-002 0.0 -1.7560715E-001  4.5213603E-003 0.0 -1.4251261E+000 -2.0444563E-001 0.0 -2.8026919E-001  5.4124867E-003 0.0 -4.0976357E-001  2.1024236E-002 0.0 -9.1384916E-002 -4.9787669E-004 0.0 -4.5227906E-001  9.2685031E-003 0.0 -9.3366123E-001 -9.2007572E-002 0.0 -7.7528802E-001  8.3975337E-004 0.0 -6.9186125E-001  1.0918828E-002 0.0 -1.0555353E+000 -2.6124942E-002 0.0 -5.2345316E-001  5.7502125E-003 0.0 -6.8236605E-001  1.4055030E-002 0.0 -9.4248341E-001 -2.6509199E-002 0.0 -2.0879347E+000  3.6854873E-002 0.0 -1.0227549E+000  2.1846627E-002 0.0 -1.3745527E+000  3.0751143E-002 0.0 -2.6844027E+000  5.1347692E-002 0.0 -1.5706656E+000  3.1600086E-002 0.0 -1.8959615E+000  3.8979745E-002 0.0 -2.2879280E+000  4.7061818E-002 0.0 -3.9327469E+000  7.1287580E-002 0.0 -5.3482971E-001  1.1198429E-003 0.0 -2.7363930E+000  4.7703949E-002 0.0 -4.6610495E-001  7.3891102E-003 0.0 -3.0322537E+000  3.6451270E-002 0.0 -9.1774664E-001 -1.3275488E-002 0.0 -2.9369543E+000 -1.2356662E-003 0.0 -2.1291959E+000 -7.0801021E-002 0.0 -5.1610823E+000  9.6543747E-002 0.0 -6.1726857E-001  1.7765435E-002 0.0 -5.7108380E-001  2.0754124E-002 0.0 -5.9457389E+000  1.0171141E-001 0.0 -1.0431505E+000  1.7663341E-002 0.0 -5.9511299E-001  1.9726484E-002 0.0 -1.1375548E+000  1.7357556E-002 0.0 -7.7297173E+000  1.4110095E-001 0.0 -8.1939876E-001  2.7521714E-002 0.0 -7.6945515E-001  3.0292961E-002 0.0 -8.5424703E+000  1.2259316E-001 0.0 -8.3289066E-001  3.3301827E-002 0.0 -1.4725752E+000  3.0825534E-002 0.0 -1.0475649E+001  1.0658221E-001 0.0 -8.8010624E-001  3.0140603E-002 0.0 -1.5693474E+000  3.3099020E-002 0.0 -1.6935444E+000  3.2665310E-002 0.0 -1.1262690E+001  3.0965668E-003 0.0 -1.0230561E+000  3.9278069E-002 0.0 -6.4359593E+000 -3.1753575E-001 0.0 -1.1192978E+000  4.3143377E-002 0.0 -3.7716639E+000 -4.6661084E-001 0.0 -1.1801008E+000  4.1607807E-002 0.0 -2.1225580E+000  3.8711093E-002 0.0 -2.2723806E+000  4.2022730E-002 0.0 -1.3562312E+000  4.8755581E-002 0.0 -1.5607739E+000  5.8050303E-002 0.0 -1.6569586E+000  5.1960900E-002 0.0 -3.2893550E+000  4.3730558E-002 0.0 -1.8842664E+000  7.0594714E-002 0.0 -1.9794761E+000  6.4201503E-002 0.0 -2.2495986E+000  8.1841266E-002 0.0 -3.7685993E+000  5.6286309E-002 0.0 -2.3707748E+000  6.7832076E-002 0.0 -2.5907673E+000  8.3887797E-002 0.0 -2.6650403E+000  6.2237703E-002 0.0 -4.7018670E+000  4.7971234E-002 0.0 -2.7050097E+000  5.3008983E-002 0.0 -2.6384302E+000  2.4962152E-002 0.0 -5.1851173E+000  2.5845274E-002 0.0 -2.3342369E+000 -7.9549635E-003 0.0 -2.0352142E+000 -4.7423055E-002 0.0 -1.0974241E+000 -1.0650592E-001 0.0 -5.2148398E+000 -6.3941670E-002 0.0 -4.3347225E+000 -2.1340453E-001 0.0 -1.0243252E-001 -2.8149863E-003 0.0 -1.7725558E-001 -2.0789058E-002 0.0 -8.2555164E-001 -1.4986064E-002 0.0 -7.6682896E-001  3.0362193E-002 0.0 -3.7327641E-002  3.7104713E-004 0.0 -4.2648779E-001 -2.3507746E-002 0.0 -1.0398667E+000  4.4106679E-002 0.0 -4.9011537E-001 -1.1207412E-001 0.0 -1.6093351E+000  4.6954683E-002 0.0 -2.1447324E+000  6.1143307E-002 0.0 -2.4285980E+000  6.6923699E-002 0.0 -2.9693888E+000  9.1560243E-002 0.0 -3.4564645E+000  9.5563101E-002 0.0 -3.9064350E+000  9.9193955E-002 0.0 -4.1740485E+000  4.4406825E-002 0.0 -4.8234868E+000 -1.1817674E-001 0.0 -2.7274536E+000 -3.1313988E-001 0.0 -3.5684949E+000 -1.8041622E-001 0.0 -2.4601782E-001  9.1964594E-003 0.0  8.6290371E-002  1.1409821E-002 0.0 -5.2191714E+000  6.8033082E-002 0.0 -1.4034991E+000 -3.9824542E-001 0.0 -8.9524570E-001 -3.0449961E-001 0.0 -4.0967263E-001 -1.8861519E-002 0.0 -5.8179745E+000  1.4297654E-001 0.0  4.5281537E-001  1.9092342E-003 0.0 -1.3042500E+000 -9.1345357E-002 0.0 -5.3192794E+000  1.8277353E-001 0.0 -9.1909425E-001 -2.3485525E-002 0.0 -2.1009430E-001  7.5180806E-003 0.0 -4.6276541E+000  1.6780238E-001 0.0 -3.8333078E+000  1.4809549E-001 0.0 -3.2157005E+000  1.1979136E-001 0.0 -2.8062127E+000  1.1099248E-001 0.0 -4.9757424E-001  1.4891739E-002 0.0 -1.1371117E-001 -5.8929530E-003 0.0 -2.0512562E+000  8.3919053E-002 0.0  3.7666507E-006 -9.1523927E-006 0.0 -9.4427368E+000  1.4143113E+001 0.0 -1.5443720E-004  2.4063730E-004 0.0 -5.0956977E-003  1.4968025E-002 0.0  3.1030135E-001 -4.8917182E-001 0.0 -6.2834581E-002  6.5046536E-002 0.0 -1.5941189E-002  1.1783142E-002 0.0 -9.3386220E+000  1.1071290E+001 0.0 -5.4749355E-002  8.0783951E-002 0.0  5.3261707E-005 -5.6803938E-005 0.0 -1.1488961E-005  1.9932704E-005 0.0 -2.2237824E+000  1.2571465E+000 0.0  4.3984344E-003 -1.1649003E-003 0.0  7.9391237E-003 -1.3327027E-003 0.0 -6.3692812E-003  2.6882185E-003 0.0 -4.3212041E-002  6.6763060E-002 0.0 -4.6619513E+000  6.4596942E+000 0.0  7.0002998E-003 -7.6591757E-003 0.0 -3.4361566E-003  9.2902852E-003 0.0 -3.7253438E+000  4.1606887E+000 0.0 -4.9390643E+000  4.4033788E+000 0.0 -1.6993425E+000  3.5543837E-001 0.0 -1.7958007E+000  9.6176429E-001 0.0 -1.3046532E-003  4.1943234E-003 0.0  1.1718975E-002 -2.9619042E-002 0.0 -1.0578315E+001  1.5390475E+001 0.0 -1.8394270E-003  2.7490380E-003 0.0 -4.7500356E-003  3.3724326E-005 0.0 -4.4884259E-004  5.5245765E-004 0.0  1.3454654E-001  1.2013793E-002 0.0 -4.4190039E-005  9.3989521E-005 0.0 -2.7897540E-005  4.8033599E-005 0.0 -1.2028850E-004  3.1838833E-004 0.0  3.8840297E-006 -2.0823920E-005 0.0 -1.2876315E-003  3.3634346E-003 0.0 -4.7884934E-005  1.2379458E-004 0.0 -3.5163393E-005  1.0546927E-004 0.0 -5.3633441E-004  1.5167446E-003 0.0 -7.8772045E+000  1.2365114E+001 0.0 -3.3755586E-001  5.3005385E-001 0.0 -1.9961993E-002  3.1358525E-002 0.0  8.5918665E-001 -1.3596000E+000 0.0 -1.4541147E-002  2.2798949E-002 0.0 -3.3105465E-004  5.1779100E-004 0.0 -2.5727899E+001  3.4706354E+001 0.0 -7.4610608E-001  1.0143027E+000 0.0 -4.7402826E+000  6.8225385E+000 0.0 -3.4733134E-001  4.9268086E-001 0.0  8.6536606E-002 -1.2779521E-001 0.0 -1.5683821E-001  2.2555588E-001 0.0 -4.4216128E-004  2.5151956E-003 0.0 -7.8148515E-005  2.1542567E-004 0.0  4.3798548E-005 -1.5480278E-004 0.0  6.5272556E-005 -9.2026990E-005 0.0 -1.2462404E-002  2.6235845E-002 0.0 -3.9023813E-001  4.7215108E-001 0.0  7.4779176E-002 -9.3089800E-002 0.0 -4.3660226E+000  5.2031699E+000 0.0 -4.0990893E-002  3.8537980E-002 0.0  2.0654446E-002  1.3428464E-002 0.0 -1.3518044E-001  8.8002119E-002 0.0  3.9293489E-003 -1.0178592E-003 0.0 -1.7650329E+000  1.0442118E+000 0.0 -1.9980067E+000  1.3910651E+000 0.0 -3.2394091E+001  3.4368560E+001 0.0  7.1788350E-001 -7.7544418E-001 0.0 -3.7504006E+000  3.4612392E+000 0.0 -2.1162196E-001  2.0002437E-001 0.0 -2.7799777E+000  2.9459055E+000 0.0 -7.2464785E-002  9.7344756E-002 0.0 -2.0845951E-001  3.2508465E-001 0.0 -2.3614454E-001  3.6445039E-001 0.0 -4.8857538E+001  6.3645692E+001 0.0 -9.7493877E-003  3.5255272E-003 0.0  1.5918168E-002 -1.1435337E-002 0.0 -9.7173680E-002  2.8808201E-002 0.0 -9.5760691E-003  9.4536002E-005 0.0 -8.6924515E-001  2.3274946E-001 0.0  6.9167008E-004 -1.6610018E-004 0.0 -6.5389296E-002  5.2443249E-002 0.0 -1.2659170E+001  5.4632963E+000 0.0 -6.7011296E-001  2.8862874E-001 0.0 -7.8440919E+000  6.4204405E+000 0.0  3.7945014E-002 -4.7200153E-002 0.0 -3.1280325E+000  2.9156939E+000 0.0  5.4195033E-003 -6.5289483E-003 0.0 -8.8389836E-003  5.1193191E-003 0.0 -1.6653701E-003  7.2575790E-003 0.0 -2.2747141E-004  8.9496256E-004 0.0 -5.3413303E+000  7.6717878E+000 0.0  1.1141244E-002  2.6747643E-002 0.0  8.9966714E-002 -1.3678723E-001 0.0 -4.4753466E+000  6.8251005E+000 0.0 -5.9738195E-005  8.9222206E-005 0.0 -3.6660414E+001  5.7941978E+001 0.0  4.9610061E-003  3.1027049E-002 0.0 -2.0676522E-002  3.1388695E-002 0.0 -8.0466602E+001  1.1571037E+002 0.0 -4.2605662E-003  6.5761480E-003 0.0 -5.6048458E+001  5.1773725E+001 0.0  4.2340715E-002 -2.9939570E-002 0.0 -4.3695124E-006  6.6080929E-006 0.0 -6.4065396E-004  1.3305217E-003 0.0 -1.1685605E-001  7.5769523E-003 0.0 -7.5807208E-001  9.6266352E-002 0.0 -2.2994032E-003  3.6822981E-003 0.0 -2.6708903E-002  6.9572293E-002 0.0 -8.0984980E-002  1.2528627E-001 0.0 -3.0515778E+001  2.0931287E+001 0.0 -7.1220121E-001  1.1218324E+000 0.0 -1.0006528E+002  1.5178656E+002 0.0 -2.6011628E-002  8.1872291E-002 0.0 -1.2651457E-001  1.7255016E-001 0.0  5.8347398E-004  2.6634626E-002 0.0  1.1508854E-001 -1.2604945E-001 0.0 -7.9697419E+000  1.0266946E+001 0.0 -1.4684132E-002  2.3339176E-002 0.0 -1.1603408E-003  3.1221698E-003 0.0 -1.3852748E+000  1.2853108E+000 0.0 -1.2376386E-002  3.5085159E-002 0.0 -8.3307563E+001  9.8918975E+001 0.0 -2.5826261E-002  4.3312999E-002 0.0  6.6243984E-004 -8.5044810E-004 0.0 -5.1524640E+001  3.2187867E+001 0.0 -1.3188038E-001  5.6546396E-002 0.0 -2.2748613E+000  9.4803761E-001 0.0 -5.5690111E-003  1.8816929E-002 0.0 -1.0477161E-005  5.4668752E-005 0.0 -1.7567105E+001  4.4894294E+000 0.0 -5.0876343E-001  1.1033806E-001 0.0  1.2136079E-002  1.1389037E-003 0.0 -1.4108461E-005  2.2777882E-005 0.0 -9.6219798E-003  1.9479211E-002 0.0 -7.4472818E+000  5.8078176E-001 0.0 -4.7443911E-004  1.0351909E-003 0.0 -4.9650817E-001  3.0926347E-001 0.0 -5.2347310E+000  8.1767549E+000 0.0 -2.3334372E+000  3.4258805E+000 0.0 -9.0056683E-002  1.3198773E-001 0.0 -1.1083718E+000  1.2640711E+000 0.0 -7.7277587E-001  1.2014795E+000 0.0 -1.0934362E+000  6.0040363E-001 0.0 -2.0622009E-004  6.3163897E-004 0.0 -1.4626734E+000  2.1140357E+000 0.0 -5.9493503E-001  6.3653396E-001 0.0  3.2936890E-005 -4.3394828E-005 0.0 -1.2253339E-003  1.8929639E-003 0.0 -3.9979131E+000  4.8910942E+000 0.0 -6.7073506E-002  3.4496005E-002 0.0 -7.2838738E-005  2.6118732E-004 0.0 -9.3809914E-001  3.1141414E-001 0.0 -4.6810628E+001  1.0666548E+002 0.0 -4.4722614E+001  1.3221073E+002 0.0  5.1061500E+002  2.5856335E+002 0.0  4.5118575E+002  2.9595358E+002 0.0 -2.1906871E+001  2.0080610E+002 0.0 -3.7118308E+001  1.6596948E+002 0.0  4.9462832E+000  2.4530819E+002 0.0  3.9135843E+002  3.3071439E+002 0.0  3.2345825E+002  3.5245222E+002 0.0  4.6683929E+001  2.8723625E+002 0.0  2.1577706E+002  3.6491552E+002 0.0  1.0622710E+002  3.3173579E+002 0.0  1.2535602E+002  3.0719628E+002 0.0  2.2582794E+002  3.2343338E+002 0.0  2.5219980E+002  2.4413049E+002 0.0  2.8665763E+002  2.1670092E+002 0.0 -2.7765772E+001  9.8445719E+001 0.0  5.0575080E+001  2.1181297E+002 0.0  4.7616833E+002  2.0525831E+002 0.0  1.6311444E+001  1.8614210E+002 0.0  3.2902766E+002  1.9233079E+002 0.0 -2.0272211E+001  1.2097888E+002 0.0 -3.0488724E+001  7.7538252E+001 0.0 -6.7447110E+000  1.5346259E+002 0.0  1.8617995E+002  2.3287038E+002 0.0  1.1977789E+002  2.4156137E+002 0.0  4.5215043E+002  1.8300085E+002 0.0 -4.0661110E+001  8.4008852E+001 0.0 -2.6505529E+001  5.6912288E+001 0.0  2.9994382E+002  1.2134092E+002 0.0 -7.3675623E-003  1.5118659E-003 0.0  7.0633907E-003 -1.0436743E-004 0.0 -1.1355055E-001  2.1995703E-003 0.0 -8.0704031E-002  1.8777330E-003 0.0 -9.0510506E-002  1.8912008E-003 0.0 -1.3407412E-001  2.6900570E-003 0.0 -2.4594600E-001  3.8963910E-003 0.0 -8.7810258E-002  4.3552565E-002 0.0 -2.1754055E-001  3.8210844E-003 0.0 -2.0299300E-007 -4.7466736E-009 0.0 -2.2465280E-001  1.4243413E-004 0.0 -1.1014762E-002 -9.0536690E-004 0.0 -2.3642422E-001 -1.2034384E-001 0.0 -1.1025165E+000  7.4399905E-001 0.0 -5.6431037E-001 -5.3907594E-004 0.0 -2.0548419E-002 -1.8621429E-002 0.0  2.5833624E-003 -4.4224852E-003 0.0 -3.2283767E-003 -4.4133362E-005 0.0  1.4843075E-001 -2.3918136E-001 0.0 -1.3334506E-002  2.8786088E-004 0.0 -1.7398636E-001  3.5462351E-003 0.0 -1.0243420E+000  7.7096271E-001 0.0  8.6710355E-002 -5.4429137E-002 0.0  7.6187506E-002  8.2651128E-003 0.0  2.2270036E-002  8.5322745E-005 0.0 -2.1547328E-001 -5.6204258E-003 0.0 -9.8968924E-002 -9.3456974E-003 0.0 -1.2356967E-002 -1.4839788E-002 0.0 -7.9178708E-001 -2.8880167E-001 0.0  8.9422074E-018 -2.3268336E-018 0.0 -1.3106698E-001  4.0487548E-002 0.0 -1.4251625E-005  1.2059763E-005 0.0  6.9823643E-012 -1.8400961E-013 0.0  5.6077089E-018 -6.1291140E-017 0.0 -2.4983433E-001  4.4924530E-003 0.0 -2.2521768E-001  3.3395484E-003 0.0 -1.5410626E-001  4.0880245E-003 0.0 -1.1960280E-001  2.2575048E-003 0.0 -1.1188508E-002 -1.5554429E-002 0.0 -9.2046504E-019 -8.2508953E-019 0.0  8.0690999E-016 -1.4376090E-015 0.0  1.1689231E-018 -7.9407510E-018 0.0 -4.3015777E-003  5.5019593E-003 0.0  3.7751781E+000  5.4680963E+000 0.0  1.0645460E+000  3.9830374E+000 0.0  3.7508212E-002  5.4269078E+000 0.0 -2.8175409E-001  1.0687536E+000 0.0  1.9259270E+000  1.3487947E+000 0.0 -5.3070896E-001 -5.4499783E-001 0.0 -1.1534031E+000 -2.8971006E-001 0.0  1.0798386E-001  9.8228034E-003 0.0 -1.0450339E-003 -1.7533680E-004 0.0  4.4556201E-004  2.9116973E-005 0.0 -6.7395566E-002  4.9836902E-002 0.0 -3.6289306E-003  2.3300923E-003 0.0 -1.0064200E-002 -1.0117071E-002 0.0 -3.2428332E-001 -1.0271811E-001 0.0  1.2032068E-010 -2.7152634E-010 0.0  3.0692681E-012  4.0817531E-012 0.0  2.9413924E-005  2.6553448E-006 0.0 -8.0170930E-005  1.8136831E-005 0.0 -3.0797713E-001 -2.9696692E-002 0.0 -9.3520989E-001  1.1760029E+000 0.0 -2.8727279E-018 -3.0133099E-018 0.0  2.5438707E-005 -4.6115524E-005 0.0  7.9176532E-006 -6.7936369E-006 0.0 -7.9892952E-006  1.3668161E-005 0.0 -9.6437861E-006  8.6481673E-006 0.0  2.1981004E-005 -4.0393734E-005 0.0 -6.7698892E-006  4.6260745E-006 0.0 -7.9325432E-006  1.4726459E-005 0.0 -2.0134701E-006  1.7894418E-006 0.0 -4.5041713E-001  3.5171944E-001 0.0 -1.6613159E-001 -1.1515402E-002 0.0  4.2884710E-004 -2.2335176E-004 0.0 -1.9489007E-001  2.2923372E-004 0.0 -1.5582070E-002 -1.7017279E-003 0.0 -2.0107755E-002 -1.2772377E-003 0.0  5.7438915E-002  1.3293898E-002 0.0  8.5933059E-008 -1.0498195E-007 0.0 -3.6673954E-007  2.6577524E-007 0.0 -4.0538632E-006  5.2087321E-007 0.0  2.6188851E-005 -3.6933801E-006 0.0  1.4702173E-013  1.9936832E-013 0.0 -2.7115168E-008  6.4159488E-008 0.0 -3.2484287E-009  4.1066392E-009 0.0 -4.2813884E-007  3.2225087E-007 0.0  1.5093638E-008 -1.1179677E-008 0.0  4.5248920E-008 -3.0702997E-008 0.0 -7.0961845E-010  4.5216036E-010 0.0  5.9710329E-009 -3.9660149E-009 0.0 -2.3280988E-010  1.5477630E-010 0.0 -4.5750783E-010  3.2443140E-010 0.0  5.0210755E-012 -3.9898045E-012 0.0 -7.1738418E-009  5.3657477E-009 0.0 -3.1100040E-011  2.1350160E-011 0.0  1.1184703E-012 -7.8872877E-013 0.0 -1.2946092E-012  8.2223759E-013 0.0  6.8444651E-014 -4.9128922E-014 0.0 -5.9341404E-013  3.0596865E-013 0.0  1.9579309E-014 -1.1987185E-014 0.0 -6.3386234E-014 -8.7843460E-015 0.0  2.5111569E-015 -1.2941717E-016 0.0 -1.0744093E-014  2.1840504E-015 0.0  3.1236827E-016 -5.9496238E-017 0.0 -3.2211232E-015  6.1601165E-016 0.0  1.0835714E-016 -3.1245958E-017 0.0  9.7635602E-018 -7.3238853E-017 0.0 -2.0797211E-006 -5.1971316E-007 0.0 -1.6697258E-007 -1.5028401E-008 0.0 -1.3170295E-007 -1.2305020E-008 0.0  2.4154402E-007 -6.2421974E-007 0.0 -3.3801725E-002 -1.2263595E-002 0.0 -4.8649948E+000  6.7076177E+000 0.0 -1.6472244E-011  9.9014370E-012 0.0 -1.0484142E-016 -2.5227754E-020 0.0  2.9263311E-011 -2.2170250E-011 0.0 -3.6214662E+000 -7.4953329E-001 0.0 -2.4855101E-015  1.6357911E-015 0.0  1.3722606E-013 -2.7505941E-013 0.0 -1.1116958E-002 -7.7157741E-003 0.0 -5.5845939E-015  1.0203632E-015 0.0 -1.1627954E-009  2.6603274E-009 0.0  1.7273095E-008 -3.1284390E-008 0.0  5.2225124E-018 -5.8315993E-018 0.0 -1.7714791E-009  1.0355523E-005 0.0  5.6074638E-019 -4.1735855E-018 0.0  1.2960869E-006  1.3091316E-007 0.0  2.8274236E-006  2.2002105E-007 0.0 -7.1028821E-005 -8.8054400E-007 0.0  3.1528596E-017 -2.0199163E-017 0.0  3.8799889E-001  6.1217785E-002 0.0 -8.9914879E-006  1.6488829E-005 0.0  4.3041855E-010 -7.8320270E-010 0.0  3.9349278E-009 -7.0484669E-009 0.0 -5.5682203E-004  8.2470410E-005 0.0 -1.1127032E-005  3.9692806E-007 0.0 -1.1164159E-004  5.9083472E-005 0.0  2.2692098E-005 -1.4279236E-005 0.0 -7.4351700E-004  4.3326080E-004 0.0  2.5748194E-004 -1.9568308E-004 0.0 -4.3213340E-003  3.2636285E-003 0.0  6.8865185E-005 -8.6106339E-005 0.0  2.4188187E-018  3.9726105E-018 0.0 -3.4873511E-015  6.2630517E-016 0.0 -1.0622720E-001 -1.5392354E-002 0.0 -4.2847751E-018 -8.7633809E-018 0.0  1.2560096E-007  9.1939027E-009 0.0  1.0787179E-006  7.4555322E-008 0.0 -1.2218997E-016 -2.7639508E-016 0.0 -1.3630637E-005 -9.7903116E-007 0.0 -3.0640955E-005 -2.0217819E-006 0.0 -1.4353589E-006 -8.9452030E-008 0.0 -4.4129902E-007 -7.8002646E-008 0.0 -3.2434686E-005 -2.1329166E-006 0.0 -1.3592914E-006 -1.0628322E-007 0.0  1.2044160E-003  4.4053230E-004 0.0 -2.8223414E-003  2.1355911E-003 0.0 -4.9898040E-005  1.6763312E-005 0.0 -1.9776764E-004  1.4223506E-004 0.0 -6.3896678E-006  5.7132894E-006 0.0 -3.3606895E-009 -8.4530624E-011 0.0  1.4633293E-008 -1.5937971E-011 0.0  6.4240294E-013 -4.3416741E-013 0.0 -2.6636149E-013  3.7076935E-014 0.0  2.4017787E-016 -1.0159766E-016 0.0  2.1298783E-018  3.3284253E-018 0.0  1.4883139E-017 -1.0243440E-016 0.0  4.3175064E-017 -3.2544268E-017 0.0  3.9158663E-003  1.4384666E-003 0.0 -1.5453129E-007 -4.4400422E-006 0.0 -2.3610077E-007 -2.0675465E-007 0.0  2.6222726E-008 -9.8050559E-009 0.0  1.3127949E-018 -2.0385789E-018 0.0 -1.3894126E-001 -1.0042531E-001 0.0 -6.5934254E-003 -5.7040304E-003 0.0 -1.9570614E-001 -8.7604461E-002 0.0 -1.5248078E-002 -2.0335846E-002 0.0  6.4741129E-011  7.5294377E-011 0.0 -1.1231254E-005 -6.9210212E-007 0.0 -3.0354160E-006 -2.6801240E-007 0.0 -8.4868782E-017 -9.8275733E-017 0.0  2.2891438E-018  5.7110046E-018 0.0  5.5296781E-007 -3.5203147E-007 0.0 -4.7369451E-001  1.2519328E-001 0.0 -1.0303147E-007 -1.3925138E-008 0.0 -1.3515228E-007 -1.5551307E-007 0.0 -4.0957950E-006 -3.7282724E-007 0.0 -7.3061809E-008  2.2633053E-007 0.0  4.3686081E-007 -6.8592815E-008 0.0 -4.8739753E-005 -4.7553454E-006 0.0  1.0433031E-010 -1.8591353E-010 0.0  2.3527006E-012 -4.4423622E-012 0.0 -7.3552621E-012  3.0794359E-011 0.0  4.5086279E-009 -8.0684922E-009 0.0 -3.2136629E-005 -2.1139087E-006 0.0  2.2762284E-006 -4.3173320E-007 0.0  1.4866003E-010 -2.6568371E-010 0.0 -1.3560597E+000 -5.4348954E-001 0.0 -5.5222781E-018 -9.9644346E-018 0.0 -3.6110186E-016 -1.0445894E-016 0.0 -1.9670977E-015  7.6722824E-016 0.0  6.2816334E-016  8.2024144E-016 0.0 -3.2170996E-007 -2.7828800E-007 0.0  8.7980536E-007  4.5795790E-007 0.0 -2.5989658E-003 -2.7129206E-004 0.0  1.6085879E-004  2.8413756E-005 0.0  9.1732149E-002  4.2422133E-002 0.0 -5.9651449E-018 -1.0252770E-017 0.0 -2.7220683E-018 -7.1815422E-018 0.0  2.3087780E-018  5.7319749E-018 0.0 -1.1167885E-002 -4.8670846E-004 0.0 -8.5237239E-004 -1.5854317E-006 0.0  1.8699292E-002 -1.4055460E-002 0.0  4.4961055E-012 -8.5709281E-012 0.0  5.1392307E-013 -8.9569742E-013 0.0 -8.0986492E-007 -1.0246881E-006 0.0  5.5800193E-006  4.0728793E-006 0.0 -3.1810391E-005 -1.7723750E-005 0.0 -2.1802815E-006 -1.1241336E-006 0.0  2.2203843E-005  1.0096410E-005 0.0  1.1766243E-005  5.1536668E-006 0.0 -2.9982528E-004 -1.3096425E-004 0.0 -1.0406491E-005 -4.5272079E-006 0.0 -4.3454636E-005 -1.8898453E-005 0.0  5.6425849E-006  1.6238935E-006 0.0 -1.9135523E-004 -5.9638688E-005 0.0 -6.5044789E-006 -1.9376617E-006 0.0 -5.5978641E-005 -1.5797009E-005 0.0 -1.1758273E-005 -9.3297381E-006 0.0 -2.8411109E-002 -1.0359998E-002 0.0 -1.6514595E-006 -2.4390409E-007 0.0  7.2464212E-001  4.8745721E+000 0.0  1.8972693E-001  1.1530160E+000 0.0 -8.3274541E-002  1.4610334E-001 0.0  5.7548710E+000  1.3815093E+001 0.0 -2.8978097E+000  2.9482407E+000 0.0  6.4781691E-002 -7.2880280E-002 0.0 -9.2376671E-005  1.3750744E-004 0.0 -6.8827367E-004  5.3176609E-004 0.0  2.0632477E+001  1.3906439E+001 0.0  4.6876535E-001  3.0765454E-001 0.0 -8.8995191E-001  2.2858437E+000 0.0  1.3701220E-001 -2.8197383E-001 0.0  4.0599531E-004  1.7073303E-002 0.0 -1.8712624E-002  4.6697658E-002 0.0  7.6933595E-004  2.9009603E-003 0.0  3.0246707E-004 -7.3831429E-004 0.0 -5.8709185E-004  9.5435868E-004 0.0  9.2706808E-005 -6.8869540E-004 0.0 -6.3365005E-001  3.2328627E+000 0.0  8.3969127E+000  8.4250952E+000 0.0  8.3383074E-001  1.1573843E+000 0.0 -6.6601592E-010  1.2254716E-009 0.0 -5.8901740E-001  3.2883547E-001 0.0 -1.0079855E-001  1.3319588E-003 0.0 -1.7932932E-002 -3.3069747E-004 0.0  1.9918350E-005 -3.8393387E-005 0.0  2.5927068E-011  3.3496154E-011 0.0 -6.8635732E-002  9.8440318E-004 0.0 -3.1424368E-002  4.8840000E-004 0.0 -3.6711084E-001  5.8091578E-003 0.0 -2.1118953E-002  2.3496772E-004 0.0 -6.3886550E-002  1.4290604E-003 0.0 -2.1196973E-002  3.9015429E-004 0.0 -1.2598005E+000  1.0239185E-002 0.0 -4.8780277E-003 -2.6403406E-006 0.0 -7.8639073E-001  9.7632902E-003 0.0 -7.4703743E-002  6.7003815E-004 0.0 -8.9493257E-001  9.7061454E-003 0.0 -5.3888786E-001  7.1942873E-003 0.0 -1.9265158E-002  2.4456233E-004 0.0 -6.3539373E-001  8.3781061E-003 0.0 -2.6545783E-002  2.7494466E-004 0.0 -2.4679847E-001 -3.8789397E-003 0.0 -1.2530929E-001 -1.7318751E-003 0.0 -1.0590464E+000 -2.8165687E-002 0.0 -7.1773755E-002 -2.4317709E-003 0.0 -4.4822312E-001  6.8921355E-003 0.0 -1.4571907E-002  2.1336045E-004 0.0 -1.2090577E-001  2.0344256E-003 0.0 -1.5917006E-005 -2.4007347E-006 0.0  6.5042666E-005  1.8103736E-005 0.0  2.3285282E-018  5.5092796E-018 0.0 -1.8705955E-018 -2.0500276E-018 0.0 -2.9134012E-001  6.8149220E-001 0.0 -1.2673312E-001 -2.2785850E-001 0.0  9.4723689E+000  4.0857385E+000 0.0  3.8333179E-001  2.4469228E-001 0.0  3.7047586E-001 -9.6683907E-001 0.0 -3.6396712E-001 -9.3925304E-001 0.0 -2.2018367E-001  6.6310277E-001 0.0  1.7489152E+000  1.0864664E+000 0.0  4.8724922E-001  5.8372440E-001 0.0  9.9075692E-002 -6.5376746E-001 0.0  4.2765960E-001  7.4785074E-001 0.0  7.7309736E-001  5.7828185E-001 0.0 -3.7134025E-001 -4.2157344E-001 0.0 -1.1036500E-005 -1.4533410E-005 0.0 -9.3659963E-006 -1.3074892E-005 0.0 -1.9146649E-006 -1.6452442E-006 0.0 -7.4219417E-015 -3.2364876E-016 0.0  3.6530975E-014  5.6896236E-016 0.0 -2.1118077E-002  1.5586080E-002 0.0  9.9445577E-005 -6.7212761E-005 0.0  5.3621437E-012 -9.6146338E-012 0.0  3.8925824E-012 -5.7766262E-012 0.0  2.9176411E-001  1.0593399E-001 0.0 -3.8359479E-004 -5.7358927E-005 0.0  4.1754525E-007  3.8274445E-007 0.0 -5.7938251E-006 -6.9256066E-006 0.0 -1.3206958E-005 -1.7072786E-005 0.0 -6.7443772E+000 -1.2305391E+000 0.0  1.1143245E-006 -7.7343810E-007 0.0 -8.3164846E-008 -2.2038673E-007 0.0  3.4453750E-004  1.1075368E-004 0.0 -9.1695405E-004 -2.4380420E-004 0.0 -2.3175484E-003 -5.3399946E-004 0.0  2.6878662E-004  4.9936911E-005 0.0 -1.0203117E-002 -2.1564156E-003 0.0  6.9889260E-003 -1.8873356E-004 0.0 -1.9742657E-004 -1.0341309E-004 0.0 -4.6054261E-005 -5.1367651E-005 0.0 -2.3835399E-005 -9.0049017E-006 0.0 -2.1488717E-005 -3.4752674E-005 0.0 -4.1016124E-004 -1.4914645E-004 0.0 -4.1701516E-004 -1.5260177E-004 0.0  1.5948715E-004  1.3056182E-004 0.0 -5.0271753E-004 -4.0323913E-004 0.0 -2.2864357E-013  1.4491144E-015 0.0 -8.0900140E-019 -1.6968299E-018 0.0  4.1182663E-012  1.0505337E-011 0.0 -7.0857131E-014 -3.8926092E-013 0.0 -6.6130516E-004 -8.9630064E-005 0.0 -9.0714765E-003 -1.8254874E-003 0.0 -1.6181646E-003 -1.6367800E-004 0.0 -8.8991957E-015  5.3747950E-014 0.0  1.7344205E-013 -2.9419455E-013 0.0 -1.8582198E-012  4.1190699E-012 0.0  8.3939038E-014 -1.7130388E-013 0.0 -1.5771326E-014 -6.6330357E-015 0.0 -8.1731437E-006  8.0364698E-008 0.0 -1.4678277E-007 -9.8617285E-009 0.0 -3.8334995E-008  2.2014361E-008 0.0 -1.1675603E-008  1.4280577E-009 0.0 -2.9977591E-007  2.5863615E-009 0.0  1.2604510E-009 -7.5694351E-010 0.0 -2.7335170E-009 -2.9651311E-011 0.0 -9.3916909E-005 -1.0449861E-004 0.0 -5.9716394E-006 -4.7432447E-006 0.0 -1.7004329E-012  9.1068860E-015 0.0 -2.6099874E-013 -1.2667395E-014 0.0 -3.9711523E-011  1.9668876E-013 0.0  4.6311084E-003  1.2411536E-005 0.0 -7.3399513E-005 -7.9558361E-005 0.0 -3.8841287E-002 -8.4102909E-003 0.0  2.6177361E-011  4.5347416E-013 0.0 -1.7606826E-001 -6.4869733E-002 0.0  1.0243330E-016 -1.1365157E-016 0.0 -7.4441162E+000  1.1540006E+001 0.0 -9.2805408E-003 -2.4235747E-003 0.0 -1.6863104E-001  8.4493580E-002 0.0  3.4362400E-008 -6.1632512E-008 0.0 -2.4500955E-010 -9.4457820E-010 0.0 -2.4744680E-004 -1.7585433E-004 0.0 -6.4410909E-009  4.3787159E-008 0.0  8.9835665E-008 -1.3171997E-007 0.0 -5.6280914E-007 -2.3813288E-007 0.0 -1.2121800E-004  1.1682308E-006 0.0  6.0548798E-013 -5.7554723E-013 0.0  4.3313678E-013 -3.2114879E-013 0.0 -9.8313892E-015 -1.6550913E-014 0.0  9.9491068E-016 -1.2052416E-015 0.0  4.4624101E-013 -3.2159340E-013 0.0 -1.4077263E-014  1.0068484E-014 0.0 -8.0126476E-015  4.6962266E-015 0.0 -4.4206804E-016  3.0974511E-016 0.0 -7.1977907E-015  4.2675183E-015 0.0  2.1015871E-016 -1.2756154E-016 0.0  2.0401845E-016 -1.5352184E-016 0.0 -8.3876088E-019 -7.7978220E-018 0.0  9.4277998E-017 -6.4942001E-017 0.0 -3.1539387E-018 -1.0250085E-018 0.0 -2.9767504E-015  1.4746831E-015 0.0  3.6747388E-013 -2.6872973E-013 0.0 -1.1958058E-018 -7.4121894E-019 0.0 -1.6355751E-018 -1.1432655E-018 0.0  5.6331914E-017 -4.8712758E-017 0.0  1.3227503E-012 -2.3831837E-012 0.0  3.9960509E-014 -7.1498157E-014 0.0  5.1971663E-010 -8.3074515E-010 0.0  5.0414424E-018 -2.7265179E-018 0.0 -4.6411330E-018 -1.1302266E-017 0.0 -1.5373863E-018 -1.7338449E-018 0.0  1.4101168E-002  5.5392161E-003 0.0  8.9931802E-002  4.0185946E-002 0.0 -1.3269165E-007 -2.3289715E-008 0.0 -3.3350811E-004  2.6035726E-004 0.0  7.3400212E-004 -1.3784834E-003 0.0 -2.2122906E-006 -4.8462531E-008 0.0  6.0624894E-005  3.0660529E-006 0.0  7.1101374E-001  2.2644206E+000 0.0  1.7430447E-001  7.9396155E-001 0.0  3.6249414E-001  1.6721360E+000 0.0  1.0785661E+000  1.3682143E+000 0.0 -3.3261482E+000 -1.5657487E+000 0.0 -1.0738605E+000 -5.1285161E-001 0.0  1.9958093E-002  1.2772698E+000 0.0 -3.6571983E-001  1.1455902E+000 0.0 -2.0952766E-002  2.3291255E-001 0.0 -7.5850711E-002  3.0595673E-001 0.0  1.1817916E-001 -2.1349049E-001 0.0 -1.1747680E+000 -1.0181540E+000 0.0  2.9639535E-006  1.8886111E-006 0.0 -1.2474351E-003 -4.4405288E-004 0.0 -2.6354148E+000 -3.8871637E-001 0.0  2.5771745E-009  3.0212749E-009 0.0  9.0218317E-005  8.6089235E-005 0.0 -2.3900468E-003  6.4732481E-004 0.0 -6.6546724E-010  3.6745060E-012 0.0 -5.4612171E-004 -3.1889902E-004 0.0  2.8888178E-018  2.4903864E-018 0.0 -2.6548017E-002  2.0816285E-002 0.0 -1.6446798E-003 -1.7746400E-003 0.0 -7.9415378E-003 -6.2697496E-003 0.0  2.1981922E-003  1.5577922E-003 0.0 -4.5550918E-003 -3.7430067E-003 0.0 -2.1806162E-003 -1.5321257E-004 0.0 -4.7307006E-006  3.6979177E-006 0.0 -1.4341388E-004 -9.5792772E-006 0.0 -5.5794277E-005  1.3377706E-006 0.0 -5.1551834E-005  4.6186425E-007 0.0 -4.5169292E-008  3.0144526E-008 0.0 -2.3558255E-009  1.6128365E-009 0.0 -2.3483121E-002 -2.6915048E-003 0.0 -7.4921642E-004 -7.7035989E-004 0.0 -6.5415416E-014  1.3510608E-013 0.0  1.3797053E-003  5.3526665E-004 0.0 -6.9636526E-002 -1.7853599E-001 0.0 -5.2375583E-006 -4.2215763E-006 0.0  3.4735850E-019  2.4266492E-018 0.0 -3.9504158E-004 -3.7195319E-004 0.0 -3.9737297E-011  3.6220375E-011 0.0  1.5731141E-012 -6.8505169E-014 0.0 -2.4289096E-011  1.9144769E-012 0.0 -5.9488854E-003 -1.0606488E-003 0.0 -2.2588099E-003 -5.4856395E-004 0.0 -2.2980233E-003 -1.8410582E-004 0.0 -6.4172272E-002 -6.0450766E-003 0.0 -9.2066605E-003 -5.8478123E-004 0.0 -2.8150050E-002  1.9799737E-002 0.0 -1.5786819E-001  1.1587610E-001 0.0  3.6529526E-001  1.5650256E-001 0.0 -4.3073423E-002  1.5818211E-002 0.0  6.6423935E-006  9.9267170E-007 0.0 -1.0201474E-005 -1.4752160E-006 0.0 -8.8589601E-005 -1.5468992E-006 0.0 -8.8782078E-003 -1.5209397E-003 0.0  1.1483380E-001  2.4383638E-002 0.0 -4.5951653E-002  8.2475136E-002 0.0 -7.7004976E-004  1.4093715E-003 0.0 -4.4019777E-013  1.7904346E-014 0.0 -5.1746540E-010  1.6832734E-012 0.0 -1.4489229E+000 -4.7365630E-001 0.0 -3.8597798E-001  4.5734874E-001 0.0 -1.3862317E-002  1.1875095E-002 0.0  5.7586878E-001  1.1131205E+000 0.0 -8.5108002E-003 -8.9508294E-003 0.0  5.7103849E-003  6.5669844E-001 0.0 -4.4851940E-003 -1.6211242E-002 0.0  6.1205069E-006 -7.5355489E-006 0.0 -7.7440486E-015  1.4045488E-014 0.0  8.1075712E-015 -1.1663708E-014 0.0 -1.0514870E-005 -8.9509477E-006 0.0  1.1694627E-014 -2.1549214E-014 0.0 -1.4631720E-007  5.3695987E-009 0.0 -7.0564651E-002 -5.0118924E-002 0.0 -1.1992437E-006 -1.5618898E-006 0.0  1.7706214E-005  2.3350089E-005 0.0  3.4634297E-015 -1.0448252E-014 0.0 -1.4278326E-003 -3.3823228E-005 0.0 -9.8669413E-004 -1.2844414E-005 0.0  5.4307930E-003  3.1605874E-004 0.0 -1.5806219E-002 -1.1747620E-002 0.0 -2.5466363E-004 -2.8126666E-004 0.0 -2.1649290E-003 -5.7544310E-005 0.0 -8.6700024E-003 -5.1582320E-004 0.0 -5.4978909E-003 -4.0861658E-004 0.0 -6.9963828E-006 -4.4176540E-006 0.0  5.7038135E-006 -3.0317063E-007 0.0  7.9023965E-013 -1.2086679E-012 0.0  3.6429108E-004 -2.1898128E-004 0.0  3.7212785E-004  6.7583010E-005 0.0 -3.3215811E-002 -6.2321992E-003 0.0 -3.5038977E-004 -1.0613677E-004 0.0  5.4301640E-003  1.6744070E-003 0.0 -9.9562362E-003 -3.2731718E-003 0.0 -8.3779979E-002 -2.5270671E-002 0.0 -1.7568764E-002  1.7350163E-004 0.0 -1.9868179E-002  3.8479528E-004 0.0 -3.8977724E-003  7.8852720E-005 0.0  1.1638799E-001  4.2148494E-002 0.0 -1.5962920E-007 -1.2324516E-008 0.0 -1.1543990E-001 -6.6130201E-003 0.0 -2.3988307E-002  4.7043911E-004 0.0 -5.0696158E-004  6.8279023E-006 0.0 -1.4565093E-002  2.3300002E-004 0.0 -5.8005093E-002 -5.0477614E-004 0.0 -9.0714403E-002 -3.7010383E-004 0.0 -5.0300927E-002  1.0797389E-004 0.0 -3.6393131E-002  6.4229755E-004 0.0 -9.5377440E-004  1.7747783E-005 0.0 -2.4626691E-004  4.0401911E-006 0.0 -1.4730319E-013 -1.0857447E-013 0.0  4.3776918E-015  3.3486780E-015 0.0 -1.0387937E-014 -2.4887646E-015 0.0  1.1168115E-013  1.4161355E-013 0.0 -5.3719306E-013 -6.7284683E-013 0.0  2.9765699E-012  3.7816020E-012 0.0 -3.6813032E-014 -4.6812802E-014 0.0  2.0869626E-012  2.6471308E-012 0.0 -2.0627158E-013 -2.4963882E-013 0.0  1.7996907E-011  2.2667425E-011 0.0 -4.9121100E-016 -7.3606541E-017 0.0 -1.5448645E+000  2.1150252E+000 0.0 -1.9212988E-001  2.5290131E-001 0.0  3.5669582E-002  1.2555192E-002 0.0  1.8427535E-003  1.7660107E-003 0.0 -3.8929435E-004  8.6364975E-006 0.0  7.3324759E-002  9.0537625E-003 0.0 -1.9547836E-004 -7.0122729E-007 0.0 -2.6967809E-006 -5.9167822E-008 0.0 -1.1039677E-002 -2.8868011E-003 0.0  3.4659745E-002  1.0713587E-002 0.0 -1.4887087E-001 -3.7654265E-002 0.0  4.1563864E-001  1.0012077E-001 0.0 -1.9543182E-001 -4.1470476E-002 0.0 -7.4263505E-001 -2.2212679E-001 0.0 -2.0158850E-004 -2.6347094E-004 0.0 -8.4834063E-004 -1.1211470E-003 0.0  2.8942705E-004  3.8456351E-004 0.0 -6.5504266E-008 -2.1612458E-005 0.0 -2.1243709E-003 -2.2035412E-003 0.0 -1.3445240E-002 -7.0378510E-003 0.0 -4.0730582E-003 -2.7618632E-003 0.0  6.0694320E-004  3.5781339E-004 0.0 -1.7164625E-004  1.2127276E-004 0.0 -3.9134962E-006  2.7601671E-006 0.0 -2.2840136E-005  1.6196714E-005 0.0 -5.8644501E-004  4.5737592E-004 0.0  1.7653868E-015 -3.5349945E-015 0.0 -7.3064150E-004 -8.1411830E-004 0.0 -3.9551118E-016  2.8400311E-016 0.0 -2.2476273E+000 -4.7385637E-001 0.0 -1.9766413E+000 -4.1995537E-001 0.0 -7.7093472E-004 -3.2343795E-004 0.0 -3.3805775E-003 -1.0746771E-003 0.0 -5.2365904E-003 -2.3862976E-003 0.0  5.0527794E-004  2.2345830E-004 0.0 -2.2518636E-003 -1.1410536E-003 0.0  1.4425022E-003 -3.4190223E-004 0.0 -1.2705426E-001 -5.7424264E-002 0.0  8.7190405E-002  2.9471673E-002 0.0 -5.8188830E-005 -7.7490908E-005 0.0 -1.1976289E-003 -1.4705241E-003 0.0 -1.1445963E-002  7.2055659E-003 0.0 -1.8735127E-001 -1.3526646E-002 0.0 -4.4174542E-004  1.7079746E-004 0.0 -4.4362140E-004  3.3912598E-004 0.0  1.1108300E-017 -2.5906917E-018 0.0 -5.2677833E-002  3.9796218E-002 0.0 -1.1442331E-002 -4.4856525E-003 0.0  4.5184800E-007 -9.5170011E-007 0.0  3.6632308E-007 -4.4397710E-007 0.0  7.6587270E-008 -1.9209776E-007 0.0 -5.5867230E-011 -2.7163213E-009 0.0  1.9615531E-009 -3.2334665E-009 0.0 -3.2231989E-003  2.9486589E-002 0.0 -5.2568141E-005  2.2865443E-003 0.0 -1.7965539E-006  6.9502358E-005 0.0 -6.2286441E-006  1.8161221E-004 0.0 -7.9716570E-008  1.0541398E-005 0.0  2.0166249E-006 -8.3580822E-006 0.0 -7.5121633E-002 -1.4427504E-002 0.0 -2.7243729E+000 -4.8426599E-001 0.0 -1.7345156E-005 -5.1066043E-007 0.0  4.5783061E-005  8.0836139E-006 0.0 -2.8734151E-003  4.6735948E-005 0.0 -9.8293037E-008 -1.3779739E-008 0.0  5.9403097E-016 -8.7593933E-016 0.0 -1.3556729E-006  9.6389385E-007 0.0  1.9055235E-006 -2.5925029E-006 0.0 -6.9075965E-004 -2.3537810E-005 0.0  1.5274491E-018  2.5522241E-018 0.0 -8.5560487E-002 -3.3831036E-002 0.0 -5.6125167E-006  6.5967927E-008 0.0  9.7499280E-007 -1.7804458E-006 0.0  4.8717870E-001  1.7885571E-001 0.0 -5.9507074E-003 -2.2287138E-003 0.0 -1.2656607E-003 -5.3331744E-004 0.0 -1.9428616E-002 -6.7336818E-003 0.0 -6.0363870E-003 -2.1638161E-003 0.0  4.9713184E-015 -1.5732378E-014 0.0 -4.3426259E-001 -2.7266846E-001 0.0 -2.8583830E-002 -1.2651395E-002 0.0  4.6552902E-009 -4.7214683E-009 0.0 -1.6949362E-001 -9.0379749E-002 0.0 -4.4400684E-002 -1.9297830E-002 0.0 -4.2593077E-006 -3.4201447E-006 0.0 -9.4477742E-003 -1.2542373E-002 0.0 -1.8237125E-003 -2.4373880E-003 0.0 -9.4355124E-003 -1.2456166E-002 0.0 -2.0556775E-002 -1.8481640E-003 0.0 -5.7228218E-003 -5.9606694E-004 0.0 -3.9193687E-018 -1.0068580E-017 0.0 -1.2391484E-001 -1.2713021E-002 0.0 -1.1876928E-003 -1.0235761E-003 0.0 -1.0279692E-002 -1.1075653E-002 0.0 -8.0081713E-001 -2.9207450E-001 0.0  6.7665230E-016 -2.3796741E-015 0.0 -1.1914306E-015  7.4583817E-016 0.0 -2.2762009E-016  1.5173360E-016 0.0 -6.2580717E-017  4.6692729E-017 0.0  3.0058035E-018  1.9220356E-017 0.0 -1.0559521E-018 -1.2755243E-018 0.0 -2.9860613E-006  2.0384478E-009 0.0 -2.7537617E-018 -4.1610569E-018 0.0 -6.7914439E-007  4.5231738E-007 0.0 -3.4230322E-018 -1.1348303E-017 0.0  4.8393417E-011 -3.4727121E-011 0.0  1.9272593E-017  1.7548508E-018 0.0  2.2458367E-016 -1.1854785E-016 0.0  1.1837829E-015 -8.2050122E-016 0.0  1.5502846E-018  6.6658772E-018 0.0 -5.5678552E-018 -9.9278369E-018 0.0  7.3975656E-010 -5.2833513E-010 0.0  4.4656664E-013 -3.3174770E-013 0.0 -1.7626418E-006 -1.8783277E-007 0.0 -1.2454942E-004 -1.2973289E-005 0.0 -1.0837316E-007  2.8566347E-010 0.0 -6.4531814E-007  1.1899599E-006 0.0  1.0236452E-009 -4.9678850E-010 0.0  7.5425801E-011  3.2708134E-011 0.0 -1.6477135E-011  1.0619006E-011 0.0 -1.1583427E-012  7.4154213E-013 0.0 -5.8498019E-014  3.7474044E-014 0.0 -1.1620070E-013  6.8660660E-014 0.0  1.1974069E-012 -2.1420303E-012 0.0  8.4392987E-014 -1.4964108E-013 0.0  9.0090258E-015 -1.1780903E-014 0.0 -9.1559320E-016  1.7905782E-015 0.0  4.5386880E-011  1.8837040E-010 0.0  1.7680323E-011 -3.1652401E-011 0.0 -1.2312507E-009  8.5731901E-010 0.0  5.0542849E-008 -9.0391859E-008 0.0 -4.1479250E-011  6.6201502E-011 0.0  1.0399719E-011 -1.9775220E-011 0.0 -2.4657404E-010  3.7406404E-010 0.0  7.6684637E-014 -2.2009682E-013 0.0 -3.9066249E-011  2.5328487E-011 0.0 -4.2813513E-012  2.5528516E-011 0.0  4.5961491E-015 -8.2445377E-015 0.0  7.3241601E-012 -5.2838388E-012 0.0 -1.3156423E-012  1.9062716E-014 0.0 -3.1089904E-011  6.3984303E-012 0.0 -5.5148847E-014  1.0616207E-014 0.0  5.2819998E-017 -5.5122086E-018 0.0 -2.5919991E-012  1.3908409E-014 0.0 -5.7965469E-012  9.4631648E-014 0.0 -6.6832120E-018 -1.4478634E-017 0.0 -1.5077814E-018 -3.4162918E-018 0.0 -6.3567343E-018 -9.3556104E-018 0.0 -2.5399500E-018 -8.8336040E-018 0.0  3.7322831E-017  2.7594263E-017 0.0 -2.4497442E-018 -2.5529461E-018 0.0 -1.1289901E-017 -1.2888577E-017 0.0  3.6493015E-018  1.5491510E-017 0.0  1.0622641E-017 -1.6672569E-017 0.0 -1.2720746E-017 -1.1576349E-017 0.0  7.3303886E-017  6.5125170E-017 0.0  2.0894173E-016  2.3236816E-016 0.0  2.3747009E-017  3.0978229E-017 0.0 -8.5025346E-016 -1.1131546E-015 0.0  1.6523723E-017  3.2376599E-017 0.0 -3.4830261E-016 -4.8108352E-016 0.0 -1.0036180E-014 -1.2821267E-014 0.0 -1.0509715E-013 -1.2318943E-013 0.0 -7.8094043E-014 -9.1736418E-014 0.0 -3.0171253E-015 -3.6013591E-015 0.0  7.3293342E-019  2.2982014E-018 0.0 -2.1046175E-016 -2.5727700E-016 0.0 -1.9967800E-017 -2.3432834E-017 0.0 -3.8042966E-015 -4.5680454E-015 0.0 -4.1918565E-012  3.7038398E-014 0.0 -8.8722957E-013 -1.1110759E-012 0.0  6.4586266E-018  2.2125024E-017 0.0  7.1825826E-018  1.2872364E-017 0.0 -1.5293509E-018 -2.2652694E-018 0.0  5.4359448E-018  8.4690430E-019 0.0 -1.0274115E-018 -5.9767788E-018 0.0 -5.9885453E-014  1.0796316E-014 0.0 -5.2411279E-012  8.0881106E-013 0.0  4.6329089E-015 -4.9594423E-015 0.0  5.3541580E-018  5.0009539E-018 0.0  2.8278981E-010  7.0927749E-012 0.0 -1.6230744E-015 -1.9596962E-016 0.0  1.0222675E-017 -3.6235532E-018 0.0 -5.5056728E-017 -5.0663220E-017 0.0  4.9235585E-015  7.4985090E-015 0.0  1.0433354E-014  1.3241807E-014 0.0  8.7656556E-017 -3.7833006E-017 0.0  2.9704882E-015  3.5496684E-015 0.0 -4.3622039E-014 -5.2129558E-014 0.0 -7.4723635E-013  1.3738935E-013 0.0  2.9807659E-015 -1.5824974E-015 0.0  1.6365086E-013 -1.1385873E-013 0.0  1.5594441E-015 -1.1208179E-015 0.0 -3.7367195E+001 -7.8441324E+000 0.0  1.3011947E-014 -9.7031465E-015 0.0 -6.1461418E-007 -3.5473257E-007 0.0 -3.2048528E-001 -2.8775714E-001 0.0 -2.4986153E-001 -2.7181267E-001 0.0 -1.2618128E-001 -1.7010341E-001 0.0 -1.6635359E-001 -2.0948203E-001 0.0 -2.5420034E+000 -1.1087560E+000 0.0 -1.7055780E+000 -5.6609753E-001 0.0 -2.0323877E-002 -2.5316629E-002 0.0 -6.7063267E-002 -7.3704782E-002 0.0 -8.2442698E+000 -2.1693624E+000 0.0 -1.0185354E+001 -2.4894538E+000 0.0 -3.5111004E-002 -1.3966458E-002 0.0 -4.9570236E-018 -1.0903668E-017 0.0  1.8834495E-004  1.3833625E-004 0.0 -2.6299729E-002 -2.3169073E-002 0.0 -7.4731639E-001 -1.3717534E-001 0.0  2.1797686E-018  8.4087033E-018 0.0 -1.2001116E-003  1.6133356E-003 0.0 -7.1893480E-003  5.6035331E-003 0.0  6.0651871E-001  6.0602365E-001 0.0  1.2994039E-001  9.3745733E-002 0.0  4.5921997E-003  5.5638358E-003 0.0  3.5356764E-001  9.9578639E-001 0.0 -2.4163602E-001  7.3071848E-001 0.0 -3.9544158E-002  1.9886292E-001 0.0  1.7521119E+000  1.1129553E+000 0.0  3.7212859E-011  4.7416752E-011 0.0 -9.6323759E-001 -1.2445412E-001 0.0 -1.8460075E-011 -2.0992296E-011 0.0 -3.6551687E-010 -4.2707405E-010 0.0  4.7437950E-005  3.6382558E-006 0.0 -5.3035297E-004 -3.1844520E-005 0.0 -2.0958126E-001 -7.2497505E-002 0.0 -8.3073924E-005  1.2648540E-006 0.0 -4.6868198E-004  8.5999718E-004 0.0 -1.2054166E-014 -1.4435714E-014 0.0 -2.2637514E+000  8.9942664E-001 0.0 -2.8680814E-005 -9.6021049E-006 0.0 -4.5762085E-001  5.3246054E-002 0.0  6.9422698E-003 -5.3537203E-004 0.0 -2.4378566E-001  5.3168633E-002 0.0 -1.5807226E-001  6.3123398E-002 0.0 -2.3072803E+000 -3.0572350E-001 0.0 -2.5323370E-001 -8.1133021E-002 0.0  1.0299443E-007  3.5114602E-008 0.0  7.9547679E-008  2.9072221E-008 0.0  1.4158265E-017  3.6234595E-017 0.0 -3.2163376E-003  4.7988991E-005 0.0 -1.2395082E-004 -6.6091339E-007 0.0 -2.4238035E-004 -2.6144684E-005 0.0  1.4636996E-009  3.3976973E-011 0.0 -1.6579539E-001 -8.6810344E-003 0.0 -1.9871967E-012 -2.3389092E-012 0.0 -8.9085352E-002 -7.3802282E-002 0.0  8.6002155E-005  2.5106945E-005 0.0 -6.4808656E-005 -1.5722285E-005 0.0  1.7812258E-018  1.3789708E-017 0.0  1.2728244E-017  2.0423582E-017 0.0  5.2710968E-019  2.4072125E-018 0.0 -7.2455287E-003  9.3545147E-005 0.0 -5.5854267E-003  5.7167601E-005 0.0  8.7459600E-009 -1.3198720E-008 0.0 -1.3251484E+000 -9.5470720E-001 0.0  6.6088449E-018  1.4249562E-017 0.0  1.0261374E-016 -2.1983690E-016 0.0 -1.2615569E+000 -3.3582560E-003 0.0 -8.7920353E-002 -1.7099675E-002 0.0  8.1172475E-012 -1.7804962E-011 0.0  3.9987025E-018  8.7186356E-018 0.0  3.4071518E-009  4.3934801E-009 0.0  8.1984021E-004 -5.4731470E-004 0.0 -7.3350434E-003 -6.5169391E-003 0.0 -2.3882139E-002 -2.5953684E-002 0.0 -8.6851711E-005  1.5210218E-004 0.0  4.9435927E-010 -8.0626508E-013 0.0  4.6184862E-002  1.0936631E-001 0.0  2.4101478E-006  9.4805463E-006 0.0 -7.1608833E-002 -2.1392030E-002 0.0 -4.0207143E-001  2.9771300E-001 0.0  6.9474098E-006 -1.2628724E-005 0.0 -4.1294317E-005 -3.7560568E-006 0.0  2.1851668E-005  2.7809507E-006 0.0 -2.2105898E-004 -2.0208317E-005 0.0 -2.3594901E-008  1.6555166E-008 0.0 -3.9050011E+001 -6.7497528E+000 0.0 -2.4503397E+000 -6.8902580E-001 0.0 -4.5512457E-004 -2.9952603E-005 0.0 -1.8992531E-002 -2.2224854E-003 0.0  1.1054661E-007 -7.3482135E-008 0.0  1.5397549E-016  1.4164533E-016 0.0 -1.6142392E-001 -2.1401382E-001 0.0  2.7965056E-007 -2.4788042E-007 0.0 -1.2138721E-001  1.8164314E-003 0.0 -1.6120083E-002  2.3048195E-004 0.0 -5.1252936E-004 -8.7031154E-006 0.0 -9.2097798E-002  9.1418822E-004 0.0 -2.6869174E-002  4.4549166E-004 0.0 -3.3563585E-002 -9.2861709E-004 0.0 -9.9700029E-002  1.6008913E-003 0.0 -1.8321546E-001  1.2336773E-003 0.0 -1.7204431E-001  2.1872182E-003 0.0 -1.9466426E-002  1.6414170E-004 0.0  3.2071919E+000  1.3834162E+000 0.0 -1.6778877E-004 -9.6818482E-006 0.0  2.9486012E-012 -5.6570805E-012 0.0 -4.2613631E-002 -1.5406662E-002 0.0 -3.0275399E-004 -3.9002654E-004 0.0 -3.2613257E-002 -2.1142758E-003 0.0 -2.5565052E-010  1.4840553E-010 0.0 -4.6762401E-007 -2.6861540E-007 0.0 -1.5954607E-005 -1.7687070E-006 0.0 -3.0701419E-004 -3.1924482E-005 0.0 -2.2381739E-003 -2.3290699E-004 0.0 -1.8842644E-006 -1.4252570E-006 0.0 -2.5940218E-004 -6.3159627E-006 0.0 -2.0485727E+000 -4.7491231E-001 0.0  3.8345579E-005 -1.1902699E-004 0.0  1.6332407E-006  6.8052569E-007 0.0 -3.1721746E-002  9.4809296E-003 0.0  5.2423927E-007 -1.6093788E-006 0.0  2.9998140E-002  1.1121902E-002 0.0 -7.6759414E-002 -1.3615536E-002 0.0  1.4677129E+001  5.3273806E+000 0.0 -1.1950931E+000  2.3250099E+000 0.0 -3.7521998E-002  6.7624623E-002 0.0 -3.8304538E-001  8.1883809E-001 0.0 -4.3194398E+000  9.6690531E+000 0.0 -1.1109805E-008  3.5091028E-011 0.0 -3.6859361E-002  7.1908046E-002 0.0 -3.4836762E-003 -1.7916443E-003 0.0 -2.6383547E+000  1.8738566E+000 0.0 -8.0756868E-002 -5.6806566E-002 0.0 -1.8380836E-001  1.8918277E-003 0.0 -9.7631196E-003 -4.8151594E-003 0.0 -3.0809695E-002 -1.3444370E-002 0.0 -1.2909303E-001  3.5007521E-003 0.0 -1.3543786E+000 -1.5984879E-001 0.0 -3.5007529E-010  3.7948149E-011 0.0 -3.2068159E-001 -3.6183204E-002 0.0  1.6633500E-013 -2.6049006E-013 0.0  4.3058927E-018 -2.7218029E-017 0.0  4.8627994E-017  2.9077911E-017 0.0 -1.1643655E-002  1.2994762E-003 0.0  4.5951630E-008  4.1115797E-006 0.0 -6.2117341E-004 -5.1436605E-004 0.0 -5.7723156E-005  4.4524983E-005 0.0  1.3524624E-007 -3.9533116E-007 0.0 -1.6981012E-018  1.0101832E-018 0.0  1.1261541E-009 -2.8387785E-009 0.0 -1.7635239E-004 -2.1405394E-006 0.0 -8.0291616E-005 -6.4897922E-005 0.0 -8.1279970E-001  2.1189073E+000 0.0 -1.0719015E-003 -1.1233329E-003 0.0 -2.6200242E-006 -2.1651384E-006 0.0 -1.9104991E-001 -2.7645721E-002 0.0  3.6772063E-004  1.1979775E-003 0.0 -2.5350447E-005 -5.1883896E-008 0.0 -1.0999099E-003  2.3030870E-004 0.0 -6.9080477E-006  5.2182473E-006 0.0 -1.5872554E-003  2.4069182E-005 0.0 -3.8348094E-003 -2.5339723E-004 0.0 -3.6232698E-008 -8.2510672E-007 0.0 -1.3225845E-004  2.4241169E-004 0.0 -6.7782529E-001 -1.7956004E-001 0.0 -1.0669245E+000  1.9149352E+000 0.0  7.6190940E+000  4.6834828E+001 0.0  6.0609043E-004 -1.1045677E-003 0.0  3.4017647E+000  2.6827365E+001 0.0  6.3635445E-003 -1.1578440E-001 0.0  2.1916195E+001  2.3202173E+001 0.0 -1.9137807E-004  1.6377411E-004 0.0 -1.9586064E-004  1.5315882E-004 0.0 -5.7836978E-003  7.4082600E-003 0.0  8.4608683E-003 -1.0250377E-002 0.0 -1.6620511E+001  1.9207678E+001 0.0 -4.3530965E+001  6.0458397E+001 0.0  1.5728441E+001  8.3843309E+000 0.0 -3.6172609E+000  3.0907320E+000 0.0 -1.3864309E+001  1.0457828E+001 0.0  1.5003418E+000  1.9384321E+000 0.0  8.2267771E-001  2.0837689E+000 0.0 -5.1341215E-001 -2.8336295E-001 0.0 -1.7351451E+000  2.6383688E+000 0.0 -5.3139063E-002  3.6844404E-001 0.0  1.5913576E-001  6.1223123E-002 0.0 -3.3266177E+001  4.0678233E+001 0.0 -6.7116933E-003  2.9252543E-001 0.0  3.0206090E+001  1.4155883E+001 0.0  1.0670487E+002  4.6168173E+001 0.0 -3.9318655E+000  2.0156724E+001 0.0  4.3762999E+001  5.7553451E+001 0.0  3.2570156E+001  6.5197173E+001 0.0  1.8216227E+001  3.6150898E+001 0.0  1.0828039E+000  3.6881973E+001 0.0  2.6149574E+001  2.1235043E+001 0.0 -1.4996755E+000  1.0005403E+001 0.0 -1.1989168E+000  1.8865956E+001 0.0 -6.6342221E+000  2.1215984E+001 0.0 -2.3434324E-001  8.5784997E-001 0.0 -2.5605935E-001 -6.0754277E-001 0.0  5.4868684E-002  1.9998161E-002 0.0 -5.3666328E+000  1.1975654E+000 0.0  1.1715224E-009 -2.2110915E-009 0.0 -7.2243539E-003 -3.3797863E-004 0.0 -5.5265489E-008  7.0751726E-010 0.0 -3.1062953E+000  9.8309595E+000 0.0  2.4517505E+001  1.5590625E+001 0.0  1.3722802E+001  1.9267511E+001 0.0  8.9551237E+000  2.8219909E+001 0.0  5.7552110E-001  7.2167124E-001 0.0 -1.3936040E+000  1.0488394E+000 0.0 -3.0030302E+000  2.1893294E+000 0.0 -6.1246368E+000  3.3410976E+000 0.0 -1.2425935E-002  2.2738208E-002 0.0 -2.3660200E+000 -1.3621391E-001 0.0 -1.4848406E-002 -2.1372780E-004 0.0 -2.0617129E+000 -2.0730870E-001 0.0 -4.9382782E-003 -6.3456121E-003 0.0  1.7396102E-016 -1.6657726E-016 0.0 -1.1888543E-006  1.3606933E-004 0.0 -1.3321272E-009  5.9363787E-012 0.0 -1.5232980E-002 -1.6228478E-002 0.0 -2.1867407E-003 -1.5414533E-006 0.0  2.4495605E-006 -3.9251091E-006 0.0 -1.1747839E+000  1.8630853E-002 0.0 -5.8100275E-001  7.4038060E-003 0.0 -2.7163791E-001  4.5131941E-003 0.0 -6.3485121E-001 -8.9475629E-003 0.0 -1.4380130E+000 -1.3681706E-001 0.0 -9.4462862E-001  1.7995551E-002 0.0 -1.2839174E-001  1.7820381E-003 0.0 -3.2383708E-001  6.1329617E-003 0.0 -1.7718803E+000  2.6714648E-002 0.0 -1.3325719E+000  9.8578907E-003 0.0 -5.3191288E+000  2.9500275E-002 0.0 -3.9442787E+000 -1.3371033E-001 0.0 -1.0213872E+000  1.9707170E-002 0.0 -2.5191924E+000  2.5461634E-002 0.0 -3.1439205E+000  3.2512649E-002 0.0 -3.8843074E-001  5.0332547E-003 0.0 -2.9775090E+000  2.9735080E-002 0.0 -2.1864594E+000  2.8049877E-002 0.0 -3.9837332E+000 -5.8415236E-002 0.0 -1.4543455E+000  2.3319478E-002 0.0 -3.6906633E+000  1.7319577E-002 0.0 -1.2362087E+000  2.4431902E-004 0.0 -8.0920189E-001  1.3641538E-002 0.0 -1.4255542E+000  2.5607551E-002 0.0 -3.8794455E+000 -1.3299552E-002 0.0 -3.4823590E+000 -2.4935416E-002 0.0 -1.4395741E+000  1.9795800E-002 0.0 -2.9377715E-002 -3.9452698E-002 0.0  5.5348612E-007 -3.4667499E-008 0.0 -8.6090729E-003  7.5095752E-005 0.0 -1.3782923E-003 -1.0649663E-005 0.0  3.3978831E-011  3.9029353E-013 0.0 -5.5796387E-002 -5.2104011E-004 0.0 -1.1891264E-001 -1.1153917E-002 0.0 -4.3027101E-003 -3.3235608E-004 0.0 -5.1430106E-003 -4.7091886E-004 0.0 -2.7237468E-001 -2.2940927E-002 0.0 -1.2559314E-001 -3.8263837E-003 0.0 -1.2094122E-001 -7.1150949E-003 0.0  3.3191371E-016  2.7899212E-016 0.0 -5.2343379E-005  1.0930403E-003 0.0 -1.1219425E-012  2.0890533E-013 0.0 -1.8733661E-002 -7.6318887E-003 0.0  4.8458513E-012  6.2247981E-012 0.0  1.5199159E-017  3.0123128E-017 0.0  3.2592591E-017 -3.7356845E-017 0.0  7.3933563E-004  5.4169860E-005 0.0 -3.9130787E-015 -4.8286462E-015 0.0 -2.8178697E-017  1.4108050E-016 0.0 -1.1385439E-001 -9.8343442E-002 0.0 -1.5291949E-001 -2.1299348E-002 0.0 -6.6104494E-003  3.2988171E-003 0.0 -7.5422258E+000  1.1651157E+001 0.0 -2.2636283E-010  9.2908816E-013 0.0  4.5501831E+000  1.6518099E+000 0.0  2.0934354E-007  1.6710285E-008 0.0  2.5243071E-015 -3.3694376E-015 0.0  9.8129931E-012  9.1809917E-012 0.0 -7.8967163E-011 -1.1170335E-010 0.0 -3.3732613E-002 -6.1784315E-003 0.0  2.7485685E-008  3.2949923E-008 0.0 -6.5311250E-004 -5.7084716E-005 0.0  1.9085221E-012  2.0400185E-012 0.0  9.7817282E-006 -5.2516068E-005 0.0 -5.1927901E-001 -2.2724521E-001 0.0 -1.0619962E+000 -1.6676524E-001 0.0 -2.4062115E-002 -2.5777912E-004 0.0  1.6949693E-014 -3.0175319E-014 0.0 -8.6788459E-014  2.9590204E-014 0.0 -6.1629844E-004 -3.3486064E-004 0.0 -1.6664626E-002 -1.1539825E-003 0.0 -7.9720698E-001  6.0224011E-001 0.0 -3.1808914E-006 -3.8988903E-006 0.0 -1.3295920E-011 -1.0796677E-012 0.0 -1.8148758E-002  2.6067333E-004 0.0  4.0315934E-010  5.1842995E-010 0.0 -3.0837234E-004  2.1981811E-004 0.0  1.1609184E-014  1.9303312E-014 0.0 -2.9828429E-003 -1.1858591E-003 0.0 -4.7851579E-004 -1.3111122E-004 0.0 -1.2193156E-008 -9.1668687E-010 0.0 -3.2581127E-002 -1.1575914E-002 0.0  1.8058751E-006  5.5952551E-006 0.0  5.6308158E-016 -9.6548479E-016 0.0 -1.9836189E-002 -6.2180993E-003 0.0 -4.6380672E-002 -2.3802000E-002 0.0  2.0517224E+000  9.1728942E+000 0.0 -1.9705651E-001  2.3187715E+000 0.0  4.0779142E+000  7.0868537E+000 0.0  7.3774389E+000  4.4018423E+000 0.0  8.0045033E+000  5.8828272E+000 0.0 -1.0292142E+000  4.2648434E+000 0.0  7.1970323E+000  8.5789991E+000 0.0 -2.8526854E-002 -2.9724732E-003 0.0 -7.6170545E+001 -1.1967572E+001 0.0 -2.3237516E-007  1.6613851E-007 0.0 -2.9733517E+000 -7.5249876E-001 0.0 -3.8673065E-011  1.8485786E-013 0.0  1.9677855E+000  8.6863108E-001 0.0 -7.1007297E-003 -3.1141012E-003 0.0 -2.9219346E-003  2.0613887E-003 0.0  2.7343514E+000  1.3284943E+000 0.0 -5.1377823E+000  3.9303760E+000 0.0  5.2855851E-016 -9.3434045E-016 0.0 -2.4034474E-001  2.2954134E+000 0.0 -8.4195129E+000 -2.5618104E+000 0.0 -2.9277016E+000 -1.5467176E+000 0.0  7.0523152E-006 -2.2080214E-005 0.0  1.1610070E-006  8.4229034E-008 0.0 -1.8375861E-003  8.2676459E-004 0.0 -3.6248895E-003  4.6432760E-003 0.0 -5.0869935E-002  6.5067193E-002 0.0 -6.7523124E-001 -1.4634708E-001 0.0 -1.8154437E-006 -1.9194565E-007 0.0 -4.9788140E-007 -1.2090281E-007 0.0 -2.7603109E-005 -2.9112536E-006 0.0 -1.4301150E-003  2.4404034E-005 0.0 -2.0714217E+000 -6.3146000E-001 0.0 -1.9132295E-002 -3.0145063E-003 0.0 -1.9235036E-006 -3.3293114E-007 0.0 -2.4340294E-004 -4.2367841E-006 0.0 -2.9322447E-003 -3.8474175E-003 0.0  1.5935911E-003  1.4598786E-002 0.0 -3.1598511E-002 -3.9466129E-002 0.0  1.7042827E-010 -3.5007359E-010 0.0 -8.3365938E+000 -3.0893286E+000 0.0 -4.4260662E-003 -1.3773447E-003 0.0 -3.3867051E-003 -2.2408918E-004 0.0 -1.4997647E-002 -4.5706894E-003 0.0 -7.6068962E+001  1.1746893E+002 0.0
        </DataArray>
        <DataArray type="Float64" Name="current density re" NumberOfComponents="3" format="ascii">
 0.0 0.0 -1.9116911E+005 0.0 0.0 -8.2797453E+003 0.0 0.0 -1.9690964E+004 0.0 0.0 -4.7970367E+004 0.0 0.0 -2.9238396E+003 0.0 0.0 -2.6663213E+003 0.0 0.0 -3.6945542E+004 0.0 0.0  4.7983874E+003 0.0 0.0 -1.1678522E+001 0.0 0.0  1.0370700E+003 0.0 0.0  3.2368146E-002 0.0 0.0  3.3167907E+005 0.0 0.0  2.7250106E+005 0.0 0.0  3.8951448E+005 0.0 0.0  2.7966346E+005 0.0 0.0  7.1742676E-003 0.0 0.0 -3.1808935E-013 0.0 0.0  9.1207582E-015 0.0 0.0 -1.0913649E-003 0.0 0.0  6.8754117E+003 0.0 0.0 -4.4712499E+005 0.0 0.0 -1.3574173E+003 0.0 0.0  7.6541524E+003 0.0 0.0 -4.2178036E+004 0.0 0.0 -5.4049285E+004 0.0 0.0 -5.0154683E+004 0.0 0.0 -5.2095463E+004 0.0 0.0 -5.2996044E+004 0.0 0.0 -4.1139489E+004 0.0 0.0 -6.2717567E+004 0.0 0.0 -4.3251572E+004 0.0 0.0 -4.3537073E+004 0.0 0.0 -3.3840625E+004 0.0 0.0 -3.3907274E+004 0.0 0.0 -3.4410951E+004 0.0 0.0 -2.9228523E+004 0.0 0.0 -2.4654341E+004 0.0 0.0 -2.2718842E+004 0.0 0.0 -1.8690587E+004 0.0 0.0 -9.4012736E+004 0.0 0.0 -8.5769340E+004 0.0 0.0 -8.3959333E+004 0.0 0.0 -8.3282280E+004 0.0 0.0 -8.8529229E+004 0.0 0.0 -7.2006692E+004 0.0 0.0 -5.9832952E+004 0.0 0.0 -9.3972715E+004 0.0 0.0 -6.6854070E+004 0.0 0.0 -7.3032432E+004 0.0 0.0 -5.4057176E+004 0.0 0.0 -9.2884417E+003 0.0 0.0 -9.2466827E+003 0.0 0.0 -1.7208444E+004 0.0 0.0 -1.5848603E+004 0.0 0.0 -1.9547513E+004 0.0 0.0 -1.9105301E+004 0.0 0.0 -2.4762861E+004 0.0 0.0 -2.0270743E+004 0.0 0.0 -2.9645757E+004 0.0 0.0 -2.9967192E+004 0.0 0.0 -2.7282313E+004 0.0 0.0 -4.3251865E+004 0.0 0.0 -3.1895463E+004 0.0 0.0 -3.4902187E+004 0.0 0.0 -5.5519222E+004 0.0 0.0 -3.7490136E+004 0.0 0.0  1.7037598E+003 0.0 0.0 -3.2899771E+003 0.0 0.0 -8.7583004E+003 0.0 0.0 -1.3211263E+004 0.0 0.0 -2.1439920E+004 0.0 0.0 -2.9391665E+004 0.0 0.0 -3.8689557E+004 0.0 0.0 -5.0636345E+004 0.0 0.0 -5.6854020E+004 0.0 0.0 -6.3746363E+004 0.0 0.0 -6.4265490E+004 0.0 0.0 -6.7897520E+004 0.0 0.0 -1.0317235E+005 0.0 0.0 -7.3781388E+004 0.0 0.0 -8.9311035E+004 0.0 0.0 -9.9743414E+004 0.0 0.0 -8.1794366E+004 0.0 0.0 -1.2114994E+005 0.0 0.0 -1.1211410E+005 0.0 0.0 -1.0748781E+005 0.0 0.0 -1.0409468E+005 0.0 0.0 -9.8508228E+004 0.0 0.0 -1.2326537E+005 0.0 0.0 -9.9895940E+004 0.0 0.0 -1.0826080E+005 0.0 0.0 -1.0458112E+005 0.0 0.0 -1.1421125E+005 0.0 0.0 -1.0265945E+005 0.0 0.0 -1.0197122E+005 0.0 0.0 -1.2194105E+005 0.0 0.0 -1.1583700E+005 0.0 0.0 -9.6552259E+004 0.0 0.0 -1.3309420E+005 0.0 0.0 -1.0122253E+005 0.0 0.0 -9.5103416E+004 0.0 0.0 -8.6362654E+004 0.0 0.0 -1.3279496E+005 0.0 0.0 -1.0106519E+005 0.0 0.0 -9.7788065E+004 0.0 0.0 -8.1723001E+004 0.0 0.0 -1.1094859E+005 0.0 0.0 -8.7350982E+004 0.0 0.0 -9.3396816E+004 0.0 0.0 -8.0210998E+004 0.0 0.0 -1.1163063E+005 0.0 0.0 -8.5097966E+004 0.0 0.0 -7.9047155E+004 0.0 0.0 -7.0653622E+004 0.0 0.0 -1.0693839E+005 0.0 0.0 -7.8300915E+004 0.0 0.0 -7.1420195E+004 0.0 0.0 -6.4643360E+004 0.0 0.0 -9.8689778E+004 0.0 0.0 -7.4189203E+004 0.0 0.0 -7.1576433E+004 0.0 0.0 -6.6740031E+004 0.0 0.0 -6.5796676E+004 0.0 0.0 -8.2866586E+004 0.0 0.0 -6.1579748E+004 0.0 0.0 -6.1778081E+004 0.0 0.0 -5.9346309E+004 0.0 0.0 -7.9278810E+004 0.0 0.0 -6.0733610E+004 0.0 0.0 -5.9577591E+004 0.0 0.0 -5.5816996E+004 0.0 0.0 -5.5450927E+004 0.0 0.0 -6.9398833E+004 0.0 0.0 -5.2652433E+004 0.0 0.0 -5.0527662E+004 0.0 0.0 -4.6415739E+004 0.0 0.0 -4.9105792E+004 0.0 0.0 -6.1715795E+004 0.0 0.0 -4.6040427E+004 0.0 0.0 -4.3118911E+004 0.0 0.0 -4.3126166E+004 0.0 0.0 -4.1343636E+004 0.0 0.0 -3.8830172E+004 0.0 0.0 -3.9615921E+004 0.0 0.0 -4.0139037E+004 0.0 0.0 -4.1886540E+004 0.0 0.0 -5.3252124E+004 0.0 0.0 -4.2003212E+004 0.0 0.0 -4.2637487E+004 0.0 0.0 -3.9444903E+000 0.0 0.0 -4.9761936E+000 0.0 0.0  8.3629934E+000 0.0 0.0  5.5171349E+000 0.0 0.0  2.3899394E+001 0.0 0.0  1.0712009E+001 0.0 0.0  3.8097311E+002 0.0 0.0  4.6060534E+002 0.0 0.0  8.3763000E+001 0.0 0.0  6.8621670E+001 0.0 0.0  2.2627811E+002 0.0 0.0  4.2356916E+002 0.0 0.0 -2.7185902E+002 0.0 0.0 -2.6253697E+001 0.0 0.0  1.5708689E+002 0.0 0.0  2.4056786E+002 0.0 0.0  3.9206772E+002 0.0 0.0  5.2450655E+002 0.0 0.0 -1.4961090E+002 0.0 0.0  1.6143557E+002 0.0 0.0  4.5305911E+002 0.0 0.0  8.3536556E+002 0.0 0.0 -4.6708352E+002 0.0 0.0 -4.1747978E+001 0.0 0.0 -2.7842448E+001 0.0 0.0  1.6909825E+002 0.0 0.0  7.7407631E+001 0.0 0.0  1.1859054E+002 0.0 0.0  2.1698894E+002 0.0 0.0  3.6753372E+002 0.0 0.0  8.5350755E+002 0.0 0.0  1.2082429E+003 0.0 0.0  2.0773840E+003 0.0 0.0  2.4350634E+003 0.0 0.0  3.4267743E+002 0.0 0.0 -4.0344536E+001 0.0 0.0  1.6149486E+000 0.0 0.0 -8.1297263E-002 0.0 0.0  7.5486429E+005 0.0 0.0  8.7530323E+005 0.0 0.0  7.4380970E+005 0.0 0.0  1.0536288E+006 0.0 0.0  7.2543349E+005 0.0 0.0  1.0496440E+006 0.0 0.0  7.5321114E+005 0.0 0.0  1.0499586E+006 0.0 0.0  8.4833120E+005 0.0 0.0  8.2602368E+005 0.0 0.0  8.1539038E+005 0.0 0.0  1.1169884E+006 0.0 0.0  7.9106112E+005 0.0 0.0  7.3686787E+005 0.0 0.0  1.0441093E+006 0.0 0.0  8.5692150E+005 0.0 0.0  8.4217851E+005 0.0 0.0  8.1106362E+005 0.0 0.0  8.0469734E+005 0.0 0.0  1.0139270E+006 0.0 0.0  7.3335621E+005 0.0 0.0  7.3204745E+005 0.0 0.0  1.0086711E+006 0.0 0.0  8.3197479E+005 0.0 0.0  8.4674798E+005 0.0 0.0  6.8973078E+005 0.0 0.0  8.4358363E+005 0.0 0.0  5.7534328E+005 0.0 0.0  6.9324708E+005 0.0 0.0  9.2308221E+005 0.0 0.0  6.7531733E+005 0.0 0.0  6.3172778E+005 0.0 0.0  7.2279956E+005 0.0 0.0  9.0705655E+005 0.0 0.0  8.0523744E+005 0.0 0.0  7.8835031E+005 0.0 0.0  8.6761218E+005 0.0 0.0  8.1768345E+005 0.0 0.0  1.0754900E+006 0.0 0.0  8.3823067E+005 0.0 0.0  7.2316172E+005 0.0 0.0  6.3425945E+005 0.0 0.0  8.1815585E+005 0.0 0.0  9.0527106E+005 0.0 0.0  7.3274483E+005 0.0 0.0  7.3294207E+005 0.0 0.0  8.7961164E+005 0.0 0.0  9.0568421E+005 0.0 0.0  9.1339348E+005 0.0 0.0  8.9584842E+005 0.0 0.0  7.2563970E+005 0.0 0.0  7.1738852E+005 0.0 0.0  8.9884584E+005 0.0 0.0  9.3290626E+005 0.0 0.0  7.5480096E+005 0.0 0.0  5.1264221E+005 0.0 0.0 -1.2182188E-002 0.0 0.0 -6.4780946E-003 0.0 0.0  1.8889334E-003 0.0 0.0 -1.5777493E-001 0.0 0.0 -2.1580767E-001 0.0 0.0 -1.9574253E-001 0.0 0.0  5.3691899E-001 0.0 0.0  3.3185054E+000 0.0 0.0 -3.9089181E+001 0.0 0.0 -1.5843853E+002 0.0 0.0  7.4218922E+002 0.0 0.0 -1.0422972E+004 0.0 0.0 -1.5510534E+004 0.0 0.0 -1.6547345E+004 0.0 0.0 -1.5644455E+004 0.0 0.0 -1.7807541E+004 0.0 0.0 -1.8209840E+004 0.0 0.0 -1.7830606E+004 0.0 0.0 -2.7586908E+005 0.0 0.0 -2.1997258E+005 0.0 0.0 -1.6964076E+005 0.0 0.0 -1.4409388E+005 0.0 0.0 -1.0727652E+005 0.0 0.0 -1.0641347E+005 0.0 0.0 -8.9162600E+004 0.0 0.0 -6.2970909E+004 0.0 0.0 -5.7623802E+004 0.0 0.0 -4.8098849E+004 0.0 0.0 -3.3037432E+004 0.0 0.0 -2.7748630E+004 0.0 0.0 -2.2062062E+004 0.0 0.0 -1.5421715E+004 0.0 0.0 -1.2522044E+004 0.0 0.0 -1.1558213E+004 0.0 0.0 -9.6843178E+003 0.0 0.0 -7.4096660E+003 0.0 0.0 -7.5946300E+003 0.0 0.0 -7.6020182E+003 0.0 0.0 -6.9364618E+003 0.0 0.0 -6.7545105E+003 0.0 0.0 -6.6330808E+003 0.0 0.0 -6.5263832E+003 0.0 0.0 -7.0088037E+003 0.0 0.0 -6.9924018E+003 0.0 0.0 -6.8231611E+003 0.0 0.0 -6.2892302E+003 0.0 0.0 -6.1219819E+003 0.0 0.0 -5.6704906E+003 0.0 0.0 -5.0343756E+003 0.0 0.0 -4.2546867E+003 0.0 0.0 -4.0763287E+003 0.0 0.0 -3.9214834E+003 0.0 0.0 -2.3742341E+003 0.0 0.0 -2.0609670E+003 0.0 0.0 -1.0132468E+003 0.0 0.0 -1.3741079E+002 0.0 0.0  7.6514976E+002 0.0 0.0  3.0398153E+002 0.0 0.0 -2.8675748E+002 0.0 0.0  5.0401049E+002 0.0 0.0 -4.0589974E+001 0.0 0.0  3.3207352E+001 0.0 0.0 -1.9313985E+000 0.0 0.0  6.1467594E-001 0.0 0.0 -2.2486737E-002 0.0 0.0  2.0403451E-002 0.0 0.0 -1.7374220E-003 0.0 0.0  3.1426470E-004 0.0 0.0  9.3990222E-003 0.0 0.0  3.1301239E-003 0.0 0.0 -2.7347568E-004 0.0 0.0 -1.2498337E-003 0.0 0.0 -3.8504467E-004 0.0 0.0  1.7429407E-005 0.0 0.0 -1.3243955E-006 0.0 0.0  4.4434451E-008 0.0 0.0 -1.2930790E-008 0.0 0.0  4.0610380E-010 0.0 0.0 -3.3200163E-011 0.0 0.0  1.6709888E-012 0.0 0.0  1.0985939E-013 0.0 0.0 -7.0531304E-013 0.0 0.0 -3.3193621E-013 0.0 0.0  3.8796570E-014 0.0 0.0  1.4330014E-012 0.0 0.0 -3.4620324E-012 0.0 0.0 -2.8890959E-012 0.0 0.0 -8.4850754E-013 0.0 0.0 -6.5525587E-012 0.0 0.0 -5.7740380E-012 0.0 0.0 -3.4819880E-014 0.0 0.0 -1.6417123E-013 0.0 0.0 -5.4217772E-015 0.0 0.0 -2.9549775E-014 0.0 0.0 -2.9387687E-014 0.0 0.0 -3.3391928E-014 0.0 0.0 -2.7603139E-015 0.0 0.0  3.4600269E-015 0.0 0.0 -3.4141137E-014 0.0 0.0  7.2633087E-014 0.0 0.0 -3.9441891E-014 0.0 0.0 -1.9888393E-014 0.0 0.0  5.3955513E-014 0.0 0.0 -1.9179762E-014 0.0 0.0 -3.2320781E-015 0.0 0.0 -9.9755570E-015 0.0 0.0  4.8330938E-014 0.0 0.0  5.1532174E-014 0.0 0.0 -1.6372502E-014 0.0 0.0 -1.6056153E-013 0.0 0.0  3.1322800E-014 0.0 0.0  1.0034936E-013 0.0 0.0 -2.1998856E-012 0.0 0.0  2.0143509E-010 0.0 0.0 -5.5768838E-009 0.0 0.0  1.6703707E-007 0.0 0.0  2.1556853E-006 0.0 0.0 -3.5720233E-005 0.0 0.0 -6.6470877E-005 0.0 0.0  1.5666877E-005 0.0 0.0 -4.5792696E-006 0.0 0.0  9.9343062E-007 0.0 0.0 -2.1215545E-007 0.0 0.0 -1.6604303E-007 0.0 0.0  1.3120231E-006 0.0 0.0 -4.1071905E-006 0.0 0.0  1.6055599E-005 0.0 0.0 -7.0899786E-005 0.0 0.0  3.4755943E-004 0.0 0.0 -4.6989062E-003 0.0 0.0  1.0975012E-002 0.0 0.0 -2.5889658E-001 0.0 0.0  2.4277062E+000 0.0 0.0 -2.0185711E+001 0.0 0.0  2.7488516E+002 0.0 0.0 -7.2580519E+003 0.0 0.0 -1.3742718E+004 0.0 0.0 -2.0504737E+004 0.0 0.0 -2.7772438E+004 0.0 0.0 -3.7402017E+004 0.0 0.0 -4.4129835E+004 0.0 0.0 -4.7364374E+004 0.0 0.0 -5.6248456E+004 0.0 0.0 -6.6196100E+004 0.0 0.0 -7.0551487E+004 0.0 0.0 -7.6754601E+004 0.0 0.0 -8.6330881E+004 0.0 0.0 -9.0313500E+004 0.0 0.0 -9.5213208E+004 0.0 0.0 -1.1283530E+005 0.0 0.0 -1.1077019E+005 0.0 0.0 -1.1793245E+005 0.0 0.0 -1.3332667E+005 0.0 0.0 -1.3693972E+005 0.0 0.0 -1.3279198E+005 0.0 0.0 -1.3338686E+005 0.0 0.0 -1.5544692E+005 0.0 0.0 -1.8564704E+005 0.0 0.0 -1.5818997E+005 0.0 0.0 -1.5634524E+005 0.0 0.0 -1.7229006E+005 0.0 0.0 -1.8151510E+005 0.0 0.0 -1.8543669E+005 0.0 0.0 -2.0880564E+005 0.0 0.0 -2.1368259E+005 0.0 0.0 -2.2299637E+005 0.0 0.0 -2.2120746E+005 0.0 0.0 -2.2513963E+005 0.0 0.0 -2.3351042E+005 0.0 0.0 -2.8724156E+005 0.0 0.0 -2.2739533E+005 0.0 0.0 -2.6361634E+005 0.0 0.0 -3.0160020E+005 0.0 0.0 -3.2363543E+005 0.0 0.0 -3.2704574E+005 0.0 0.0 -3.7629874E+005 0.0 0.0 -4.0501596E+005 0.0 0.0 -4.1102850E+005 0.0 0.0 -4.8695240E+005 0.0 0.0 -4.7696334E+005 0.0 0.0 -5.0021342E+005 0.0 0.0 -6.1616623E+005 0.0 0.0 -6.5382238E+005 0.0 0.0 -5.8160953E+005 0.0 0.0 -5.7716085E+005 0.0 0.0 -6.5063113E+005 0.0 0.0 -6.6608370E+005 0.0 0.0 -5.5363287E+005 0.0 0.0 -4.5111985E+005 0.0 0.0 -4.5640308E+005 0.0 0.0 -4.0504370E+005 0.0 0.0 -3.6897414E+005 0.0 0.0 -3.4175454E+005 0.0 0.0 -3.1820119E+005 0.0 0.0 -3.2408548E+005 0.0 0.0 -2.9884069E+005 0.0 0.0 -2.7049382E+005 0.0 0.0 -2.7531942E+005 0.0 0.0 -2.7327293E+005 0.0 0.0 -2.8270244E+005 0.0 0.0 -2.9945930E+005 0.0 0.0 -3.0195204E+005 0.0 0.0 -2.9141388E+005 0.0 0.0  1.0654010E+004 0.0 0.0  1.3009456E+004 0.0 0.0  1.4167424E+004 0.0 0.0  1.4047824E+004 0.0 0.0  1.1466124E+004 0.0 0.0  1.0192011E+004 0.0 0.0  8.5957159E+003 0.0 0.0  5.4424882E+003 0.0 0.0  2.7588418E+003 0.0 0.0  7.4384799E+002 0.0 0.0 -1.9401913E+002 0.0 0.0  4.0201595E+001 0.0 0.0 -8.5054215E+000 0.0 0.0  1.5550672E+001 0.0 0.0  2.9101388E+001 0.0 0.0  7.2786223E+001 0.0 0.0  1.7823292E+001 0.0 0.0  3.0123428E+001 0.0 0.0 -1.2999248E+001 0.0 0.0  4.7498175E+001 0.0 0.0  3.5530577E+001 0.0 0.0 -6.5168048E-001 0.0 0.0 -8.0676209E+002 0.0 0.0 -3.0726778E+003 0.0 0.0  7.4063554E+002 0.0 0.0 -1.6249625E+002 0.0 0.0  4.3619808E+001 0.0 0.0 -7.8867916E+000 0.0 0.0  7.9991932E+000 0.0 0.0  3.2626084E+001 0.0 0.0 -2.7632944E+000 0.0 0.0  7.3061417E+001 0.0 0.0 -7.2637050E+001 0.0 0.0  3.2848478E+002 0.0 0.0 -8.9989580E+002 0.0 0.0 -6.3949336E+003 0.0 0.0 -1.2952273E+004 0.0 0.0 -1.8875185E+004 0.0 0.0 -2.5298592E+004 0.0 0.0 -2.9147941E+004 0.0 0.0 -4.0404555E+004 0.0 0.0 -5.3760817E+004 0.0 0.0 -5.1483152E+004 0.0 0.0 -5.4257914E+004 0.0 0.0 -6.2447621E+004 0.0 0.0 -6.8246925E+004 0.0 0.0 -7.5683515E+004 0.0 0.0 -7.9472136E+004 0.0 0.0 -9.4248058E+004 0.0 0.0 -1.0104847E+005 0.0 0.0 -9.3850974E+004 0.0 0.0 -9.6992002E+004 0.0 0.0 -1.0016013E+005 0.0 0.0 -1.0483231E+005 0.0 0.0 -1.0444685E+005 0.0 0.0 -1.1421187E+005 0.0 0.0 -1.1095287E+005 0.0 0.0 -8.8970733E+004 0.0 0.0  1.6150245E+004 0.0 0.0  4.6216736E+003 0.0 0.0  6.4249595E+003 0.0 0.0  7.3484613E+003 0.0 0.0  8.0117620E+003 0.0 0.0  1.6834850E+002 0.0 0.0  6.2158543E+002 0.0 0.0  1.1332483E+002 0.0 0.0  4.1728326E+002 0.0 0.0  5.8947648E+002 0.0 0.0  7.1374843E+002 0.0 0.0  6.8447068E+002 0.0 0.0  7.1661193E+002 0.0 0.0  8.1591243E+002 0.0 0.0  8.1400493E+002 0.0 0.0  8.2028062E+002 0.0 0.0  7.6010581E+002 0.0 0.0  6.7677431E+002 0.0 0.0  7.0620507E+002 0.0 0.0  7.3101209E+002 0.0 0.0  7.6871329E+002 0.0 0.0  7.7495527E+002 0.0 0.0  7.9209201E+002 0.0 0.0  7.4547073E+002 0.0 0.0  7.4944243E+002 0.0 0.0  7.5111792E+002 0.0 0.0  7.8419852E+002 0.0 0.0  8.3301322E+002 0.0 0.0  9.3060981E+002 0.0 0.0  9.4221707E+002 0.0 0.0  9.1315657E+002 0.0 0.0  8.6250849E+002 0.0 0.0  8.6622472E+002 0.0 0.0  8.7122583E+002 0.0 0.0  8.9949061E+002 0.0 0.0  9.0538190E+002 0.0 0.0  9.4827434E+002 0.0 0.0  1.0123289E+003 0.0 0.0  1.0735960E+003 0.0 0.0  1.0720627E+003 0.0 0.0  1.1007066E+003 0.0 0.0  1.0360783E+003 0.0 0.0  1.0420661E+003 0.0 0.0  1.0469240E+003 0.0 0.0  1.0965042E+003 0.0 0.0  1.1723360E+003 0.0 0.0  1.2416182E+003 0.0 0.0  1.2326384E+003 0.0 0.0  1.2888241E+003 0.0 0.0  1.2783577E+003 0.0 0.0  1.3281208E+003 0.0 0.0  1.3170652E+003 0.0 0.0  1.3517385E+003 0.0 0.0  1.2649384E+003 0.0 0.0  1.2862652E+003 0.0 0.0  1.3592893E+003 0.0 0.0  1.4462736E+003 0.0 0.0  1.4313421E+003 0.0 0.0  1.4633854E+003 0.0 0.0  1.3567156E+003 0.0 0.0  1.3869926E+003 0.0 0.0  1.4706406E+003 0.0 0.0  1.5496748E+003 0.0 0.0  1.5159692E+003 0.0 0.0  1.5572361E+003 0.0 0.0  1.4432174E+003 0.0 0.0  1.4587501E+003 0.0 0.0  1.5281243E+003 0.0 0.0  1.6202765E+003 0.0 0.0  1.5730872E+003 0.0 0.0  1.5981920E+003 0.0 0.0  1.4632157E+003 0.0 0.0  1.4752455E+003 0.0 0.0  1.5279652E+003 0.0 0.0  1.6022327E+003 0.0 0.0  1.5270967E+003 0.0 0.0  1.5264080E+003 0.0 0.0  1.3706185E+003 0.0 0.0  1.3567686E+003 0.0 0.0  1.3833801E+003 0.0 0.0  1.4065531E+003 0.0 0.0  1.3280391E+003 0.0 0.0  1.2663977E+003 0.0 0.0  1.1116882E+003 0.0 0.0  1.0575470E+003 0.0 0.0  1.0382645E+003 0.0 0.0  9.8983794E+002 0.0 0.0  8.7854328E+002 0.0 0.0  7.7082077E+002 0.0 0.0  6.2078337E+002 0.0 0.0  4.2361974E+002 0.0 0.0  2.7792123E+002 0.0 0.0  1.3735966E+002 0.0 0.0  4.2658607E+001 0.0 0.0  3.3173196E+001 0.0 0.0  6.2109667E+000 0.0 0.0  1.4842785E+001 0.0 0.0 -3.0981703E+001 0.0 0.0  1.3864493E+002 0.0 0.0 -3.2853231E+003 0.0 0.0  6.0109948E+002 0.0 0.0 -1.5679054E+002 0.0 0.0 -3.4625503E+005 0.0 0.0 -2.0868764E+005 0.0 0.0 -2.6243005E+005 0.0 0.0  4.3105521E+003 0.0 0.0 -1.5876781E+005 0.0 0.0 -4.9115066E+005 0.0 0.0  5.4571654E+003 0.0 0.0  7.7830882E+003 0.0 0.0 -9.6973289E+002 0.0 0.0  8.4264318E+001 0.0 0.0 -4.6688714E+005 0.0 0.0  1.0918723E+004 0.0 0.0 -3.8219392E+005 0.0 0.0 -4.4957388E+004 0.0 0.0 -1.0732301E+005 0.0 0.0 -6.8781695E+005 0.0 0.0  1.0327882E+003 0.0 0.0 -6.6439987E+005 0.0 0.0 -4.0904768E+005 0.0 0.0  2.1567915E+003 0.0 0.0 -7.5070004E+004 0.0 0.0 -1.1703052E+005 0.0 0.0 -1.1931419E+003 0.0 0.0 -3.0162023E+005 0.0 0.0  7.3545428E+003 0.0 0.0 -2.2758753E+005 0.0 0.0  5.3761084E+003 0.0 0.0 -3.2804039E+003 0.0 0.0 -9.0093923E+005 0.0 0.0  1.5817765E+003 0.0 0.0 -2.8676963E+005 0.0 0.0 -8.9590151E+005 0.0 0.0 -3.9839409E+004 0.0 0.0  1.0277507E+004 0.0 0.0  8.5891512E+002 0.0 0.0 -5.5093914E+005 0.0 0.0  1.0770043E+004 0.0 0.0 -4.1729850E+005 0.0 0.0 -4.2785164E+005 0.0 0.0 -1.3124978E+004 0.0 0.0 -5.7682659E+005 0.0 0.0 -1.3034345E+005 0.0 0.0 -1.6815842E+005 0.0 0.0  2.6520589E+003 0.0 0.0 -4.4454888E+005 0.0 0.0 -3.6906690E+005 0.0 0.0 -2.8269328E+005 0.0 0.0  3.1964697E+003 0.0 0.0 -9.0374529E+003 0.0 0.0  1.2596266E+003 0.0 0.0 -1.0873610E+006 0.0 0.0 -4.3900159E+005 0.0 0.0 -1.7075668E+004 0.0 0.0  1.9728264E+003 0.0 0.0  3.5929392E+003 0.0 0.0 -3.3481837E+002 0.0 0.0  2.4478646E+003 0.0 0.0  6.2194793E+003 0.0 0.0  6.5714039E+003 0.0 0.0 -1.3523113E+003 0.0 0.0  3.1817722E+003 0.0 0.0  9.8311750E+003 0.0 0.0  7.7684475E+003 0.0 0.0  1.3288847E+004 0.0 0.0  1.2580172E+004 0.0 0.0  2.5106408E+003 0.0 0.0  9.0250349E+003 0.0 0.0  1.7259112E+004 0.0 0.0  1.7849814E+004 0.0 0.0  1.3377981E+002 0.0 0.0  1.1000711E+004 0.0 0.0  2.4193554E+004 0.0 0.0  2.1488714E+004 0.0 0.0  3.2283504E+004 0.0 0.0  3.3004746E+004 0.0 0.0  1.3818269E+004 0.0 0.0  2.9525956E+004 0.0 0.0  4.4574712E+004 0.0 0.0  4.5539315E+004 0.0 0.0  5.6208085E+004 0.0 0.0  6.2908827E+004 0.0 0.0  4.1457827E+004 0.0 0.0  6.1206247E+004 0.0 0.0  8.0124383E+004 0.0 0.0  8.8818079E+004 0.0 0.0  5.8768946E+004 0.0 0.0  9.0167225E+004 0.0 0.0  1.1339082E+005 0.0 0.0  1.1865882E+005 0.0 0.0  1.3306414E+005 0.0 0.0  1.4131678E+005 0.0 0.0  1.0900514E+005 0.0 0.0  1.3196280E+005 0.0 0.0  1.5394634E+005 0.0 0.0  1.4048210E+005 0.0 0.0  9.5193186E+004 0.0 0.0  9.5500860E+004 0.0 0.0  1.2669698E+005 0.0 0.0 -2.6144878E+003 0.0 0.0 -1.8310375E+004 0.0 0.0  4.1345071E+004 0.0 0.0  2.0220640E+004 0.0 0.0  1.1521486E+004 0.0 0.0 -9.1604131E+003 0.0 0.0  8.1764140E+003 0.0 0.0  2.5046487E+004 0.0 0.0 -1.2318627E+004 0.0 0.0  2.8059701E+004 0.0 0.0  1.2411885E+004 0.0 0.0  1.4531934E+004 0.0 0.0 -7.3626502E+004 0.0 0.0  1.1636935E+005 0.0 0.0  1.2654798E+005 0.0 0.0  3.1368004E+004 0.0 0.0 -1.0292700E+005 0.0 0.0 -3.7680082E+004 0.0 0.0 -4.3639262E+004 0.0 0.0 -5.9624898E+004 0.0 0.0 -1.9974510E+005 0.0 0.0 -2.4883393E+004 0.0 0.0 -2.3783641E+004 0.0 0.0  1.2298278E+004 0.0 0.0 -6.6495545E+004 0.0 0.0  2.5729162E+004 0.0 0.0 -2.8057827E+004 0.0 0.0  1.3335528E+004 0.0 0.0 -2.4038487E+005 0.0 0.0 -3.4358165E+005 0.0 0.0 -1.8805271E+005 0.0 0.0  1.0516262E+005 0.0 0.0  2.6201182E+004 0.0 0.0 -1.5619149E+004 0.0 0.0 -2.6957196E+004 0.0 0.0  1.0670129E+005 0.0 0.0 -8.9643730E+004 0.0 0.0 -7.5353748E+004 0.0 0.0  4.7843502E+004 0.0 0.0  5.4874375E+004 0.0 0.0  4.3612017E+004 0.0 0.0  4.6513143E+004 0.0 0.0  9.8158336E+004 0.0 0.0 -4.0118282E+005 0.0 0.0 -1.0558638E+005 0.0 0.0 -7.6387337E+004 0.0 0.0  2.3927392E+004 0.0 0.0  2.0255100E+004 0.0 0.0  1.9676928E+004 0.0 0.0  1.5612468E+004 0.0 0.0 -4.1180127E+004 0.0 0.0 -3.8794958E+004 0.0 0.0  1.0972669E+004 0.0 0.0 -2.6413381E+004 0.0 0.0 -9.1445447E+004 0.0 0.0 -3.2081242E+005 0.0 0.0 -5.7985087E+004 0.0 0.0  8.3275083E+004 0.0 0.0  7.9602863E+004 0.0 0.0  5.8786150E+004 0.0 0.0  4.7333785E+004 0.0 0.0 -1.0093109E+005 0.0 0.0 -7.0075194E+004 0.0 0.0  1.0395409E+004 0.0 0.0  9.3707816E+003 0.0 0.0  1.3299722E+004 0.0 0.0  1.2629588E+005 0.0 0.0 -5.0787256E+005 0.0 0.0  1.0120424E+005 0.0 0.0  1.2012722E+005 0.0 0.0 -1.2091306E+005 0.0 0.0 -1.2600409E+005 0.0 0.0 -4.7260315E+005 0.0 0.0 -1.5217719E+005 0.0 0.0 -1.3841707E+005 0.0 0.0 -4.5360392E+004 0.0 0.0 -1.0197467E+005 0.0 0.0  3.4328369E+004 0.0 0.0  3.3165403E+004 0.0 0.0  8.8982410E+004 0.0 0.0  1.0631234E+005 0.0 0.0 -1.6786827E+004 0.0 0.0 -2.5668184E+004 0.0 0.0 -1.2085341E+005 0.0 0.0 -9.2381097E+004 0.0 0.0 -5.3989427E+004 0.0 0.0 -6.8809011E+004 0.0 0.0 -1.0654177E+005 0.0 0.0 -8.2208485E+004 0.0 0.0 -1.0753299E+005 0.0 0.0  8.8628684E+003 0.0 0.0  7.9019427E+003 0.0 0.0  9.2418899E+003 0.0 0.0  7.5121532E+003 0.0 0.0  6.5783204E+003 0.0 0.0  6.6417409E+003 0.0 0.0  5.2863229E+003 0.0 0.0  1.5196875E+004 0.0 0.0  1.5454596E+004 0.0 0.0 -6.1318709E+004 0.0 0.0  1.8339246E+004 0.0 0.0  5.1313766E+003 0.0 0.0 -1.8329190E+004 0.0 0.0 -7.5986472E+004 0.0 0.0 -1.6952293E+005 0.0 0.0 -1.4967681E+005 0.0 0.0 -5.8087063E+004 0.0 0.0 -5.6889993E+004 0.0 0.0 -3.6550290E+004 0.0 0.0 -5.4542036E+004 0.0 0.0 -5.9269039E+004 0.0 0.0 -3.2455476E+004 0.0 0.0 -5.0091636E+004 0.0 0.0 -7.6838364E+004 0.0 0.0  1.1186376E+004 0.0 0.0 -2.6723428E+004 0.0 0.0  6.2507534E+004 0.0 0.0  6.1465658E+004 0.0 0.0  7.2607039E+004 0.0 0.0 -3.8062694E+004 0.0 0.0 -1.8182479E+005 0.0 0.0  1.4174731E+004 0.0 0.0 -1.6037093E+005 0.0 0.0 -4.9885805E+004 0.0 0.0  7.9943020E+004 0.0 0.0  9.9326414E+003 0.0 0.0 -5.7060722E+005 0.0 0.0 -6.7878723E+005 0.0 0.0 -7.1243533E+004 0.0 0.0  3.3766459E+004 0.0 0.0  1.3433179E+005 0.0 0.0  1.1909791E+005 0.0 0.0  8.2481348E+004 0.0 0.0  9.1486429E+004 0.0 0.0  1.2721959E+005 0.0 0.0  8.9659060E+004 0.0 0.0  5.1492134E+004 0.0 0.0  4.0986479E+004 0.0 0.0  7.1151149E+004 0.0 0.0  1.2476904E+004 0.0 0.0  3.5882364E+004 0.0 0.0 -4.8090803E+004 0.0 0.0 -2.8451805E+004 0.0 0.0 -6.6290806E+004 0.0 0.0 -1.3189150E+005 0.0 0.0 -1.5467652E+005 0.0 0.0 -1.0605520E+005 0.0 0.0  3.1763299E+002 0.0 0.0  4.2187840E+004 0.0 0.0 -3.3958549E+004 0.0 0.0 -1.1647900E+005 0.0 0.0 -1.3518777E+005 0.0 0.0  1.9854875E+003 0.0 0.0 -1.1986940E+005 0.0 0.0  6.0934414E+004 0.0 0.0 -7.8004369E+004 0.0 0.0 -2.2597844E+005 0.0 0.0 -2.1282896E+005 0.0 0.0  6.4599005E+003 0.0 0.0  9.2080721E+003 0.0 0.0 -1.8834930E+005 0.0 0.0 -1.5705085E+004 0.0 0.0 -9.7017000E+003 0.0 0.0 -2.2709157E+004 0.0 0.0 -1.5372371E+005 0.0 0.0  2.3598878E+004 0.0 0.0  2.3904479E+004 0.0 0.0 -1.5334884E+005 0.0 0.0 -2.4958628E+005 0.0 0.0 -2.3371156E+005 0.0 0.0 -1.3679769E+005 0.0 0.0 -2.2733255E+005 0.0 0.0 -1.3476516E+005 0.0 0.0 -2.3365372E+005 0.0 0.0  2.9831785E+004 0.0 0.0 -2.5005311E+005 0.0 0.0 -1.6821574E+005 0.0 0.0 -1.8087817E+005 0.0 0.0 -1.0048468E+005 0.0 0.0  1.7195429E+004 0.0 0.0 -2.0722461E+004 0.0 0.0  1.2500613E+004 0.0 0.0 -2.2251843E+005 0.0 0.0 -1.0626072E+005 0.0 0.0  3.8424727E+003 0.0 0.0  3.9096980E+003 0.0 0.0  4.4274189E+004 0.0 0.0  4.4090192E+004 0.0 0.0  2.3460818E+004 0.0 0.0 -3.3095620E+005 0.0 0.0 -3.5932813E+005 0.0 0.0  4.5661900E+003 0.0 0.0 -2.3585755E+005 0.0 0.0 -2.0772066E+005 0.0 0.0 -2.5041258E+005 0.0 0.0 -1.7115373E+005 0.0 0.0 -2.9526184E+005 0.0 0.0 -2.2763378E+005 0.0 0.0  9.0229949E+003 0.0 0.0 -1.6533463E+005 0.0 0.0 -1.4722242E+005 0.0 0.0  1.9903373E+003 0.0 0.0 -7.0593418E+003 0.0 0.0 -1.0652085E+004 0.0 0.0 -1.3401882E+004 0.0 0.0  1.2688017E+004 0.0 0.0  1.5745835E+004 0.0 0.0 -8.0750104E+004 0.0 0.0 -3.3380321E+005 0.0 0.0 -9.7733632E+004 0.0 0.0 -8.2858114E+004 0.0 0.0  4.0452727E+004 0.0 0.0 -2.7405122E+005 0.0 0.0 -1.9716043E+005 0.0 0.0 -2.9246781E+005 0.0 0.0 -1.3044403E+005 0.0 0.0 -2.5757154E+004 0.0 0.0  1.9828748E+004 0.0 0.0  1.2193127E+004 0.0 0.0  1.8265817E+004 0.0 0.0  8.3460381E+003 0.0 0.0 -1.3688288E+005 0.0 0.0  9.9138702E+004 0.0 0.0 -8.1204961E+004 0.0 0.0 -7.5023640E+004 0.0 0.0 -5.6568563E+004 0.0 0.0  2.4236222E+004 0.0 0.0  7.0238524E+004 0.0 0.0  5.0286357E+004 0.0 0.0 -3.4068306E+004 0.0 0.0 -4.8669195E+004 0.0 0.0  7.9851021E+003 0.0 0.0  7.9934348E+003 0.0 0.0  9.2079056E+003 0.0 0.0  1.1212209E+004 0.0 0.0 -2.2771428E+003 0.0 0.0 -2.3238870E+005 0.0 0.0  7.2096092E+003 0.0 0.0  3.7340382E+004 0.0 0.0  5.0435921E+004 0.0 0.0  3.7265219E+004 0.0 0.0  6.3813876E+004 0.0 0.0 -1.4211727E+005 0.0 0.0 -2.1047181E+005 0.0 0.0  7.9190133E+003 0.0 0.0  5.9677846E+003 0.0 0.0 -4.8323736E+005 0.0 0.0 -6.4021243E+005 0.0 0.0 -4.2955070E+005 0.0 0.0 -4.9171919E+004 0.0 0.0  3.4842562E+004 0.0 0.0  3.2399831E+004 0.0 0.0  1.0628839E+004 0.0 0.0  1.6723997E+004 0.0 0.0  8.0682007E+004 0.0 0.0  5.7143776E+004 0.0 0.0  2.4096886E+004 0.0 0.0 -1.6032738E+005 0.0 0.0 -1.4607487E+005 0.0 0.0 -3.2237844E+005 0.0 0.0 -4.6086055E+005 0.0 0.0 -6.0065403E+005 0.0 0.0 -3.3352622E+005 0.0 0.0 -4.8083938E+005 0.0 0.0 -1.1416162E+005 0.0 0.0  1.4656261E+005 0.0 0.0  6.3664491E+003 0.0 0.0  5.4218323E+003 0.0 0.0  6.1139203E+003 0.0 0.0  5.9887389E+004 0.0 0.0 -1.1199804E+005 0.0 0.0 -6.2677298E+005 0.0 0.0 -8.5729062E+004 0.0 0.0 -1.5223099E+005 0.0 0.0 -1.9993411E+005 0.0 0.0 -3.4870914E+005 0.0 0.0  6.8000833E+004 0.0 0.0 -3.5226350E+005 0.0 0.0 -8.2333038E+005 0.0 0.0 -8.6584612E+005 0.0 0.0  4.4732692E+003 0.0 0.0 -4.0616105E+004 0.0 0.0 -3.2624081E+005 0.0 0.0 -4.7854354E+003 0.0 0.0 -8.7711397E+004 0.0 0.0  3.9458961E+004 0.0 0.0  1.5881097E+004 0.0 0.0  8.3029777E+003 0.0 0.0  6.0055201E+003 0.0 0.0 -3.5048269E+005 0.0 0.0 -2.8794574E+005 0.0 0.0 -6.6006338E+004 0.0 0.0 -3.4496933E+004 0.0 0.0  7.1910319E+003 0.0 0.0  7.1967152E+004 0.0 0.0 -2.0409407E+005 0.0 0.0 -2.3966533E+005 0.0 0.0 -1.5603350E+005 0.0 0.0 -1.8493758E+004 0.0 0.0  4.8123658E+004 0.0 0.0  5.9833568E+004 0.0 0.0  1.1531060E+003 0.0 0.0 -3.6718601E+005 0.0 0.0 -4.0218138E+005 0.0 0.0 -1.8119494E+005 0.0 0.0 -3.1018214E+005 0.0 0.0 -2.2017539E+005 0.0 0.0 -8.0606350E+002 0.0 0.0 -2.4735287E+003 0.0 0.0  2.3111074E+003 0.0 0.0  1.0691431E+003 0.0 0.0  2.4914841E+003 0.0 0.0  1.5094363E+005 0.0 0.0  1.2603458E+005 0.0 0.0 -1.0286918E+005 0.0 0.0 -3.3416168E+004 0.0 0.0 -1.3812538E+004 0.0 0.0  1.3719841E+003 0.0 0.0  1.9010152E+004 0.0 0.0  1.7650263E+004 0.0 0.0  2.6698944E+004 0.0 0.0 -7.4014577E+005 0.0 0.0 -6.8731279E+005 0.0 0.0 -7.4698479E+005 0.0 0.0 -9.1501358E+005 0.0 0.0  8.0473152E+004 0.0 0.0 -2.2897013E+005 0.0 0.0 -2.5084413E+005 0.0 0.0 -2.4289256E+005 0.0 0.0 -1.8851916E+005 0.0 0.0 -1.9714807E+005 0.0 0.0  7.0252660E+004 0.0 0.0 -7.1295699E+005 0.0 0.0  1.2527401E+004 0.0 0.0  9.1140792E+003 0.0 0.0  1.2838259E+004 0.0 0.0 -2.6260962E+004 0.0 0.0 -4.8669159E+004 0.0 0.0 -9.8337316E+005 0.0 0.0  1.1362522E+003 0.0 0.0  3.1025735E+003 0.0 0.0  1.9550106E+003 0.0 0.0  1.2311309E+004 0.0 0.0 -3.6489366E+005 0.0 0.0 -3.6999233E+005 0.0 0.0 -3.0524127E+005 0.0 0.0 -4.5430793E+005 0.0 0.0 -2.4007148E+002 0.0 0.0 -1.0801114E+004 0.0 0.0 -5.5118233E+005 0.0 0.0 -5.4328247E+005 0.0 0.0 -5.6966615E+004 0.0 0.0 -4.8434731E+005 0.0 0.0 -1.0513698E+005 0.0 0.0 -4.1464808E+005 0.0 0.0 -1.2651989E+005 0.0 0.0 -1.4965790E+005 0.0 0.0 -3.1965750E+005 0.0 0.0 -3.2058080E+005 0.0 0.0 -1.9962423E+005 0.0 0.0 -3.2551617E+005 0.0 0.0 -2.6597184E+005 0.0 0.0 -2.8952921E+005 0.0 0.0 -5.7637426E+003 0.0 0.0  3.1424881E+004 0.0 0.0 -7.2050859E+003 0.0 0.0  1.4257229E+005 0.0 0.0 -2.9253911E+004 0.0 0.0 -3.3668877E+005 0.0 0.0  1.0852854E+004 0.0 0.0  1.9406495E+004 0.0 0.0  9.9166604E+003 0.0 0.0  2.6903955E+004 0.0 0.0 -5.5785228E+003 0.0 0.0 -6.1065539E+004 0.0 0.0  6.6330005E+003 0.0 0.0  2.1650300E+004 0.0 0.0 -6.7615676E+005 0.0 0.0  8.7484048E+004 0.0 0.0  2.1714295E+004 0.0 0.0 -3.3824075E+005 0.0 0.0 -4.5033291E+005 0.0 0.0 -2.4407121E+005 0.0 0.0 -9.2828131E+004 0.0 0.0  2.8035009E+004 0.0 0.0  9.5413100E+003 0.0 0.0 -4.6494307E+003 0.0 0.0 -3.6803402E+004 0.0 0.0 -7.9309965E+000 0.0 0.0  1.3987726E+005 0.0 0.0 -5.6990451E+005 0.0 0.0 -1.0856877E+006 0.0 0.0 -8.4623046E+003 0.0 0.0  3.9518635E+003 0.0 0.0  5.8902666E+003 0.0 0.0 -6.4101159E+004 0.0 0.0 -7.6665403E+004 0.0 0.0 -2.9661912E+005 0.0 0.0  3.4081301E+003 0.0 0.0  4.5181120E+004 0.0 0.0  3.5820631E+004 0.0 0.0 -2.0067755E+005 0.0 0.0 -5.5604041E+004 0.0 0.0  7.9970732E+003 0.0 0.0  9.1635922E+003 0.0 0.0 -5.4494010E+004 0.0 0.0  7.9212874E+003 0.0 0.0 -2.2107341E+005 0.0 0.0  2.5338154E+003 0.0 0.0 -2.2871212E+004 0.0 0.0  2.9974880E+004 0.0 0.0 -3.8764478E+003 0.0 0.0  1.3010008E+003 0.0 0.0 -1.2880618E+005 0.0 0.0  2.5558551E+003 0.0 0.0  8.8350534E+004 0.0 0.0  5.0027681E+004 0.0 0.0 -1.3502455E+004 0.0 0.0 -2.9713255E+005 0.0 0.0 -4.3349231E+004 0.0 0.0  6.1320665E+003 0.0 0.0  1.5070840E+005 0.0 0.0 -9.4321728E+004 0.0 0.0 -1.7544873E+004 0.0 0.0  9.4060761E+003 0.0 0.0  3.8709415E+004 0.0 0.0 -5.7796835E+005 0.0 0.0 -3.7769613E+004 0.0 0.0  9.1563008E+004 0.0 0.0 -3.1109584E+005 0.0 0.0  1.3182354E+004 0.0 0.0 -2.1568533E+005 0.0 0.0  8.3787815E+003 0.0 0.0  1.7025855E+002 0.0 0.0 -1.7045125E+005 0.0 0.0  3.5034571E+004 0.0 0.0  3.8025643E+003 0.0 0.0 -1.4785531E+005 0.0 0.0 -7.4083787E+004 0.0 0.0 -2.6653236E+005 0.0 0.0 -4.0570212E+005 0.0 0.0 -5.2189947E+004 0.0 0.0 -7.9868276E+003 0.0 0.0 -2.2284493E+004 0.0 0.0 -1.2204692E+005 0.0 0.0 -1.3532890E+005 0.0 0.0 -6.6003586E+005 0.0 0.0  3.5174442E+003 0.0 0.0 -3.6756951E+004 0.0 0.0 -2.3926913E+004 0.0 0.0  1.4796604E+004 0.0 0.0  9.5256345E+003 0.0 0.0  1.7528994E+004 0.0 0.0  5.8727700E+003 0.0 0.0 -5.3946128E+005 0.0 0.0  3.3694075E+004 0.0 0.0  5.2972614E+003 0.0 0.0  2.3872189E+003 0.0 0.0 -2.7985799E+005 0.0 0.0 -4.8136763E+005 0.0 0.0 -4.1474733E+005 0.0 0.0 -3.5886861E+005 0.0 0.0 -1.5058209E+005 0.0 0.0 -2.0559354E+005 0.0 0.0 -4.0239624E+005 0.0 0.0  9.6549423E+003 0.0 0.0 -1.1083342E+005 0.0 0.0  5.7359238E+004 0.0 0.0 -9.5541138E+005 0.0 0.0 -4.1952653E+005 0.0 0.0 -4.5988058E+005 0.0 0.0  2.6180058E+004 0.0 0.0  1.2645433E+004 0.0 0.0  2.0890839E+004 0.0 0.0 -1.8245119E+005 0.0 0.0  9.8162476E+003 0.0 0.0 -5.0837158E+004 0.0 0.0 -2.1141545E+005 0.0 0.0 -9.9882408E+003 0.0 0.0 -4.0543123E+003 0.0 0.0 -2.5353051E+005 0.0 0.0  2.9455532E+004 0.0 0.0  5.5877652E+003 0.0 0.0 -2.9791077E+005 0.0 0.0 -2.0242956E+005 0.0 0.0 -2.4852988E+005 0.0 0.0 -1.7274445E+005 0.0 0.0 -3.9127981E+004 0.0 0.0  7.5927896E+003 0.0 0.0  8.2747459E+003 0.0 0.0 -1.5445777E+005 0.0 0.0 -1.7774362E+004 0.0 0.0  1.5278648E+004 0.0 0.0  6.8775082E+004 0.0 0.0 -2.9436466E+005 0.0 0.0 -7.0050595E+005 0.0 0.0 -3.4062195E+005 0.0 0.0 -2.0199548E+005 0.0 0.0  1.7928368E+003 0.0 0.0  6.3284926E+003 0.0 0.0 -2.3109003E+005 0.0 0.0 -1.9755249E+004 0.0 0.0  5.5528462E+003 0.0 0.0 -6.6366101E+004 0.0 0.0 -6.7442794E+003 0.0 0.0  2.5538120E+003 0.0 0.0  3.4979412E+004 0.0 0.0 -9.6705200E+004 0.0 0.0 -8.7222615E+005 0.0 0.0 -1.8517945E+005 0.0 0.0 -1.3672353E+005 0.0 0.0 -1.5035741E+004 0.0 0.0  1.0625758E+005 0.0 0.0 -1.9274436E+005 0.0 0.0 -3.3006785E+005 0.0 0.0 -4.7083321E+004 0.0 0.0  2.1550265E+004 0.0 0.0  7.9216872E+003 0.0 0.0  5.4912538E+004 0.0 0.0  1.0545575E+004 0.0 0.0 -1.3598336E+005 0.0 0.0 -1.2337927E+005 0.0 0.0 -2.9260415E+005 0.0 0.0 -4.4908702E+004 0.0 0.0 -5.9401214E+004 0.0 0.0 -2.4294661E+004 0.0 0.0 -9.7105814E+004 0.0 0.0 -2.2688399E+005 0.0 0.0 -5.6421319E+004 0.0 0.0 -3.9228100E+004 0.0 0.0 -3.9136068E+004 0.0 0.0 -9.6573703E+003 0.0 0.0 -1.3037562E+004 0.0 0.0 -1.6871458E+004 0.0 0.0 -2.1251940E+004 0.0 0.0 -3.2427044E+004 0.0 0.0 -3.0402036E+004 0.0 0.0 -4.6972069E+004 0.0 0.0 -2.9997353E+004 0.0 0.0 -3.4880260E+004 0.0 0.0 -6.5446294E+004 0.0 0.0 -7.6006521E+003 0.0 0.0 -1.0046684E+005 0.0 0.0 -1.9486289E+005 0.0 0.0 -4.6452432E+003 0.0 0.0 -5.4351745E+003 0.0 0.0 -3.3894356E+004 0.0 0.0 -1.8611504E+005 0.0 0.0 -7.0358814E+004 0.0 0.0 -7.0374587E+004 0.0 0.0 -1.8455376E+003 0.0 0.0 -1.2022670E+005 0.0 0.0 -1.6232620E+005 0.0 0.0 -2.2311978E+005 0.0 0.0 -1.0843905E+005 0.0 0.0 -4.2660951E+004 0.0 0.0 -2.1594309E+003 0.0 0.0 -5.4791817E+004 0.0 0.0 -1.5768883E+005 0.0 0.0 -3.6462835E+004 0.0 0.0 -1.0949167E+003 0.0 0.0 -2.0249036E+005 0.0 0.0 -6.8018104E+004 0.0 0.0 -1.3722756E+005 0.0 0.0 -2.2266392E+005 0.0 0.0 -3.1442372E+004 0.0 0.0 -4.8926731E+004 0.0 0.0 -5.1147513E+004 0.0 0.0 -3.0916036E+004 0.0 0.0 -3.4069294E+004 0.0 0.0 -5.6178125E+003 0.0 0.0 -3.6249627E+004 0.0 0.0 -8.1598370E+003 0.0 0.0 -1.0601083E+004 0.0 0.0 -2.3239489E+004 0.0 0.0 -1.6776890E+004 0.0 0.0 -1.8658202E+004 0.0 0.0 -1.2938242E+005 0.0 0.0 -7.7097033E+002 0.0 0.0 -1.7669176E+004 0.0 0.0 -1.3138694E+005 0.0 0.0 -2.0615980E+005 0.0 0.0 -4.1746122E+004 0.0 0.0 -1.0881065E+003 0.0 0.0 -4.3826991E+004 0.0 0.0 -5.2232237E+004 0.0 0.0 -5.8064639E+004 0.0 0.0 -5.5702392E+004 0.0 0.0 -4.9933126E+004 0.0 0.0 -5.2964684E+004 0.0 0.0 -5.8894313E+004 0.0 0.0 -5.5516991E+004 0.0 0.0 -6.2705296E+004 0.0 0.0 -5.9206429E+004 0.0 0.0 -6.7376792E+004 0.0 0.0 -6.4962241E+004 0.0 0.0 -7.3337377E+004 0.0 0.0 -7.0389170E+004 0.0 0.0 -8.0337299E+004 0.0 0.0 -7.8741109E+004 0.0 0.0 -8.9065400E+004 0.0 0.0 -8.8254951E+004 0.0 0.0 -9.9323209E+004 0.0 0.0 -9.9346313E+004 0.0 0.0 -1.1097668E+005 0.0 0.0 -1.1330769E+005 0.0 0.0 -1.2552573E+005 0.0 0.0 -1.2726957E+005 0.0 0.0 -1.4174113E+005 0.0 0.0 -1.3829321E+005 0.0 0.0 -1.5622170E+005 0.0 0.0 -1.5194809E+005 0.0 0.0 -1.6969774E+005 0.0 0.0 -1.6434914E+005 0.0 0.0 -1.8184280E+005 0.0 0.0 -1.7486276E+005 0.0 0.0 -1.9172014E+005 0.0 0.0 -1.1315769E+005 0.0 0.0 -1.2747718E+005 0.0 0.0 -1.1472399E+005 0.0 0.0 -1.2795645E+005 0.0 0.0 -1.1851278E+005 0.0 0.0 -1.2894801E+005 0.0 0.0 -1.1945811E+005 0.0 0.0 -1.3784860E+005 0.0 0.0 -1.3031209E+005 0.0 0.0 -1.1946831E+005 0.0 0.0 -8.1873537E+004 0.0 0.0 -1.8363093E+005 0.0 0.0 -1.0389070E+005 0.0 0.0 -1.0907555E+005 0.0 0.0 -1.0865192E+005 0.0 0.0 -7.5675250E+004 0.0 0.0 -1.1931282E+005 0.0 0.0 -1.0976123E+005 0.0 0.0 -1.0027882E+005 0.0 0.0 -1.0085471E+005 0.0 0.0 -9.2456128E+004 0.0 0.0 -9.1180542E+004 0.0 0.0 -1.0104119E+005 0.0 0.0 -9.2207989E+004 0.0 0.0 -8.3007436E+004 0.0 0.0 -8.3611472E+004 0.0 0.0 -7.5431563E+004 0.0 0.0 -7.4295342E+004 0.0 0.0 -8.3587228E+004 0.0 0.0 -7.5360741E+004 0.0 0.0 -1.0144300E+005 0.0 0.0 -6.6676568E+004 0.0 0.0 -6.7435010E+004 0.0 0.0 -7.5624951E+004 0.0 0.0 -6.5899568E+004 0.0 0.0 -7.4903912E+004 0.0 0.0 -6.5988745E+004 0.0 0.0 -5.7990923E+004 0.0 0.0 -5.7720612E+004 0.0 0.0 -5.0802237E+004 0.0 0.0 -5.0441416E+004 0.0 0.0 -1.9931788E+005 0.0 0.0 -9.1403654E+004 0.0 0.0 -5.9157146E+004 0.0 0.0 -5.9975016E+004 0.0 0.0 -5.7094247E+004 0.0 0.0 -4.9622946E+004 0.0 0.0 -7.5188008E+004 0.0 0.0 -4.3228446E+004 0.0 0.0 -4.2658945E+004 0.0 0.0 -4.8294361E+004 0.0 0.0 -4.1262240E+004 0.0 0.0 -4.6270119E+004 0.0 0.0 -3.9323575E+004 0.0 0.0 -3.5206941E+004 0.0 0.0 -3.3150053E+004 0.0 0.0 -3.6767881E+004 0.0 0.0 -3.0853945E+004 0.0 0.0 -2.7618090E+004 0.0 0.0 -2.5699216E+004 0.0 0.0 -2.8202535E+004 0.0 0.0 -2.2915202E+004 0.0 0.0 -2.5154455E+004 0.0 0.0 -2.0338675E+004 0.0 0.0 -3.7567766E+004 0.0 0.0 -1.8556140E+004 0.0 0.0 -1.6405635E+004 0.0 0.0 -1.8766498E+005 0.0 0.0 -1.5766365E+005 0.0 0.0 -1.9006386E+005 0.0 0.0 -3.7144432E+004 0.0 0.0 -2.2672927E+004 0.0 0.0 -2.4282682E+004 0.0 0.0 -2.1428527E+004 0.0 0.0 -5.3671787E+004 0.0 0.0 -2.0740394E+005 0.0 0.0 -3.0263682E+004 0.0 0.0 -1.7492689E+005 0.0 0.0 -2.1340331E+005 0.0 0.0 -1.1984244E+005 0.0 0.0 -8.4443849E+004 0.0 0.0 -1.4740860E+004 0.0 0.0 -1.3206505E+004 0.0 0.0 -5.4396412E+004 0.0 0.0 -5.0839089E+004 0.0 0.0 -1.4037865E+004 0.0 0.0 -1.1216944E+004 0.0 0.0 -8.4170525E+004 0.0 0.0 -5.8412600E+004 0.0 0.0 -1.3539007E+005 0.0 0.0 -5.2049358E+004 0.0 0.0 -8.3262312E+004 0.0 0.0 -1.2990411E+005 0.0 0.0 -2.0572116E+004 0.0 0.0 -3.2753605E+004 0.0 0.0 -1.0654561E+004 0.0 0.0 -8.7051197E+003 0.0 0.0 -9.0696882E+003 0.0 0.0 -4.7300463E+004 0.0 0.0 -2.1176892E+004 0.0 0.0 -7.0665523E+003 0.0 0.0 -5.0709574E+004 0.0 0.0 -3.1618744E+004 0.0 0.0 -1.8010770E+005 0.0 0.0 -1.0034715E+005 0.0 0.0 -1.6587744E+005 0.0 0.0 -6.9692807E+004 0.0 0.0 -2.2069223E+005 0.0 0.0 -2.2469718E+005 0.0 0.0 -1.6396021E+004 0.0 0.0 -1.3738156E+004 0.0 0.0 -1.4756654E+004 0.0 0.0 -7.6735007E+004 0.0 0.0 -6.7470654E+003 0.0 0.0 -5.3985705E+003 0.0 0.0 -4.4773325E+004 0.0 0.0 -4.6358723E+004 0.0 0.0 -1.6152713E+005 0.0 0.0 -5.6686475E+004 0.0 0.0 -7.5622044E+004 0.0 0.0 -8.2097538E+004 0.0 0.0 -1.2977189E+005 0.0 0.0 -1.4164713E+005 0.0 0.0 -3.6091579E+004 0.0 0.0 -3.1438528E+004 0.0 0.0 -3.5420137E+004 0.0 0.0 -2.1609359E+005 0.0 0.0 -1.8094513E+004 0.0 0.0 -2.8301514E+004 0.0 0.0 -2.8875178E+004 0.0 0.0 -2.4514705E+004 0.0 0.0 -2.1615313E+004 0.0 0.0 -2.4720492E+004 0.0 0.0 -2.1775704E+004 0.0 0.0 -7.4065447E+004 0.0 0.0 -4.4972069E+004 0.0 0.0 -4.2324087E+004 0.0 0.0 -1.6973179E+005 0.0 0.0 -1.8214969E+005 0.0 0.0 -7.5664342E+004 0.0 0.0 -8.1158724E+004 0.0 0.0 -7.5132797E+004 0.0 0.0 -8.0690408E+004 0.0 0.0 -7.4561158E+004 0.0 0.0 -8.0531238E+004 0.0 0.0 -7.4424585E+004 0.0 0.0 -8.6775778E+004 0.0 0.0 -8.0794830E+004 0.0 0.0 -7.4177696E+004 0.0 0.0 -8.1292645E+004 0.0 0.0 -7.4631026E+004 0.0 0.0 -8.8034382E+004 0.0 0.0 -6.7408572E+004 0.0 0.0 -6.8251221E+004 0.0 0.0 -7.5168254E+004 0.0 0.0 -6.7462351E+004 0.0 0.0 -7.6062258E+004 0.0 0.0 -6.9332456E+004 0.0 0.0 -6.1208045E+004 0.0 0.0 -6.2864828E+004 0.0 0.0 -5.5287847E+004 0.0 0.0 -5.6831541E+004 0.0 0.0 -5.3353155E+004 0.0 0.0 -7.7382998E+004 0.0 0.0 -4.4467037E+004 0.0 0.0 -8.7767898E+004 0.0 0.0 -4.9553555E+004 0.0 0.0 -5.4848070E+004 0.0 0.0 -1.2455889E+004 0.0 0.0 -1.1538845E+004 0.0 0.0 -5.3383462E+003 0.0 0.0 -4.1669711E+003 0.0 0.0 -6.3397987E+003 0.0 0.0 -4.9543569E+004 0.0 0.0 -5.1282070E+004 0.0 0.0 -5.8516138E+004 0.0 0.0 -5.3142561E+004 0.0 0.0 -4.6108022E+004 0.0 0.0 -4.8154095E+004 0.0 0.0 -1.3142324E+004 0.0 0.0 -2.3013534E+005 0.0 0.0 -2.2516702E+005 0.0 0.0 -2.3191472E+005 0.0 0.0 -1.7624877E+004 0.0 0.0 -2.5117959E+004 0.0 0.0 -2.5375171E+004 0.0 0.0 -2.8663946E+004 0.0 0.0 -6.9356065E+003 0.0 0.0 -9.2441273E+003 0.0 0.0 -4.0334927E+004 0.0 0.0 -4.1520368E+004 0.0 0.0 -4.7211664E+004 0.0 0.0 -4.1766012E+004 0.0 0.0 -3.6562028E+004 0.0 0.0 -6.0215690E+004 0.0 0.0 -8.4687822E+004 0.0 0.0 -3.0692809E+004 0.0 0.0 -1.5631296E+004 0.0 0.0 -1.5657316E+005 0.0 0.0 -1.5148875E+005 0.0 0.0 -6.1344958E+004 0.0 0.0 -4.1611317E+003 0.0 0.0 -6.3077937E+003 0.0 0.0 -4.0283409E+003 0.0 0.0 -1.5904462E+005 0.0 0.0 -3.4450901E+004 0.0 0.0 -2.9852758E+003 0.0 0.0 -9.0039361E+003 0.0 0.0 -2.2055170E+004 0.0 0.0 -4.1370309E+004 0.0 0.0 -4.3715981E+004 0.0 0.0 -3.9566145E+004 0.0 0.0 -5.0065666E+004 0.0 0.0 -4.5882498E+004 0.0 0.0 -3.9814620E+004 0.0 0.0 -4.1997711E+004 0.0 0.0 -4.7868648E+004 0.0 0.0 -4.4179571E+004 0.0 0.0 -2.7163746E+004 0.0 0.0 -2.4631008E+004 0.0 0.0 -7.0137775E+004 0.0 0.0 -7.0420260E+004 0.0 0.0 -6.4025372E+004 0.0 0.0 -6.3900400E+004 0.0 0.0 -3.8721047E+004 0.0 0.0 -4.0846686E+004 0.0 0.0 -3.9574723E+004 0.0 0.0 -6.0326416E+004 0.0 0.0 -5.4794774E+004 0.0 0.0 -6.0161483E+004 0.0 0.0 -1.8951401E+004 0.0 0.0 -1.9276329E+004 0.0 0.0 -3.9487394E+004 0.0 0.0 -2.2150139E+004 0.0 0.0 -1.7435214E+004 0.0 0.0 -4.8144608E+004 0.0 0.0 -5.3379848E+004 0.0 0.0 -4.3313761E+004 0.0 0.0 -3.0084847E+004 0.0 0.0 -6.0201294E+004 0.0 0.0 -1.1271748E+004 0.0 0.0 -3.8930442E+004 0.0 0.0 -1.5838154E+004 0.0 0.0 -1.4067261E+004 0.0 0.0 -1.0392518E+005 0.0 0.0 -1.0377616E+005 0.0 0.0 -8.8541834E+004 0.0 0.0 -1.0150620E+005 0.0 0.0 -1.3906542E+005 0.0 0.0 -1.2534531E+005 0.0 0.0 -4.8575634E+004 0.0 0.0 -1.5489925E+004 0.0 0.0 -5.6747175E+003 0.0 0.0 -4.0530822E+004 0.0 0.0 -4.2914113E+004 0.0 0.0 -4.4419264E+004 0.0 0.0 -8.5677856E+004 0.0 0.0 -1.4306946E+005 0.0 0.0 -4.1326437E+004 0.0 0.0 -3.7239616E+004 0.0 0.0 -5.3485020E+004 0.0 0.0 -7.1776237E+004 0.0 0.0 -1.5198020E+005 0.0 0.0 -1.5422047E+005 0.0 0.0 -2.4867318E+004 0.0 0.0 -2.8004596E+004 0.0 0.0 -1.2267914E+004 0.0 0.0 -1.2341442E+004 0.0 0.0 -6.3334722E+004 0.0 0.0 -7.2990059E+004 0.0 0.0 -3.6486277E+004 0.0 0.0 -5.8809377E+004 0.0 0.0 -5.1819835E+004 0.0 0.0 -5.8698070E+004 0.0 0.0 -2.3349641E+005 0.0 0.0 -2.3132578E+005 0.0 0.0 -2.2872999E+005 0.0 0.0 -3.5877538E+004 0.0 0.0 -6.9696045E+004 0.0 0.0 -1.0872887E+005 0.0 0.0 -9.7806139E+004 0.0 0.0 -9.9688935E+004 0.0 0.0 -3.3226476E+004 0.0 0.0 -6.6094266E+004 0.0 0.0 -8.1530586E+004 0.0 0.0 -1.8866365E+004 0.0 0.0 -1.7081069E+004 0.0 0.0 -2.1804637E+004 0.0 0.0 -4.6501463E+004 0.0 0.0 -4.6771097E+004 0.0 0.0 -1.1973616E+004 0.0 0.0 -2.2513031E+005 0.0 0.0 -2.6946184E+004 0.0 0.0 -5.7008883E+004 0.0 0.0 -1.1903957E+004 0.0 0.0 -9.7898138E+003 0.0 0.0 -8.6483467E+003 0.0 0.0 -8.1078361E+003 0.0 0.0 -8.9600666E+003 0.0 0.0 -7.5594035E+003 0.0 0.0 -6.8491193E+003 0.0 0.0 -7.0187384E+004 0.0 0.0 -1.3564976E+005 0.0 0.0 -1.4406373E+005 0.0 0.0 -1.2985583E+005 0.0 0.0 -1.3554570E+005 0.0 0.0 -1.2155638E+005 0.0 0.0 -1.2676873E+005 0.0 0.0 -4.7888316E+004 0.0 0.0 -4.2998874E+004 0.0 0.0 -4.7215639E+004 0.0 0.0 -5.0715730E+004 0.0 0.0 -5.8561446E+004 0.0 0.0 -5.1966113E+004 0.0 0.0 -4.4411482E+004 0.0 0.0 -6.7099188E+004 0.0 0.0 -3.8616612E+004 0.0 0.0 -3.6312184E+004 0.0 0.0 -3.7920753E+004 0.0 0.0 -2.6763597E+004 0.0 0.0 -2.1796215E+004 0.0 0.0 -2.4612860E+004 0.0 0.0 -2.7738735E+004 0.0 0.0 -5.2104016E+003 0.0 0.0 -4.4972841E+004 0.0 0.0 -2.2255311E+004 0.0 0.0 -2.1270247E+004 0.0 0.0 -7.1572994E+004 0.0 0.0 -5.4177355E+004 0.0 0.0 -7.1017927E+004 0.0 0.0 -1.9748204E+004 0.0 0.0 -3.6285583E+004 0.0 0.0 -3.1379904E+004 0.0 0.0 -1.0487642E+004 0.0 0.0 -6.8446101E+004 0.0 0.0 -3.4827894E+004 0.0 0.0 -1.3742056E+004 0.0 0.0 -3.1865953E+004 0.0 0.0 -4.4548290E+004 0.0 0.0 -3.7620917E+004 0.0 0.0 -4.5268336E+004 0.0 0.0 -2.9278166E+004 0.0 0.0 -3.8913098E+004 0.0 0.0 -7.8425958E+004 0.0 0.0 -1.9483165E+004 0.0 0.0 -1.1255004E+005 0.0 0.0 -1.1559334E+005 0.0 0.0 -1.0095518E+005 0.0 0.0 -1.0326492E+005 0.0 0.0 -5.5116571E+004 0.0 0.0 -4.5922388E+003 0.0 0.0 -3.2619540E+003 0.0 0.0 -3.1564232E+003 0.0 0.0 -2.1701317E+003 0.0 0.0 -6.4488775E+004 0.0 0.0 -1.9645098E+004 0.0 0.0 -4.5619172E+004 0.0 0.0 -3.6818195E+004 0.0 0.0 -1.1765214E+005 0.0 0.0 -1.6755372E+005 0.0 0.0 -1.7103350E+005 0.0 0.0 -1.8137217E+005 0.0 0.0 -1.8562501E+005 0.0 0.0 -1.6994471E+005 0.0 0.0 -1.8612362E+005 0.0 0.0 -1.9868446E+005 0.0 0.0 -1.9886341E+005 0.0 0.0 -2.1014018E+005 0.0 0.0 -2.0935170E+005 0.0 0.0 -2.2030510E+005 0.0 0.0 -2.1547895E+005 0.0 0.0 -1.8281981E+005 0.0 0.0 -1.5603280E+005 0.0 0.0 -7.8918113E+004 0.0 0.0 -7.9150433E+004 0.0 0.0 -9.0122617E+004 0.0 0.0 -9.0792514E+004 0.0 0.0 -1.0215461E+005 0.0 0.0 -6.9112416E+004 0.0 0.0 -1.0352540E+005 0.0 0.0 -1.1619395E+005 0.0 0.0 -1.7337462E+003 0.0 0.0 -8.5530699E+003 0.0 0.0 -3.4883050E+004 0.0 0.0 -2.5926639E+004 0.0 0.0 -8.9440595E+004 0.0 0.0 -6.5877043E+003 0.0 0.0 -1.1098020E+005 0.0 0.0 -1.3103938E+005 0.0 0.0 -4.7413498E+004 0.0 0.0 -6.4365691E+004 0.0 0.0 -3.6965444E+004 0.0 0.0 -6.1814807E+004 0.0 0.0 -3.7161589E+004 0.0 0.0 -3.5672492E+004 0.0 0.0 -1.4276273E+005 0.0 0.0 -7.7823067E+004 0.0 0.0 -8.6016036E+003 0.0 0.0 -1.6525200E+004 0.0 0.0 -2.6495591E+004 0.0 0.0 -2.5267118E+004 0.0 0.0 -3.0382205E+003 0.0 0.0 -1.5270506E+004 0.0 0.0 -2.5448426E+003 0.0 0.0 -3.7327628E+003 0.0 0.0 -3.6374994E+004 0.0 0.0 -1.6702501E+004 0.0 0.0 -1.7310268E+004 0.0 0.0 -4.6865041E+004 0.0 0.0 -1.3736581E+003 0.0 0.0 -3.5727737E+004 0.0 0.0 -6.9060541E+004 0.0 0.0 -1.9428453E+005 0.0 0.0 -6.5740531E+004 0.0 0.0 -5.4487179E+004 0.0 0.0 -1.9841487E+005 0.0 0.0 -1.5105080E+005 0.0 0.0 -2.1371569E+005 0.0 0.0 -2.0411435E+005 0.0 0.0 -2.0537574E+005 0.0 0.0 -2.1450054E+005 0.0 0.0 -2.0222034E+005 0.0 0.0 -2.0563404E+005 0.0 0.0 -1.8476364E+005 0.0 0.0 -1.9354697E+005 0.0 0.0 -1.6728971E+005 0.0 0.0 -2.2480711E+005 0.0 0.0 -1.7035442E+005 0.0 0.0 -2.3047697E+005 0.0 0.0 -1.4690897E+005 0.0 0.0 -1.4841144E+005 0.0 0.0 -1.5944113E+005 0.0 0.0 -2.1109659E+005 0.0 0.0 -7.7069173E+004 0.0 0.0 -1.9124019E+005 0.0 0.0 -2.0287489E+005 0.0 0.0 -1.3557059E+005 0.0 0.0 -5.0393091E+004 0.0 0.0 -8.7646184E+004 0.0 0.0 -9.8794833E+004 0.0 0.0 -1.1350948E+005 0.0 0.0 -1.3377023E+005 0.0 0.0 -1.6742612E+005 0.0 0.0 -2.0256342E+005 0.0 0.0 -2.1960405E+005 0.0 0.0 -1.5680140E+005 0.0 0.0 -3.9000260E+004 0.0 0.0 -4.0699379E+004 0.0 0.0 -1.7018797E+004 0.0 0.0 -1.9427974E+004 0.0 0.0 -3.8709366E+004 0.0 0.0 -3.5773883E+004 0.0 0.0 -1.2421946E+005 0.0 0.0 -4.1864167E+003 0.0 0.0 -1.3694303E+003 0.0 0.0 -1.2017598E+005 0.0 0.0 -8.3696680E+004 0.0 0.0 -1.1626297E+005 0.0 0.0 -7.5778711E+004 0.0 0.0 -7.8089337E+004 0.0 0.0 -8.8846382E+004 0.0 0.0 -4.0593695E+004 0.0 0.0 -1.2460270E+004 0.0 0.0 -1.7684936E+004 0.0 0.0 -5.1081936E+004 0.0 0.0 -2.1067423E+004 0.0 0.0 -9.7146283E+003 0.0 0.0 -7.7644881E+004 0.0 0.0 -2.2537021E+004 0.0 0.0 -1.6249258E+004 0.0 0.0 -2.7755582E+004 0.0 0.0 -1.2576243E+004 0.0 0.0 -4.7982502E+004 0.0 0.0 -6.2135251E+004 0.0 0.0 -3.6605372E+004 0.0 0.0 -3.5670825E+004 0.0 0.0 -4.6243345E+004 0.0 0.0 -8.4258833E+004 0.0 0.0 -3.6101693E+004 0.0 0.0 -5.0350330E+004 0.0 0.0 -1.2670701E+005 0.0 0.0 -1.1489618E+005 0.0 0.0 -6.7679227E+004 0.0 0.0 -7.0669099E+004 0.0 0.0 -5.0015538E+004 0.0 0.0 -5.2164518E+004 0.0 0.0 -5.7271585E+004 0.0 0.0 -1.6202060E+005 0.0 0.0 -2.1564614E+005 0.0 0.0 -1.9280094E+005 0.0 0.0 -7.1784294E+004 0.0 0.0 -1.5700734E+005 0.0 0.0 -1.7920895E+005 0.0 0.0 -7.5254508E+004 0.0 0.0 -5.6886024E+004 0.0 0.0 -1.2301544E+005 0.0 0.0 -2.2569125E+005 0.0 0.0 -3.8322373E+004 0.0 0.0 -3.2965175E+004 0.0 0.0 -3.6692866E+004 0.0 0.0 -4.3756949E+004 0.0 0.0 -2.0736690E+004 0.0 0.0 -2.5551064E+003 0.0 0.0 -9.2580563E+003 0.0 0.0 -1.7305092E+004 0.0 0.0 -3.1157543E+004 0.0 0.0 -8.6780136E+004 0.0 0.0 -5.0767502E+003 0.0 0.0 -3.2879737E+004 0.0 0.0 -3.9044722E+004 0.0 0.0 -8.9531928E+004 0.0 0.0 -1.3014885E+005 0.0 0.0 -9.2807992E+004 0.0 0.0 -5.5190135E+004 0.0 0.0 -4.0120216E+004 0.0 0.0 -1.2258277E+005 0.0 0.0 -4.2538793E+004 0.0 0.0 -9.8736333E+003 0.0 0.0 -1.0729168E+004 0.0 0.0 -2.2110760E+004 0.0 0.0 -8.0782112E+004 0.0 0.0 -4.3159287E+003 0.0 0.0 -1.4418817E+005 0.0 0.0 -1.1191440E+005 0.0 0.0 -6.4450769E+004 0.0 0.0 -1.5827209E+005 0.0 0.0 -5.8902933E+004 0.0 0.0 -6.0674476E+002 0.0 0.0 -8.0235179E+004 0.0 0.0 -2.7696886E+004 0.0 0.0 -2.6680733E+004 0.0 0.0 -5.3228948E+004 0.0 0.0 -7.7870363E+004 0.0 0.0 -1.3708540E+004 0.0 0.0 -1.5663491E+004 0.0 0.0 -9.4330647E+004 0.0 0.0 -9.5282278E+004 0.0 0.0 -9.8282300E+004 0.0 0.0 -3.2227779E+004 0.0 0.0 -8.5999272E+004 0.0 0.0 -9.1699136E+004 0.0 0.0 -5.5434890E+004 0.0 0.0 -6.6100567E+004 0.0 0.0 -1.0497842E+005 0.0 0.0 -1.0875719E+005 0.0 0.0 -6.8766526E+004 0.0 0.0 -5.3515961E+003 0.0 0.0 -6.2181146E+004 0.0 0.0 -1.1757261E+004 0.0 0.0 -8.1765527E+004 0.0 0.0 -2.1576279E+004 0.0 0.0 -4.3370591E+004 0.0 0.0 -5.0615711E+004 0.0 0.0 -9.1933327E+004 0.0 0.0 -3.2507260E+004 0.0 0.0 -8.7364020E+004 0.0 0.0 -2.0415419E+005 0.0 0.0 -6.0153981E+004 0.0 0.0 -1.4801480E+005 0.0 0.0 -1.1028658E+005 0.0 0.0 -2.8289182E+004 0.0 0.0 -8.0661280E+002 0.0 0.0 -4.3452410E+004 0.0 0.0 -2.3817793E+004 0.0 0.0 -1.4179320E+005 0.0 0.0 -5.7795287E+004 0.0 0.0 -2.5827503E+004 0.0 0.0 -4.4983763E+004 0.0 0.0 -2.0516353E+005 0.0 0.0 -4.7962272E+003 0.0 0.0 -1.1872591E+004 0.0 0.0 -5.1792895E+004 0.0 0.0 -3.0911267E+004 0.0 0.0 -3.3895695E+004 0.0 0.0 -3.6018187E+004 0.0 0.0 -8.4025510E+004 0.0 0.0 -9.2931221E+004 0.0 0.0 -8.2415968E+004 0.0 0.0 -5.4653811E+004 0.0 0.0 -1.3021247E+005 0.0 0.0 -3.1615146E+004 0.0 0.0 -1.0685111E+005 0.0 0.0 -1.7718324E+004 0.0 0.0 -1.4140072E+005 0.0 0.0 -4.0648898E+004 0.0 0.0 -6.2505596E+004 0.0 0.0 -9.2902146E+004 0.0 0.0 -1.7472090E+005 0.0 0.0 -1.4216231E+005 0.0 0.0 -1.8213765E+005 0.0 0.0 -1.7284639E+005 0.0 0.0 -1.1716563E+005 0.0 0.0 -1.6023861E+005 0.0 0.0 -2.5165029E+004 0.0 0.0 -6.6066673E+004 0.0 0.0 -4.3833009E+004 0.0 0.0 -1.7700295E+005 0.0 0.0 -7.4635938E+003 0.0 0.0 -7.4521711E+004 0.0 0.0 -5.7875452E+004 0.0 0.0 -1.4513516E+004 0.0 0.0 -3.6858224E+004 0.0 0.0 -5.7116001E+004 0.0 0.0 -4.1144150E+004 0.0 0.0 -1.7203703E+005 0.0 0.0 -9.2063908E+004 0.0 0.0 -8.8277705E+004 0.0 0.0 -3.8993673E+004 0.0 0.0 -5.3378755E+004 0.0 0.0 -1.4323394E+005 0.0 0.0 -1.5502979E+005 0.0 0.0 -6.4756508E+004 0.0 0.0 -9.3822303E+004 0.0 0.0 -9.4315554E+004 0.0 0.0 -8.2368780E+004 0.0 0.0 -6.3559595E+004 0.0 0.0 -7.2573280E+003 0.0 0.0 -6.1539786E+003 0.0 0.0 -3.6154727E+004 0.0 0.0 -1.0764091E+004 0.0 0.0 -2.4602393E+004 0.0 0.0 -2.7657266E+004 0.0 0.0 -3.5071796E+004 0.0 0.0 -9.3244149E+004 0.0 0.0 -2.0248499E+004 0.0 0.0 -7.4881664E+004 0.0 0.0 -3.4425201E+003 0.0 0.0 -6.4563417E+003 0.0 0.0 -1.1026942E+005 0.0 0.0 -1.3529577E+005 0.0 0.0 -9.5751492E+004 0.0 0.0 -1.6709426E+005 0.0 0.0 -2.1883741E+004 0.0 0.0 -1.3759383E+005 0.0 0.0 -2.1797733E+005 0.0 0.0 -2.3811892E+004 0.0 0.0 -9.2489233E+004 0.0 0.0 -1.5832410E+005 0.0 0.0 -6.2278035E+003 0.0 0.0 -9.7290139E+004 0.0 0.0 -6.6864225E+004 0.0 0.0 -6.2167908E+004 0.0 0.0 -2.7800118E+005 0.0 0.0 -4.2754784E+004 0.0 0.0 -1.7128327E+004 0.0 0.0 -4.7011032E+004 0.0 0.0 -1.9000103E+004 0.0 0.0 -1.9413013E+005 0.0 0.0 -1.3889558E+005 0.0 0.0 -1.3220701E+005 0.0 0.0 -9.4621884E+003 0.0 0.0 -9.4625321E+004 0.0 0.0 -4.2657499E+004 0.0 0.0 -1.7076647E+005 0.0 0.0 -1.4009599E+003 0.0 0.0 -1.2106979E+005 0.0 0.0 -1.3657003E+005 0.0 0.0 -5.6685591E+004 0.0 0.0 -1.2990317E+005 0.0 0.0 -2.7525166E+004 0.0 0.0 -4.3869137E+004 0.0 0.0 -7.1669919E+004 0.0 0.0 -1.4065510E+005 0.0 0.0 -2.7299024E+004 0.0 0.0 -5.9578162E+003 0.0 0.0 -8.8888462E+004 0.0 0.0 -3.7203862E+004 0.0 0.0 -1.3014968E+005 0.0 0.0 -1.1174508E+005 0.0 0.0 -3.0775812E+003 0.0 0.0 -2.6051261E+004 0.0 0.0 -1.3542182E+004 0.0 0.0 -8.4687067E+004 0.0 0.0 -7.5322618E+004 0.0 0.0 -1.5185374E+005 0.0 0.0 -1.4176266E+005 0.0 0.0 -3.1694099E+004 0.0 0.0 -7.3626760E+004 0.0 0.0 -4.9241232E+004 0.0 0.0 -3.6522028E+004 0.0 0.0 -2.2856769E+005 0.0 0.0 -4.0410614E+004 0.0 0.0 -1.6913740E+004 0.0 0.0 -9.2353306E+004 0.0 0.0 -1.3984454E+005 0.0 0.0 -4.1181387E+004 0.0 0.0 -2.9459549E+004 0.0 0.0 -1.5045871E+004 0.0 0.0 -2.2512029E+005 0.0 0.0 -5.7433195E+004 0.0 0.0 -6.2989853E+004 0.0 0.0 -2.7393951E+003 0.0 0.0 -1.5479504E+005 0.0 0.0 -1.4424551E+004 0.0 0.0 -9.0827922E+004 0.0 0.0 -9.1203745E+004 0.0 0.0 -2.0575106E+004 0.0 0.0 -7.9251846E+004 0.0 0.0 -8.5644912E+004 0.0 0.0 -1.0983419E+005 0.0 0.0 -7.1514000E+004 0.0 0.0 -1.0305178E+005 0.0 0.0 -7.5918792E+004 0.0 0.0 -7.4999948E+003 0.0 0.0 -1.0908640E+005 0.0 0.0 -2.2624047E+005 0.0 0.0 -6.8971437E+004 0.0 0.0 -1.0261822E+005 0.0 0.0 -6.4178004E+004 0.0 0.0 -1.9912419E+004 0.0 0.0 -4.0234864E+004 0.0 0.0 -5.3205228E+004 0.0 0.0 -1.1807717E+005 0.0 0.0 -1.2556887E+004 0.0 0.0 -5.2759801E+004 0.0 0.0 -5.1082627E+004 0.0 0.0  1.8791724E+004 0.0 0.0  5.4157019E+003 0.0 0.0 -1.0939596E+004 0.0 0.0  8.7373842E+003 0.0 0.0  1.3666042E+004 0.0 0.0  1.9115207E+004 0.0 0.0 -1.7912534E+004 0.0 0.0 -1.9488741E+004 0.0 0.0 -6.2611115E+004 0.0 0.0 -2.3939483E+004 0.0 0.0 -3.8469436E+004 0.0 0.0 -5.9472226E+004 0.0 0.0 -5.6789954E+004 0.0 0.0 -6.9507220E+004 0.0 0.0 -8.7842439E+004 0.0 0.0 -9.9266277E+004 0.0 0.0 -9.2124097E+004 0.0 0.0 -1.0506359E+005 0.0 0.0 -1.1104395E+005 0.0 0.0 -1.0140057E+005 0.0 0.0 -1.1150341E+005 0.0 0.0 -1.1350776E+005 0.0 0.0 -1.0442643E+005 0.0 0.0 -1.0941990E+005 0.0 0.0 -1.1211772E+005 0.0 0.0 -1.0081037E+005 0.0 0.0 -1.0608894E+005 0.0 0.0 -1.0528359E+005 0.0 0.0  3.4895608E+003 0.0 0.0 -9.6531321E+004 0.0 0.0 -1.0045329E+005 0.0 0.0 -9.1922301E+004 0.0 0.0 -9.3006452E+004 0.0 0.0 -8.9917495E+004 0.0 0.0 -8.8530585E+004 0.0 0.0 -8.0511911E+004 0.0 0.0 -8.1597782E+004 0.0 0.0 -7.9174332E+004 0.0 0.0 -7.6979678E+004 0.0 0.0 -7.5001661E+004 0.0 0.0 -7.3970929E+004 0.0 0.0 -6.8545404E+004 0.0 0.0 -6.6722690E+004 0.0 0.0 -6.5680482E+004 0.0 0.0 -6.3632245E+004 0.0 0.0 -6.1666374E+004 0.0 0.0 -6.1528860E+004 0.0 0.0 -2.3869056E+003 0.0 0.0 -9.8396496E+003 0.0 0.0  3.6797685E+003 0.0 0.0  1.5558815E+004 0.0 0.0  1.8813444E+004 0.0 0.0  1.9092566E+004 0.0 0.0  1.8904801E+004 0.0 0.0  1.9628513E+004 0.0 0.0  1.7786785E+004 0.0 0.0  1.6627831E+004 0.0 0.0  1.6172273E+004 0.0 0.0  1.3526931E+004 0.0 0.0  1.2330267E+004 0.0 0.0  1.1528103E+004 0.0 0.0  9.0329165E+003 0.0 0.0  8.1982546E+003 0.0 0.0  7.3681931E+003 0.0 0.0  5.3030658E+003 0.0 0.0  4.7390080E+003 0.0 0.0  4.0591948E+003 0.0 0.0  2.3281153E+003 0.0 0.0  2.2003182E+003 0.0 0.0  1.6854609E+003 0.0 0.0  3.9882153E+002 0.0 0.0  5.0071687E+002 0.0 0.0 -6.2312652E+002 0.0 0.0 -4.3976840E+002 0.0 0.0 -6.6875956E+002 0.0 0.0 -9.9698862E+002 0.0 0.0 -1.8488668E+003 0.0 0.0 -1.5185948E+003 0.0 0.0 -1.6467077E+003 0.0 0.0 -1.4673565E+003 0.0 0.0 -2.1981830E+003 0.0 0.0 -2.5398702E+003 0.0 0.0 -2.1524050E+003 0.0 0.0 -1.9767579E+003 0.0 0.0 -2.5660146E+003 0.0 0.0 -2.7685908E+003 0.0 0.0 -4.2435005E+003 0.0 0.0 -5.0200363E+004 0.0 0.0 -1.9324454E+004 0.0 0.0 -4.4615932E+004 0.0 0.0  5.7047684E+003 0.0 0.0 -2.4556317E+004 0.0 0.0 -3.6635776E+004 0.0 0.0  1.0610203E+004 0.0 0.0  1.7215413E+004 0.0 0.0  1.9879421E+004 0.0 0.0  1.4112135E+004 0.0 0.0  1.8027600E+004 0.0 0.0  1.6777119E+004 0.0 0.0  1.3485726E+004 0.0 0.0  1.5253494E+004 0.0 0.0  1.6153757E+004 0.0 0.0  1.6351070E+004 0.0 0.0  1.6075072E+004 0.0 0.0  1.3598701E+004 0.0 0.0  1.3283822E+004 0.0 0.0  1.7446972E+004 0.0 0.0  1.5282878E+004 0.0 0.0  9.9380233E+003 0.0 0.0  9.9048933E+003 0.0 0.0  1.7819121E+004 0.0 0.0  1.6252531E+004 0.0 0.0  1.3186218E+004 0.0 0.0  8.0462323E+003 0.0 0.0  1.2159915E+004 0.0 0.0  1.3895277E+004 0.0 0.0  1.8443503E+004 0.0 0.0 -1.0007802E+003 0.0 0.0  6.4403616E+003 0.0 0.0 -1.1793434E+004 0.0 0.0  3.9544138E+003 0.0 0.0 -2.2644225E+004 0.0 0.0  1.8727599E+004 0.0 0.0  2.0971778E+004 0.0 0.0  1.8783757E+004 0.0 0.0 -1.2659783E+004 0.0 0.0 -1.2074109E+004 0.0 0.0 -2.9171564E+004 0.0 0.0 -2.4949205E+004 0.0 0.0 -5.6578758E+003 0.0 0.0 -1.7721351E+004 0.0 0.0 -1.3745418E+004 0.0 0.0  1.6085837E+004 0.0 0.0  1.2576512E+004 0.0 0.0  8.4380396E+003 0.0 0.0 -3.0370934E+004 0.0 0.0  7.1119213E+002 0.0 0.0 -1.4612000E+004 0.0 0.0 -1.5774258E+004 0.0 0.0 -5.2066760E+004 0.0 0.0  7.6961669E+003 0.0 0.0 -4.6043466E+003 0.0 0.0 -7.2556804E+003 0.0 0.0 -4.8911560E+004 0.0 0.0 -1.4729999E+004 0.0 0.0 -3.6358236E+004 0.0 0.0 -1.6419380E+003 0.0 0.0 -1.3271023E+004 0.0 0.0 -1.2716690E+004 0.0 0.0 -4.0425483E+004 0.0 0.0 -1.5465774E+003 0.0 0.0 -1.3130909E+004 0.0 0.0 -7.1508330E+002 0.0 0.0 -1.5419280E+004 0.0 0.0 -1.6263056E+004 0.0 0.0 -4.8164289E+004 0.0 0.0 -1.4775977E+003 0.0 0.0 -1.3336637E+004 0.0 0.0  1.1712200E+004 0.0 0.0  2.8130022E+003 0.0 0.0 -7.6632575E+002 0.0 0.0 -4.2541434E+004 0.0 0.0  4.4025468E+003 0.0 0.0 -9.9792732E+003 0.0 0.0 -1.2011204E+004 0.0 0.0 -5.3130523E+004 0.0 0.0 -9.9254077E+002 0.0 0.0 -4.4471141E+002 0.0 0.0 -1.3030463E+004 0.0 0.0  1.9947011E+003 0.0 0.0 -1.3269485E+004 0.0 0.0 -1.4734667E+004 0.0 0.0 -5.3086991E+004 0.0 0.0  2.5361450E+003 0.0 0.0 -9.9213501E+003 0.0 0.0  3.5625082E+003 0.0 0.0 -2.0823141E+003 0.0 0.0 -1.2735899E+004 0.0 0.0 -1.2722546E+004 0.0 0.0 -3.7240640E+004 0.0 0.0 -2.0508196E+003 0.0 0.0 -1.2720572E+004 0.0 0.0  1.4717135E+003 0.0 0.0  5.2432101E+003 0.0 0.0 -5.9241605E+003 0.0 0.0  8.8261191E+003 0.0 0.0 -1.2792771E+003 0.0 0.0 -2.7346821E+003 0.0 0.0 -2.0729999E+003 0.0 0.0 -1.2887325E+004 0.0 0.0 -1.3756698E+003 0.0 0.0 -1.3455698E+004 0.0 0.0 -2.2340436E+002 0.0 0.0 -1.2976103E+004 0.0 0.0  6.6181076E+003 0.0 0.0  1.0449142E+004 0.0 0.0  1.8882183E+004 0.0 0.0  2.3815963E+004 0.0 0.0 -2.3198499E+003 0.0 0.0 -1.2489432E+004 0.0 0.0 -2.2007477E+003 0.0 0.0  3.7709068E+002 0.0 0.0 -7.5487375E+003 0.0 0.0  1.4859508E+004 0.0 0.0  1.8660254E+004 0.0 0.0 -2.2038154E+003 0.0 0.0  1.7184119E+004 0.0 0.0  1.5930642E+004 0.0 0.0  1.7017840E+004 0.0 0.0  2.4613442E+004 0.0 0.0  2.4329572E+004 0.0 0.0  4.8280245E+003 0.0 0.0  1.8815081E+004 0.0 0.0  1.3061585E+004 0.0 0.0  6.0465991E+003 0.0 0.0 -5.7267170E+004 0.0 0.0 -6.7888109E+004 0.0 0.0 -3.4075130E+004 0.0 0.0 -5.1075641E+004 0.0 0.0 -2.7522372E+004 0.0 0.0 -7.0866589E+004 0.0 0.0 -1.6249609E+004 0.0 0.0 -6.7080087E+004 0.0 0.0 -3.5061534E+004 0.0 0.0 -7.7086443E+004 0.0 0.0 -3.6158960E+004 0.0 0.0 -7.5306281E+004 0.0 0.0 -3.4584308E+004 0.0 0.0 -6.7008194E+004 0.0 0.0 -5.7301204E+003 0.0 0.0 -7.5084610E+004 0.0 0.0 -3.7624099E+004 0.0 0.0 -5.9440390E+004 0.0 0.0 -3.0094528E+004 0.0 0.0 -1.1116169E+004 0.0 0.0  1.7207368E+004 0.0 0.0  1.9033062E+004 0.0 0.0 -8.7120775E+004 0.0 0.0 -3.3009218E+004 0.0 0.0 -8.8127576E+004 0.0 0.0 -3.5437899E+004 0.0 0.0 -8.0874635E+004 0.0 0.0 -3.5762844E+004 0.0 0.0 -3.0392892E+004 0.0 0.0  1.2055894E+004 0.0 0.0 -6.2974728E+004 0.0 0.0 -3.7813762E+004 0.0 0.0 -8.0051052E+004 0.0 0.0 -2.6228015E+004 0.0 0.0 -8.6626587E+004 0.0 0.0 -3.2157324E+004 0.0 0.0 -5.5902652E+004 0.0 0.0 -3.1001148E+004 0.0 0.0 -8.0425936E+004 0.0 0.0 -3.6210715E+004 0.0 0.0 -9.0801228E+004 0.0 0.0 -2.7464758E+004 0.0 0.0 -8.2310930E+004 0.0 0.0 -1.8804192E+004 0.0 0.0 -5.5586068E+004 0.0 0.0 -2.0888206E+003 0.0 0.0 -5.1567837E+004 0.0 0.0 -3.1110364E+004 0.0 0.0 -6.4371065E+004 0.0 0.0 -3.4155711E+004 0.0 0.0 -5.3131253E+004 0.0 0.0 -3.4313756E+004 0.0 0.0 -4.4135882E+004 0.0 0.0  8.2012221E+003 0.0 0.0  9.4007906E+003 0.0 0.0  1.8545948E+004 0.0 0.0  1.5120030E+004 0.0 0.0 -1.3994647E+004 0.0 0.0 -3.4091485E+004 0.0 0.0 -2.4989060E+004 0.0 0.0 -3.6577621E+004 0.0 0.0 -3.4939321E+004 0.0 0.0 -3.3405288E+004 0.0 0.0 -3.6621000E+004 0.0 0.0 -3.1570714E+004 0.0 0.0 -3.0313110E+004 0.0 0.0  6.0451104E+002 0.0 0.0  1.4467382E+004 0.0 0.0 -2.0770225E+004 0.0 0.0 -2.0352427E+004 0.0 0.0 -4.5509470E+004 0.0 0.0 -2.2357530E+004 0.0 0.0 -1.3677062E+004 0.0 0.0  1.0482765E+004 0.0 0.0  1.2076307E+004 0.0 0.0  6.1420955E+003 0.0 0.0 -4.4412618E+004 0.0 0.0  3.1926666E+003 0.0 0.0 -2.7258441E+003 0.0 0.0  1.2936405E+004 0.0 0.0 -3.4674002E+004 0.0 0.0  1.0437030E+004 0.0 0.0 -1.1695122E+004 0.0 0.0 -3.2058223E+004 0.0 0.0 -5.1671066E+004 0.0 0.0  1.2766540E+004 0.0 0.0  1.9079731E+004 0.0 0.0  1.8257790E+004 0.0 0.0  1.5727907E+004 0.0 0.0  6.4865827E+003 0.0 0.0 -8.7416814E+003 0.0 0.0  2.2756403E+004 0.0 0.0 -2.6628882E+004 0.0 0.0 -2.4090485E+004 0.0 0.0 -3.4026835E+004 0.0 0.0 -1.0643711E+004 0.0 0.0 -1.1100219E+004 0.0 0.0 -3.4850698E+004 0.0 0.0 -5.7027304E+004 0.0 0.0 -1.0814789E+004 0.0 0.0 -9.8434105E+003 0.0 0.0 -6.4310761E+004 0.0 0.0 -8.5457536E+003 0.0 0.0 -5.8567448E+003 0.0 0.0 -1.3360692E+003 0.0 0.0 -7.6027251E+004 0.0 0.0 -1.0460845E+004 0.0 0.0  4.1802713E+003 0.0 0.0 -8.9227651E+003 0.0 0.0  1.2479163E+004 0.0 0.0 -3.3927868E+004 0.0 0.0  2.1402286E+004 0.0 0.0  2.6402507E+004 0.0 0.0 -8.4758914E+004 0.0 0.0 -1.1203487E+004 0.0 0.0 -9.4506190E+003 0.0 0.0 -8.9251570E+004 0.0 0.0 -3.6139117E+004 0.0 0.0 -9.1630295E+003 0.0 0.0 -3.6311355E+004 0.0 0.0 -9.8409618E+004 0.0 0.0 -1.1488014E+004 0.0 0.0 -9.5649562E+003 0.0 0.0 -9.6351914E+004 0.0 0.0 -9.6238884E+003 0.0 0.0 -4.0908460E+004 0.0 0.0 -9.8533320E+004 0.0 0.0 -9.1044949E+003 0.0 0.0 -4.1101035E+004 0.0 0.0 -4.1859507E+004 0.0 0.0 -8.8527921E+004 0.0 0.0 -9.0549551E+003 0.0 0.0 -4.9775206E+004 0.0 0.0 -8.9322944E+003 0.0 0.0 -2.1550999E+004 0.0 0.0 -8.1648442E+003 0.0 0.0 -4.4836243E+004 0.0 0.0 -4.5436084E+004 0.0 0.0 -7.2999835E+003 0.0 0.0 -5.9810296E+003 0.0 0.0 -4.7407865E+003 0.0 0.0 -4.7640285E+004 0.0 0.0 -2.4997272E+003 0.0 0.0 -6.1571636E+002 0.0 0.0  2.6457210E+003 0.0 0.0 -4.4441126E+004 0.0 0.0  4.6922546E+003 0.0 0.0  9.4398868E+003 0.0 0.0  1.1948229E+004 0.0 0.0 -4.1352864E+004 0.0 0.0  1.7733936E+004 0.0 0.0  2.0039815E+004 0.0 0.0 -3.1659429E+004 0.0 0.0  2.4100058E+004 0.0 0.0  2.5001342E+004 0.0 0.0  2.5199703E+004 0.0 0.0 -1.6785118E+004 0.0 0.0 -1.3747266E+002 0.0 0.0  7.1252879E+003 0.0 0.0  9.9827649E+003 0.0 0.0 -3.1997590E+004 0.0 0.0 -3.0832983E+004 0.0 0.0  2.5724388E+003 0.0 0.0  1.0177570E+004 0.0 0.0 -3.4037112E+004 0.0 0.0  5.4738384E+003 0.0 0.0 -4.1266275E+004 0.0 0.0 -4.3559305E+004 0.0 0.0 -4.3718051E+004 0.0 0.0 -4.1723831E+004 0.0 0.0 -3.7455019E+004 0.0 0.0 -2.8181031E+004 0.0 0.0 -1.5065828E+004 0.0 0.0 -3.3845032E+003 0.0 0.0  1.1500910E+004 0.0 0.0  7.6842703E+003 0.0 0.0  1.7193867E+004 0.0 0.0 -1.0657122E+003 0.0 0.0 -7.5547302E+003 0.0 0.0  1.6111392E+003 0.0 0.0  3.8519001E+003 0.0 0.0  1.5730831E+004 0.0 0.0 -2.5092955E+004 0.0 0.0  3.1081463E+003 0.0 0.0 -4.1125227E+004 0.0 0.0 -3.6224577E+004 0.0 0.0 -3.5736351E+004 0.0 0.0  1.5087850E+004 0.0 0.0 -4.2739481E+004 0.0 0.0 -4.5694887E+004 0.0 0.0 -4.6477240E+004 0.0 0.0 -4.5730983E+004 0.0 0.0 -1.4234785E+004 0.0 0.0  7.5118368E+003 0.0 0.0 -4.2017430E+004 0.0 0.0 -1.0349731E-001 0.0 0.0 -4.2708014E+003 0.0 0.0  1.0094820E+000 0.0 0.0  1.2180839E+001 0.0 0.0  1.0914883E+002 0.0 0.0 -1.3964578E+001 0.0 0.0 -1.7926264E+001 0.0 0.0 -4.3069729E+003 0.0 0.0 -1.9350909E+001 0.0 0.0  1.9147228E-001 0.0 0.0  1.0547760E-001 0.0 0.0 -8.6729194E+002 0.0 0.0  2.0899425E+000 0.0 0.0  1.2165444E+001 0.0 0.0 -1.8314815E+000 0.0 0.0 -1.8236730E+001 0.0 0.0 -2.2097488E+003 0.0 0.0  6.7216938E+000 0.0 0.0  1.1269863E+002 0.0 0.0 -1.6783902E+003 0.0 0.0 -2.0492768E+003 0.0 0.0 -6.4562748E+002 0.0 0.0 -7.0900219E+002 0.0 0.0  4.5413755E+001 0.0 0.0 -2.8015249E+001 0.0 0.0 -4.9399522E+003 0.0 0.0 -9.6768865E-001 0.0 0.0 -8.2201346E+000 0.0 0.0  1.2874461E+001 0.0 0.0  4.6679710E+001 0.0 0.0  1.3685276E+000 0.0 0.0  2.8735933E-001 0.0 0.0  3.9040034E+000 0.0 0.0 -1.5771832E-001 0.0 0.0  4.1817035E+001 0.0 0.0  1.4976305E+000 0.0 0.0  1.2350162E+000 0.0 0.0  1.7906333E+001 0.0 0.0 -3.0051783E+003 0.0 0.0 -1.2902597E+002 0.0 0.0 -7.4832468E+000 0.0 0.0  3.5092668E+002 0.0 0.0 -4.2239098E+000 0.0 0.0  1.6681197E-001 0.0 0.0 -1.2260896E+004 0.0 0.0 -3.5521006E+002 0.0 0.0 -2.2370884E+003 0.0 0.0 -1.6533032E+002 0.0 0.0  3.9879961E+001 0.0 0.0 -7.2936908E+001 0.0 0.0  2.1732179E+001 0.0 0.0  1.1102235E+000 0.0 0.0 -1.4542194E+000 0.0 0.0  5.4368843E-003 0.0 0.0  1.8565597E+001 0.0 0.0 -1.8036016E+002 0.0 0.0  3.3100531E+001 0.0 0.0 -2.0176173E+003 0.0 0.0 -1.7920535E+001 0.0 0.0  7.0228352E+001 0.0 0.0 -5.1051942E+001 0.0 0.0  1.5223768E+000 0.0 0.0 -6.9216663E+002 0.0 0.0 -7.9868944E+002 0.0 0.0 -1.4301387E+004 0.0 0.0  3.1890425E+002 0.0 0.0 -1.5758948E+003 0.0 0.0 -8.3574908E+001 0.0 0.0 -1.2273760E+003 0.0 0.0 -7.0695067E+001 0.0 0.0 -8.7257261E+001 0.0 0.0 -9.8042289E+001 0.0 0.0 -2.3190778E+004 0.0 0.0 -2.7610419E+000 0.0 0.0  6.3168839E+000 0.0 0.0 -3.7090208E+001 0.0 0.0 -3.5397514E+000 0.0 0.0 -3.3204807E+002 0.0 0.0  1.9515407E-001 0.0 0.0 -5.6291294E+001 0.0 0.0 -4.8890524E+003 0.0 0.0 -2.5866593E+002 0.0 0.0 -3.2039762E+003 0.0 0.0  1.6249812E+001 0.0 0.0 -1.3181602E+003 0.0 0.0  3.7306634E+000 0.0 0.0  9.8879172E-001 0.0 0.0  6.8272670E+001 0.0 0.0  8.8107586E+000 0.0 0.0 -2.5234216E+003 0.0 0.0  1.3294961E+002 0.0 0.0  5.2030677E+001 0.0 0.0 -2.0020979E+003 0.0 0.0  1.6536644E-001 0.0 0.0 -1.4703980E+004 0.0 0.0  7.4033967E+001 0.0 0.0 -1.0075493E+001 0.0 0.0 -3.7979170E+004 0.0 0.0 -1.8176610E+000 0.0 0.0 -2.3567428E+004 0.0 0.0  2.2914138E+001 0.0 0.0  1.0278093E-001 0.0 0.0  1.9857153E+001 0.0 0.0 -4.3068002E+001 0.0 0.0 -2.8541323E+002 0.0 0.0  3.4804471E+000 0.0 0.0  8.6703038E+002 0.0 0.0 -3.2872430E+001 0.0 0.0 -1.2174741E+004 0.0 0.0 -2.9507319E+002 0.0 0.0 -4.4982333E+004 0.0 0.0  9.3685712E+001 0.0 0.0 -5.9214206E+001 0.0 0.0  5.3960802E+001 0.0 0.0  5.0221598E+001 0.0 0.0 -3.7690777E+003 0.0 0.0  2.1277188E+001 0.0 0.0  3.8007714E+001 0.0 0.0 -5.7856181E+002 0.0 0.0  4.1317014E+002 0.0 0.0 -3.8448755E+004 0.0 0.0  6.8097143E+000 0.0 0.0  5.3238358E-001 0.0 0.0 -2.0337185E+004 0.0 0.0 -4.9851325E+001 0.0 0.0 -8.7759530E+002 0.0 0.0  2.3805709E+001 0.0 0.0  6.5271804E-001 0.0 0.0 -6.7034878E+003 0.0 0.0 -1.9338470E+002 0.0 0.0  8.9994331E+000 0.0 0.0  2.7060393E-001 0.0 0.0  2.9685740E+002 0.0 0.0 -2.7945221E+003 0.0 0.0  1.4844203E+001 0.0 0.0 -1.9539592E+002 0.0 0.0 -2.1608858E+003 0.0 0.0 -1.0812661E+003 0.0 0.0 -2.4088642E+001 0.0 0.0 -5.0421926E+002 0.0 0.0 -3.2648571E+002 0.0 0.0 -4.2911126E+002 0.0 0.0  7.0673001E+000 0.0 0.0 -6.8319324E+002 0.0 0.0 -2.7264225E+002 0.0 0.0  2.6786968E-001 0.0 0.0 -3.0652868E-001 0.0 0.0 -1.8612086E+003 0.0 0.0 -2.5978220E+001 0.0 0.0  2.7858888E+000 0.0 0.0 -3.5968731E+002 0.0 0.0  1.6115263E+006 0.0 0.0  1.6120160E+006 0.0 0.0  1.6413623E+006 0.0 0.0  1.6064505E+006 0.0 0.0  1.6067618E+006 0.0 0.0  1.6304632E+006 0.0 0.0  1.6202240E+006 0.0 0.0  1.6108239E+006 0.0 0.0  1.6131012E+006 0.0 0.0  1.6138718E+006 0.0 0.0  1.6516756E+006 0.0 0.0  1.6527707E+006 0.0 0.0  1.4341455E+006 0.0 0.0  1.4407345E+006 0.0 0.0  1.1454329E+006 0.0 0.0  1.1041703E+006 0.0 0.0  1.0746365E+006 0.0 0.0  1.1210191E+006 0.0 0.0  1.4461661E+006 0.0 0.0  1.1277669E+006 0.0 0.0  1.1172262E+006 0.0 0.0  1.0723942E+006 0.0 0.0  1.0494800E+006 0.0 0.0  1.1147507E+006 0.0 0.0  1.0491095E+006 0.0 0.0  1.1109160E+006 0.0 0.0  1.3741485E+006 0.0 0.0  1.3748730E+006 0.0 0.0  9.0878883E+005 0.0 0.0  8.8435385E+005 0.0 0.0 -1.4464483E+002 0.0 0.0  8.0217847E+001 0.0 0.0 -1.4083324E+003 0.0 0.0 -8.6943836E+002 0.0 0.0 -8.3937702E+002 0.0 0.0 -1.1070168E+003 0.0 0.0 -1.8328769E+003 0.0 0.0 -3.7008343E+001 0.0 0.0 -1.4117802E+003 0.0 0.0 -2.2458008E-003 0.0 0.0 -5.0444234E+002 0.0 0.0 -1.7578901E+002 0.0 0.0 -3.2327072E+002 0.0 0.0 -2.7291867E+003 0.0 0.0 -3.5351435E+003 0.0 0.0 -6.5017920E+001 0.0 0.0 -7.7362233E+001 0.0 0.0 -5.5284663E+001 0.0 0.0 -3.9227865E+003 0.0 0.0 -1.7838396E+002 0.0 0.0 -1.9922583E+003 0.0 0.0 -1.6046647E+003 0.0 0.0  1.2890715E+002 0.0 0.0  1.8112778E+002 0.0 0.0  4.9976286E+001 0.0 0.0 -1.3814588E+003 0.0 0.0 -7.6560016E+002 0.0 0.0 -7.9247444E+001 0.0 0.0 -9.8056492E+002 0.0 0.0 -6.7706943E-014 0.0 0.0 -2.8871482E+002 0.0 0.0 -1.9618600E-002 0.0 0.0  1.3959193E-007 0.0 0.0 -2.0037879E-012 0.0 0.0 -2.4915122E+003 0.0 0.0 -1.5792778E+003 0.0 0.0 -1.1956899E+003 0.0 0.0 -1.0485470E+003 0.0 0.0 -1.3650154E+002 0.0 0.0 -8.9721099E-015 0.0 0.0 -2.4473971E-011 0.0 0.0 -4.7723968E-014 0.0 0.0 -3.4075998E+000 0.0 0.0  2.6195163E+004 0.0 0.0  2.1420600E+004 0.0 0.0  3.8318144E+004 0.0 0.0  1.1674731E+004 0.0 0.0  7.4928184E+003 0.0 0.0 -2.4595097E+003 0.0 0.0 -1.6514360E+003 0.0 0.0  7.8430695E+002 0.0 0.0 -2.5573305E+000 0.0 0.0  1.0120914E+000 0.0 0.0 -1.0604323E+002 0.0 0.0 -5.9709066E+000 0.0 0.0 -1.3293823E+002 0.0 0.0 -4.4987949E+002 0.0 0.0 -4.2296806E-006 0.0 0.0  1.0035609E-008 0.0 0.0  6.9319017E-002 0.0 0.0 -1.7668594E-001 0.0 0.0 -7.1845445E+002 0.0 0.0 -7.3624466E+002 0.0 0.0 -1.5778373E-014 0.0 0.0 -7.5105564E-001 0.0 0.0 -7.9119495E-003 0.0 0.0  2.4305878E-001 0.0 0.0  2.0136258E-002 0.0 0.0 -6.7887066E-001 0.0 0.0 -2.9782051E-002 0.0 0.0  2.5245624E-001 0.0 0.0  4.4129728E-003 0.0 0.0 -1.0461447E+003 0.0 0.0 -1.1545185E+003 0.0 0.0  1.8473526E+001 0.0 0.0 -1.2534574E+003 0.0 0.0 -2.7687307E+002 0.0 0.0 -2.9922171E+002 0.0 0.0  6.0392773E+002 0.0 0.0 -1.0518707E-003 0.0 0.0 -8.6870389E-004 0.0 0.0 -1.0357966E-002 0.0 0.0  5.8591675E-002 0.0 0.0  7.1766737E-010 0.0 0.0  1.2788781E-003 0.0 0.0  4.5443332E-005 0.0 0.0 -6.4194864E-004 0.0 0.0  2.5507006E-005 0.0 0.0  9.1324738E-005 0.0 0.0 -1.5401393E-006 0.0 0.0  1.2741712E-005 0.0 0.0 -4.9461592E-007 0.0 0.0 -8.6406051E-007 0.0 0.0  7.2172602E-009 0.0 0.0 -1.1725434E-005 0.0 0.0 -6.8707026E-008 0.0 0.0  2.3165200E-009 0.0 0.0 -3.7040020E-009 0.0 0.0  1.1846360E-010 0.0 0.0 -2.8433099E-009 0.0 0.0  6.5679311E-011 0.0 0.0 -9.1899896E-010 0.0 0.0  2.9176024E-011 0.0 0.0 -1.0105920E-010 0.0 0.0  3.1285913E-012 0.0 0.0 -3.0571860E-011 0.0 0.0  1.0213572E-012 0.0 0.0 -2.6381897E-013 0.0 0.0 -5.6737861E-003 0.0 0.0 -1.7837004E-003 0.0 0.0 -7.7996315E-004 0.0 0.0 -9.0337897E-003 0.0 0.0 -9.6772085E+001 0.0 0.0 -3.2351611E+003 0.0 0.0 -5.7854545E-008 0.0 0.0 -1.0135268E-012 0.0 0.0  8.6924179E-008 0.0 0.0 -5.2391207E+003 0.0 0.0 -5.7772091E-012 0.0 0.0 -4.5835372E-009 0.0 0.0 -1.1599340E+002 0.0 0.0 -5.3809167E-011 0.0 0.0  5.2128627E-005 0.0 0.0 -5.2714870E-004 0.0 0.0 -9.4227298E-015 0.0 0.0  7.9053795E-002 0.0 0.0 -2.7782975E-014 0.0 0.0  9.3286315E-003 0.0 0.0  1.9644738E-002 0.0 0.0 -6.0304005E-001 0.0 0.0  2.4970999E-013 0.0 0.0  4.1251688E+002 0.0 0.0  2.7959117E-001 0.0 0.0 -1.3188263E-005 0.0 0.0 -1.1958125E-004 0.0 0.0 -1.2347030E+000 0.0 0.0 -2.6920923E-002 0.0 0.0 -2.6070424E-001 0.0 0.0  3.5851887E-002 0.0 0.0 -1.7484945E+000 0.0 0.0  6.4020993E-001 0.0 0.0 -1.0630601E+001 0.0 0.0 -5.8962804E-002 0.0 0.0 -2.4142723E-014 0.0 0.0 -3.3966077E-011 0.0 0.0 -1.9919014E+002 0.0 0.0 -4.5678772E-014 0.0 0.0  9.2137366E-004 0.0 0.0  7.5254595E-003 0.0 0.0 -1.1598230E-013 0.0 0.0 -9.5902053E-002 0.0 0.0 -2.1277989E-001 0.0 0.0 -9.9991142E-003 0.0 0.0 -2.7844507E-003 0.0 0.0 -2.2514618E-001 0.0 0.0 -9.3305558E-003 0.0 0.0  3.6915216E+000 0.0 0.0 -6.9904172E+000 0.0 0.0 -2.7811905E-001 0.0 0.0 -3.7653981E-001 0.0 0.0 -5.2147451E-004 0.0 0.0 -3.8966978E-005 0.0 0.0  1.6166230E-004 0.0 0.0  1.1922511E-009 0.0 0.0 -2.7715046E-009 0.0 0.0  1.5311069E-012 0.0 0.0 -3.2315715E-014 0.0 0.0 -2.8771491E-012 0.0 0.0 -1.0669158E-012 0.0 0.0  8.3671094E+001 0.0 0.0 -2.3517526E-002 0.0 0.0 -5.3010720E-004 0.0 0.0  3.0362773E-004 0.0 0.0 -5.4184331E-014 0.0 0.0 -2.9099149E+002 0.0 0.0 -1.6364427E+001 0.0 0.0 -2.5136408E+002 0.0 0.0 -1.6614981E+002 0.0 0.0  2.6920837E-007 0.0 0.0 -7.6848002E-002 0.0 0.0 -2.2506898E-002 0.0 0.0 -3.7597217E-013 0.0 0.0  2.6738589E-014 0.0 0.0  1.2751814E-003 0.0 0.0 -1.0216232E+003 0.0 0.0 -6.0499854E-004 0.0 0.0 -5.8925096E-004 0.0 0.0 -3.0964968E-002 0.0 0.0  2.5933942E-004 0.0 0.0  1.7721503E-003 0.0 0.0 -3.7294719E-001 0.0 0.0 -3.1503096E-006 0.0 0.0 -5.9272335E-008 0.0 0.0  7.4668993E-007 0.0 0.0 -1.3751485E-004 0.0 0.0 -2.2275800E-001 0.0 0.0  1.9226299E-002 0.0 0.0 -4.5393135E-006 0.0 0.0 -4.3671036E+003 0.0 0.0 -6.2333034E-014 0.0 0.0 -4.6276999E-012 0.0 0.0 -1.2324406E-011 0.0 0.0  2.4124646E-012 0.0 0.0 -9.9699686E-004 0.0 0.0  1.2353150E-003 0.0 0.0 -5.9171608E+000 0.0 0.0  1.5082276E+000 0.0 0.0  2.6455393E+002 0.0 0.0 -6.2002468E-014 0.0 0.0 -3.8969000E-014 0.0 0.0  2.9182183E-014 0.0 0.0 -1.7188127E+002 0.0 0.0 -8.3872231E+000 0.0 0.0  2.5451289E+001 0.0 0.0 -1.5214781E-007 0.0 0.0 -1.4574520E-008 0.0 0.0 -6.2110094E-003 0.0 0.0  1.1299662E-002 0.0 0.0 -4.8439041E-002 0.0 0.0 -3.1119179E-003 0.0 0.0  2.8733705E-002 0.0 0.0  1.4896447E-002 0.0 0.0 -3.7883511E-001 0.0 0.0 -1.3159752E-002 0.0 0.0 -5.4977165E-002 0.0 0.0  7.5435597E-003 0.0 0.0 -2.5229008E-001 0.0 0.0 -9.1094277E-003 0.0 0.0 -7.7185739E-002 0.0 0.0 -3.0659705E-002 0.0 0.0 -8.2308138E+001 0.0 0.0 -3.4046414E-003 0.0 0.0  2.9150361E+004 0.0 0.0  6.7902893E+003 0.0 0.0  2.5039545E+003 0.0 0.0  6.8645147E+004 0.0 0.0 -3.5265693E+003 0.0 0.0  6.9727813E+001 0.0 0.0 -4.4736974E-002 0.0 0.0 -1.0549440E+000 0.0 0.0  7.9278925E+004 0.0 0.0  1.7828009E+003 0.0 0.0  3.3989462E+004 0.0 0.0 -4.9217248E+003 0.0 0.0  1.1523743E+001 0.0 0.0  7.0646065E+002 0.0 0.0  4.4850304E+000 0.0 0.0 -1.1319040E+001 0.0 0.0  1.7872913E+001 0.0 0.0 -6.3195202E+000 0.0 0.0  3.2557456E+004 0.0 0.0  4.1426318E+004 0.0 0.0  5.4211705E+003 0.0 0.0  2.0737249E-005 0.0 0.0 -1.3850635E+003 0.0 0.0 -1.4319646E+003 0.0 0.0 -2.5563013E+002 0.0 0.0 -6.5294144E-001 0.0 0.0  1.2032974E-007 0.0 0.0 -7.5192489E+002 0.0 0.0 -3.4495557E+002 0.0 0.0 -3.8416381E+003 0.0 0.0 -2.2085033E+002 0.0 0.0 -7.4936202E+002 0.0 0.0 -2.5584575E+002 0.0 0.0 -8.7169067E+003 0.0 0.0 -3.4482531E+001 0.0 0.0 -6.0444623E+003 0.0 0.0 -5.6754910E+002 0.0 0.0 -6.5252656E+003 0.0 0.0 -4.6206074E+003 0.0 0.0 -1.6581614E+002 0.0 0.0 -5.1687535E+003 0.0 0.0 -2.1743437E+002 0.0 0.0 -1.5484962E+003 0.0 0.0 -7.8196045E+002 0.0 0.0 -6.7153918E+003 0.0 0.0 -4.5826669E+002 0.0 0.0 -4.0681724E+003 0.0 0.0 -1.3274555E+002 0.0 0.0 -1.1346416E+003 0.0 0.0 -3.1572468E-002 0.0 0.0  7.7991245E-002 0.0 0.0  2.7086237E-014 0.0 0.0 -1.5174975E-014 0.0 0.0  9.2362987E+003 0.0 0.0 -1.3216068E+002 0.0 0.0  2.6959957E+004 0.0 0.0  1.2664453E+003 0.0 0.0 -1.1554252E+004 0.0 0.0 -4.1791796E+003 0.0 0.0  6.8973475E+003 0.0 0.0  5.7194411E+003 0.0 0.0  2.5378634E+003 0.0 0.0 -5.1498166E+003 0.0 0.0  3.2966957E+003 0.0 0.0  2.8134868E+003 0.0 0.0 -1.7793711E+003 0.0 0.0 -1.4009876E-001 0.0 0.0 -1.1591675E-001 0.0 0.0 -2.5421058E-002 0.0 0.0 -1.0077339E-010 0.0 0.0  5.1153605E-010 0.0 0.0 -3.3414184E+001 0.0 0.0  1.6661493E-001 0.0 0.0 -1.6402563E-007 0.0 0.0 -1.1333483E-007 0.0 0.0  8.4242506E+002 0.0 0.0 -3.3715082E+000 0.0 0.0  1.4887841E-003 0.0 0.0 -4.0213094E-002 0.0 0.0 -1.1759954E-001 0.0 0.0 -9.7156825E+003 0.0 0.0  1.3092793E-003 0.0 0.0 -3.5245562E-003 0.0 0.0  4.4913039E-001 0.0 0.0 -1.2832429E+000 0.0 0.0 -3.3214963E+000 0.0 0.0  4.3048233E-001 0.0 0.0 -1.4781241E+001 0.0 0.0  1.5548832E+001 0.0 0.0 -2.7894700E-001 0.0 0.0 -6.2914144E-001 0.0 0.0 -2.8887776E-001 0.0 0.0 -3.3684258E-001 0.0 0.0 -4.8605293E+000 0.0 0.0 -5.0297032E+000 0.0 0.0  4.4584723E-001 0.0 0.0 -1.3448234E+000 0.0 0.0 -3.2250641E-009 0.0 0.0 -1.2168683E-014 0.0 0.0  4.1516625E-007 0.0 0.0 -1.3410758E-008 0.0 0.0 -1.2679618E+000 0.0 0.0 -1.3735046E+001 0.0 0.0 -3.7298098E+000 0.0 0.0  4.6831677E-010 0.0 0.0 -5.2480768E-009 0.0 0.0  6.1434207E-008 0.0 0.0 -3.1895636E-009 0.0 0.0 -1.2980877E-010 0.0 0.0 -8.5378126E-002 0.0 0.0 -2.0632189E-003 0.0 0.0 -1.2457286E-004 0.0 0.0 -1.1908195E-004 0.0 0.0 -3.6599756E-003 0.0 0.0  4.8136154E-006 0.0 0.0 -3.4770850E-005 0.0 0.0 -1.2658500E+000 0.0 0.0 -1.5171291E-002 0.0 0.0 -2.2842976E-008 0.0 0.0 -3.9301776E-009 0.0 0.0 -5.1489142E-007 0.0 0.0  3.9645103E+001 0.0 0.0 -3.7432804E-001 0.0 0.0 -5.6102571E+001 0.0 0.0  3.5915444E-007 0.0 0.0 -5.1819272E+002 0.0 0.0 -2.7489376E-012 0.0 0.0 -3.4310394E+003 0.0 0.0  2.4585265E+001 0.0 0.0 -3.9084460E+002 0.0 0.0 -1.0619761E-003 0.0 0.0  3.2712875E-006 0.0 0.0 -2.4871150E+000 0.0 0.0  2.8416000E-004 0.0 0.0 -2.6650996E-003 0.0 0.0 -7.4023582E-004 0.0 0.0 -7.8423118E-001 0.0 0.0 -2.5974471E-009 0.0 0.0  7.9411072E-010 0.0 0.0 -7.3582923E-010 0.0 0.0 -1.1943500E-011 0.0 0.0  1.0955507E-009 0.0 0.0 -3.5041794E-011 0.0 0.0 -1.3252610E-011 0.0 0.0 -1.1411899E-012 0.0 0.0 -1.1955289E-011 0.0 0.0  2.9184531E-013 0.0 0.0  3.7553920E-013 0.0 0.0 -3.3938560E-014 0.0 0.0  2.0197745E-013 0.0 0.0 -5.0168793E-014 0.0 0.0 -3.8574625E-012 0.0 0.0  9.2342983E-010 0.0 0.0 -4.5271426E-015 0.0 0.0 -7.1287478E-015 0.0 0.0  8.6278506E-014 0.0 0.0 -4.0518150E-008 0.0 0.0 -1.2084225E-009 0.0 0.0 -1.5684819E-005 0.0 0.0  2.4396310E-014 0.0 0.0 -8.1103128E-014 0.0 0.0 -1.3388817E-014 0.0 0.0  4.4473865E+001 0.0 0.0  2.9920806E+002 0.0 0.0 -2.7380922E-004 0.0 0.0 -5.0784084E-001 0.0 0.0 -2.2394374E+001 0.0 0.0 -1.4494197E-002 0.0 0.0  4.0503626E-001 0.0 0.0  1.0867151E+004 0.0 0.0  4.1304784E+003 0.0 0.0  8.4187832E+003 0.0 0.0  5.7005286E+003 0.0 0.0 -9.7106954E+003 0.0 0.0 -2.7189558E+003 0.0 0.0  5.6274957E+003 0.0 0.0  1.2436957E+004 0.0 0.0  1.7110238E+003 0.0 0.0  2.9240160E+003 0.0 0.0 -3.7490356E+003 0.0 0.0 -4.3210981E+003 0.0 0.0  1.8784796E-002 0.0 0.0 -1.4165108E+001 0.0 0.0 -3.8788293E+003 0.0 0.0  1.0803796E-005 0.0 0.0  3.5068912E-001 0.0 0.0 -5.2754010E+000 0.0 0.0 -8.5091190E-006 0.0 0.0 -3.7881344E+000 0.0 0.0 -3.2155822E-014 0.0 0.0 -6.1631950E+001 0.0 0.0 -8.3175597E+000 0.0 0.0 -2.0649182E+001 0.0 0.0  4.5121300E+000 0.0 0.0 -1.2720878E+001 0.0 0.0 -3.1068997E+001 0.0 0.0 -1.6336908E-002 0.0 0.0 -2.0457844E+000 0.0 0.0 -7.7205152E-001 0.0 0.0 -6.4946528E-001 0.0 0.0 -1.1266946E-004 0.0 0.0 -5.3543824E-006 0.0 0.0 -4.9393261E+001 0.0 0.0 -3.2128087E+000 0.0 0.0  2.1120477E-009 0.0 0.0  4.2125209E+000 0.0 0.0 -4.3371748E+002 0.0 0.0 -1.3952314E-002 0.0 0.0  7.7265703E-015 0.0 0.0 -5.1358678E+000 0.0 0.0  1.3335632E-007 0.0 0.0  1.9435686E-008 0.0 0.0 -2.7876995E-007 0.0 0.0 -5.6006888E+001 0.0 0.0 -2.4495095E+001 0.0 0.0 -1.6706108E+001 0.0 0.0 -4.8686350E+002 0.0 0.0 -6.3400658E+001 0.0 0.0 -5.1716039E+001 0.0 0.0 -3.3145277E+002 0.0 0.0  1.0423100E+003 0.0 0.0 -9.5253861E+001 0.0 0.0  7.7083039E-002 0.0 0.0 -2.3828208E-002 0.0 0.0 -5.6207595E-001 0.0 0.0 -1.3618003E+001 0.0 0.0  1.6542791E+002 0.0 0.0  1.3876915E+003 0.0 0.0  2.3915292E+001 0.0 0.0 -5.3139226E-009 0.0 0.0 -6.8131199E-006 0.0 0.0 -3.8052430E+003 0.0 0.0 -3.5729436E+002 0.0 0.0 -1.9569119E+001 0.0 0.0  5.3249649E+003 0.0 0.0 -4.8392718E+001 0.0 0.0  4.6806049E+003 0.0 0.0 -9.6408539E+001 0.0 0.0 -1.7982703E-001 0.0 0.0  2.3940098E-010 0.0 0.0 -2.4098464E-010 0.0 0.0 -3.0708032E-002 0.0 0.0 -3.7268567E-010 0.0 0.0 -6.0486689E-005 0.0 0.0 -1.4924327E+002 0.0 0.0 -1.6143418E-002 0.0 0.0  2.3219401E-001 0.0 0.0 -2.3045822E-010 0.0 0.0 -9.1111179E+000 0.0 0.0 -6.2123360E+000 0.0 0.0  3.6753284E+001 0.0 0.0 -3.2605510E+001 0.0 0.0 -8.0066866E-001 0.0 0.0 -2.8774660E+001 0.0 0.0 -1.3078871E+002 0.0 0.0 -8.6832028E+001 0.0 0.0 -3.1264365E-001 0.0 0.0  1.9943675E-002 0.0 0.0 -2.3562634E-008 0.0 0.0 -1.8855060E-001 0.0 0.0  3.5600908E+000 0.0 0.0 -3.1926769E+002 0.0 0.0 -4.6385236E-001 0.0 0.0  7.2146455E+000 0.0 0.0 -1.2845057E+001 0.0 0.0 -1.1164471E+002 0.0 0.0 -2.4899350E+002 0.0 0.0 -2.6658499E+002 0.0 0.0 -5.2867387E+001 0.0 0.0  3.3509418E+002 0.0 0.0 -1.0691855E-003 0.0 0.0 -7.7932337E+002 0.0 0.0 -2.7270713E+002 0.0 0.0 -5.1338965E+000 0.0 0.0 -1.8017940E+002 0.0 0.0 -3.6371259E+002 0.0 0.0 -5.8123049E+002 0.0 0.0 -3.2624880E+002 0.0 0.0 -3.5660613E+002 0.0 0.0 -9.6624476E+000 0.0 0.0 -2.3599429E+000 0.0 0.0 -9.0483438E-010 0.0 0.0  2.8168124E-011 0.0 0.0 -4.5956466E-011 0.0 0.0  5.0985002E-010 0.0 0.0 -2.4232319E-009 0.0 0.0  1.3574848E-008 0.0 0.0 -1.6804609E-010 0.0 0.0  9.5015128E-009 0.0 0.0 -8.9410202E-010 0.0 0.0  8.1335296E-008 0.0 0.0 -1.3800554E-011 0.0 0.0 -1.0190336E+003 0.0 0.0 -1.4150993E+002 0.0 0.0  1.0881848E+002 0.0 0.0  8.8539651E+000 0.0 0.0 -4.3006292E+000 0.0 0.0  1.4595224E+002 0.0 0.0 -1.7536194E+000 0.0 0.0 -3.0254118E-002 0.0 0.0 -1.5571103E+001 0.0 0.0  4.6381393E+001 0.0 0.0 -2.1135714E+002 0.0 0.0  5.9757609E+002 0.0 0.0 -2.8244813E+002 0.0 0.0 -9.9387148E+002 0.0 0.0 -2.5536772E+000 0.0 0.0 -1.0617526E+001 0.0 0.0  3.4731152E+000 0.0 0.0  9.6054427E-002 0.0 0.0 -2.8733673E+001 0.0 0.0 -1.9064329E+001 0.0 0.0 -3.9973267E+001 0.0 0.0  7.8710663E+000 0.0 0.0 -3.2132585E-001 0.0 0.0 -7.3464620E-003 0.0 0.0 -4.2280548E-002 0.0 0.0 -8.9038416E-001 0.0 0.0 -6.4741379E-011 0.0 0.0 -9.9892779E+000 0.0 0.0 -1.0088970E-012 0.0 0.0 -3.2495055E+003 0.0 0.0 -2.8595756E+003 0.0 0.0 -9.7777184E-001 0.0 0.0 -4.3351737E+000 0.0 0.0 -6.6391481E+000 0.0 0.0  6.4413348E-001 0.0 0.0 -3.1090297E+000 0.0 0.0  1.2077027E+000 0.0 0.0 -1.6074879E+002 0.0 0.0  1.1079012E+002 0.0 0.0 -5.2602922E-001 0.0 0.0 -8.4118728E+000 0.0 0.0 -2.7352916E+001 0.0 0.0 -1.3272146E+003 0.0 0.0 -1.7933631E-001 0.0 0.0 -6.8817926E-001 0.0 0.0 -2.4144632E-014 0.0 0.0 -1.2956918E+002 0.0 0.0 -3.5145110E+001 0.0 0.0 -1.5143956E-002 0.0 0.0 -1.0127258E-002 0.0 0.0 -2.8146984E-003 0.0 0.0 -1.7363414E-005 0.0 0.0 -5.9475478E-005 0.0 0.0  2.5505751E+002 0.0 0.0  1.8498363E+001 0.0 0.0  5.5070460E-001 0.0 0.0  1.4347303E+000 0.0 0.0  7.9812527E-002 0.0 0.0 -9.8880767E-002 0.0 0.0 -1.1896339E+002 0.0 0.0 -3.9214886E+003 0.0 0.0 -1.0731583E-001 0.0 0.0  4.3419905E-001 0.0 0.0 -2.7438874E+001 0.0 0.0 -1.1315880E-004 0.0 0.0 -1.7644643E-011 0.0 0.0 -2.4946214E-003 0.0 0.0 -3.0661862E-003 0.0 0.0 -4.1552318E+000 0.0 0.0 -3.0579185E-014 0.0 0.0 -7.8332159E+002 0.0 0.0 -6.3764395E-002 0.0 0.0 -3.0267829E-002 0.0 0.0  1.3910740E+003 0.0 0.0 -5.4352699E+001 0.0 0.0 -1.4796131E+001 0.0 0.0 -2.2896131E+002 0.0 0.0 -7.2123879E+001 0.0 0.0 -3.5415102E-010 0.0 0.0 -7.3936868E+002 0.0 0.0 -3.9811400E+002 0.0 0.0 -2.0856809E-005 0.0 0.0 -2.4122726E+002 0.0 0.0 -5.5854189E+001 0.0 0.0 -1.1245384E-002 0.0 0.0 -1.1691784E+002 0.0 0.0 -1.9850293E+001 0.0 0.0 -1.1860198E+002 0.0 0.0 -4.0866731E+001 0.0 0.0 -1.3160792E+001 0.0 0.0 -7.8674114E-014 0.0 0.0 -2.8209014E+002 0.0 0.0 -3.5300775E+000 0.0 0.0 -5.2115709E+001 0.0 0.0 -1.0013922E+003 0.0 0.0 -5.5719562E-011 0.0 0.0 -5.8420830E-012 0.0 0.0 -1.4699898E-012 0.0 0.0 -2.0502890E-013 0.0 0.0  5.4620929E-015 0.0 0.0 -3.9462226E-014 0.0 0.0 -4.0608379E-002 0.0 0.0 -3.2556923E-014 0.0 0.0 -1.7224375E-003 0.0 0.0 -6.0930973E-014 0.0 0.0  1.2320557E-007 0.0 0.0  1.1638850E-013 0.0 0.0  8.8159534E-013 0.0 0.0  2.9940912E-012 0.0 0.0  7.0317997E-015 0.0 0.0 -6.2046110E-014 0.0 0.0  1.9997909E-006 0.0 0.0  1.0586252E-009 0.0 0.0 -3.9598307E-003 0.0 0.0 -2.8041570E-001 0.0 0.0 -1.4314040E-003 0.0 0.0  2.0254230E-002 0.0 0.0  9.5904932E-006 0.0 0.0  1.4689638E-006 0.0 0.0 -3.2762488E-008 0.0 0.0 -2.2722658E-009 0.0 0.0 -1.1048583E-010 0.0 0.0 -1.9251271E-010 0.0 0.0 -3.6206934E-008 0.0 0.0 -2.5443024E-009 0.0 0.0 -2.5652932E-010 0.0 0.0  2.8049918E-011 0.0 0.0  6.7582962E-006 0.0 0.0 -5.3538643E-007 0.0 0.0 -2.5549019E-006 0.0 0.0 -1.5348026E-003 0.0 0.0  1.2533492E-006 0.0 0.0 -3.3980258E-007 0.0 0.0  7.3933550E-006 0.0 0.0 -4.7839971E-009 0.0 0.0 -1.0657171E-007 0.0 0.0  2.1386848E-007 0.0 0.0 -1.3975579E-010 0.0 0.0  1.7882917E-008 0.0 0.0 -1.6088348E-008 0.0 0.0 -2.9115273E-007 0.0 0.0 -5.2352146E-010 0.0 0.0  3.8962030E-013 0.0 0.0 -3.6962546E-008 0.0 0.0 -6.8115286E-008 0.0 0.0 -9.3333937E-014 0.0 0.0 -1.8687331E-014 0.0 0.0 -5.0224618E-014 0.0 0.0 -6.2575650E-014 0.0 0.0  6.5839438E-014 0.0 0.0 -2.0173635E-014 0.0 0.0 -5.4348838E-014 0.0 0.0 -7.9184080E-016 0.0 0.0 -5.4949828E-014 0.0 0.0 -2.8751675E-014 0.0 0.0  1.9943524E-013 0.0 0.0  7.8184336E-013 0.0 0.0  1.0457336E-013 0.0 0.0 -4.0125977E-012 0.0 0.0  1.2763252E-013 0.0 0.0 -1.7444557E-012 0.0 0.0 -4.6077838E-011 0.0 0.0 -4.4052224E-010 0.0 0.0 -3.2804811E-010 0.0 0.0 -1.2938091E-011 0.0 0.0  1.7383784E-015 0.0 0.0 -9.7698297E-013 0.0 0.0 -1.2854890E-013 0.0 0.0 -1.6336840E-011 0.0 0.0 -6.6212103E-008 0.0 0.0 -3.9857384E-009 0.0 0.0  3.6219828E-014 0.0 0.0  6.3240007E-014 0.0 0.0 -8.5234376E-015 0.0 0.0 -5.3110600E-014 0.0 0.0 -5.4972694E-014 0.0 0.0 -5.8094062E-010 0.0 0.0 -5.3533836E-008 0.0 0.0 -1.2317199E-010 0.0 0.0  5.6408310E-015 0.0 0.0  3.9910111E-006 0.0 0.0 -1.8828581E-011 0.0 0.0  6.8102895E-014 0.0 0.0 -3.6955230E-013 0.0 0.0  1.9455313E-010 0.0 0.0  4.6688171E-011 0.0 0.0  4.1486944E-013 0.0 0.0  1.2510144E-011 0.0 0.0 -1.8661968E-010 0.0 0.0 -7.2019197E-009 0.0 0.0  1.3360567E-011 0.0 0.0  3.2362497E-010 0.0 0.0  3.1823814E-012 0.0 0.0 -5.4034636E+004 0.0 0.0  2.7050582E-011 0.0 0.0 -2.3754037E-003 0.0 0.0 -1.0569195E+003 0.0 0.0 -1.2837514E+003 0.0 0.0 -1.3023829E+003 0.0 0.0 -1.2687538E+003 0.0 0.0 -3.2027839E+003 0.0 0.0 -2.1731167E+003 0.0 0.0 -2.7267271E+002 0.0 0.0 -9.0949644E+002 0.0 0.0 -1.1576347E+004 0.0 0.0 -1.4581698E+004 0.0 0.0 -1.3821479E+002 0.0 0.0 -8.1362888E-014 0.0 0.0  4.1586455E-001 0.0 0.0 -8.3931894E+001 0.0 0.0 -7.1375142E+003 0.0 0.0  8.9662005E-016 0.0 0.0 -8.3392007E-001 0.0 0.0 -1.0946693E+001 0.0 0.0  3.0032743E+003 0.0 0.0  5.2426043E+002 0.0 0.0  3.0459018E+001 0.0 0.0  5.1431689E+003 0.0 0.0  9.2678559E+003 0.0 0.0  2.0827701E+003 0.0 0.0  6.5718639E+003 0.0 0.0  1.7023102E-007 0.0 0.0 -1.8573215E+003 0.0 0.0 -7.9476745E-008 0.0 0.0 -1.5272170E-006 0.0 0.0  3.2980853E-001 0.0 0.0 -3.6216119E+000 0.0 0.0 -2.4666406E+003 0.0 0.0 -9.8124056E-001 0.0 0.0  1.4562455E+001 0.0 0.0 -5.1722241E-011 0.0 0.0 -5.0548640E+003 0.0 0.0 -8.1890623E-002 0.0 0.0 -9.8151172E+002 0.0 0.0  1.4717978E+001 0.0 0.0 -5.2506148E+002 0.0 0.0 -3.5314957E+002 0.0 0.0 -3.8620807E+003 0.0 0.0 -3.3000018E+002 0.0 0.0  1.9999005E-004 0.0 0.0  2.0220018E-004 0.0 0.0  1.4131272E-013 0.0 0.0 -2.9019429E+001 0.0 0.0 -1.0793341E+000 0.0 0.0 -5.4442580E-001 0.0 0.0  2.2733727E-005 0.0 0.0 -2.3615952E+003 0.0 0.0 -8.3654326E-009 0.0 0.0 -2.5281359E+002 0.0 0.0  2.5976440E-001 0.0 0.0  4.5097556E-002 0.0 0.0  1.6720736E-014 0.0 0.0  4.1851906E-014 0.0 0.0  7.8833941E-015 0.0 0.0 -6.1839860E+001 0.0 0.0 -4.5118669E+001 0.0 0.0 -2.6150138E-004 0.0 0.0 -2.8461715E+003 0.0 0.0  6.8634065E-014 0.0 0.0 -3.6823897E-012 0.0 0.0 -2.8345632E+003 0.0 0.0 -8.4572841E+002 0.0 0.0 -2.8124878E-007 0.0 0.0 -3.2433310E-015 0.0 0.0  1.5781560E-005 0.0 0.0  1.9396383E+000 0.0 0.0 -9.0340231E+001 0.0 0.0 -1.2227258E+002 0.0 0.0  2.6993230E+000 0.0 0.0  5.6534812E-006 0.0 0.0  5.4947411E+002 0.0 0.0  6.6615134E-002 0.0 0.0 -6.8567637E+001 0.0 0.0 -6.3475824E+002 0.0 0.0 -2.1542730E-001 0.0 0.0 -3.1009409E-001 0.0 0.0  2.0429439E-001 0.0 0.0 -5.1990914E-001 0.0 0.0 -4.8146001E-005 0.0 0.0 -5.6363341E+004 0.0 0.0 -3.3914527E+003 0.0 0.0 -3.1597170E+000 0.0 0.0 -3.9076156E+001 0.0 0.0  2.3492009E-004 0.0 0.0  4.1919960E-013 0.0 0.0 -2.0227265E+003 0.0 0.0 -6.9139687E-003 0.0 0.0 -1.0891445E+003 0.0 0.0 -1.1866092E+002 0.0 0.0 -3.9573164E+000 0.0 0.0 -6.6449064E+002 0.0 0.0 -2.8538721E+002 0.0 0.0 -2.1359992E+002 0.0 0.0 -9.5152042E+002 0.0 0.0 -1.2410823E+003 0.0 0.0 -1.4603320E+003 0.0 0.0 -1.5287939E+002 0.0 0.0  9.1877631E+003 0.0 0.0 -1.1327661E+000 0.0 0.0 -9.6543276E-008 0.0 0.0 -1.2267744E+002 0.0 0.0 -2.7791469E+000 0.0 0.0 -2.2566237E+002 0.0 0.0 -9.7770949E-007 0.0 0.0 -5.7388509E-004 0.0 0.0 -3.5444631E-002 0.0 0.0 -6.9185510E-001 0.0 0.0 -5.0411058E+000 0.0 0.0 -5.5127759E-003 0.0 0.0 -1.0373824E+000 0.0 0.0 -2.9433669E+003 0.0 0.0 -1.5825987E+000 0.0 0.0  2.0318994E-003 0.0 0.0 -6.9570857E+001 0.0 0.0 -2.1513590E-002 0.0 0.0  8.8626097E+001 0.0 0.0 -7.2127239E+002 0.0 0.0  4.2407120E+004 0.0 0.0  4.0492252E+004 0.0 0.0  1.1412836E+003 0.0 0.0  1.1937189E+004 0.0 0.0  1.3569451E+005 0.0 0.0 -1.4439076E-004 0.0 0.0  1.2468035E+003 0.0 0.0 -4.8515688E+000 0.0 0.0 -4.9875107E+003 0.0 0.0 -8.3917392E+002 0.0 0.0 -1.4871028E+003 0.0 0.0 -6.0100696E+001 0.0 0.0 -3.8881904E+001 0.0 0.0 -2.8685937E+002 0.0 0.0 -2.7781615E+003 0.0 0.0 -3.7861073E-006 0.0 0.0 -6.7994218E+002 0.0 0.0 -5.0251071E-009 0.0 0.0 -1.4105005E-013 0.0 0.0  1.2718172E-013 0.0 0.0 -2.5832718E+001 0.0 0.0  3.0024065E-002 0.0 0.0 -1.7523951E+000 0.0 0.0 -8.9538509E-002 0.0 0.0 -5.4013433E-003 0.0 0.0 -4.6682710E-014 0.0 0.0 -4.1719050E-005 0.0 0.0 -1.1759752E+000 0.0 0.0 -2.1300893E-001 0.0 0.0  2.6388196E+004 0.0 0.0 -2.5610939E+000 0.0 0.0  6.4480977E-002 0.0 0.0 -3.3152498E+002 0.0 0.0  1.3233127E+001 0.0 0.0 -2.2611237E-001 0.0 0.0 -2.4292522E+000 0.0 0.0 -1.0357143E-002 0.0 0.0 -2.1932851E+001 0.0 0.0 -2.6643598E+001 0.0 0.0 -1.9650885E-002 0.0 0.0  4.1101204E+000 0.0 0.0 -9.5285987E+002 0.0 0.0  3.2203794E+004 0.0 0.0  2.7560050E+005 0.0 0.0 -1.8313057E+001 0.0 0.0  1.4974723E+005 0.0 0.0 -5.8756309E+002 0.0 0.0  1.0146374E+005 0.0 0.0 -2.6691466E-001 0.0 0.0 -2.9289180E-001 0.0 0.0 -4.5747384E+000 0.0 0.0  7.1008545E+000 0.0 0.0 -1.6271298E+004 0.0 0.0 -2.7705384E+004 0.0 0.0  4.8225273E+004 0.0 0.0 -5.0161481E+003 0.0 0.0 -2.1805294E+004 0.0 0.0  8.3919378E+003 0.0 0.0  9.7278714E+003 0.0 0.0 -1.5710280E+003 0.0 0.0 -8.4222731E+002 0.0 0.0  3.0068407E+003 0.0 0.0  4.5565325E+002 0.0 0.0 -2.9196983E+004 0.0 0.0  2.0186341E+003 0.0 0.0  1.0091138E+005 0.0 0.0  3.0550818E+005 0.0 0.0  1.7483390E+005 0.0 0.0  2.7228000E+005 0.0 0.0  3.1488325E+005 0.0 0.0  1.5926977E+005 0.0 0.0  2.5384567E+005 0.0 0.0  9.9227459E+004 0.0 0.0  9.1540707E+004 0.0 0.0  1.3247152E+005 0.0 0.0  2.6223910E+005 0.0 0.0  8.6001624E+003 0.0 0.0 -2.6518626E+003 0.0 0.0  1.5901439E+002 0.0 0.0 -1.1577606E+004 0.0 0.0 -3.8080588E-005 0.0 0.0 -4.7763138E+001 0.0 0.0 -6.7977368E-004 0.0 0.0  1.0600612E+005 0.0 0.0  8.0984460E+004 0.0 0.0  8.3113599E+004 0.0 0.0  1.3524813E+005 0.0 0.0  3.1225310E+003 0.0 0.0 -3.0392581E+003 0.0 0.0 -7.5438347E+003 0.0 0.0 -1.4426062E+004 0.0 0.0  3.8589804E+002 0.0 0.0 -1.5995377E+004 0.0 0.0 -9.3281039E+001 0.0 0.0 -4.7435012E+003 0.0 0.0 -6.4065644E+001 0.0 0.0 -4.4891222E-012 0.0 0.0  1.0415627E+000 0.0 0.0 -1.9423193E-005 0.0 0.0 -2.0402050E+002 0.0 0.0 -1.4304955E+001 0.0 0.0 -7.4606543E-002 0.0 0.0 -1.2914846E+004 0.0 0.0 -8.2041714E+003 0.0 0.0 -3.7196452E+003 0.0 0.0 -9.0868769E+003 0.0 0.0 -1.0927038E+004 0.0 0.0 -1.1255548E+004 0.0 0.0 -1.6809523E+003 0.0 0.0 -4.3581226E+003 0.0 0.0 -1.5850639E+004 0.0 0.0 -8.8385095E+003 0.0 0.0 -3.6549408E+004 0.0 0.0 -2.5276322E+004 0.0 0.0 -1.1603261E+004 0.0 0.0 -2.0329434E+004 0.0 0.0 -2.3921155E+004 0.0 0.0 -5.0285386E+003 0.0 0.0 -2.1410013E+004 0.0 0.0 -1.8506232E+004 0.0 0.0 -2.4902399E+004 0.0 0.0 -1.3858980E+004 0.0 0.0 -2.4293651E+004 0.0 0.0 -7.9568557E+003 0.0 0.0 -9.9844659E+003 0.0 0.0 -1.4034225E+004 0.0 0.0 -2.4836244E+004 0.0 0.0 -2.1825252E+004 0.0 0.0 -1.4889074E+004 0.0 0.0 -3.0720269E+002 0.0 0.0  2.9010506E-003 0.0 0.0 -6.5596933E+001 0.0 0.0 -1.2000234E+001 0.0 0.0  3.4034332E-007 0.0 0.0 -6.1822406E+002 0.0 0.0 -1.9054676E+003 0.0 0.0 -6.6333012E+001 0.0 0.0 -8.2329151E+001 0.0 0.0 -4.4509666E+003 0.0 0.0 -1.6871941E+003 0.0 0.0 -1.8200822E+003 0.0 0.0 -6.4316171E-012 0.0 0.0  8.4523762E+000 0.0 0.0 -1.2461908E-008 0.0 0.0 -2.3763644E+002 0.0 0.0  2.2355898E-008 0.0 0.0  1.4128321E-013 0.0 0.0 -9.3820543E-013 0.0 0.0  5.1244483E+000 0.0 0.0 -1.7308063E-011 0.0 0.0  1.5006047E-012 0.0 0.0 -1.3880352E+003 0.0 0.0  1.2956424E+003 0.0 0.0 -1.5196085E+001 0.0 0.0 -3.3121194E+003 0.0 0.0 -3.1908907E-006 0.0 0.0  1.3139940E+004 0.0 0.0  1.5537676E-003 0.0 0.0 -7.2879325E-011 0.0 0.0  3.2421805E-008 0.0 0.0 -4.0284483E-007 0.0 0.0 -3.2226286E+002 0.0 0.0  1.1795485E-004 0.0 0.0 -4.8512453E+000 0.0 0.0  7.0972055E-009 0.0 0.0 -2.2364049E-001 0.0 0.0 -6.5525474E+002 0.0 0.0 -1.6564546E+003 0.0 0.0 -2.0436951E+002 0.0 0.0 -5.1459168E-010 0.0 0.0 -7.3830805E-010 0.0 0.0 -9.0430416E-001 0.0 0.0 -2.4932817E+002 0.0 0.0 -1.9456470E+003 0.0 0.0 -1.4330300E-002 0.0 0.0 -1.3248878E-007 0.0 0.0 -2.3426733E+002 0.0 0.0  1.8619885E-006 0.0 0.0 -5.6421529E-001 0.0 0.0  7.0144833E-011 0.0 0.0 -3.7396499E+001 0.0 0.0 -5.0436814E+000 0.0 0.0 -1.6506013E-004 0.0 0.0 -1.8929264E+002 0.0 0.0  4.1475780E-002 0.0 0.0 -1.6569002E-011 0.0 0.0 -2.6093605E+001 0.0 0.0 -6.4482225E+001 0.0 0.0  4.7557878E+004 0.0 0.0  1.6917066E+004 0.0 0.0  3.1157958E+004 0.0 0.0  2.3718236E+004 0.0 0.0  2.8747138E+004 0.0 0.0  4.0359823E+004 0.0 0.0  3.7306468E+004 0.0 0.0 -6.4305868E+001 0.0 0.0 -1.0976338E+005 0.0 0.0 -4.2608386E-004 0.0 0.0 -4.2211821E+003 0.0 0.0 -5.4703906E-007 0.0 0.0  5.6614452E+003 0.0 0.0 -8.9662498E+000 0.0 0.0 -5.4773046E+000 0.0 0.0  9.2668286E+003 0.0 0.0 -1.2381235E+004 0.0 0.0 -1.7985696E-011 0.0 0.0  1.9668885E+004 0.0 0.0 -1.1148582E+004 0.0 0.0 -4.1467208E+003 0.0 0.0 -2.9251362E-001 0.0 0.0  2.5339000E-003 0.0 0.0 -4.1922634E+000 0.0 0.0 -2.8602784E+000 0.0 0.0 -4.0296202E+001 0.0 0.0 -9.7414609E+002 0.0 0.0 -4.0649194E-003 0.0 0.0 -9.0334435E-004 0.0 0.0 -6.2048007E-002 0.0 0.0 -1.8463366E+001 0.0 0.0 -2.7488875E+003 0.0 0.0 -3.0346264E+001 0.0 0.0 -4.7893027E-003 0.0 0.0 -1.5543660E+000 0.0 0.0 -3.7148183E+001 0.0 0.0  1.0586682E+002 0.0 0.0 -2.3508314E+002 0.0 0.0 -5.7362953E-006 0.0 0.0 -1.0397300E+004 0.0 0.0 -5.8346703E+000 0.0 0.0 -2.3531782E+001 0.0 0.0 -1.9906921E+001 0.0 0.0 -3.3295958E+004
        </DataArray>
        <DataArray type="Float64" Name="current density im" NumberOfComponents="3" format="ascii">
 0.0 0.0  1.3859896E+005 0.0 0.0  1.7384680E+003 0.0 0.0 -1.7892023E+004 0.0 0.0 -1.2239286E+005 0.0 0.0 -5.5323592E+003 0.0 0.0 -5.2394469E+003 0.0 0.0 -2.0594629E+004 0.0 0.0  1.5044676E+004 0.0 0.0  8.5358754E+001 0.0 0.0 -3.3512706E-007 0.0 0.0 -1.2807453E-002 0.0 0.0 -3.0340397E-006 0.0 0.0  4.5336180E-011 0.0 0.0 -1.4914869E-009 0.0 0.0  1.2025386E-004 0.0 0.0  2.6736179E-005 0.0 0.0  7.1532489E-017 0.0 0.0  1.8331287E-017 0.0 0.0  1.6001576E-005 0.0 0.0 -6.3899817E+002 0.0 0.0  7.0238940E+004 0.0 0.0 -2.2256012E+002 0.0 0.0  1.3064413E+004 0.0 0.0 -3.0731798E+004 0.0 0.0 -3.1579382E+004 0.0 0.0 -2.3223576E+004 0.0 0.0 -1.8990757E+004 0.0 0.0 -1.4571669E+004 0.0 0.0 -8.3898898E+003 0.0 0.0 -8.4858793E+003 0.0 0.0 -3.3037841E+003 0.0 0.0 -1.2706990E+003 0.0 0.0  6.5486746E+002 0.0 0.0  2.0716840E+003 0.0 0.0  3.3207948E+003 0.0 0.0  3.6675587E+003 0.0 0.0  3.7142553E+003 0.0 0.0  3.9377153E+003 0.0 0.0  3.5883334E+003 0.0 0.0 -1.9337819E+005 0.0 0.0 -1.4741914E+005 0.0 0.0 -1.2386797E+005 0.0 0.0 -1.0770902E+005 0.0 0.0 -1.0151887E+005 0.0 0.0 -7.5187414E+004 0.0 0.0 -5.7257555E+004 0.0 0.0 -8.4291279E+004 0.0 0.0 -5.7374935E+004 0.0 0.0 -6.1645084E+004 0.0 0.0 -4.6496805E+004 0.0 0.0 -1.5045277E+004 0.0 0.0 -1.3315208E+004 0.0 0.0 -2.1684485E+004 0.0 0.0 -1.8066397E+004 0.0 0.0 -1.9820560E+004 0.0 0.0 -1.7557145E+004 0.0 0.0 -2.0651739E+004 0.0 0.0 -1.5576078E+004 0.0 0.0 -2.0645701E+004 0.0 0.0 -1.9331108E+004 0.0 0.0 -1.6704456E+004 0.0 0.0 -2.4749324E+004 0.0 0.0 -1.7729932E+004 0.0 0.0 -1.8661297E+004 0.0 0.0 -2.8264830E+004 0.0 0.0 -1.9503153E+004 0.0 0.0  1.9694096E+004 0.0 0.0  2.1845879E+004 0.0 0.0  2.5465560E+004 0.0 0.0  2.5140931E+004 0.0 0.0  3.1562905E+004 0.0 0.0  3.6427622E+004 0.0 0.0  4.1534693E+004 0.0 0.0  4.8691856E+004 0.0 0.0  4.9115358E+004 0.0 0.0  5.0166727E+004 0.0 0.0  4.5945182E+004 0.0 0.0  4.4755848E+004 0.0 0.0  6.4441901E+004 0.0 0.0  4.1411264E+004 0.0 0.0  4.6613885E+004 0.0 0.0  4.8674055E+004 0.0 0.0  3.6410122E+004 0.0 0.0  5.0176990E+004 0.0 0.0  4.2858178E+004 0.0 0.0  3.7650236E+004 0.0 0.0  3.3161368E+004 0.0 0.0  2.8486347E+004 0.0 0.0  3.2943762E+004 0.0 0.0  2.3285683E+004 0.0 0.0  2.2920237E+004 0.0 0.0  1.9254357E+004 0.0 0.0  1.8410146E+004 0.0 0.0  1.3824547E+004 0.0 0.0  1.1468739E+004 0.0 0.0  1.1487733E+004 0.0 0.0  8.7545098E+003 0.0 0.0  5.0648214E+003 0.0 0.0  5.1316983E+003 0.0 0.0  1.2854735E+003 0.0 0.0 -5.4278809E+002 0.0 0.0 -2.0764503E+003 0.0 0.0 -4.1913224E+003 0.0 0.0 -5.7002482E+003 0.0 0.0 -7.2708834E+003 0.0 0.0 -7.6740278E+003 0.0 0.0 -1.1521424E+004 0.0 0.0 -1.0843662E+004 0.0 0.0 -1.2696845E+004 0.0 0.0 -1.2288763E+004 0.0 0.0 -1.8013130E+004 0.0 0.0 -1.5352460E+004 0.0 0.0 -1.5314838E+004 0.0 0.0 -1.4626051E+004 0.0 0.0 -2.2365442E+004 0.0 0.0 -1.7914848E+004 0.0 0.0 -1.7263748E+004 0.0 0.0 -1.6401355E+004 0.0 0.0 -2.5095830E+004 0.0 0.0 -2.0172664E+004 0.0 0.0 -2.0200448E+004 0.0 0.0 -1.9467359E+004 0.0 0.0 -1.9842149E+004 0.0 0.0 -2.5337817E+004 0.0 0.0 -1.9759200E+004 0.0 0.0 -2.0390073E+004 0.0 0.0 -1.9983454E+004 0.0 0.0 -2.6862571E+004 0.0 0.0 -2.1462007E+004 0.0 0.0 -2.1572594E+004 0.0 0.0 -2.0654508E+004 0.0 0.0 -2.0912797E+004 0.0 0.0 -2.6280082E+004 0.0 0.0 -2.0685941E+004 0.0 0.0 -2.0207730E+004 0.0 0.0 -1.8897922E+004 0.0 0.0 -2.0178463E+004 0.0 0.0 -2.5378663E+004 0.0 0.0 -1.9541634E+004 0.0 0.0 -1.8696231E+004 0.0 0.0 -1.9128225E+004 0.0 0.0 -1.8628650E+004 0.0 0.0 -1.7627452E+004 0.0 0.0 -1.8166532E+004 0.0 0.0 -1.8472037E+004 0.0 0.0 -1.9467157E+004 0.0 0.0 -2.4826219E+004 0.0 0.0 -2.0334621E+004 0.0 0.0 -2.1576298E+004 0.0 0.0 -1.2574575E+000 0.0 0.0 -2.2210653E-002 0.0 0.0 -2.3250011E-001 0.0 0.0 -2.0884875E-001 0.0 0.0 -4.1758874E-001 0.0 0.0 -4.4669228E-001 0.0 0.0 -3.2856104E-002 0.0 0.0 -6.7659232E-002 0.0 0.0 -4.8939402E-001 0.0 0.0  1.1166099E+000 0.0 0.0 -3.3745724E+000 0.0 0.0 -1.6189558E+000 0.0 0.0 -1.8851135E+000 0.0 0.0 -1.9051037E+000 0.0 0.0 -2.7253380E-001 0.0 0.0 -5.4725450E-001 0.0 0.0 -1.4845468E-001 0.0 0.0 -4.9332909E-001 0.0 0.0 -1.0409275E+000 0.0 0.0  4.0873799E-001 0.0 0.0 -1.1127372E+000 0.0 0.0 -9.4140589E-002 0.0 0.0 -2.7149584E+000 0.0 0.0 -1.9953572E+000 0.0 0.0 -1.8091443E+000 0.0 0.0 -4.2316513E-001 0.0 0.0 -1.0044427E-001 0.0 0.0  1.4988090E-003 0.0 0.0 -1.4791496E-004 0.0 0.0 -9.1756947E-007 0.0 0.0 -9.2712617E-007 0.0 0.0  1.4261725E-006 0.0 0.0 -2.2271937E-006 0.0 0.0 -7.2890480E-007 0.0 0.0 -1.3986432E-007 0.0 0.0  7.5198526E-006 0.0 0.0  5.0756985E-006 0.0 0.0  4.1698039E-004 0.0 0.0  4.0216895E-007 0.0 0.0 -9.6925404E-007 0.0 0.0 -1.6073931E-006 0.0 0.0 -1.7752488E-006 0.0 0.0 -1.4510571E-006 0.0 0.0 -1.1792422E-006 0.0 0.0 -2.0760220E-006 0.0 0.0 -1.7741638E-006 0.0 0.0 -2.5652990E-006 0.0 0.0 -2.0264074E-006 0.0 0.0 -2.8767537E-007 0.0 0.0 -2.0750260E-006 0.0 0.0 -3.4818398E-006 0.0 0.0  2.9239653E-006 0.0 0.0  5.9030987E-006 0.0 0.0  4.7495091E-006 0.0 0.0 -1.9876620E-006 0.0 0.0 -1.6217617E-006 0.0 0.0 -1.9345236E-006 0.0 0.0 -2.4627753E-006 0.0 0.0 -2.8296013E-007 0.0 0.0 -2.8381959E-007 0.0 0.0 -4.9296614E-008 0.0 0.0 -3.9354208E-008 0.0 0.0 -3.7208126E-009 0.0 0.0 -6.9996132E-010 0.0 0.0 -4.1254794E-011 0.0 0.0  1.4224339E-010 0.0 0.0 -1.3356444E-008 0.0 0.0 -1.8656806E-008 0.0 0.0  3.7714983E-008 0.0 0.0 -2.0680868E-006 0.0 0.0 -2.4273022E-006 0.0 0.0  2.0269046E-006 0.0 0.0 -3.5562069E-005 0.0 0.0 -6.1039844E-005 0.0 0.0 -1.6966062E-004 0.0 0.0 -5.7034716E-005 0.0 0.0 -1.4549211E-004 0.0 0.0 -2.5194351E-004 0.0 0.0  7.8453681E-004 0.0 0.0  7.8457754E-004 0.0 0.0 -1.7861469E-004 0.0 0.0 -7.2800932E-005 0.0 0.0 -1.3953242E-005 0.0 0.0 -6.6618371E-005 0.0 0.0 -1.7125861E-004 0.0 0.0 -3.3062548E-004 0.0 0.0  1.6186749E-004 0.0 0.0 -1.3437802E-004 0.0 0.0  5.8250796E-006 0.0 0.0 -1.4658870E-004 0.0 0.0 -2.9342842E-005 0.0 0.0 -6.0188202E-005 0.0 0.0 -1.8734487E-004 0.0 0.0  4.8659048E-006 0.0 0.0 -1.7742212E-002 0.0 0.0 -1.1666341E-002 0.0 0.0 -6.8988824E-003 0.0 0.0 -2.2297192E-001 0.0 0.0 -3.0476670E-001 0.0 0.0 -2.6556904E-001 0.0 0.0  6.2139476E-001 0.0 0.0  5.2325879E+000 0.0 0.0 -7.4959848E+001 0.0 0.0 -3.9083871E+002 0.0 0.0  2.4263573E+003 0.0 0.0  6.8796616E+003 0.0 0.0  8.8376460E+003 0.0 0.0  8.3689939E+003 0.0 0.0  6.9726192E+003 0.0 0.0  6.9044482E+003 0.0 0.0  6.0497664E+003 0.0 0.0  4.8644316E+003 0.0 0.0  2.3665589E+005 0.0 0.0  2.2003340E+005 0.0 0.0  1.9760416E+005 0.0 0.0  1.9253409E+005 0.0 0.0  1.6496228E+005 0.0 0.0  1.8896098E+005 0.0 0.0  1.8053629E+005 0.0 0.0  1.4754158E+005 0.0 0.0  1.5490985E+005 0.0 0.0  1.4896976E+005 0.0 0.0  1.1755560E+005 0.0 0.0  1.1388936E+005 0.0 0.0  1.0229596E+005 0.0 0.0  8.0734590E+004 0.0 0.0  7.1838676E+004 0.0 0.0  7.1086420E+004 0.0 0.0  6.1296011E+004 0.0 0.0  4.6996030E+004 0.0 0.0  4.6568134E+004 0.0 0.0  4.3579157E+004 0.0 0.0  3.6521987E+004 0.0 0.0  3.2382029E+004 0.0 0.0  2.8773950E+004 0.0 0.0  2.5683127E+004 0.0 0.0  2.5292412E+004 0.0 0.0  2.3370857E+004 0.0 0.0  2.1346841E+004 0.0 0.0  1.8653166E+004 0.0 0.0  1.7576700E+004 0.0 0.0  1.6031437E+004 0.0 0.0  1.4243860E+004 0.0 0.0  1.2334403E+004 0.0 0.0  1.2520999E+004 0.0 0.0  1.3179564E+004 0.0 0.0  9.2278295E+003 0.0 0.0  1.0304591E+004 0.0 0.0  8.0384138E+003 0.0 0.0  6.4539279E+003 0.0 0.0  6.8870858E+003 0.0 0.0 -2.0494331E+001 0.0 0.0  2.4948670E+000 0.0 0.0 -6.3469181E-001 0.0 0.0  1.3690774E-001 0.0 0.0 -3.6595473E-002 0.0 0.0  9.1613720E-003 0.0 0.0 -1.7309975E-003 0.0 0.0  4.5181476E-004 0.0 0.0 -1.1786777E-004 0.0 0.0 -1.7487357E-006 0.0 0.0  8.9783826E-008 0.0 0.0 -8.4492663E-009 0.0 0.0  1.2486149E-011 0.0 0.0 -5.6306686E-011 0.0 0.0  4.4386909E-012 0.0 0.0  5.6426352E-012 0.0 0.0  1.2050511E-011 0.0 0.0  1.2869065E-012 0.0 0.0  1.8949156E-013 0.0 0.0  1.4677963E-013 0.0 0.0 -2.5537856E-015 0.0 0.0  1.6870891E-015 0.0 0.0 -2.8601847E-017 0.0 0.0 -3.2342725E-017 0.0 0.0  2.9719538E-016 0.0 0.0  7.3333060E-017 0.0 0.0  5.2385497E-017 0.0 0.0 -1.4957689E-015 0.0 0.0  4.9175637E-015 0.0 0.0 -9.5708103E-015 0.0 0.0  7.8379966E-015 0.0 0.0 -1.7712484E-013 0.0 0.0 -1.5108493E-013 0.0 0.0 -3.8874857E-014 0.0 0.0 -4.1479263E-014 0.0 0.0  1.6112496E-015 0.0 0.0 -1.0423251E-015 0.0 0.0 -1.4459797E-017 0.0 0.0  3.6484275E-018 0.0 0.0  1.6735660E-017 0.0 0.0  1.8145823E-017 0.0 0.0 -1.2890660E-018 0.0 0.0  2.0748672E-017 0.0 0.0 -3.6960784E-019 0.0 0.0  2.8328403E-017 0.0 0.0  1.8695528E-017 0.0 0.0  1.3233074E-017 0.0 0.0 -8.1887106E-017 0.0 0.0  1.4658303E-017 0.0 0.0  1.5239407E-017 0.0 0.0  3.9409359E-017 0.0 0.0 -8.6736898E-017 0.0 0.0  2.3718291E-016 0.0 0.0 -2.1460367E-017 0.0 0.0 -7.2240281E-015 0.0 0.0 -1.0134457E-013 0.0 0.0 -2.6252445E-012 0.0 0.0  7.6432717E-011 0.0 0.0 -2.2182765E-009 0.0 0.0 -4.0694599E-008 0.0 0.0  6.2426876E-007 0.0 0.0  8.4253319E-007 0.0 0.0 -2.0099728E-007 0.0 0.0  6.6197640E-008 0.0 0.0 -4.0427599E-008 0.0 0.0  1.1857675E-007 0.0 0.0 -3.9263247E-007 0.0 0.0  2.1618718E-006 0.0 0.0 -6.5477096E-006 0.0 0.0  2.4744429E-005 0.0 0.0 -1.1589781E-004 0.0 0.0  5.9914790E-004 0.0 0.0 -7.9604940E-003 0.0 0.0  2.0599199E-002 0.0 0.0 -4.8042092E-001 0.0 0.0  4.5052454E+000 0.0 0.0 -3.7878929E+001 0.0 0.0  5.1390080E+002 0.0 0.0  6.9012823E+002 0.0 0.0  1.2876731E+003 0.0 0.0  1.9016537E+003 0.0 0.0  2.5671711E+003 0.0 0.0  3.4195008E+003 0.0 0.0  4.0362352E+003 0.0 0.0  4.3192538E+003 0.0 0.0  5.1614525E+003 0.0 0.0  6.1208938E+003 0.0 0.0  6.5743186E+003 0.0 0.0  7.1984950E+003 0.0 0.0  8.1725751E+003 0.0 0.0  8.6436075E+003 0.0 0.0  9.2176120E+003 0.0 0.0  1.1187897E+004 0.0 0.0  1.1195837E+004 0.0 0.0  1.2149139E+004 0.0 0.0  1.4181984E+004 0.0 0.0  1.4986444E+004 0.0 0.0  1.5008770E+004 0.0 0.0  1.5650192E+004 0.0 0.0  1.9060100E+004 0.0 0.0  2.4121643E+004 0.0 0.0  2.1498163E+004 0.0 0.0  2.2442999E+004 0.0 0.0  2.6432326E+004 0.0 0.0  2.9729429E+004 0.0 0.0  3.2699242E+004 0.0 0.0  3.9638383E+004 0.0 0.0  4.3811933E+004 0.0 0.0  4.9351558E+004 0.0 0.0  5.2851020E+004 0.0 0.0  5.8170562E+004 0.0 0.0  6.4828394E+004 0.0 0.0  8.5983080E+004 0.0 0.0  7.2442290E+004 0.0 0.0  8.8905046E+004 0.0 0.0  1.0721309E+005 0.0 0.0  1.1991422E+005 0.0 0.0  1.2474585E+005 0.0 0.0  1.4594604E+005 0.0 0.0  1.5773866E+005 0.0 0.0  1.5834338E+005 0.0 0.0  1.8244504E+005 0.0 0.0  1.6985378E+005 0.0 0.0  1.6514564E+005 0.0 0.0  1.8393724E+005 0.0 0.0  1.6892697E+005 0.0 0.0  1.2266214E+005 0.0 0.0  1.4526842E+005 0.0 0.0  2.2231903E+005 0.0 0.0  2.8684464E+005 0.0 0.0  2.8421575E+005 0.0 0.0  2.7096526E+005 0.0 0.0  3.0980700E+005 0.0 0.0  3.0648971E+005 0.0 0.0  3.0703353E+005 0.0 0.0  3.0705582E+005 0.0 0.0  3.0526536E+005 0.0 0.0  3.2697165E+005 0.0 0.0  3.1239468E+005 0.0 0.0  2.8892436E+005 0.0 0.0  2.9539683E+005 0.0 0.0  2.8951734E+005 0.0 0.0  2.9032812E+005 0.0 0.0  2.9219707E+005 0.0 0.0  2.7400253E+005 0.0 0.0  2.3905474E+005 0.0 0.0  1.8560417E+004 0.0 0.0  1.5016999E+004 0.0 0.0  1.1621739E+004 0.0 0.0  8.4600005E+003 0.0 0.0  5.1360543E+003 0.0 0.0  3.3878215E+003 0.0 0.0  2.1366689E+003 0.0 0.0  1.0259027E+003 0.0 0.0  4.2226788E+002 0.0 0.0  1.0992771E+002 0.0 0.0 -3.9331649E+001 0.0 0.0 -1.6333362E+000 0.0 0.0 -1.4546717E+001 0.0 0.0 -5.7236335E+001 0.0 0.0 -3.9432569E+001 0.0 0.0 -6.8677892E+001 0.0 0.0  1.8343515E+001 0.0 0.0  1.1191319E+001 0.0 0.0  1.6201325E+001 0.0 0.0  1.3962342E+001 0.0 0.0  3.9208581E+001 0.0 0.0 -3.5044464E+001 0.0 0.0  1.4696501E+001 0.0 0.0  2.9305038E+002 0.0 0.0 -6.9300453E+001 0.0 0.0  1.2729760E+001 0.0 0.0 -5.0342115E+000 0.0 0.0  2.0271183E+000 0.0 0.0  5.4861278E+000 0.0 0.0  4.1508512E+001 0.0 0.0 -5.3316424E+000 0.0 0.0  1.2542722E+002 0.0 0.0 -8.9421870E+001 0.0 0.0  6.4743339E+002 0.0 0.0 -1.6257732E+003 0.0 0.0 -1.0755470E+004 0.0 0.0 -2.1779771E+004 0.0 0.0 -3.1644762E+004 0.0 0.0 -4.2218159E+004 0.0 0.0 -4.8247804E+004 0.0 0.0 -6.6478481E+004 0.0 0.0 -8.7188194E+004 0.0 0.0 -8.2474016E+004 0.0 0.0 -8.5790703E+004 0.0 0.0 -9.7418427E+004 0.0 0.0 -1.0523388E+005 0.0 0.0 -1.1548205E+005 0.0 0.0 -1.2039275E+005 0.0 0.0 -1.4236729E+005 0.0 0.0 -1.5292101E+005 0.0 0.0 -1.4333364E+005 0.0 0.0 -1.5061855E+005 0.0 0.0 -1.5947266E+005 0.0 0.0 -1.7304586E+005 0.0 0.0 -1.8069818E+005 0.0 0.0 -2.1034975E+005 0.0 0.0 -2.2162952E+005 0.0 0.0 -1.9819433E+005 0.0 0.0  2.9116744E+004 0.0 0.0  6.3731383E+003 0.0 0.0  9.4710064E+003 0.0 0.0  9.7561959E+003 0.0 0.0  9.9324592E+003 0.0 0.0  1.6223606E+003 0.0 0.0  1.5480587E+003 0.0 0.0  1.3084959E+003 0.0 0.0  1.3550829E+003 0.0 0.0  1.2953869E+003 0.0 0.0  1.0190965E+003 0.0 0.0  7.2220137E+002 0.0 0.0  5.6410167E+002 0.0 0.0  4.6241965E+002 0.0 0.0  3.3361438E+002 0.0 0.0  2.4054360E+002 0.0 0.0  1.5451921E+002 0.0 0.0  9.6338494E+001 0.0 0.0  9.1105633E+001 0.0 0.0  9.2105355E+001 0.0 0.0  9.9519046E+001 0.0 0.0  8.6007603E+001 0.0 0.0  9.3963345E+001 0.0 0.0  6.9714260E+001 0.0 0.0  6.9872811E+001 0.0 0.0  6.9460295E+001 0.0 0.0  7.4966671E+001 0.0 0.0  7.2951591E+001 0.0 0.0  8.5055930E+001 0.0 0.0  7.0444200E+001 0.0 0.0  6.5382073E+001 0.0 0.0  3.9568911E+001 0.0 0.0  3.6930657E+001 0.0 0.0  3.5835752E+001 0.0 0.0  3.9305147E+001 0.0 0.0  2.9229381E+001 0.0 0.0  3.1144504E+001 0.0 0.0  2.4682874E+001 0.0 0.0  2.6844078E+001 0.0 0.0 -1.2703687E+001 0.0 0.0 -4.5333899E+000 0.0 0.0 -1.5513998E+001 0.0 0.0 -2.1401798E+001 0.0 0.0 -3.3779531E+001 0.0 0.0 -3.5765493E+001 0.0 0.0 -4.9536889E+001 0.0 0.0 -5.4895943E+001 0.0 0.0 -1.0366078E+002 0.0 0.0 -9.6112274E+001 0.0 0.0 -1.0736518E+002 0.0 0.0 -1.1984151E+002 0.0 0.0 -1.6999050E+002 0.0 0.0 -1.6788738E+002 0.0 0.0 -1.7467130E+002 0.0 0.0 -1.8947865E+002 0.0 0.0 -2.1860477E+002 0.0 0.0 -2.3889626E+002 0.0 0.0 -2.9869244E+002 0.0 0.0 -3.0720848E+002 0.0 0.0 -3.1182130E+002 0.0 0.0 -3.3367579E+002 0.0 0.0 -3.7732973E+002 0.0 0.0 -4.1476353E+002 0.0 0.0 -4.8068263E+002 0.0 0.0 -4.9703579E+002 0.0 0.0 -4.9265179E+002 0.0 0.0 -5.2471269E+002 0.0 0.0 -5.7999373E+002 0.0 0.0 -6.3374821E+002 0.0 0.0 -7.0436658E+002 0.0 0.0 -7.2953831E+002 0.0 0.0 -7.0837529E+002 0.0 0.0 -7.4841372E+002 0.0 0.0 -8.1373750E+002 0.0 0.0 -8.8798040E+002 0.0 0.0 -9.5004059E+002 0.0 0.0 -9.8302789E+002 0.0 0.0 -9.3087310E+002 0.0 0.0 -9.6710615E+002 0.0 0.0 -1.0286874E+003 0.0 0.0 -1.1091469E+003 0.0 0.0 -1.1426325E+003 0.0 0.0 -1.1454859E+003 0.0 0.0 -1.0461978E+003 0.0 0.0 -1.0585543E+003 0.0 0.0 -1.0818735E+003 0.0 0.0 -1.1373165E+003 0.0 0.0 -1.0933945E+003 0.0 0.0 -1.0684387E+003 0.0 0.0 -8.8577690E+002 0.0 0.0 -7.1085933E+002 0.0 0.0 -4.7668409E+002 0.0 0.0 -3.5012202E+002 0.0 0.0 -2.5620569E+002 0.0 0.0 -1.2563045E+002 0.0 0.0 -8.4306362E+001 0.0 0.0 -3.5534523E+001 0.0 0.0 -3.4244309E+001 0.0 0.0  7.8662531E+000 0.0 0.0 -5.5821296E+003 0.0 0.0  1.0262280E+003 0.0 0.0 -2.8652212E+002 0.0 0.0  1.3627180E+005 0.0 0.0  5.1707358E+004 0.0 0.0  7.7879681E+004 0.0 0.0  1.7191885E+005 0.0 0.0  3.3167950E+004 0.0 0.0  2.9349345E+005 0.0 0.0  1.1923340E+004 0.0 0.0  6.4997066E+004 0.0 0.0  3.3720327E+004 0.0 0.0  2.1169263E+004 0.0 0.0  5.9883767E+005 0.0 0.0  1.0504528E+005 0.0 0.0  2.0379588E+005 0.0 0.0  2.7785856E+005 0.0 0.0  2.5763599E+004 0.0 0.0  3.9237451E+005 0.0 0.0  4.3494577E+003 0.0 0.0  6.0660485E+005 0.0 0.0  5.7465038E+005 0.0 0.0  4.7772129E+004 0.0 0.0  1.6432317E+004 0.0 0.0  3.6526227E+005 0.0 0.0  2.6228944E+004 0.0 0.0  1.0767205E+005 0.0 0.0  6.4083094E+003 0.0 0.0  6.4532576E+004 0.0 0.0  2.3610277E+003 0.0 0.0  4.0492307E+003 0.0 0.0  5.3650479E+005 0.0 0.0  9.7694936E+002 0.0 0.0  4.5486730E+005 0.0 0.0  4.2574675E+005 0.0 0.0  9.2273066E+003 0.0 0.0  8.2364372E+004 0.0 0.0  3.9584784E+004 0.0 0.0  6.1232019E+005 0.0 0.0  1.3425981E+005 0.0 0.0  5.4729343E+005 0.0 0.0  5.8816731E+005 0.0 0.0  2.1926127E+005 0.0 0.0  3.4172527E+005 0.0 0.0  3.0889199E+004 0.0 0.0  4.4819001E+004 0.0 0.0  1.6641781E+004 0.0 0.0  2.3678705E+005 0.0 0.0  1.6473250E+005 0.0 0.0  8.9335488E+004 0.0 0.0  9.5605593E+002 0.0 0.0  4.9098930E+003 0.0 0.0  4.8823419E+002 0.0 0.0  3.8762501E+005 0.0 0.0  4.8098701E+005 0.0 0.0  3.7978234E+003 0.0 0.0  2.8691119E+003 0.0 0.0  7.4905983E+003 0.0 0.0  1.0945983E+004 0.0 0.0  1.4658232E+004 0.0 0.0  1.0169659E+004 0.0 0.0  1.6025239E+004 0.0 0.0  2.3138379E+004 0.0 0.0  2.5223494E+004 0.0 0.0  1.8509471E+004 0.0 0.0  2.6869106E+004 0.0 0.0  1.9545298E+004 0.0 0.0  2.7649827E+004 0.0 0.0  3.7312108E+004 0.0 0.0  3.7870460E+004 0.0 0.0  2.7192620E+004 0.0 0.0  3.4838089E+004 0.0 0.0  5.1275483E+004 0.0 0.0  4.9281688E+004 0.0 0.0  3.5095091E+004 0.0 0.0  4.7412891E+004 0.0 0.0  3.3328489E+004 0.0 0.0  4.4730632E+004 0.0 0.0  6.2824283E+004 0.0 0.0  5.9518278E+004 0.0 0.0  4.3136132E+004 0.0 0.0  5.7389755E+004 0.0 0.0  4.3119455E+004 0.0 0.0  5.7408665E+004 0.0 0.0  7.5824837E+004 0.0 0.0  8.1495757E+004 0.0 0.0  6.0847031E+004 0.0 0.0  8.4512630E+004 0.0 0.0  1.1108579E+005 0.0 0.0  1.1761375E+005 0.0 0.0  9.6312391E+004 0.0 0.0  1.3435125E+005 0.0 0.0  1.1826576E+005 0.0 0.0  1.6331381E+005 0.0 0.0  1.8885334E+005 0.0 0.0  2.2738260E+005 0.0 0.0  2.0565155E+005 0.0 0.0  2.7616589E+005 0.0 0.0  3.0570628E+005 0.0 0.0  3.5986518E+005 0.0 0.0  3.3560766E+005 0.0 0.0  8.2686447E+004 0.0 0.0  8.1884646E+004 0.0 0.0  1.4855857E+005 0.0 0.0  3.8831270E+005 0.0 0.0  4.4586631E+005 0.0 0.0  3.3101657E+004 0.0 0.0  1.3947956E+005 0.0 0.0  3.2962347E+005 0.0 0.0  2.8908085E+004 0.0 0.0  2.6873945E+004 0.0 0.0  1.3724285E+004 0.0 0.0  1.4757711E+004 0.0 0.0  4.6836946E+005 0.0 0.0  8.9194470E+004 0.0 0.0  1.1296182E+005 0.0 0.0  2.6781454E+004 0.0 0.0  5.2199749E+005 0.0 0.0  5.0503838E+005 0.0 0.0  9.6977444E+004 0.0 0.0  9.4298364E+004 0.0 0.0  5.3063277E+005 0.0 0.0  1.6990663E+005 0.0 0.0  3.6943160E+004 0.0 0.0  1.0769644E+004 0.0 0.0  1.6143889E+005 0.0 0.0  2.3651073E+004 0.0 0.0  3.2196041E+004 0.0 0.0  1.2452529E+004 0.0 0.0  5.7557620E+005 0.0 0.0  5.7144173E+005 0.0 0.0  4.7718419E+005 0.0 0.0  9.2305143E+004 0.0 0.0  2.5106087E+004 0.0 0.0  2.4947980E+004 0.0 0.0  2.5894147E+004 0.0 0.0  1.1565823E+005 0.0 0.0  1.0393682E+005 0.0 0.0  1.0908456E+005 0.0 0.0  3.4604602E+004 0.0 0.0  3.7215219E+004 0.0 0.0  3.3173925E+004 0.0 0.0  3.7453629E+004 0.0 0.0  7.4256957E+004 0.0 0.0  6.0643388E+005 0.0 0.0  9.7512266E+004 0.0 0.0  9.1107750E+004 0.0 0.0  2.2578658E+004 0.0 0.0  2.1505854E+004 0.0 0.0  1.9942797E+004 0.0 0.0  1.5114829E+004 0.0 0.0  3.8310077E+004 0.0 0.0  4.3611124E+004 0.0 0.0  9.8637440E+003 0.0 0.0  1.3631767E+005 0.0 0.0  1.4927475E+005 0.0 0.0  6.0978625E+005 0.0 0.0  1.3253749E+005 0.0 0.0  8.0267361E+004 0.0 0.0  6.5941882E+004 0.0 0.0  4.1059603E+004 0.0 0.0  4.3287323E+004 0.0 0.0  1.8279619E+005 0.0 0.0  1.9791153E+005 0.0 0.0  8.2808038E+003 0.0 0.0  7.1481195E+003 0.0 0.0  1.3815952E+004 0.0 0.0  1.3802511E+005 0.0 0.0  5.8863467E+005 0.0 0.0  1.4301891E+005 0.0 0.0  1.6697640E+005 0.0 0.0  1.3996462E+005 0.0 0.0  1.1008008E+005 0.0 0.0  5.4928255E+005 0.0 0.0  1.9907408E+005 0.0 0.0  2.2330126E+005 0.0 0.0  2.1671687E+005 0.0 0.0  2.4695845E+005 0.0 0.0  3.5505992E+004 0.0 0.0  3.1468403E+004 0.0 0.0  1.7335048E+005 0.0 0.0  2.0077143E+005 0.0 0.0  2.0237886E+004 0.0 0.0  2.0047145E+004 0.0 0.0  8.9939627E+004 0.0 0.0  8.6135448E+004 0.0 0.0  8.2974028E+004 0.0 0.0  8.0251932E+004 0.0 0.0  7.9403157E+004 0.0 0.0  7.5940296E+004 0.0 0.0  1.1748403E+005 0.0 0.0  6.4093626E+003 0.0 0.0  5.2380424E+003 0.0 0.0  7.6415432E+003 0.0 0.0  4.8493909E+003 0.0 0.0  3.7881755E+003 0.0 0.0  4.2367002E+003 0.0 0.0  2.8488190E+003 0.0 0.0  2.0070329E+004 0.0 0.0  1.8259161E+004 0.0 0.0  1.1462348E+005 0.0 0.0  1.8190956E+004 0.0 0.0  3.2890688E+003 0.0 0.0  2.3795901E+005 0.0 0.0  2.7379768E+005 0.0 0.0  2.7155285E+005 0.0 0.0  3.0406075E+005 0.0 0.0  4.1998482E+004 0.0 0.0  4.8479544E+004 0.0 0.0  4.8426407E+004 0.0 0.0  5.4485505E+004 0.0 0.0  3.5695792E+004 0.0 0.0  5.2622611E+004 0.0 0.0  5.9461232E+004 0.0 0.0  5.8320594E+004 0.0 0.0  1.2015255E+004 0.0 0.0  5.5883888E+004 0.0 0.0  7.3221523E+004 0.0 0.0  6.1325597E+004 0.0 0.0  5.3388494E+004 0.0 0.0  2.3689820E+004 0.0 0.0  1.7998672E+005 0.0 0.0  2.2272094E+004 0.0 0.0  1.4885957E+005 0.0 0.0  7.3046604E+004 0.0 0.0  1.2458814E+005 0.0 0.0  1.3775721E+004 0.0 0.0  6.1060796E+005 0.0 0.0  5.7904401E+005 0.0 0.0  6.4478145E+004 0.0 0.0  2.7592533E+004 0.0 0.0  1.9661614E+005 0.0 0.0  2.3352098E+005 0.0 0.0  2.3839231E+005 0.0 0.0  2.7480182E+005 0.0 0.0  2.7880764E+005 0.0 0.0  3.1906347E+005 0.0 0.0  3.1591815E+005 0.0 0.0  3.6348453E+005 0.0 0.0  3.7141933E+005 0.0 0.0  4.1720827E+005 0.0 0.0  4.2846042E+005 0.0 0.0  4.8095230E+005 0.0 0.0  4.8995810E+005 0.0 0.0  4.5979353E+005 0.0 0.0  5.0771384E+005 0.0 0.0  4.8894955E+005 0.0 0.0  4.4359410E+005 0.0 0.0  3.5267251E+005 0.0 0.0  4.4334043E+005 0.0 0.0  5.0579566E+005 0.0 0.0  5.4206164E+005 0.0 0.0  5.5805570E+005 0.0 0.0  2.6797655E+005 0.0 0.0  7.1839853E+004 0.0 0.0  8.7189312E+004 0.0 0.0  4.3844284E+004 0.0 0.0  5.2883146E+005 0.0 0.0  5.4364354E+005 0.0 0.0  5.0490506E+003 0.0 0.0  8.5287739E+003 0.0 0.0  1.3432145E+005 0.0 0.0  1.5126077E+004 0.0 0.0  1.5235017E+004 0.0 0.0  1.4229423E+004 0.0 0.0  1.2997722E+005 0.0 0.0  3.4566480E+004 0.0 0.0  3.0674985E+004 0.0 0.0  9.0353453E+004 0.0 0.0  2.8669944E+005 0.0 0.0  3.2459074E+005 0.0 0.0  3.3895774E+005 0.0 0.0  3.6451607E+005 0.0 0.0  3.7847799E+005 0.0 0.0  4.0710414E+005 0.0 0.0  4.6271095E+005 0.0 0.0  5.0876960E+005 0.0 0.0  1.1197952E+005 0.0 0.0  1.0022762E+005 0.0 0.0  5.9344740E+004 0.0 0.0  2.0373127E+005 0.0 0.0  4.5472544E+004 0.0 0.0  1.5311614E+004 0.0 0.0  2.0662750E+005 0.0 0.0  5.1280681E+004 0.0 0.0  2.0543023E+003 0.0 0.0  1.7307830E+003 0.0 0.0  6.8322362E+004 0.0 0.0  5.8187865E+004 0.0 0.0  3.9540739E+004 0.0 0.0  3.7940830E+005 0.0 0.0  4.2681042E+005 0.0 0.0  3.7909967E+003 0.0 0.0  5.8098198E+005 0.0 0.0  5.6479745E+005 0.0 0.0  5.9210024E+005 0.0 0.0  5.7587425E+005 0.0 0.0  6.0593606E+005 0.0 0.0  5.9469880E+005 0.0 0.0  2.1505301E+004 0.0 0.0  7.9679396E+004 0.0 0.0  7.0090819E+004 0.0 0.0  3.1284272E+005 0.0 0.0  1.1590991E+005 0.0 0.0  6.3953316E+004 0.0 0.0  9.8569554E+003 0.0 0.0  3.4244167E+004 0.0 0.0  3.0316087E+004 0.0 0.0  4.2780085E+005 0.0 0.0  6.1422723E+005 0.0 0.0  6.6349778E+004 0.0 0.0  5.0835174E+004 0.0 0.0  3.3291216E+004 0.0 0.0  2.5162272E+005 0.0 0.0  2.4358169E+005 0.0 0.0  2.2243920E+005 0.0 0.0  5.6124753E+004 0.0 0.0  4.0164669E+005 0.0 0.0  2.3435674E+004 0.0 0.0  2.4751439E+004 0.0 0.0  2.5783647E+004 0.0 0.0  2.7976365E+004 0.0 0.0  7.9966886E+004 0.0 0.0  6.9254279E+004 0.0 0.0  3.5200809E+004 0.0 0.0  2.8485758E+004 0.0 0.0  3.0431037E+004 0.0 0.0  2.7305956E+004 0.0 0.0  1.5115996E+005 0.0 0.0  1.7833626E+005 0.0 0.0  1.7489986E+004 0.0 0.0  1.8666504E+004 0.0 0.0  6.1248781E+003 0.0 0.0  7.8375140E+003 0.0 0.0  9.2246352E+003 0.0 0.0  1.0476201E+004 0.0 0.0  6.6177713E+004 0.0 0.0  1.8550745E+005 0.0 0.0  4.8408518E+003 0.0 0.0  8.1005925E+004 0.0 0.0  2.7514279E+005 0.0 0.0  2.4525774E+005 0.0 0.0  2.1021826E+005 0.0 0.0  1.6203360E+005 0.0 0.0  1.5067765E+005 0.0 0.0  1.2222364E+004 0.0 0.0  1.4411213E+004 0.0 0.0  6.2392367E+005 0.0 0.0  6.1078655E+005 0.0 0.0  6.2565787E+005 0.0 0.0  3.3919148E+005 0.0 0.0  4.0990953E+004 0.0 0.0  4.7774400E+004 0.0 0.0  1.9401475E+004 0.0 0.0  1.9594083E+004 0.0 0.0  9.9554326E+004 0.0 0.0  1.1428917E+005 0.0 0.0  2.6626289E+004 0.0 0.0  5.6783439E+005 0.0 0.0  9.9761313E+004 0.0 0.0  5.2598756E+005 0.0 0.0  5.0106797E+005 0.0 0.0  5.0355050E+005 0.0 0.0  4.7888031E+005 0.0 0.0  4.4330688E+005 0.0 0.0  5.2874984E+005 0.0 0.0  1.5106136E+005 0.0 0.0  3.5494901E+003 0.0 0.0  2.6482385E+003 0.0 0.0  2.3919594E+004 0.0 0.0  4.2860033E+005 0.0 0.0  5.5338093E+005 0.0 0.0  5.4946657E+005 0.0 0.0  4.0008292E+005 0.0 0.0  4.2752139E+005 0.0 0.0  4.6582481E+005 0.0 0.0  2.5062585E+005 0.0 0.0  4.5067141E+004 0.0 0.0  3.3214264E+005 0.0 0.0  5.1842902E+005 0.0 0.0  5.3664556E+005 0.0 0.0  1.7606752E+003 0.0 0.0  2.9340045E+004 0.0 0.0  5.3570374E+005 0.0 0.0  1.9829976E+004 0.0 0.0  1.2842696E+005 0.0 0.0  3.0315538E+004 0.0 0.0  1.6059917E+004 0.0 0.0  1.5818003E+004 0.0 0.0  1.7554431E+004 0.0 0.0  6.0125685E+005 0.0 0.0  6.0968537E+005 0.0 0.0  7.0322348E+004 0.0 0.0  6.5298990E+004 0.0 0.0  1.0471681E+004 0.0 0.0  2.6188943E+005 0.0 0.0  8.4891498E+004 0.0 0.0  7.8758132E+004 0.0 0.0  5.9098727E+004 0.0 0.0  9.6349657E+003 0.0 0.0  1.3549430E+005 0.0 0.0  4.6935149E+004 0.0 0.0  2.2450301E+004 0.0 0.0  5.1566909E+005 0.0 0.0  4.9177228E+005 0.0 0.0  5.0881686E+004 0.0 0.0  5.5194830E+005 0.0 0.0  1.1784690E+005 0.0 0.0  5.1888172E+003 0.0 0.0  5.0138471E+003 0.0 0.0  2.0025640E+003 0.0 0.0  3.2624542E+002 0.0 0.0  8.9821320E+002 0.0 0.0  2.6018947E+005 0.0 0.0  3.2530959E+005 0.0 0.0  4.0262903E+004 0.0 0.0  1.1576327E+005 0.0 0.0  9.8325897E+004 0.0 0.0  6.7036947E+002 0.0 0.0  4.5703408E+004 0.0 0.0  5.1820908E+004 0.0 0.0  5.6408196E+004 0.0 0.0  4.8119074E+005 0.0 0.0  4.0727173E+005 0.0 0.0  5.8012163E+005 0.0 0.0  3.9565879E+005 0.0 0.0  5.2865144E+004 0.0 0.0  1.3526417E+005 0.0 0.0  1.1479275E+005 0.0 0.0  9.9293608E+004 0.0 0.0  1.1672125E+005 0.0 0.0  7.3856391E+004 0.0 0.0  1.6801500E+005 0.0 0.0  5.8354619E+005 0.0 0.0  8.3996841E+004 0.0 0.0  6.7024923E+004 0.0 0.0  1.0805174E+005 0.0 0.0  6.3037400E+003 0.0 0.0  1.1405805E+004 0.0 0.0  4.9157593E+005 0.0 0.0  3.2086952E+004 0.0 0.0  1.7844044E+005 0.0 0.0  4.0296126E+004 0.0 0.0  1.3651935E+005 0.0 0.0  5.1413454E+005 0.0 0.0  5.3636764E+005 0.0 0.0  5.7774568E+005 0.0 0.0  5.6322962E+005 0.0 0.0  2.9247340E+004 0.0 0.0  2.3000879E+005 0.0 0.0  3.4308982E+005 0.0 0.0  5.6198720E+005 0.0 0.0  2.9953390E+005 0.0 0.0  2.9575699E+005 0.0 0.0  2.6662960E+004 0.0 0.0  2.5461826E+005 0.0 0.0  3.5500290E+004 0.0 0.0  3.8133203E+004 0.0 0.0  4.3050034E+005 0.0 0.0  1.3866949E+005 0.0 0.0  5.5630312E+004 0.0 0.0  1.2364307E+005 0.0 0.0  1.6141616E+005 0.0 0.0  1.0785555E+005 0.0 0.0  4.6783685E+003 0.0 0.0  2.8948369E+004 0.0 0.0  4.9623302E+004 0.0 0.0  2.3513356E+005 0.0 0.0  1.1514970E+004 0.0 0.0  2.8706711E+005 0.0 0.0  1.7281937E+004 0.0 0.0  2.0957747E+004 0.0 0.0  1.2730553E+004 0.0 0.0  6.5887435E+004 0.0 0.0  3.7143717E+004 0.0 0.0  3.0562123E+005 0.0 0.0  3.7326966E+003 0.0 0.0  7.7627146E+004 0.0 0.0  4.9507633E+005 0.0 0.0  6.1203247E+004 0.0 0.0  2.1612156E+004 0.0 0.0  1.7037848E+005 0.0 0.0  3.7678127E+005 0.0 0.0  4.4964180E+005 0.0 0.0  2.2349889E+004 0.0 0.0  1.1160689E+005 0.0 0.0  9.6537498E+004 0.0 0.0  1.4667638E+004 0.0 0.0  8.3454939E+004 0.0 0.0  2.5280271E+004 0.0 0.0  1.6594434E+005 0.0 0.0  6.2117649E+005 0.0 0.0  4.0813599E+005 0.0 0.0  2.8629872E+003 0.0 0.0  1.3075035E+004 0.0 0.0  6.4204792E+003 0.0 0.0  5.2872667E+005 0.0 0.0  1.8356326E+004 0.0 0.0  1.8188849E+005 0.0 0.0  2.2399147E+003 0.0 0.0  5.0199459E+004 0.0 0.0  9.4378424E+004 0.0 0.0  3.9067977E+005 0.0 0.0  1.3373092E+004 0.0 0.0  6.0748233E+003 0.0 0.0  1.1577843E+004 0.0 0.0  3.4018063E+005 0.0 0.0  1.0760901E+004 0.0 0.0  9.1942495E+004 0.0 0.0  6.0893040E+002 0.0 0.0  4.1812530E+004 0.0 0.0  2.0378257E+005 0.0 0.0  1.8621922E+005 0.0 0.0  1.7173643E+004 0.0 0.0  6.3561142E+004 0.0 0.0  1.1549075E+003 0.0 0.0  3.8056648E+005 0.0 0.0  2.1953599E+005 0.0 0.0  4.6823954E+004 0.0 0.0  5.6059448E+005 0.0 0.0  6.3191496E+004 0.0 0.0  5.3273881E+004 0.0 0.0  1.9799613E+005 0.0 0.0  3.5429883E+004 0.0 0.0  4.9854339E+005 0.0 0.0  2.6876837E+005 0.0 0.0  1.5479248E+005 0.0 0.0  4.5673624E+005 0.0 0.0  7.4776432E+004 0.0 0.0  3.9424420E+005 0.0 0.0  5.7990032E+005 0.0 0.0  3.8419940E+004 0.0 0.0  1.0181120E+005 0.0 0.0  3.0240386E+004 0.0 0.0  1.9959633E+004 0.0 0.0  7.0666427E+004 0.0 0.0  1.0924248E+005 0.0 0.0  4.3821530E+003 0.0 0.0  3.7468982E+004 0.0 0.0  2.7077386E+005 0.0 0.0  1.4472079E+005 0.0 0.0  4.4205335E+005 0.0 0.0  2.4961095E+004 0.0 0.0  9.6959698E+003 0.0 0.0  6.4969026E+004 0.0 0.0  4.8826986E+004 0.0 0.0  1.2346595E+005 0.0 0.0  3.3838754E+005 0.0 0.0  1.3245150E+003 0.0 0.0  1.0108513E+005 0.0 0.0  7.3929913E+004 0.0 0.0  1.6698407E+004 0.0 0.0  2.9856594E+005 0.0 0.0  1.7682178E+004 0.0 0.0  1.9082858E+004 0.0 0.0  6.2015316E+005 0.0 0.0  1.2015842E+005 0.0 0.0  4.1874951E+004 0.0 0.0  1.1999458E+004 0.0 0.0  4.7850065E+005 0.0 0.0  3.9267746E+005 0.0 0.0  6.1561450E+005 0.0 0.0  6.0024333E+005 0.0 0.0  3.4380285E+005 0.0 0.0  5.5353452E+005 0.0 0.0  5.4117273E+005 0.0 0.0  1.0791146E+004 0.0 0.0  4.2854598E+004 0.0 0.0  5.3307377E+004 0.0 0.0  4.6685312E+005 0.0 0.0  3.3993613E+005 0.0 0.0  6.1889224E+005 0.0 0.0  7.2838594E+004 0.0 0.0  4.2979946E+004 0.0 0.0  2.5614489E+004 0.0 0.0  4.6310656E+004 0.0 0.0  6.9870560E+003 0.0 0.0  3.7815118E+005 0.0 0.0  6.0827106E+004 0.0 0.0  1.9089193E+004 0.0 0.0  1.0203202E+004 0.0 0.0  1.3264003E+005 0.0 0.0  9.5671872E+004 0.0 0.0  2.0656192E+004 0.0 0.0  1.9802801E+005 0.0 0.0  5.6566180E+004 0.0 0.0  7.7376001E+004 0.0 0.0  6.4263300E+004 0.0 0.0  1.3769720E+004 0.0 0.0  7.4663706E+003 0.0 0.0  1.0325728E+004 0.0 0.0  4.2440886E+005 0.0 0.0  6.7424427E+003 0.0 0.0  2.8182688E+004 0.0 0.0  4.6369596E+004 0.0 0.0  3.0263239E+005 0.0 0.0  2.3779063E+005 0.0 0.0  1.7421460E+005 0.0 0.0  1.6496669E+005 0.0 0.0  3.5608302E+002 0.0 0.0  2.0835083E+003 0.0 0.0  6.4875981E+004 0.0 0.0  2.9121425E+005 0.0 0.0  2.5639556E+004 0.0 0.0  2.3884145E+004 0.0 0.0  1.6117617E+003 0.0 0.0  1.4120601E+003 0.0 0.0  2.9727171E+004 0.0 0.0  7.1247282E+004 0.0 0.0  5.4030624E+005 0.0 0.0  8.4657759E+004 0.0 0.0  5.2484661E+005 0.0 0.0  5.7722726E+004 0.0 0.0  3.3167175E+005 0.0 0.0  5.8295330E+005 0.0 0.0  5.8100227E+005 0.0 0.0  3.6914993E+005 0.0 0.0  2.2273357E+005 0.0 0.0  3.1986399E+004 0.0 0.0  1.0044432E+005 0.0 0.0  9.0458172E+003 0.0 0.0  1.7337342E+005 0.0 0.0  3.8361642E+005 0.0 0.0  1.6240426E+005 0.0 0.0  3.4006693E+004 0.0 0.0  1.9604637E+004 0.0 0.0  5.8751709E+004 0.0 0.0  1.2169653E+005 0.0 0.0  2.2208860E+005 0.0 0.0  1.1826818E+004 0.0 0.0  2.4650336E+004 0.0 0.0  3.4135916E+004 0.0 0.0 -1.2243511E+002 0.0 0.0 -4.1975891E+001 0.0 0.0  3.8214008E+002 0.0 0.0  1.8007962E+003 0.0 0.0  5.7400275E+003 0.0 0.0  6.5520357E+003 0.0 0.0  1.1575203E+004 0.0 0.0  2.4762667E+004 0.0 0.0  2.1513698E+004 0.0 0.0  1.0881907E+004 0.0 0.0 -1.1575858E+002 0.0 0.0  2.1900127E+003 0.0 0.0 -2.2322811E+005 0.0 0.0 -3.4861648E+003 0.0 0.0  1.1501673E+001 0.0 0.0  1.5115707E+004 0.0 0.0 -1.6053807E+005 0.0 0.0  3.1015841E+004 0.0 0.0  1.0215228E+004 0.0 0.0 -9.0004799E+002 0.0 0.0 -2.0189326E+004 0.0 0.0 -1.8385768E+005 0.0 0.0 -2.7952390E+005 0.0 0.0 -1.3219914E+005 0.0 0.0 -5.5998368E+004 0.0 0.0 -7.2016486E+001 0.0 0.0  1.0306567E+004 0.0 0.0 -1.0735404E+005 0.0 0.0  1.2483889E+004 0.0 0.0 -3.7411393E+002 0.0 0.0 -2.2096381E+005 0.0 0.0 -9.1052443E+004 0.0 0.0 -1.6254058E+005 0.0 0.0 -3.0484451E+005 0.0 0.0  2.3555208E+004 0.0 0.0  1.3040851E+004 0.0 0.0  1.0560744E+004 0.0 0.0  2.6550577E+004 0.0 0.0  2.4861063E+004 0.0 0.0 -1.1961995E+002 0.0 0.0  8.2261137E+003 0.0 0.0 -2.1423949E+002 0.0 0.0 -1.6401620E+002 0.0 0.0  2.7707088E+003 0.0 0.0  2.0514779E+002 0.0 0.0  1.0169392E+003 0.0 0.0 -4.5838673E+004 0.0 0.0 -1.2922557E+002 0.0 0.0 -2.2794370E+004 0.0 0.0 -8.5344391E+004 0.0 0.0 -3.3249545E+005 0.0 0.0  1.0025526E+004 0.0 0.0 -5.5997353E+000 0.0 0.0  1.0012280E+004 0.0 0.0  1.2841319E+004 0.0 0.0  1.2567963E+004 0.0 0.0  1.4590405E+004 0.0 0.0  1.4788991E+004 0.0 0.0  1.6079863E+004 0.0 0.0  1.5912622E+004 0.0 0.0  1.7220826E+004 0.0 0.0  1.6794004E+004 0.0 0.0  1.7950797E+004 0.0 0.0  1.7240950E+004 0.0 0.0  1.7930158E+004 0.0 0.0  1.7066879E+004 0.0 0.0  1.7408074E+004 0.0 0.0  1.6131862E+004 0.0 0.0  1.5704394E+004 0.0 0.0  1.4046632E+004 0.0 0.0  1.2659587E+004 0.0 0.0  1.0467845E+004 0.0 0.0  7.5169507E+003 0.0 0.0  4.8193600E+003 0.0 0.0 -5.2824891E+002 0.0 0.0 -3.6668158E+003 0.0 0.0 -1.1410683E+004 0.0 0.0 -1.7225033E+004 0.0 0.0 -7.6227851E+003 0.0 0.0 -2.4070330E+004 0.0 0.0 -1.4037923E+004 0.0 0.0 -3.2575032E+004 0.0 0.0 -2.2411471E+004 0.0 0.0 -4.3562178E+004 0.0 0.0 -3.2755930E+004 0.0 0.0 -5.6330605E+004 0.0 0.0 -6.0384823E+003 0.0 0.0 -1.8958639E+004 0.0 0.0 -1.4679337E+004 0.0 0.0 -2.7317709E+004 0.0 0.0 -2.4402265E+004 0.0 0.0 -3.6070787E+004 0.0 0.0 -3.2287051E+004 0.0 0.0 -3.9790029E+004 0.0 0.0 -4.5945508E+004 0.0 0.0 -3.9794025E+004 0.0 0.0  1.6016406E+004 0.0 0.0 -4.5929032E+004 0.0 0.0 -4.7300483E+003 0.0 0.0 -2.7247715E+004 0.0 0.0 -3.3178493E+004 0.0 0.0  1.4938822E+004 0.0 0.0 -4.7396517E+004 0.0 0.0 -4.1531734E+004 0.0 0.0 -3.0034996E+004 0.0 0.0 -3.6453537E+004 0.0 0.0 -2.6084655E+004 0.0 0.0 -3.0085973E+004 0.0 0.0 -4.2930681E+004 0.0 0.0 -3.7358321E+004 0.0 0.0 -2.6485367E+004 0.0 0.0 -3.2232898E+004 0.0 0.0 -2.2617139E+004 0.0 0.0 -2.6099644E+004 0.0 0.0 -3.7584791E+004 0.0 0.0 -3.2395465E+004 0.0 0.0 -5.0916626E+004 0.0 0.0 -2.2597089E+004 0.0 0.0 -2.7433971E+004 0.0 0.0 -3.7904137E+004 0.0 0.0 -3.0503044E+004 0.0 0.0 -4.2862934E+004 0.0 0.0 -3.5589892E+004 0.0 0.0 -2.5997038E+004 0.0 0.0 -2.9269495E+004 0.0 0.0 -2.1443458E+004 0.0 0.0 -2.4064994E+004 0.0 0.0 -7.1798221E+004 0.0 0.0 -2.0846086E+004 0.0 0.0 -1.8600697E+004 0.0 0.0  1.8622694E+004 0.0 0.0 -3.2664162E+004 0.0 0.0 -2.6418561E+004 0.0 0.0 -4.9684712E+004 0.0 0.0 -1.8697667E+004 0.0 0.0 -2.1014331E+004 0.0 0.0 -2.8263639E+004 0.0 0.0 -2.2318327E+004 0.0 0.0 -2.9560392E+004 0.0 0.0 -2.3159304E+004 0.0 0.0 -1.7731709E+004 0.0 0.0 -1.7973688E+004 0.0 0.0 -2.3190814E+004 0.0 0.0 -1.7801092E+004 0.0 0.0 -1.3574309E+004 0.0 0.0 -1.3472654E+004 0.0 0.0 -1.7177649E+004 0.0 0.0 -1.2505381E+004 0.0 0.0 -1.6102934E+004 0.0 0.0 -1.1687169E+004 0.0 0.0 -1.5264699E+004 0.0 0.0 -9.0779453E+003 0.0 0.0 -8.4287113E+003 0.0 0.0 -5.8110784E+004 0.0 0.0 -1.5336454E+004 0.0 0.0 -6.2092129E+004 0.0 0.0 -1.3075730E+004 0.0 0.0 -9.9490047E+003 0.0 0.0 -9.9796327E+003 0.0 0.0 -1.4218681E+004 0.0 0.0  1.8066772E+004 0.0 0.0 -8.6820479E+004 0.0 0.0 -2.0812216E+004 0.0 0.0 -4.0223905E+004 0.0 0.0 -1.0452753E+005 0.0 0.0 -5.6401525E+004 0.0 0.0 -1.7402630E+004 0.0 0.0 -6.2937829E+003 0.0 0.0 -6.0310374E+003 0.0 0.0 -3.7584662E+004 0.0 0.0 -3.8549789E+004 0.0 0.0 -7.4099439E+003 0.0 0.0 -5.2831914E+003 0.0 0.0 -5.1057365E+004 0.0 0.0 -1.4638796E+004 0.0 0.0 -1.2857981E+003 0.0 0.0 -1.1604516E+004 0.0 0.0 -1.3130573E+004 0.0 0.0 -6.4019167E+004 0.0 0.0 -7.4265485E+003 0.0 0.0 -1.0574566E+004 0.0 0.0 -4.2543029E+003 0.0 0.0 -3.4806614E+003 0.0 0.0 -4.3493673E+003 0.0 0.0  1.6225768E+004 0.0 0.0 -6.9332416E+003 0.0 0.0 -2.9523480E+003 0.0 0.0 -7.8667031E+003 0.0 0.0 -8.2509060E+003 0.0 0.0 -5.7135927E+004 0.0 0.0  1.2398946E+004 0.0 0.0 -3.8749006E+004 0.0 0.0  1.6195353E+004 0.0 0.0 -1.2470659E+005 0.0 0.0 -1.4451066E+005 0.0 0.0 -6.6998115E+003 0.0 0.0 -4.8570563E+003 0.0 0.0 -4.9234734E+003 0.0 0.0 -1.0138132E+004 0.0 0.0 -2.3219851E+003 0.0 0.0 -1.9166234E+003 0.0 0.0 -5.1230103E+003 0.0 0.0 -8.8624406E+003 0.0 0.0 -3.9535533E+004 0.0 0.0 -1.0312032E+004 0.0 0.0 -6.2969738E+003 0.0 0.0 -9.1906786E+003 0.0 0.0 -7.6544331E+004 0.0 0.0 -8.6804403E+004 0.0 0.0 -1.0688679E+004 0.0 0.0 -6.7329617E+003 0.0 0.0 -8.6833640E+003 0.0 0.0 -1.2533871E+005 0.0 0.0 -4.8684740E+003 0.0 0.0 -6.7624306E+003 0.0 0.0 -8.2770954E+003 0.0 0.0 -9.0653382E+003 0.0 0.0 -6.3362085E+003 0.0 0.0 -8.2453441E+003 0.0 0.0 -5.6091706E+003 0.0 0.0 -1.7168457E+004 0.0 0.0  1.4997756E+004 0.0 0.0  1.6327689E+004 0.0 0.0 -5.6329615E+004 0.0 0.0 -7.7193030E+004 0.0 0.0 -3.1585458E+003 0.0 0.0 -5.8602113E+003 0.0 0.0 -4.6722218E+002 0.0 0.0 -3.1563591E+003 0.0 0.0  1.9606406E+003 0.0 0.0 -8.3199054E+002 0.0 0.0  3.8327438E+003 0.0 0.0 -5.9476223E+003 0.0 0.0  1.1533065E+003 0.0 0.0  5.7619280E+003 0.0 0.0  3.0385946E+003 0.0 0.0  7.2711404E+003 0.0 0.0 -1.7962419E+003 0.0 0.0  9.9618830E+003 0.0 0.0  1.0853910E+004 0.0 0.0  8.7116915E+003 0.0 0.0  1.2450225E+004 0.0 0.0  1.0010531E+004 0.0 0.0  1.3207894E+004 0.0 0.0  1.5374128E+004 0.0 0.0  1.5799785E+004 0.0 0.0  1.7623332E+004 0.0 0.0  1.7809166E+004 0.0 0.0  1.7608039E+004 0.0 0.0  1.1273090E+004 0.0 0.0  1.7327920E+004 0.0 0.0 -1.1373511E+004 0.0 0.0 -4.3297383E+003 0.0 0.0 -6.1976356E+003 0.0 0.0 -3.4651355E+003 0.0 0.0 -3.3766836E+003 0.0 0.0 -1.4876561E+003 0.0 0.0 -1.1946819E+003 0.0 0.0 -1.7079151E+003 0.0 0.0  1.9427399E+004 0.0 0.0  1.9348818E+004 0.0 0.0  1.7950453E+004 0.0 0.0  1.9253467E+004 0.0 0.0  2.0461346E+004 0.0 0.0  2.0190268E+004 0.0 0.0 -3.3182090E+003 0.0 0.0 -1.7041916E+005 0.0 0.0 -1.5079008E+005 0.0 0.0 -1.9220986E+005 0.0 0.0 -5.4298607E+003 0.0 0.0 -5.0614361E+003 0.0 0.0 -6.2069807E+003 0.0 0.0 -9.1505462E+003 0.0 0.0 -3.3794215E+003 0.0 0.0 -5.0747024E+003 0.0 0.0 -3.9028410E+003 0.0 0.0 -6.7820388E+003 0.0 0.0 -1.1720163E+004 0.0 0.0 -9.1999621E+003 0.0 0.0 -4.4852344E+003 0.0 0.0  1.8076450E+004 0.0 0.0  7.5463880E+003 0.0 0.0 -4.9117832E+003 0.0 0.0 -3.5066925E+003 0.0 0.0 -4.1000917E+004 0.0 0.0 -2.5968712E+004 0.0 0.0  1.3216518E+004 0.0 0.0 -8.6090539E+002 0.0 0.0 -3.5195552E+003 0.0 0.0 -1.4441923E+003 0.0 0.0 -5.8985351E+004 0.0 0.0 -6.5381583E+003 0.0 0.0 -8.6077830E+002 0.0 0.0 -5.5802862E+003 0.0 0.0 -3.4567565E+003 0.0 0.0  2.1328953E+004 0.0 0.0  2.0816046E+004 0.0 0.0  2.2054377E+004 0.0 0.0  1.9907516E+004 0.0 0.0  2.0338017E+004 0.0 0.0  2.1276412E+004 0.0 0.0  2.0560419E+004 0.0 0.0  1.9834999E+004 0.0 0.0  1.9862365E+004 0.0 0.0 -3.2903104E+003 0.0 0.0 -3.8678337E+003 0.0 0.0 -3.6538259E+003 0.0 0.0 -7.2281520E+003 0.0 0.0 -1.0447742E+003 0.0 0.0 -4.1479269E+003 0.0 0.0  2.0677368E+004 0.0 0.0  1.9702421E+004 0.0 0.0  1.7496424E+004 0.0 0.0 -4.9907039E+004 0.0 0.0 -5.1293407E+004 0.0 0.0  1.2771989E+004 0.0 0.0 -3.9436591E+003 0.0 0.0 -3.3267910E+003 0.0 0.0 -1.0651372E+004 0.0 0.0 -4.3446254E+003 0.0 0.0 -6.5866592E+003 0.0 0.0 -8.2360189E+002 0.0 0.0 -2.4736878E+003 0.0 0.0  8.3210283E+002 0.0 0.0 -2.8568684E+003 0.0 0.0 -8.2280990E+003 0.0 0.0 -2.1555419E+003 0.0 0.0 -1.1470316E+003 0.0 0.0 -2.9678025E+003 0.0 0.0 -1.5609464E+003 0.0 0.0 -1.0108782E+004 0.0 0.0 -1.5006270E+004 0.0 0.0  4.0108848E+002 0.0 0.0  3.6472408E+001 0.0 0.0 -1.0288984E+005 0.0 0.0 -8.6533001E+004 0.0 0.0 -1.4895656E+004 0.0 0.0 -4.0886874E+003 0.0 0.0 -3.5025729E+003 0.0 0.0  1.5150320E+004 0.0 0.0  1.3646308E+004 0.0 0.0 -3.6249037E+004 0.0 0.0  9.3514389E+003 0.0 0.0 -3.1081032E+004 0.0 0.0  1.8318277E+004 0.0 0.0  1.8977342E+004 0.0 0.0 -1.7439096E+004 0.0 0.0  4.8844486E+003 0.0 0.0 -1.1712441E+005 0.0 0.0 -9.1792873E+004 0.0 0.0 -7.5057599E+003 0.0 0.0 -1.0320324E+004 0.0 0.0 -7.5006722E+003 0.0 0.0 -8.5781768E+003 0.0 0.0 -4.5107528E+004 0.0 0.0 -6.6609412E+004 0.0 0.0  2.0820393E+004 0.0 0.0 -4.3842438E+003 0.0 0.0  1.7770501E+003 0.0 0.0  1.8485900E+003 0.0 0.0 -2.1847493E+005 0.0 0.0 -2.5106727E+005 0.0 0.0 -2.1588330E+005 0.0 0.0  3.8554663E+002 0.0 0.0  1.6998991E+004 0.0 0.0 -5.4817709E+004 0.0 0.0 -2.3322842E+004 0.0 0.0 -1.8800352E+004 0.0 0.0 -4.4201321E+003 0.0 0.0  1.6531940E+004 0.0 0.0 -2.0826837E+004 0.0 0.0 -4.6280767E+003 0.0 0.0 -2.6725270E+003 0.0 0.0 -1.0459842E+004 0.0 0.0  1.8027580E+004 0.0 0.0  1.9173876E+004 0.0 0.0 -1.9624342E+003 0.0 0.0 -2.7828980E+005 0.0 0.0 -5.8375928E+002 0.0 0.0  1.8680280E+004 0.0 0.0 -4.5164132E+003 0.0 0.0 -3.1486770E+003 0.0 0.0 -2.8493788E+003 0.0 0.0 -2.0536259E+003 0.0 0.0 -2.1414054E+003 0.0 0.0 -1.2525464E+003 0.0 0.0 -1.2742135E+003 0.0 0.0 -1.0718878E+004 0.0 0.0 -1.7734874E+004 0.0 0.0 -1.3645474E+004 0.0 0.0 -8.2106520E+003 0.0 0.0 -4.2589123E+003 0.0 0.0 -1.4496007E+002 0.0 0.0  2.7883197E+003 0.0 0.0  1.9494035E+004 0.0 0.0  2.1314669E+004 0.0 0.0  2.0207069E+004 0.0 0.0  1.7673985E+004 0.0 0.0  1.5424598E+004 0.0 0.0  2.4805029E+004 0.0 0.0  2.0884030E+004 0.0 0.0  9.0727014E+003 0.0 0.0  2.3839530E+004 0.0 0.0 -1.6355393E+004 0.0 0.0  1.6368134E+004 0.0 0.0 -1.7570180E+003 0.0 0.0 -6.6279195E+002 0.0 0.0 -1.9363022E+003 0.0 0.0 -4.7193520E+003 0.0 0.0 -1.0549256E+003 0.0 0.0 -1.7723562E+004 0.0 0.0 -2.4048310E+003 0.0 0.0 -8.4580444E+002 0.0 0.0  7.2835442E+003 0.0 0.0  1.5977680E+004 0.0 0.0  2.3752049E+004 0.0 0.0 -1.5869057E+003 0.0 0.0 -2.1088508E+003 0.0 0.0 -6.7482564E+002 0.0 0.0 -2.2232185E+003 0.0 0.0 -7.7482852E+002 0.0 0.0  1.7750998E+004 0.0 0.0 -2.4255483E+003 0.0 0.0  1.5423775E+004 0.0 0.0 -2.3946198E+003 0.0 0.0  2.0842209E+003 0.0 0.0  8.2561124E+003 0.0 0.0 -1.3399095E+004 0.0 0.0  2.8910542E+004 0.0 0.0  3.5328889E+003 0.0 0.0 -7.4169598E+003 0.0 0.0 -6.7394941E+004 0.0 0.0 -8.7095387E+004 0.0 0.0 -6.0038957E+004 0.0 0.0 -7.8855690E+004 0.0 0.0  4.1827245E+003 0.0 0.0 -4.0228305E+002 0.0 0.0 -3.6520625E+002 0.0 0.0 -6.5948291E+002 0.0 0.0 -4.5041367E+002 0.0 0.0 -1.7226608E+004 0.0 0.0 -2.6718107E+003 0.0 0.0 -4.6958284E+004 0.0 0.0 -3.2843230E+004 0.0 0.0 -7.0193578E+003 0.0 0.0 -1.4011243E+005 0.0 0.0 -1.0729824E+005 0.0 0.0 -1.5263758E+005 0.0 0.0 -1.2020447E+005 0.0 0.0 -7.7584914E+004 0.0 0.0 -9.2632094E+004 0.0 0.0 -1.3374448E+005 0.0 0.0 -1.0553063E+005 0.0 0.0 -1.4936548E+005 0.0 0.0 -1.1943720E+005 0.0 0.0 -1.6770789E+005 0.0 0.0 -2.0023975E+005 0.0 0.0 -6.8476596E+004 0.0 0.0 -7.3694568E+004 0.0 0.0  8.2142215E+003 0.0 0.0  1.3153115E+004 0.0 0.0  1.0917287E+004 0.0 0.0  1.3873372E+004 0.0 0.0  1.1136807E+004 0.0 0.0  1.3676967E+004 0.0 0.0  1.2328945E+004 0.0 0.0  8.4180573E+003 0.0 0.0 -4.7956190E+002 0.0 0.0 -1.1558177E+003 0.0 0.0  3.4297892E+003 0.0 0.0  2.6865414E+003 0.0 0.0  1.1484233E+004 0.0 0.0 -5.9460711E+003 0.0 0.0  6.1743084E+003 0.0 0.0  2.6027791E+003 0.0 0.0  2.6238028E+003 0.0 0.0  1.4800145E+004 0.0 0.0  2.1905275E+004 0.0 0.0  1.4283970E+004 0.0 0.0  2.2253155E+004 0.0 0.0  2.4247245E+004 0.0 0.0 -2.6972671E+004 0.0 0.0  1.2858430E+004 0.0 0.0 -9.6850591E+003 0.0 0.0 -1.5999257E+004 0.0 0.0 -2.9567311E+004 0.0 0.0 -2.2078275E+004 0.0 0.0 -1.7208341E+003 0.0 0.0 -4.5992726E+003 0.0 0.0 -9.4433400E+002 0.0 0.0 -1.5636307E+003 0.0 0.0  2.3548119E+004 0.0 0.0 -1.1184668E+004 0.0 0.0 -1.3646316E+004 0.0 0.0  1.3152455E+004 0.0 0.0 -5.7722104E+002 0.0 0.0  2.4018166E+004 0.0 0.0  3.5664283E+003 0.0 0.0 -1.6740134E+005 0.0 0.0 -1.0436790E+004 0.0 0.0  9.0382336E+003 0.0 0.0 -7.1019268E+004 0.0 0.0 -1.2770370E+004 0.0 0.0 -1.0722231E+005 0.0 0.0 -9.0343616E+004 0.0 0.0 -1.1221596E+005 0.0 0.0 -1.4940315E+005 0.0 0.0 -1.3753089E+005 0.0 0.0 -1.7454038E+005 0.0 0.0 -1.2491186E+005 0.0 0.0 -8.1447441E+004 0.0 0.0 -2.6415346E+004 0.0 0.0 -1.6726708E+005 0.0 0.0 -7.6347307E+004 0.0 0.0 -1.9387092E+005 0.0 0.0 -4.6446056E+004 0.0 0.0 -6.3105452E+004 0.0 0.0 -2.4275698E+004 0.0 0.0 -2.5324609E+005 0.0 0.0 -9.1353344E+004 0.0 0.0 -2.7051843E+005 0.0 0.0 -3.0108138E+005 0.0 0.0 -1.5151055E+005 0.0 0.0 -5.9596417E+004 0.0 0.0 -1.0499335E+005 0.0 0.0 -9.3104133E+004 0.0 0.0 -1.3318074E+005 0.0 0.0 -8.6093002E+004 0.0 0.0 -1.1933601E+005 0.0 0.0 -2.5244324E+005 0.0 0.0 -1.9345791E+005 0.0 0.0 -8.0001259E+004 0.0 0.0  1.3914583E+004 0.0 0.0  1.2294502E+004 0.0 0.0 -1.9648775E+003 0.0 0.0 -8.5345925E+002 0.0 0.0  1.9383054E+004 0.0 0.0  2.1629503E+004 0.0 0.0  2.2555516E+004 0.0 0.0  1.9210671E+002 0.0 0.0 -1.8318387E+002 0.0 0.0  3.5358719E+004 0.0 0.0  7.4036602E+004 0.0 0.0  3.8687661E+004 0.0 0.0  7.2988556E+004 0.0 0.0  7.7295310E+004 0.0 0.0  7.0751244E+004 0.0 0.0  2.1095833E+004 0.0 0.0  5.7583123E+002 0.0 0.0  9.4368919E+002 0.0 0.0  1.4420257E+004 0.0 0.0  1.0326659E+003 0.0 0.0 -1.1137551E+003 0.0 0.0  2.3829504E+004 0.0 0.0  1.1346863E+003 0.0 0.0  3.5723477E+002 0.0 0.0  1.6423789E+003 0.0 0.0 -1.2992000E+003 0.0 0.0  8.4151179E+003 0.0 0.0  1.3211499E+004 0.0 0.0  2.4838811E+003 0.0 0.0  2.5845034E+003 0.0 0.0  6.1304022E+003 0.0 0.0 -8.1016968E+004 0.0 0.0  1.0398045E+004 0.0 0.0  1.9260632E+004 0.0 0.0 -5.9107337E+004 0.0 0.0 -2.9075758E+004 0.0 0.0 -1.4712673E+004 0.0 0.0  1.4100968E+004 0.0 0.0  1.7153511E+004 0.0 0.0  1.9550405E+004 0.0 0.0  1.8946408E+004 0.0 0.0 -1.7776697E+005 0.0 0.0 -2.4084030E+005 0.0 0.0 -1.0342247E+005 0.0 0.0  5.2900942E+004 0.0 0.0 -4.7589007E+004 0.0 0.0 -9.8170261E+004 0.0 0.0 -5.8411579E+004 0.0 0.0  4.9453425E+004 0.0 0.0  2.4227725E+003 0.0 0.0 -2.1373100E+005 0.0 0.0 -8.2407781E+003 0.0 0.0  2.8557361E+003 0.0 0.0  3.5709301E+003 0.0 0.0 -1.2629128E+004 0.0 0.0 -1.2731350E+003 0.0 0.0 -2.6708537E+002 0.0 0.0 -1.2164533E+003 0.0 0.0 -1.0224942E+004 0.0 0.0  1.6464302E+003 0.0 0.0  1.1040468E+004 0.0 0.0 -6.6086995E+002 0.0 0.0 -1.2060564E+004 0.0 0.0  3.4989005E+003 0.0 0.0 -1.5843345E+004 0.0 0.0 -1.1822175E+005 0.0 0.0  2.4367310E+003 0.0 0.0  1.9123380E+004 0.0 0.0 -1.2828684E+004 0.0 0.0 -7.2321345E+004 0.0 0.0  3.7709709E+003 0.0 0.0 -2.1895294E+003 0.0 0.0 -8.4709088E+003 0.0 0.0 -5.0353305E+003 0.0 0.0  5.4270224E+003 0.0 0.0 -2.1061940E+003 0.0 0.0 -6.7358850E+004 0.0 0.0 -1.0667555E+005 0.0 0.0  1.6215367E+004 0.0 0.0 -1.6739782E+005 0.0 0.0  2.4920834E+004 0.0 0.0 -5.0191096E+001 0.0 0.0  1.5487623E+004 0.0 0.0 -1.0989308E+004 0.0 0.0  1.8805464E+003 0.0 0.0 -1.5093491E+004 0.0 0.0 -1.4747837E+004 0.0 0.0 -2.9437104E+003 0.0 0.0 -1.2421347E+003 0.0 0.0 -4.1844539E+003 0.0 0.0 -7.9016712E+003 0.0 0.0 -1.3733395E+004 0.0 0.0  1.2663623E+004 0.0 0.0 -7.8073871E+003 0.0 0.0 -6.7887906E+004 0.0 0.0  5.9201863E+003 0.0 0.0 -4.1419913E+004 0.0 0.0 -2.0381352E+004 0.0 0.0  3.5786799E+004 0.0 0.0  1.2282067E+004 0.0 0.0 -2.2414070E+003 0.0 0.0 -1.2478685E+004 0.0 0.0 -6.3486163E+003 0.0 0.0  4.8470323E+003 0.0 0.0 -1.6129781E+004 0.0 0.0  1.1689488E+004 0.0 0.0 -1.8689452E+004 0.0 0.0 -4.3162206E+004 0.0 0.0 -2.1980621E+003 0.0 0.0 -3.8899258E+003 0.0 0.0 -1.8181324E+005 0.0 0.0 -2.2401843E+004 0.0 0.0 -8.0162509E+003 0.0 0.0 -4.9303606E+004 0.0 0.0 -2.1226124E+004 0.0 0.0 -2.1773127E+002 0.0 0.0 -2.9847952E+004 0.0 0.0 -1.6734064E+002 0.0 0.0 -4.0105772E+003 0.0 0.0 -7.1366198E+002 0.0 0.0  1.4245008E+004 0.0 0.0 -1.5590673E+004 0.0 0.0 -9.3407729E+004 0.0 0.0  1.0089509E+002 0.0 0.0 -9.3769114E+002 0.0 0.0  6.3323097E+003 0.0 0.0 -1.1771161E+004 0.0 0.0 -2.2601526E+004 0.0 0.0 -2.7402593E+004 0.0 0.0 -4.4105745E+004 0.0 0.0  6.1122077E+004 0.0 0.0  6.4702752E+003 0.0 0.0 -3.3827981E+004 0.0 0.0 -5.4734089E+004 0.0 0.0 -1.3619613E+004 0.0 0.0  3.1580896E+004 0.0 0.0  1.2936816E+003 0.0 0.0 -3.5134168E+004 0.0 0.0  3.1393621E+004 0.0 0.0  1.2073631E+004 0.0 0.0 -5.8040403E+004 0.0 0.0 -4.6533887E+004 0.0 0.0 -5.2356241E+004 0.0 0.0  1.1070781E+005 0.0 0.0 -1.9305407E+005 0.0 0.0  7.8949435E+003 0.0 0.0 -2.0145557E+005 0.0 0.0 -6.8785929E+003 0.0 0.0  1.5450898E+004 0.0 0.0  1.8863425E+004 0.0 0.0  4.4055475E+004 0.0 0.0 -5.1217835E+003 0.0 0.0  1.6560659E+004 0.0 0.0  9.9483245E+003 0.0 0.0 -1.4699771E+003 0.0 0.0  2.8259111E+004 0.0 0.0  1.6331914E+004 0.0 0.0  2.5195424E+004 0.0 0.0 -6.3774310E+004 0.0 0.0  1.4590257E+004 0.0 0.0  2.5031308E+003 0.0 0.0 -2.7759175E+004 0.0 0.0  1.9220857E+004 0.0 0.0 -1.3518333E+005 0.0 0.0 -1.5169448E+005 0.0 0.0 -6.7632474E+004 0.0 0.0  5.0447807E+003 0.0 0.0  7.2171917E+003 0.0 0.0 -5.5541155E+004 0.0 0.0 -6.2727479E+003 0.0 0.0 -1.9134349E+003 0.0 0.0 -1.2018680E+003 0.0 0.0  1.4921705E+004 0.0 0.0 -3.2946882E+003 0.0 0.0 -2.8696987E+003 0.0 0.0 -3.6920538E+004 0.0 0.0 -3.7470507E+004 0.0 0.0 -2.7924635E+003 0.0 0.0 -6.2625604E+002 0.0 0.0  8.1566748E+003 0.0 0.0 -2.2400743E+003 0.0 0.0 -6.0717706E+002 0.0 0.0  8.1174431E+003 0.0 0.0 -1.0611091E+005 0.0 0.0 -2.0203853E+003 0.0 0.0 -9.5685448E+004 0.0 0.0 -3.7973142E+002 0.0 0.0 -6.8152207E+004 0.0 0.0 -1.3319892E+005 0.0 0.0  6.0586323E+003 0.0 0.0 -1.2035570E+004 0.0 0.0  2.1763514E+004 0.0 0.0 -7.3361670E+002 0.0 0.0  7.9679404E+003 0.0 0.0  1.6979422E+004 0.0 0.0  1.8098494E+004 0.0 0.0  1.2544836E+005 0.0 0.0  3.1079931E+004 0.0 0.0 -5.6688554E+003 0.0 0.0  3.0543648E+004 0.0 0.0 -8.4252959E+003 0.0 0.0 -7.9337573E+004 0.0 0.0 -5.2882135E+004 0.0 0.0 -2.2765324E+005 0.0 0.0 -5.1036451E+002 0.0 0.0 -1.7253781E+004 0.0 0.0  3.3983024E+004 0.0 0.0  6.2450147E+004 0.0 0.0 -2.9172016E+002 0.0 0.0 -1.2121312E+004 0.0 0.0 -3.8016242E+004 0.0 0.0 -2.1912325E+004 0.0 0.0  3.6803078E+004 0.0 0.0 -9.1053923E+003 0.0 0.0  7.8746060E+003 0.0 0.0 -4.6771395E+004 0.0 0.0  1.3963702E+005 0.0 0.0 -5.2272263E+003 0.0 0.0 -7.7624561E+003 0.0 0.0  1.4881746E+004 0.0 0.0  4.6436683E+003 0.0 0.0 -2.4843461E+004 0.0 0.0 -2.3522465E+004 0.0 0.0  2.4682033E+002 0.0 0.0  4.3269174E+002 0.0 0.0 -1.0047021E+003 0.0 0.0 -6.6863944E+004 0.0 0.0  1.3036316E+004 0.0 0.0 -5.3969786E+004 0.0 0.0 -7.5226514E+004 0.0 0.0  2.2055643E+003 0.0 0.0  1.4921497E+004 0.0 0.0  1.8480695E+004 0.0 0.0 -5.7435683E+003 0.0 0.0 -2.4194864E+005 0.0 0.0  2.0247880E+001 0.0 0.0 -3.0966681E+003 0.0 0.0 -8.4473723E+003 0.0 0.0 -7.1469751E+004 0.0 0.0  5.3828205E+003 0.0 0.0  1.9189552E+003 0.0 0.0 -5.0758298E+002 0.0 0.0 -1.7023456E+005 0.0 0.0  1.1424125E+004 0.0 0.0  1.3481352E+004 0.0 0.0 -1.2247335E+003 0.0 0.0 -1.4746465E+005 0.0 0.0 -8.4957164E+003 0.0 0.0 -4.8384990E+004 0.0 0.0 -1.0246810E+004 0.0 0.0 -1.0103917E+004 0.0 0.0  1.2761280E+004 0.0 0.0 -2.1581894E+004 0.0 0.0 -1.6646432E+004 0.0 0.0  1.4808698E+004 0.0 0.0  2.6692537E+003 0.0 0.0 -1.5833462E+004 0.0 0.0 -2.4219918E+003 0.0 0.0  7.0680052E+002 0.0 0.0 -2.5629120E+005 0.0 0.0 -1.8574125E+004 0.0 0.0 -2.4193160E+004 0.0 0.0  1.8033181E+004 0.0 0.0 -8.4221061E+003 0.0 0.0 -1.4498854E+004 0.0 0.0  1.8661341E+004 0.0 0.0 -6.4680905E+004 0.0 0.0 -4.4627306E+003 0.0 0.0  2.9250705E+004 0.0 0.0  1.7801107E+004 0.0 0.0  9.3902536E+003 0.0 0.0  1.1244185E+003 0.0 0.0  5.0153428E+004 0.0 0.0  3.8056343E+003 0.0 0.0  3.2528031E+003 0.0 0.0  2.0105608E+004 0.0 0.0  6.3971608E+004 0.0 0.0  8.0788263E+004 0.0 0.0  8.3229658E+003 0.0 0.0  9.5004494E+004 0.0 0.0  1.0873543E+005 0.0 0.0  1.1775351E+005 0.0 0.0  1.1874359E+005 0.0 0.0  1.2063060E+005 0.0 0.0  1.1896112E+005 0.0 0.0  1.1517109E+005 0.0 0.0  1.1158236E+005 0.0 0.0  1.0425872E+005 0.0 0.0  9.6733637E+004 0.0 0.0  9.3664471E+004 0.0 0.0  8.4929831E+004 0.0 0.0  7.7328151E+004 0.0 0.0  7.5627955E+004 0.0 0.0  6.6612369E+004 0.0 0.0  5.9559493E+004 0.0 0.0  5.9373432E+004 0.0 0.0  5.1172986E+004 0.0 0.0  4.5641876E+004 0.0 0.0  1.6680214E+002 0.0 0.0  4.6673444E+004 0.0 0.0  3.8060417E+004 0.0 0.0  3.9586802E+004 0.0 0.0  3.3064534E+004 0.0 0.0  3.0362800E+004 0.0 0.0  2.6631179E+004 0.0 0.0  2.8813847E+004 0.0 0.0  2.3526302E+004 0.0 0.0  2.1266703E+004 0.0 0.0  1.9342296E+004 0.0 0.0  1.6592628E+004 0.0 0.0  1.3795221E+004 0.0 0.0  1.5245426E+004 0.0 0.0  1.3601931E+004 0.0 0.0  1.1352768E+004 0.0 0.0  1.0593836E+004 0.0 0.0  1.0744751E+004 0.0 0.0  3.4095885E+003 0.0 0.0  1.3252337E+004 0.0 0.0  1.3366134E+004 0.0 0.0  3.6822593E+004 0.0 0.0  1.1548893E+004 0.0 0.0  1.6214285E+004 0.0 0.0  2.0244329E+004 0.0 0.0  2.1704360E+004 0.0 0.0  2.4955182E+004 0.0 0.0  2.7162818E+004 0.0 0.0  2.6838609E+004 0.0 0.0  2.9114060E+004 0.0 0.0  2.9994765E+004 0.0 0.0  2.8569469E+004 0.0 0.0  2.9939397E+004 0.0 0.0  2.9823748E+004 0.0 0.0  2.7956311E+004 0.0 0.0  2.8878803E+004 0.0 0.0  2.8301073E+004 0.0 0.0  2.6330618E+004 0.0 0.0  2.6973248E+004 0.0 0.0  2.6176642E+004 0.0 0.0  2.4299032E+004 0.0 0.0  2.4790893E+004 0.0 0.0  2.3942922E+004 0.0 0.0  2.3230393E+004 0.0 0.0  2.2266135E+004 0.0 0.0  2.0487659E+004 0.0 0.0  1.9796589E+004 0.0 0.0  2.0036923E+004 0.0 0.0  1.9153287E+004 0.0 0.0  1.7639329E+004 0.0 0.0  1.6967522E+004 0.0 0.0  1.6444972E+004 0.0 0.0  1.6425006E+004 0.0 0.0  1.5682357E+004 0.0 0.0  1.4539957E+004 0.0 0.0  1.4186678E+004 0.0 0.0  1.4219237E+004 0.0 0.0  1.3713724E+004 0.0 0.0  1.3919497E+004 0.0 0.0  4.0703788E+003 0.0 0.0  9.5490296E+003 0.0 0.0 -4.1802726E+003 0.0 0.0  4.8445268E+002 0.0 0.0 -1.0848865E+003 0.0 0.0 -1.2642041E+004 0.0 0.0  5.6727704E+003 0.0 0.0  1.3695379E+004 0.0 0.0  1.8837368E+004 0.0 0.0  7.9810236E+003 0.0 0.0  2.3105905E+004 0.0 0.0  1.6632341E+004 0.0 0.0  3.2397872E+004 0.0 0.0  2.3833074E+004 0.0 0.0  1.2226067E+004 0.0 0.0  1.7673153E+004 0.0 0.0  8.9127937E+003 0.0 0.0  5.4975918E+003 0.0 0.0  3.8098452E+003 0.0 0.0  1.3336660E+004 0.0 0.0  2.2471613E+004 0.0 0.0  2.0340930E+003 0.0 0.0  1.3993363E+003 0.0 0.0  1.8374932E+004 0.0 0.0  6.5495131E+003 0.0 0.0  2.7648126E+004 0.0 0.0  3.3680562E+004 0.0 0.0  3.0407966E+004 0.0 0.0  7.2849548E+003 0.0 0.0  3.3891431E+004 0.0 0.0  6.1356717E+004 0.0 0.0  1.9925901E+003 0.0 0.0  5.1379805E+004 0.0 0.0  4.3726041E+002 0.0 0.0  3.4763874E+003 0.0 0.0  2.2582756E+004 0.0 0.0  6.0414656E+004 0.0 0.0  6.3011318E+004 0.0 0.0  1.0144508E+005 0.0 0.0  1.1790712E+004 0.0 0.0  1.8312964E+004 0.0 0.0  2.0557957E+004 0.0 0.0  1.3849566E+004 0.0 0.0  2.3450821E+004 0.0 0.0  2.3414544E+004 0.0 0.0  2.7094624E+004 0.0 0.0  6.6946473E+004 0.0 0.0  6.7441267E+004 0.0 0.0  1.0131238E+005 0.0 0.0  2.2559154E+004 0.0 0.0  4.5756926E+004 0.0 0.0  4.4020399E+004 0.0 0.0  5.2662913E+004 0.0 0.0  2.7566998E+004 0.0 0.0  6.1278364E+004 0.0 0.0  5.9670537E+004 0.0 0.0  8.0813315E+004 0.0 0.0  1.0410634E+004 0.0 0.0  9.3852682E+003 0.0 0.0  1.5983406E+004 0.0 0.0  2.9590462E+004 0.0 0.0  2.8462316E+004 0.0 0.0  3.2273099E+004 0.0 0.0  1.6430948E+004 0.0 0.0  3.1451338E+004 0.0 0.0  1.9341396E+004 0.0 0.0  3.8497548E+004 0.0 0.0  3.6935434E+004 0.0 0.0  4.2104196E+004 0.0 0.0  1.7068790E+004 0.0 0.0  3.2752473E+004 0.0 0.0  2.8366611E+004 0.0 0.0  6.5942282E+004 0.0 0.0  6.5063207E+004 0.0 0.0  9.2418210E+004 0.0 0.0  2.5867350E+004 0.0 0.0  5.5423573E+004 0.0 0.0  5.3605801E+004 0.0 0.0  6.8939470E+004 0.0 0.0  1.8847407E+004 0.0 0.0  1.9841982E+004 0.0 0.0  3.8847841E+004 0.0 0.0  2.3826553E+004 0.0 0.0  4.9548469E+004 0.0 0.0  4.7832716E+004 0.0 0.0  5.8785658E+004 0.0 0.0  2.4451676E+004 0.0 0.0  4.9408016E+004 0.0 0.0  2.5458557E+004 0.0 0.0  1.3823289E+004 0.0 0.0  2.5220212E+004 0.0 0.0  2.4611724E+004 0.0 0.0  2.6277250E+004 0.0 0.0  1.4125989E+004 0.0 0.0  2.6640077E+004 0.0 0.0  2.3376006E+004 0.0 0.0  2.6431207E+004 0.0 0.0  5.4926372E+004 0.0 0.0  2.7914404E+004 0.0 0.0  6.1369729E+004 0.0 0.0  1.2950728E+004 0.0 0.0  1.4708364E+004 0.0 0.0  2.7574222E+004 0.0 0.0  1.7891486E+004 0.0 0.0  3.4174381E+004 0.0 0.0  2.0764059E+004 0.0 0.0  4.0471194E+004 0.0 0.0  2.7343929E+004 0.0 0.0  2.8554613E+004 0.0 0.0  2.0081300E+004 0.0 0.0  5.5215755E+004 0.0 0.0  1.3046427E+004 0.0 0.0  2.4294891E+004 0.0 0.0  1.6086391E+004 0.0 0.0  2.1850481E+004 0.0 0.0  1.3689383E+004 0.0 0.0  2.8186447E+004 0.0 0.0  2.4750723E+004 0.0 0.0  1.3466890E+004 0.0 0.0  2.5953819E+004 0.0 0.0  6.4819388E+004 0.0 0.0  1.3281134E+004 0.0 0.0  4.1635116E+004 0.0 0.0  4.7250786E+004 0.0 0.0  8.0563110E+004 0.0 0.0  1.7236851E+004 0.0 0.0  2.8240773E+004 0.0 0.0  6.5939655E+004 0.0 0.0  1.2696362E+004 0.0 0.0  3.0716950E+004 0.0 0.0  4.1522609E+004 0.0 0.0  1.6919336E+004 0.0 0.0  2.7520494E+004 0.0 0.0  1.0268861E+005 0.0 0.0  9.1042089E+004 0.0 0.0  2.6658460E+004 0.0 0.0  3.9454266E+004 0.0 0.0  4.0562041E+004 0.0 0.0  5.0559698E+004 0.0 0.0  3.2654726E+004 0.0 0.0  4.6316926E+004 0.0 0.0  1.0891802E+005 0.0 0.0  9.3057381E+004 0.0 0.0  3.5871943E+004 0.0 0.0  4.8160807E+004 0.0 0.0  2.0731711E+004 0.0 0.0  3.2400996E+004 0.0 0.0  7.9091358E+004 0.0 0.0  5.4385945E+004 0.0 0.0  5.8937603E+004 0.0 0.0  6.4888868E+004 0.0 0.0  7.1033958E+004 0.0 0.0  5.1388435E+004 0.0 0.0  6.1920615E+004 0.0 0.0  5.8554512E+004 0.0 0.0  6.4210291E+004 0.0 0.0  1.0345589E+005 0.0 0.0  7.9367784E+004 0.0 0.0  2.2691472E+004 0.0 0.0  3.5178209E+004 0.0 0.0  8.7706290E+004 0.0 0.0  8.3259118E+004 0.0 0.0  7.2279276E+004 0.0 0.0  7.3756983E+004 0.0 0.0  1.9055361E+004 0.0 0.0  3.0988604E+004 0.0 0.0  4.7196918E+004 0.0 0.0  5.6222506E+004 0.0 0.0  8.0545365E+004 0.0 0.0  8.0752328E+004 0.0 0.0  9.6605561E+004 0.0 0.0  8.9343830E+004 0.0 0.0  1.1173545E+005 0.0 0.0  9.1863069E+004 0.0 0.0  1.4704624E+004 0.0 0.0  2.6617158E+004 0.0 0.0  2.4970068E+004 0.0 0.0  3.7608811E+004 0.0 0.0  1.7967087E+004 0.0 0.0  2.8862027E+004 0.0 0.0  1.0867243E+005 0.0 0.0  8.6113854E+004 0.0 0.0  1.1826871E+003 0.0 0.0  1.3238300E+004 0.0 0.0  5.1948645E+003 0.0 0.0  9.2988825E+004 0.0 0.0  4.3032460E+004 0.0 0.0  8.5866362E+004 0.0 0.0  5.2407599E+004 0.0 0.0  6.6461704E+004 0.0 0.0  3.3052841E+004 0.0 0.0  5.7905701E+004 0.0 0.0  7.6163527E+004 0.0 0.0  2.7699956E+004 0.0 0.0  9.2084900E+004 0.0 0.0  7.5965645E+004 0.0 0.0  2.1914345E+004 0.0 0.0 -2.3129468E+003 0.0 0.0  1.3397310E+004 0.0 0.0  6.9377804E+003 0.0 0.0 -2.2310117E+003 0.0 0.0  4.3781624E+004 0.0 0.0  2.8858808E+004 0.0 0.0  3.9697316E+004 0.0 0.0  5.1735242E+002 0.0 0.0  1.1633425E+002 0.0 0.0  3.8055741E+004 0.0 0.0  8.1413902E+003 0.0 0.0  1.1198113E+004 0.0 0.0  3.2105356E+003 0.0 0.0 -4.4682518E+003 0.0 0.0 -6.6563940E+002 0.0 0.0  1.2003487E+004 0.0 0.0  2.6898268E+003 0.0 0.0  4.4259391E+004 0.0 0.0  1.1277406E+004 0.0 0.0  2.5364503E+004 0.0 0.0  4.4023484E+002 0.0 0.0 -4.7018374E+003 0.0 0.0  2.3915108E+004 0.0 0.0  1.4706458E+004 0.0 0.0 -1.0423492E+003 0.0 0.0  2.4880537E+004 0.0 0.0  2.3840014E+004 0.0 0.0  2.7634318E+004 0.0 0.0  2.3112941E+004 0.0 0.0  1.0845170E+004 0.0 0.0  3.3891506E+004 0.0 0.0  4.0011321E+004 0.0 0.0  1.6418480E+004 0.0 0.0  4.3395905E+004 0.0 0.0  4.8194912E+004 0.0 0.0  5.3154257E+004 0.0 0.0  2.3980401E+004 0.0 0.0  2.2905224E+004 0.0 0.0  5.8455069E+004 0.0 0.0  2.1681712E+004 0.0 0.0  6.0472902E+004 0.0 0.0  2.5995365E+004 0.0 0.0  5.6722301E+004 0.0 0.0  4.4013280E+004 0.0 0.0  3.4298209E+004 0.0 0.0  2.5406939E+004 0.0 0.0  2.4210594E+004 0.0 0.0  4.0662918E+004 0.0 0.0  2.9361704E+004 0.0 0.0  2.4895169E+004 0.0 0.0  3.0650222E+004 0.0 0.0  5.2157520E+004 0.0 0.0  2.9804117E+004 0.0 0.0  2.8533498E+004 0.0 0.0  6.7487063E+004 0.0 0.0  2.9744722E+004 0.0 0.0  3.5599516E+004 0.0 0.0  8.4636215E+004 0.0 0.0  3.0693252E+004 0.0 0.0  3.7468946E+004 0.0 0.0  3.9518831E+004 0.0 0.0  1.0145451E+005 0.0 0.0  3.4078304E+004 0.0 0.0  9.5819129E+004 0.0 0.0  3.5073650E+004 0.0 0.0  7.9758489E+004 0.0 0.0  3.6141141E+004 0.0 0.0  4.6243415E+004 0.0 0.0  4.8745658E+004 0.0 0.0  3.9725500E+004 0.0 0.0  4.3089638E+004 0.0 0.0  4.3521782E+004 0.0 0.0  6.3300816E+004 0.0 0.0  4.7657152E+004 0.0 0.0  4.7974087E+004 0.0 0.0  5.2212754E+004 0.0 0.0  7.3931879E+004 0.0 0.0  5.2314242E+004 0.0 0.0  5.5315580E+004 0.0 0.0  5.4536953E+004 0.0 0.0  8.5217933E+004 0.0 0.0  5.4463721E+004 0.0 0.0  5.1763980E+004 0.0 0.0  9.5447938E+004 0.0 0.0  4.7072682E+004 0.0 0.0  4.1543678E+004 0.0 0.0  2.9654778E+004 0.0 0.0  9.9760695E+004 0.0 0.0  9.1321067E+004 0.0 0.0  7.8994412E+002 0.0 0.0  3.6128558E+003 0.0 0.0  2.6488465E+004 0.0 0.0  2.9914599E+004 0.0 0.0  1.6503802E+002 0.0 0.0  2.7070506E+004 0.0 0.0  3.5827190E+004 0.0 0.0  2.7214710E+004 0.0 0.0  4.5362501E+004 0.0 0.0  5.5922556E+004 0.0 0.0  6.1877103E+004 0.0 0.0  7.1572800E+004 0.0 0.0  8.2591748E+004 0.0 0.0  9.2430761E+004 0.0 0.0  9.8549078E+004 0.0 0.0  9.2825710E+004 0.0 0.0  6.8730236E+004 0.0 0.0  7.7743864E+004 0.0 0.0  7.1950599E+003 0.0 0.0  2.4860463E+003 0.0 0.0  9.5027019E+004 0.0 0.0  4.7572337E+004 0.0 0.0  3.7914285E+004 0.0 0.0  2.4201044E+004 0.0 0.0  9.6019677E+004 0.0 0.0  8.2468501E+003 0.0 0.0 -1.2566650E+003 0.0 0.0  8.7691137E+004 0.0 0.0  2.0413946E+004 0.0 0.0  4.6771651E+003 0.0 0.0  7.6910208E+004 0.0 0.0  6.6080951E+004 0.0 0.0  5.6722818E+004 0.0 0.0  5.0987517E+004 0.0 0.0  6.1482659E+002 0.0 0.0  1.4319558E+003 0.0 0.0  4.1231080E+004 0.0 0.0  5.8208885E-004 0.0 0.0 -7.9993760E+003 0.0 0.0 -1.0049272E-001 0.0 0.0 -6.2988047E+000 0.0 0.0  2.8913921E+002 0.0 0.0 -4.3864845E+001 0.0 0.0 -8.3411550E+000 0.0 0.0 -6.5100218E+003 0.0 0.0 -4.4365138E+001 0.0 0.0  6.0183145E-002 0.0 0.0 -8.5867676E-003 0.0 0.0 -1.4236314E+003 0.0 0.0  2.7089061E+000 0.0 0.0  2.7698464E+000 0.0 0.0 -4.2430838E+000 0.0 0.0 -3.9317328E+001 0.0 0.0 -3.5773425E+003 0.0 0.0  4.8320061E+000 0.0 0.0 -2.6502731E-005 0.0 0.0 -2.5452437E+003 0.0 0.0 -3.1969178E+003 0.0 0.0 -1.0840658E+003 0.0 0.0 -1.1571099E+003 0.0 0.0  2.8656525E-005 0.0 0.0  1.2970266E+001 0.0 0.0 -8.5770316E+003 0.0 0.0 -1.8319627E+000 0.0 0.0 -1.3782122E+000 0.0 0.0 -3.0238925E-006 0.0 0.0  8.1086735E+001 0.0 0.0 -3.3287496E-004 0.0 0.0 -1.9822451E-002 0.0 0.0 -6.8874178E-004 0.0 0.0 -9.3122013E-005 0.0 0.0 -4.9273069E-005 0.0 0.0 -1.9021185E-003 0.0 0.0  1.3702146E-003 0.0 0.0  1.0772208E-004 0.0 0.0 -7.4150660E+003 0.0 0.0 -3.1739167E+002 0.0 0.0 -1.8739509E+001 0.0 0.0  8.0204010E+002 0.0 0.0 -1.3553835E+001 0.0 0.0 -2.9882319E-001 0.0 0.0 -1.9302606E+004 0.0 0.0 -5.6460406E+002 0.0 0.0 -3.7937813E+003 0.0 0.0 -2.7026547E+002 0.0 0.0  7.0924719E+001 0.0 0.0 -1.2531976E+002 0.0 0.0  1.5324633E-003 0.0 0.0 -5.3898498E-002 0.0 0.0  5.2539555E-003 0.0 0.0  6.6534152E-002 0.0 0.0 -1.1742843E+001 0.0 0.0 -2.7492222E+002 0.0 0.0  5.3316727E+001 0.0 0.0 -3.0519259E+003 0.0 0.0 -2.5371907E+001 0.0 0.0 -2.7853845E+000 0.0 0.0 -8.7513153E+001 0.0 0.0  2.4395145E+000 0.0 0.0 -1.1333620E+003 0.0 0.0 -1.2851318E+003 0.0 0.0 -2.1737445E+004 0.0 0.0  4.8372309E+002 0.0 0.0 -2.4449514E+003 0.0 0.0 -1.3946617E+002 0.0 0.0 -1.8646464E+003 0.0 0.0 -6.2698616E+001 0.0 0.0 -1.9077411E+002 0.0 0.0 -2.0894749E+002 0.0 0.0 -3.5788000E+004 0.0 0.0 -6.4934238E+000 0.0 0.0  1.0240024E+001 0.0 0.0 -6.2232249E+001 0.0 0.0 -5.9854594E+000 0.0 0.0 -5.5688688E+002 0.0 0.0  4.5658354E-001 0.0 0.0 -3.6875260E+001 0.0 0.0 -8.1165930E+003 0.0 0.0 -4.2960073E+002 0.0 0.0 -5.0627251E+003 0.0 0.0  2.4304045E+001 0.0 0.0 -2.0411978E+003 0.0 0.0  3.2574464E+000 0.0 0.0 -6.8109567E+000 0.0 0.0 -6.0694756E-005 0.0 0.0  3.3111767E-004 0.0 0.0 -4.2647749E+003 0.0 0.0  7.9948493E-001 0.0 0.0  8.0813193E+001 0.0 0.0 -3.9036578E+003 0.0 0.0 -5.7054500E-002 0.0 0.0 -3.4350456E+004 0.0 0.0 -7.0857976E+000 0.0 0.0 -2.0504124E+001 0.0 0.0 -6.4334624E+004 0.0 0.0 -4.1174869E+000 0.0 0.0 -3.6543737E+004 0.0 0.0  2.5793998E+001 0.0 0.0 -1.1338000E-003 0.0 0.0 -2.4661749E-005 0.0 0.0 -7.3302253E+001 0.0 0.0 -4.8013714E+002 0.0 0.0 -1.9339065E+000 0.0 0.0 -1.7548202E-005 0.0 0.0 -7.4193124E+001 0.0 0.0 -1.9621979E+004 0.0 0.0 -6.6015744E+002 0.0 0.0 -8.6544536E+004 0.0 0.0 -4.1114550E+001 0.0 0.0 -9.5618004E+001 0.0 0.0 -7.3922665E+000 0.0 0.0  7.7868901E+001 0.0 0.0 -5.8036130E+003 0.0 0.0 -1.2265186E+001 0.0 0.0 -4.5104512E-004 0.0 0.0 -9.0440557E+002 0.0 0.0  2.3889880E-005 0.0 0.0 -5.8140549E+004 0.0 0.0 -2.1708794E+001 0.0 0.0  6.9021397E-001 0.0 0.0 -3.3103509E+004 0.0 0.0 -8.4828844E+001 0.0 0.0 -1.4580858E+003 0.0 0.0 -9.9443818E+000 0.0 0.0  6.8438095E-003 0.0 0.0 -1.1247074E+004 0.0 0.0 -3.2466778E+002 0.0 0.0  6.4203861E+000 0.0 0.0 -6.7222902E-003 0.0 0.0 -3.2069690E-006 0.0 0.0 -4.7148604E+003 0.0 0.0 -9.9608870E-005 0.0 0.0 -3.1859047E+002 0.0 0.0 -4.7996411E+003 0.0 0.0 -1.9209597E+003 0.0 0.0 -7.0977587E+001 0.0 0.0 -7.6261213E+002 0.0 0.0 -7.0573147E+002 0.0 0.0 -7.0296758E+002 0.0 0.0  5.3130287E-004 0.0 0.0 -1.1771934E+003 0.0 0.0 -3.9941516E+002 0.0 0.0  4.0415214E-002 0.0 0.0 -1.1892590E+000 0.0 0.0 -2.8328186E+003 0.0 0.0 -4.2987606E+001 0.0 0.0  3.9251450E-003 0.0 0.0 -6.0038908E+002 0.0 0.0 -1.8396472E-009 0.0 0.0 -1.3371673E-007 0.0 0.0 -5.1341826E-006 0.0 0.0 -9.4137835E-006 0.0 0.0 -4.4505358E-006 0.0 0.0 -3.4570328E-007 0.0 0.0 -1.8715493E-006 0.0 0.0 -1.4359000E-005 0.0 0.0 -1.1333914E-005 0.0 0.0 -7.2822044E-007 0.0 0.0 -1.0521989E-006 0.0 0.0  1.4132412E-005 0.0 0.0  6.9788958E-005 0.0 0.0 -9.2253099E-006 0.0 0.0 -3.6007251E-005 0.0 0.0 -2.7400191E-005 0.0 0.0 -8.4554151E-007 0.0 0.0  8.6332886E-005 0.0 0.0 -1.8224433E-005 0.0 0.0 -3.4241614E-005 0.0 0.0 -3.3223358E-005 0.0 0.0 -6.1346223E-006 0.0 0.0 -1.9079569E-008 0.0 0.0 -3.9106315E-005 0.0 0.0 -4.2799917E-005 0.0 0.0 -3.1302631E-005 0.0 0.0 -4.6738883E-006 0.0 0.0 -2.2267169E-009 0.0 0.0 -6.8395452E-010 0.0 0.0 -2.8380532E-005 0.0 0.0 -1.8605053E+001 0.0 0.0  1.1659083E+002 0.0 0.0 -5.6567555E+002 0.0 0.0 -2.8692011E+002 0.0 0.0 -2.0335486E+002 0.0 0.0 -1.6736909E+002 0.0 0.0 -3.7700700E+001 0.0 0.0 -2.1493383E+002 0.0 0.0  1.7995314E+002 0.0 0.0 -3.2412297E-003 0.0 0.0  8.9508176E+001 0.0 0.0 -6.8933707E+001 0.0 0.0  2.0252393E+003 0.0 0.0 -4.6369850E+002 0.0 0.0  1.0439864E+003 0.0 0.0  3.3953623E+002 0.0 0.0  3.9383793E-006 0.0 0.0 -4.0031902E+001 0.0 0.0 -3.0749178E-009 0.0 0.0 -8.1014181E+001 0.0 0.0 -7.4145433E+002 0.0 0.0 -1.3435786E+003 0.0 0.0  1.3895479E+002 0.0 0.0 -3.7803687E+001 0.0 0.0 -9.0748228E+000 0.0 0.0  6.0437711E+002 0.0 0.0  5.9481757E+002 0.0 0.0  2.9577687E+002 0.0 0.0  4.3066462E+003 0.0 0.0  5.6385765E-015 0.0 0.0  2.2127528E+001 0.0 0.0 -1.8164722E-002 0.0 0.0 -9.9150912E-008 0.0 0.0 -8.2703925E-014 0.0 0.0 -7.4274735E+002 0.0 0.0  8.3181038E+001 0.0 0.0 -1.1089498E+002 0.0 0.0 -2.0779794E+002 0.0 0.0  3.8843560E+002 0.0 0.0  5.4641226E-018 0.0 0.0  2.0619958E-014 0.0 0.0  1.0242429E-015 0.0 0.0 -4.5362601E+000 0.0 0.0 -1.0457702E-007 0.0 0.0  9.2766980E-008 0.0 0.0 -1.1466108E-007 0.0 0.0 -3.9242606E-010 0.0 0.0  1.6089865E-008 0.0 0.0 -4.8718463E-007 0.0 0.0  2.6712736E+003 0.0 0.0 -5.5294144E+002 0.0 0.0  5.7758497E-001 0.0 0.0 -2.0464397E-001 0.0 0.0 -9.0109511E+001 0.0 0.0 -5.9116527E+000 0.0 0.0  4.1761191E+002 0.0 0.0  9.6912859E+002 0.0 0.0  2.6034218E-011 0.0 0.0 -6.5893613E-009 0.0 0.0 -1.4576614E-002 0.0 0.0  1.7651700E-002 0.0 0.0  1.7153077E+002 0.0 0.0 -9.6788117E+002 0.0 0.0 -2.8681320E-019 0.0 0.0  4.7869887E-004 0.0 0.0  9.5584278E-003 0.0 0.0 -2.2501454E-004 0.0 0.0 -1.1238493E-002 0.0 0.0  1.4772854E-004 0.0 0.0 -9.6625011E-003 0.0 0.0  2.4171146E-004 0.0 0.0 -2.3713066E-003 0.0 0.0 -5.7091813E+002 0.0 0.0  7.3585229E+002 0.0 0.0  1.4055837E+001 0.0 0.0  2.6358041E+002 0.0 0.0 -1.4590280E+002 0.0 0.0 -1.2651953E+002 0.0 0.0 -6.2369545E+002 0.0 0.0  6.5339776E-005 0.0 0.0 -5.1773260E-004 0.0 0.0  1.6445732E-003 0.0 0.0 -7.7122321E-003 0.0 0.0 -1.5264798E-011 0.0 0.0  1.8328056E-005 0.0 0.0 -2.3585836E-006 0.0 0.0 -5.8936840E-004 0.0 0.0  2.1139565E-005 0.0 0.0  7.0507911E-005 0.0 0.0 -1.1829131E-006 0.0 0.0  9.4983828E-006 0.0 0.0 -3.7001517E-007 0.0 0.0 -6.7307169E-007 0.0 0.0  6.2393594E-009 0.0 0.0 -9.8525881E-006 0.0 0.0 -4.7425952E-008 0.0 0.0  1.6366606E-009 0.0 0.0 -2.5571755E-009 0.0 0.0  1.0498366E-010 0.0 0.0 -1.3627748E-009 0.0 0.0  3.6640651E-011 0.0 0.0 -3.3772192E-010 0.0 0.0  1.1140109E-011 0.0 0.0 -4.0007034E-011 0.0 0.0  1.2480746E-012 0.0 0.0 -1.1900749E-011 0.0 0.0  4.2273909E-013 0.0 0.0 -4.1120726E-016 0.0 0.0  8.7819952E-004 0.0 0.0  3.9280001E-004 0.0 0.0  5.2671092E-004 0.0 0.0 -2.8785854E-011 0.0 0.0 -7.0837322E-003 0.0 0.0 -4.9862642E+003 0.0 0.0 -3.1567022E-008 0.0 0.0 -3.6057626E-013 0.0 0.0  3.7673735E-008 0.0 0.0  6.1243220E+003 0.0 0.0 -3.8940093E-012 0.0 0.0  5.5913394E-014 0.0 0.0  5.0460774E+002 0.0 0.0 -2.0983141E-011 0.0 0.0  6.7438758E-007 0.0 0.0  3.9254071E-007 0.0 0.0  2.3066371E-014 0.0 0.0 -1.6616236E-008 0.0 0.0  8.5312796E-015 0.0 0.0 -7.6455811E-003 0.0 0.0 -1.4022089E-002 0.0 0.0 -1.2424670E+000 0.0 0.0  1.3824212E-013 0.0 0.0  1.4178992E-004 0.0 0.0  1.0620294E-005 0.0 0.0  8.1424974E-009 0.0 0.0  9.9377391E-008 0.0 0.0  1.5575945E-001 0.0 0.0  5.9035350E-003 0.0 0.0 -3.5810429E-002 0.0 0.0  1.2641117E-002 0.0 0.0 -3.1679219E-001 0.0 0.0  2.3606688E-001 0.0 0.0 -3.8402674E+000 0.0 0.0  7.8111513E-002 0.0 0.0 -8.0896489E-016 0.0 0.0 -1.3281632E-011 0.0 0.0  1.0155988E+002 0.0 0.0  2.1739898E-015 0.0 0.0 -6.7307224E-004 0.0 0.0 -4.9403612E-003 0.0 0.0  3.3671883E-013 0.0 0.0  6.3988809E-002 0.0 0.0  1.3607564E-001 0.0 0.0  6.3049070E-003 0.0 0.0  2.6339480E-003 0.0 0.0  1.4377130E-001 0.0 0.0  6.2488293E-003 0.0 0.0 -5.0250864E-004 0.0 0.0 -2.4168539E+000 0.0 0.0 -1.8096126E-002 0.0 0.0 -2.8585196E-001 0.0 0.0 -9.8540781E-003 0.0 0.0 -4.9553999E-005 0.0 0.0  1.6595190E-004 0.0 0.0  1.0078935E-009 0.0 0.0 -1.0812935E-009 0.0 0.0  6.8389467E-013 0.0 0.0 -1.2202182E-015 0.0 0.0 -1.0619773E-013 0.0 0.0  3.5379388E-015 0.0 0.0  3.1091571E+001 0.0 0.0  2.3122098E-002 0.0 0.0  3.6666173E-003 0.0 0.0  4.5256020E-006 0.0 0.0  9.5654300E-017 0.0 0.0  1.7641949E+003 0.0 0.0  1.0142881E+002 0.0 0.0  1.4423566E+003 0.0 0.0  4.9412414E+002 0.0 0.0 -3.3076497E-009 0.0 0.0  4.7700754E-002 0.0 0.0  1.6339149E-002 0.0 0.0 -5.0395582E-016 0.0 0.0  1.5239377E-017 0.0 0.0  9.1879263E-004 0.0 0.0  1.0074067E+002 0.0 0.0  5.3578635E-004 0.0 0.0  2.5645533E-003 0.0 0.0  2.2959163E-002 0.0 0.0 -5.2704208E-003 0.0 0.0  2.1120446E-003 0.0 0.0  2.8406367E-001 0.0 0.0  3.4346985E-009 0.0 0.0  6.4382396E-010 0.0 0.0  2.2036898E-008 0.0 0.0  9.0252031E-008 0.0 0.0  1.4199205E-001 0.0 0.0 -1.2333984E-003 0.0 0.0  2.6658049E-009 0.0 0.0 -4.1869572E-005 0.0 0.0 -2.4854878E-016 0.0 0.0 -1.3984267E-012 0.0 0.0 -3.8789167E-012 0.0 0.0 -4.6072258E-013 0.0 0.0  5.1057584E-003 0.0 0.0 -7.5795221E-003 0.0 0.0  1.5896463E+000 0.0 0.0 -1.4978956E+000 0.0 0.0 -2.2748679E-002 0.0 0.0 -1.4241744E-017 0.0 0.0  2.4207469E-015 0.0 0.0  7.8952172E-018 0.0 0.0 -1.4391831E+002 0.0 0.0 -1.4165054E+001 0.0 0.0  2.1814409E+001 0.0 0.0 -5.4711626E-010 0.0 0.0  5.9391910E-011 0.0 0.0  2.1540264E-002 0.0 0.0 -7.2137567E-002 0.0 0.0  2.9823436E-001 0.0 0.0  1.8571734E-002 0.0 0.0 -1.6162402E-001 0.0 0.0 -8.1063155E-002 0.0 0.0  2.0573170E+000 0.0 0.0  7.0974407E-002 0.0 0.0  2.9625440E-001 0.0 0.0 -1.8855404E-002 0.0 0.0  7.4476476E-001 0.0 0.0  2.4246721E-002 0.0 0.0  1.8058751E-001 0.0 0.0  1.6851661E-001 0.0 0.0  7.2314409E-002 0.0 0.0  2.1499048E-003 0.0 0.0 -2.4645212E-008 0.0 0.0  6.1705489E-009 0.0 0.0 -4.6180887E-008 0.0 0.0  5.2606887E-008 0.0 0.0 -3.3212959E+003 0.0 0.0  6.9721812E+001 0.0 0.0 -8.7184159E-002 0.0 0.0 -9.0383480E-001 0.0 0.0 -9.4558102E-008 0.0 0.0  8.5382898E-008 0.0 0.0  3.6986758E-010 0.0 0.0  4.1694437E-010 0.0 0.0  4.6195157E-011 0.0 0.0  4.6332113E-009 0.0 0.0 -2.2235786E-010 0.0 0.0 -7.5611680E-010 0.0 0.0 -9.6199268E-008 0.0 0.0  1.5118685E-010 0.0 0.0 -5.2951289E-009 0.0 0.0 -7.0385315E-008 0.0 0.0 -7.4923804E-009 0.0 0.0  9.1853975E-010 0.0 0.0 -8.6726514E+001 0.0 0.0 -6.5930126E+002 0.0 0.0 -1.2840144E+002 0.0 0.0  1.1615181E-008 0.0 0.0 -2.2520801E-009 0.0 0.0 -2.6443485E+002 0.0 0.0 -1.2359330E+002 0.0 0.0 -1.2786071E+003 0.0 0.0 -7.3748755E+001 0.0 0.0 -2.9282990E+002 0.0 0.0 -1.0303408E+002 0.0 0.0  5.7727405E+002 0.0 0.0  6.5490043E-001 0.0 0.0 -5.0241981E+002 0.0 0.0 -3.7360852E+001 0.0 0.0 -8.7742657E+001 0.0 0.0 -9.2048813E+002 0.0 0.0 -3.4147518E+001 0.0 0.0 -7.4232547E+002 0.0 0.0 -3.2885686E+001 0.0 0.0  5.9479132E+002 0.0 0.0  2.8010700E+002 0.0 0.0  3.1462721E+003 0.0 0.0  2.2959400E+002 0.0 0.0 -1.0028494E+003 0.0 0.0 -3.3346202E+001 0.0 0.0 -3.0956458E+002 0.0 0.0  1.9534182E-002 0.0 0.0 -1.8135679E-001 0.0 0.0  8.8469321E-017 0.0 0.0  1.1370668E-017 0.0 0.0 -3.3028025E-007 0.0 0.0 -1.7673545E-003 0.0 0.0 -1.4930943E-003 0.0 0.0  9.6658395E-002 0.0 0.0 -2.2722285E-006 0.0 0.0 -2.5121448E-003 0.0 0.0 -9.6844882E-004 0.0 0.0 -1.1060117E-001 0.0 0.0 -3.7520107E-003 0.0 0.0 -2.8814177E-005 0.0 0.0  4.0030927E-002 0.0 0.0 -3.8403181E-002 0.0 0.0 -6.1203697E-002 0.0 0.0  4.0251715E-001 0.0 0.0  3.2807065E-001 0.0 0.0  7.1121068E-002 0.0 0.0 -2.0510584E-011 0.0 0.0  1.6038637E-010 0.0 0.0 -2.8173838E+001 0.0 0.0  1.6829065E-001 0.0 0.0  8.8370621E-011 0.0 0.0  1.2009171E-010 0.0 0.0 -2.4098357E-003 0.0 0.0  3.1099527E+000 0.0 0.0 -7.2321523E-003 0.0 0.0  1.4465076E-001 0.0 0.0  3.8179350E-001 0.0 0.0  9.3524327E+003 0.0 0.0  1.8494024E-003 0.0 0.0 -7.4862575E-004 0.0 0.0 -1.4224317E+000 0.0 0.0  2.5655515E+000 0.0 0.0  4.9215687E+000 0.0 0.0 -4.0045592E-001 0.0 0.0  1.8437360E+001 0.0 0.0 -2.6502775E+000 0.0 0.0  1.7217195E+000 0.0 0.0  1.8548113E+000 0.0 0.0  5.1152434E-001 0.0 0.0  9.8016820E-001 0.0 0.0  8.5399804E+000 0.0 0.0  8.6231270E+000 0.0 0.0 -2.3812462E+000 0.0 0.0  7.3091463E+000 0.0 0.0 -5.6021977E-010 0.0 0.0  8.6356487E-019 0.0 0.0  2.3120783E-008 0.0 0.0 -6.6526625E-010 0.0 0.0  6.2796166E-001 0.0 0.0  1.5349886E+001 0.0 0.0  9.2366254E-001 0.0 0.0  2.3243643E-012 0.0 0.0  2.5932752E-012 0.0 0.0  4.4545750E-011 0.0 0.0 -2.5129640E-011 0.0 0.0 -1.6142808E-010 0.0 0.0 -2.7581887E-002 0.0 0.0 -8.3759642E-004 0.0 0.0 -5.2961507E-005 0.0 0.0 -4.2656375E-005 0.0 0.0 -1.3616623E-003 0.0 0.0  2.6902289E-006 0.0 0.0 -1.3184521E-005 0.0 0.0  3.7527322E+000 0.0 0.0  8.5407390E-002 0.0 0.0 -6.9221292E-009 0.0 0.0 -1.5500335E-009 0.0 0.0 -2.1493128E-007 0.0 0.0  8.0017805E+001 0.0 0.0  1.5595493E+000 0.0 0.0  7.2812831E+001 0.0 0.0  1.4942188E-007 0.0 0.0  2.1234011E-003 0.0 0.0  7.0315304E-016 0.0 0.0 -7.3023945E+003 0.0 0.0  4.7687911E+002 0.0 0.0 -5.9562661E+000 0.0 0.0  8.6092982E-008 0.0 0.0  2.5919042E-009 0.0 0.0  1.1473003E+001 0.0 0.0 -2.0361328E-008 0.0 0.0  4.3781728E-008 0.0 0.0  3.7134349E-003 0.0 0.0  1.3953344E-001 0.0 0.0  6.7472868E-010 0.0 0.0  6.0256887E-010 0.0 0.0 -4.4230712E-011 0.0 0.0  8.0770587E-013 0.0 0.0  6.3277568E-010 0.0 0.0 -2.0091852E-011 0.0 0.0 -1.4662196E-011 0.0 0.0 -6.1758999E-013 0.0 0.0 -1.3071483E-011 0.0 0.0  3.8926406E-013 0.0 0.0  3.1188862E-013 0.0 0.0  7.0976239E-015 0.0 0.0  1.3288677E-013 0.0 0.0 -3.6890412E-015 0.0 0.0 -6.2744361E-012 0.0 0.0  5.0900260E-010 0.0 0.0  9.4141444E-016 0.0 0.0  1.3519487E-016 0.0 0.0  7.8961431E-014 0.0 0.0  1.9756303E-011 0.0 0.0  1.2682948E-012 0.0 0.0  3.4899650E-010 0.0 0.0  1.4245000E-014 0.0 0.0 -2.4187922E-017 0.0 0.0  3.3600968E-018 0.0 0.0 -5.9235375E-004 0.0 0.0  5.4917244E-006 0.0 0.0  2.9767158E-005 0.0 0.0 -4.3641503E-001 0.0 0.0  2.7744586E-006 0.0 0.0  2.8789985E-003 0.0 0.0 -2.2882303E-001 0.0 0.0  6.1849163E-002 0.0 0.0  5.5995844E-003 0.0 0.0  3.7305667E-003 0.0 0.0 -4.2610268E-003 0.0 0.0 -9.7143838E-004 0.0 0.0 -5.0064707E-003 0.0 0.0 -1.1090717E-003 0.0 0.0 -2.0493689E-006 0.0 0.0 -3.5041485E-003 0.0 0.0  4.0525219E-005 0.0 0.0 -1.2911642E-008 0.0 0.0 -1.3753946E-003 0.0 0.0 -2.6316892E-005 0.0 0.0  2.6902441E+001 0.0 0.0  2.7935856E+003 0.0 0.0 -1.4224240E-007 0.0 0.0 -1.6301217E+000 0.0 0.0  4.2084905E-001 0.0 0.0 -3.7662989E-006 0.0 0.0  2.7498131E+001 0.0 0.0 -1.6184153E-016 0.0 0.0 -3.4552389E+001 0.0 0.0  3.4738025E+001 0.0 0.0  1.1331693E+002 0.0 0.0 -2.7352092E+001 0.0 0.0  6.8142121E+001 0.0 0.0 -1.7596689E+001 0.0 0.0  6.4678074E-002 0.0 0.0 -6.6713831E-001 0.0 0.0 -3.6621852E-001 0.0 0.0 -2.6834366E-001 0.0 0.0 -6.9164148E-005 0.0 0.0 -3.5566086E-006 0.0 0.0  1.6656049E+001 0.0 0.0  1.4641680E+001 0.0 0.0  1.1289233E-012 0.0 0.0  1.6472134E-003 0.0 0.0 -1.9861415E-006 0.0 0.0  7.6399337E-002 0.0 0.0  6.6660450E-018 0.0 0.0  1.6739001E+001 0.0 0.0 -4.6771138E-008 0.0 0.0  7.8198895E-009 0.0 0.0 -1.0824986E-007 0.0 0.0  5.5812338E+001 0.0 0.0  2.7468495E+001 0.0 0.0  1.1639965E+001 0.0 0.0  3.6477834E+002 0.0 0.0  3.9852849E+001 0.0 0.0 -4.3225345E+001 0.0 0.0 -2.0794768E+002 0.0 0.0 -4.5117452E-002 0.0 0.0  5.2062705E+000 0.0 0.0  2.1917925E-002 0.0 0.0  6.5734726E-003 0.0 0.0  2.0121795E-001 0.0 0.0  1.1590260E+001 0.0 0.0 -2.0839525E+002 0.0 0.0 -3.9420382E-008 0.0 0.0 -3.0988421E-006 0.0 0.0 -4.6141519E-009 0.0 0.0 -2.7233431E-006 0.0 0.0 -1.7205251E-003 0.0 0.0 -4.1470864E+002 0.0 0.0 -1.7485912E+001 0.0 0.0 -1.9006550E-008 0.0 0.0 -1.4759775E-008 0.0 0.0 -9.0788282E-009 0.0 0.0 -6.7992806E-010 0.0 0.0  3.2335461E-007 0.0 0.0 -3.7706891E-014 0.0 0.0  6.7711062E-014 0.0 0.0  1.6349380E-001 0.0 0.0 -4.3543270E-013 0.0 0.0 -4.7528720E-003 0.0 0.0  8.8621882E+002 0.0 0.0  4.4667773E-002 0.0 0.0 -6.5397196E-001 0.0 0.0 -5.2309786E-012 0.0 0.0  3.7269306E+000 0.0 0.0  2.0997372E+000 0.0 0.0 -2.2313184E+001 0.0 0.0  2.0329009E+002 0.0 0.0  4.9795398E+000 0.0 0.0 -3.1148613E+001 0.0 0.0 -1.0941122E+002 0.0 0.0 -6.2470877E+001 0.0 0.0  1.9423958E-001 0.0 0.0  1.2289565E-001 0.0 0.0  8.8894332E-013 0.0 0.0  1.6934376E+000 0.0 0.0 -3.5064375E+000 0.0 0.0  3.2672170E+002 0.0 0.0  1.3048586E+000 0.0 0.0 -2.0747829E+001 0.0 0.0  4.3044908E+001 0.0 0.0  3.0783671E+002 0.0 0.0 -1.1607377E+002 0.0 0.0 -1.2042847E+002 0.0 0.0 -2.4104738E+001 0.0 0.0  2.8124997E-002 0.0 0.0  7.1031989E-004 0.0 0.0  4.6973560E+002 0.0 0.0 -1.0186723E+002 0.0 0.0 -1.6042217E+000 0.0 0.0 -7.4181312E+001 0.0 0.0  1.0922687E+002 0.0 0.0  1.2637176E+002 0.0 0.0  5.8658323E+001 0.0 0.0 -1.0465428E+002 0.0 0.0 -3.0043516E+000 0.0 0.0 -6.6207954E-001 0.0 0.0 -8.2788978E-010 0.0 0.0  2.5944816E-011 0.0 0.0 -5.6915119E-011 0.0 0.0 -6.5726466E-012 0.0 0.0  2.6790963E-011 0.0 0.0 -2.4106097E-010 0.0 0.0  3.0234722E-012 0.0 0.0 -1.6830206E-010 0.0 0.0  1.3458460E-011 0.0 0.0 -1.4086069E-009 0.0 0.0 -1.2282507E-012 0.0 0.0 -1.5756651E+003 0.0 0.0 -1.9895774E+002 0.0 0.0 -1.8162071E-005 0.0 0.0 -1.4839924E-006 0.0 0.0 -1.5556001E+000 0.0 0.0 -5.5583186E+001 0.0 0.0 -3.3394294E+000 0.0 0.0 -4.1808746E-002 0.0 0.0  2.9472791E+001 0.0 0.0 -1.3214349E+002 0.0 0.0  3.7123497E+002 0.0 0.0 -9.2877309E+002 0.0 0.0  3.5506131E+002 0.0 0.0  2.6917141E+003 0.0 0.0  7.2931159E+000 0.0 0.0  3.0331654E+001 0.0 0.0 -1.0055097E+001 0.0 0.0 -4.3901204E-001 0.0 0.0  8.7536335E+001 0.0 0.0  1.1878364E+002 0.0 0.0  1.8550803E+002 0.0 0.0 -2.7159983E+001 0.0 0.0 -2.5433943E-001 0.0 0.0 -5.8144655E-003 0.0 0.0 -3.3711395E-002 0.0 0.0 -7.6789562E-001 0.0 0.0 -4.3043483E-013 0.0 0.0  2.9297417E+001 0.0 0.0 -5.6536615E-013 0.0 0.0  4.0365149E+003 0.0 0.0  3.5976921E+003 0.0 0.0  4.9761722E+000 0.0 0.0  1.4266917E+001 0.0 0.0  3.7702299E+001 0.0 0.0 -3.5371720E+000 0.0 0.0  1.8759982E+001 0.0 0.0  3.9540284E+000 0.0 0.0  9.0799737E+002 0.0 0.0 -4.0858014E+002 0.0 0.0  1.7081816E+000 0.0 0.0  3.0314167E+001 0.0 0.0 -5.1046393E+000 0.0 0.0  8.8266337E+002 0.0 0.0 -8.9764385E+000 0.0 0.0 -5.8751735E-001 0.0 0.0  1.3556526E-014 0.0 0.0 -4.6378399E+001 0.0 0.0  5.3398362E-001 0.0 0.0  3.9300782E-008 0.0 0.0 -6.6356210E-010 0.0 0.0  1.1455143E-009 0.0 0.0 -1.2644149E-009 0.0 0.0  7.3183656E-011 0.0 0.0 -1.0159513E-009 0.0 0.0 -1.5899126E-009 0.0 0.0  1.8763594E-010 0.0 0.0 -4.9033508E-009 0.0 0.0 -2.7522237E-009 0.0 0.0 -5.1987647E-011 0.0 0.0  1.2088793E+002 0.0 0.0  3.7479303E+003 0.0 0.0  3.2294177E-002 0.0 0.0 -4.1993188E-001 0.0 0.0 -7.6441246E+000 0.0 0.0  2.9998166E-005 0.0 0.0  5.7023646E-015 0.0 0.0 -1.9942834E-003 0.0 0.0 -5.8751849E-004 0.0 0.0  2.1427989E+000 0.0 0.0  5.3947117E-018 0.0 0.0  2.7197468E+003 0.0 0.0 -2.3134328E-002 0.0 0.0  1.1027656E-007 0.0 0.0 -3.0430155E-003 0.0 0.0  1.7586644E+002 0.0 0.0  2.9684006E+001 0.0 0.0  3.7773985E+002 0.0 0.0  1.2201930E+002 0.0 0.0 -8.5025966E-012 0.0 0.0  4.6512440E+003 0.0 0.0  6.3893190E+002 0.0 0.0  5.6688746E-006 0.0 0.0  1.5126689E+003 0.0 0.0  3.0524568E+002 0.0 0.0  6.1834172E-002 0.0 0.0  3.3503098E+002 0.0 0.0  5.9463341E+001 0.0 0.0  3.3829721E+002 0.0 0.0  1.9353460E+001 0.0 0.0  3.1881770E+000 0.0 0.0 -1.6579902E-017 0.0 0.0  7.2832661E+001 0.0 0.0  1.8724181E+001 0.0 0.0  2.1711324E+002 0.0 0.0  4.2309567E+003 0.0 0.0 -1.4864120E-012 0.0 0.0 -1.8141153E-012 0.0 0.0 -3.7780805E-013 0.0 0.0 -7.9485154E-014 0.0 0.0 -8.6297550E-015 0.0 0.0  1.6252027E-015 0.0 0.0 -1.5602638E-002 0.0 0.0  3.2179285E-016 0.0 0.0 -1.0441791E-003 0.0 0.0  4.3614867E-015 0.0 0.0  6.8812651E-008 0.0 0.0  3.6150981E-014 0.0 0.0  4.5435081E-013 0.0 0.0  1.7973847E-012 0.0 0.0 -1.1402115E-017 0.0 0.0 -1.2663664E-017 0.0 0.0  1.0530240E-006 0.0 0.0  6.0917792E-010 0.0 0.0  1.1043081E-003 0.0 0.0  7.5808775E-002 0.0 0.0 -5.7811684E-004 0.0 0.0  8.3758947E-006 0.0 0.0  1.7686615E-006 0.0 0.0  5.3949717E-007 0.0 0.0 -2.7245629E-008 0.0 0.0 -1.9304924E-009 0.0 0.0 -9.7669829E-011 0.0 0.0 -2.1149199E-010 0.0 0.0  3.7778350E-011 0.0 0.0  2.7781225E-012 0.0 0.0  2.7164822E-013 0.0 0.0 -3.5975646E-014 0.0 0.0  3.4775755E-007 0.0 0.0  5.2782818E-010 0.0 0.0 -1.8346513E-006 0.0 0.0  1.3059928E-006 0.0 0.0  1.7703468E-011 0.0 0.0  5.4072439E-012 0.0 0.0 -1.1560327E-010 0.0 0.0 -1.0235523E-010 0.0 0.0 -7.0587303E-008 0.0 0.0  6.5978507E-010 0.0 0.0  1.2008127E-013 0.0 0.0  1.0374883E-008 0.0 0.0 -6.0780487E-009 0.0 0.0 -1.1579764E-007 0.0 0.0 -2.0419012E-010 0.0 0.0  1.6717177E-013 0.0 0.0 -5.4634043E-009 0.0 0.0 -6.3295837E-008 0.0 0.0 -4.4127786E-018 0.0 0.0 -8.4788424E-019 0.0 0.0 -1.6590707E-017 0.0 0.0 -1.6064197E-018 0.0 0.0  1.1049298E-016 0.0 0.0 -1.1558219E-018 0.0 0.0 -2.6479131E-017 0.0 0.0  4.7200289E-018 0.0 0.0 -1.9872316E-016 0.0 0.0  7.3562710E-016 0.0 0.0 -4.0290950E-016 0.0 0.0 -9.5437208E-015 0.0 0.0 -1.8222554E-015 0.0 0.0  7.6984631E-014 0.0 0.0 -3.9926657E-015 0.0 0.0  3.9037998E-014 0.0 0.0  8.3026832E-013 0.0 0.0  5.7981327E-012 0.0 0.0  4.3618003E-012 0.0 0.0  1.8667276E-013 0.0 0.0 -6.2792984E-016 0.0 0.0  9.3767730E-015 0.0 0.0 -4.5285649E-015 0.0 0.0  2.7745007E-013 0.0 0.0  1.1939248E-008 0.0 0.0  6.7754586E-011 0.0 0.0  4.4791307E-017 0.0 0.0  1.7486416E-017 0.0 0.0  1.0275007E-017 0.0 0.0 -2.4176587E-016 0.0 0.0 -6.3903462E-017 0.0 0.0 -2.2674687E-010 0.0 0.0 -2.1060356E-008 0.0 0.0  1.8733395E-014 0.0 0.0 -4.3944790E-017 0.0 0.0  1.6030610E-006 0.0 0.0 -1.3680265E-011 0.0 0.0  2.9188232E-014 0.0 0.0 -3.6109102E-014 0.0 0.0  8.5149811E-011 0.0 0.0 -4.4112987E-013 0.0 0.0  2.1087912E-013 0.0 0.0 -1.8803884E-013 0.0 0.0  2.6779705E-012 0.0 0.0 -2.8084247E-009 0.0 0.0  6.5652492E-012 0.0 0.0  2.4588264E-010 0.0 0.0  2.2171742E-012 0.0 0.0  6.6471690E+004 0.0 0.0  1.7548080E-011 0.0 0.0  6.9806356E-003 0.0 0.0  5.3377241E+003 0.0 0.0  5.3306331E+003 0.0 0.0  3.9812972E+003 0.0 0.0  4.4153723E+003 0.0 0.0  1.7377831E+004 0.0 0.0  7.7804899E+003 0.0 0.0  7.7062969E+002 0.0 0.0  2.7010160E+003 0.0 0.0  2.2532725E+004 0.0 0.0  2.3596760E+004 0.0 0.0  1.7356249E+003 0.0 0.0  1.7747129E-017 0.0 0.0 -2.4639207E+000 0.0 0.0  4.2792127E+002 0.0 0.0  7.2023277E+003 0.0 0.0  8.5107951E-018 0.0 0.0 -1.2359873E+000 0.0 0.0 -9.4163365E+000 0.0 0.0  9.0862308E-008 0.0 0.0  5.9286502E-007 0.0 0.0 -2.8032598E-008 0.0 0.0  7.8940118E-009 0.0 0.0 -1.7583916E-010 0.0 0.0 -1.3820315E-009 0.0 0.0  5.0354179E-007 0.0 0.0 -3.0576791E-009 0.0 0.0  7.7297574E+002 0.0 0.0 -6.0921224E-009 0.0 0.0  1.9340574E-008 0.0 0.0 -2.3303372E-001 0.0 0.0  2.2204703E+000 0.0 0.0  4.0752483E+003 0.0 0.0 -3.8282086E-001 0.0 0.0  3.9269421E-006 0.0 0.0  7.4580490E-013 0.0 0.0  1.7140358E+002 0.0 0.0  1.2680296E-002 0.0 0.0  1.3598874E+002 0.0 0.0 -2.1153031E+000 0.0 0.0  5.8105162E+001 0.0 0.0  1.1801963E+001 0.0 0.0  2.1149821E+003 0.0 0.0  1.0452056E+003 0.0 0.0 -5.7728152E-004 0.0 0.0 -5.2742282E-004 0.0 0.0  2.2096527E-017 0.0 0.0 -7.0187163E+000 0.0 0.0 -1.9659317E-001 0.0 0.0  1.5787633E-001 0.0 0.0  9.8095235E-006 0.0 0.0 -1.2688275E+003 0.0 0.0  1.1216790E-010 0.0 0.0  1.3459370E+003 0.0 0.0  4.9819833E-005 0.0 0.0  3.7774154E-007 0.0 0.0 -5.5950933E-017 0.0 0.0  3.0452473E-017 0.0 0.0  8.2087153E-018 0.0 0.0 -1.2096922E+001 0.0 0.0 -6.0145978E+000 0.0 0.0  4.4426941E-009 0.0 0.0  1.6942976E+004 0.0 0.0  2.4249172E-017 0.0 0.0  6.8995181E-016 0.0 0.0  5.1141671E+002 0.0 0.0  8.4723739E+002 0.0 0.0  1.9780810E-012 0.0 0.0 -1.3270012E-017 0.0 0.0 -2.9373496E-007 0.0 0.0  1.7816844E-001 0.0 0.0  3.1600344E+002 0.0 0.0  5.0861534E+002 0.0 0.0  4.8304180E-005 0.0 0.0  5.1737305E-006 0.0 0.0 -3.0118768E-009 0.0 0.0 -2.2769749E-007 0.0 0.0  3.1422122E+003 0.0 0.0 -5.3600030E+002 0.0 0.0  4.6287379E-006 0.0 0.0  2.2883393E-001 0.0 0.0 -1.0136015E-001 0.0 0.0  1.0186025E-001 0.0 0.0 -3.4851308E-005 0.0 0.0  5.1730617E+004 0.0 0.0  7.6741118E+003 0.0 0.0  2.0183755E+000 0.0 0.0  1.4009489E+001 0.0 0.0  1.7579942E-004 0.0 0.0 -2.6503298E-015 0.0 0.0  5.7697556E+003 0.0 0.0 -5.2440999E-010 0.0 0.0 -2.6036830E+002 0.0 0.0 -1.4710470E+000 0.0 0.0 -1.7105617E-001 0.0 0.0 -1.9817134E+000 0.0 0.0 -9.6478913E+001 0.0 0.0  1.0081634E+002 0.0 0.0 -2.6535584E+002 0.0 0.0  1.2408024E+002 0.0 0.0 -2.7892357E+002 0.0 0.0 -1.6020251E+001 0.0 0.0 -6.0831944E-003 0.0 0.0  6.8317830E-001 0.0 0.0  1.4299153E-012 0.0 0.0 -1.0603821E-001 0.0 0.0  8.8982407E+000 0.0 0.0  1.4329466E+002 0.0 0.0 -5.1175017E-007 0.0 0.0  4.7606387E-003 0.0 0.0  1.1314647E-002 0.0 0.0  1.8570563E-001 0.0 0.0  1.3547593E+000 0.0 0.0  2.6170948E-002 0.0 0.0  1.3956279E+000 0.0 0.0  4.3242267E+003 0.0 0.0  1.4382053E-009 0.0 0.0 -1.0557756E-002 0.0 0.0  5.2154287E+000 0.0 0.0  9.2540989E-011 0.0 0.0 -7.8268339E-003 0.0 0.0  7.1629475E+002 0.0 0.0  1.0756395E-004 0.0 0.0  1.6163512E-009 0.0 0.0  2.6673146E-008 0.0 0.0 -4.2288189E-008 0.0 0.0 -2.1855364E-007 0.0 0.0 -6.3666395E-005 0.0 0.0  1.0302724E-008 0.0 0.0  2.9827052E+001 0.0 0.0 -3.9441637E+003 0.0 0.0  3.6521175E+003 0.0 0.0 -2.0107628E+002 0.0 0.0  4.6451115E+002 0.0 0.0  2.1160746E+002 0.0 0.0  4.8854026E+001 0.0 0.0  1.0002941E+003 0.0 0.0 -1.4629558E-006 0.0 0.0  2.2266852E+002 0.0 0.0  3.9670217E-013 0.0 0.0 -1.2277536E-016 0.0 0.0 -5.3230497E-016 0.0 0.0  3.6491483E+000 0.0 0.0 -4.4385147E-009 0.0 0.0  9.3715869E+000 0.0 0.0 -7.5988742E-002 0.0 0.0  3.3956283E-011 0.0 0.0 -1.3429218E-017 0.0 0.0  1.1732981E-010 0.0 0.0  1.8236779E-001 0.0 0.0  1.1737478E+000 0.0 0.0 -3.1894151E-006 0.0 0.0  1.7696519E+001 0.0 0.0 -9.1049279E-002 0.0 0.0  1.9158505E+002 0.0 0.0 -3.1819666E+001 0.0 0.0 -4.3205251E-001 0.0 0.0  2.5952412E-001 0.0 0.0 -9.4571078E-003 0.0 0.0 -1.0076054E+001 0.0 0.0  1.7050212E+001 0.0 0.0  7.4288259E-003 0.0 0.0  6.3594707E-005 0.0 0.0  1.8644729E+003 0.0 0.0 -2.3962138E-008 0.0 0.0  2.8930122E-007 0.0 0.0  1.4446239E-004 0.0 0.0 -2.6948243E-003 0.0 0.0 -8.0949660E-003 0.0 0.0 -4.1987551E-003 0.0 0.0 -2.4305302E-001 0.0 0.0 -2.5617314E-001 0.0 0.0 -6.1000848E+000 0.0 0.0  8.8900977E+000 0.0 0.0 -1.8097841E+004 0.0 0.0 -4.4181103E+004 0.0 0.0 -1.1794415E-003 0.0 0.0 -4.3641707E+003 0.0 0.0 -1.8575632E+004 0.0 0.0 -3.9973183E-002 0.0 0.0 -4.7819020E-002 0.0 0.0 -2.1189893E-001 0.0 0.0 -1.7066949E+003 0.0 0.0 -1.6215354E-003 0.0 0.0 -1.4195412E-001 0.0 0.0 -3.5477000E+004 0.0 0.0 -1.4420099E-001 0.0 0.0 -6.4652984E-007 0.0 0.0 -2.0650134E-003 0.0 0.0 -2.2364120E-006 0.0 0.0 -7.3038053E-007 0.0 0.0 -7.8669343E-007 0.0 0.0 -9.4441638E-004 0.0 0.0 -5.7308264E-007 0.0 0.0  3.0649033E-004 0.0 0.0 -3.7824539E-008 0.0 0.0 -2.2018885E-003 0.0 0.0 -6.6912136E-009 0.0 0.0 -5.1112568E-005 0.0 0.0 -2.9881653E-001 0.0 0.0 -7.2310932E-002 0.0 0.0  1.2518601E+003 0.0 0.0  4.0597315E-010 0.0 0.0  2.6098196E+001 0.0 0.0 -2.5694587E-004 0.0 0.0 -3.1702855E-005 0.0 0.0 -1.9983202E-003 0.0 0.0 -7.9603716E-004 0.0 0.0  9.1774422E-003 0.0 0.0 -5.1697361E-002 0.0 0.0 -1.8586925E+003 0.0 0.0 -1.8360433E+003 0.0 0.0 -8.2456418E+002 0.0 0.0  2.5135012E-007 0.0 0.0  9.6671989E+003 0.0 0.0  3.2755139E+001 0.0 0.0  1.1811292E+003 0.0 0.0  1.8228795E+002 0.0 0.0  2.2073850E-015 0.0 0.0 -4.5942295E-008 0.0 0.0 -1.6657671E-006 0.0 0.0  6.2035637E+002 0.0 0.0  2.5132192E+000 0.0 0.0  1.0267677E-006 0.0 0.0 -4.6214462E+003 0.0 0.0 -3.7959401E+003 0.0 0.0 -1.6981406E+003 0.0 0.0 -4.4899165E+003 0.0 0.0  8.2076807E+003 0.0 0.0 -4.4556855E+003 0.0 0.0 -7.3903030E+002 0.0 0.0 -1.9719626E+003 0.0 0.0 -3.7456779E+003 0.0 0.0  1.1354840E+003 0.0 0.0  3.0331777E+003 0.0 0.0  1.2661903E+004 0.0 0.0 -4.3363719E+003 0.0 0.0 -2.6787132E+003 0.0 0.0 -1.6034781E+003 0.0 0.0 -2.1581590E+003 0.0 0.0  3.6469026E+001 0.0 0.0 -3.4858420E+003 0.0 0.0  9.0913301E+003 0.0 0.0 -3.8429187E+003 0.0 0.0  3.5400826E+003 0.0 0.0  1.6088441E+003 0.0 0.0 -4.0816468E+003 0.0 0.0 -4.1695036E+003 0.0 0.0  5.4706806E+003 0.0 0.0  6.5916201E+003 0.0 0.0 -4.8523080E+003 0.0 0.0  9.3380757E+002 0.0 0.0  1.0541724E-002 0.0 0.0 -4.3352644E+000 0.0 0.0 -2.3823703E+001 0.0 0.0  5.4301117E-007 0.0 0.0 -8.8260893E+002 0.0 0.0 -1.0412771E+003 0.0 0.0 -3.8422301E+001 0.0 0.0 -3.0466965E+001 0.0 0.0 -2.9583561E+003 0.0 0.0 -1.7839371E+003 0.0 0.0 -1.5282137E+003 0.0 0.0  3.6995162E-014 0.0 0.0 -2.6057410E-008 0.0 0.0 -1.9596656E-008 0.0 0.0  4.3270875E+002 0.0 0.0 -4.1145293E-010 0.0 0.0  2.5730909E-017 0.0 0.0  3.4290193E-016 0.0 0.0 -3.5216358E+000 0.0 0.0  2.6839546E-013 0.0 0.0 -3.1390562E-015 0.0 0.0  4.9408428E+003 0.0 0.0  8.1103648E+003 0.0 0.0 -1.2573977E+000 0.0 0.0 -7.3104074E+003 0.0 0.0 -5.9136451E-007 0.0 0.0  2.1173570E-003 0.0 0.0 -1.1127419E-003 0.0 0.0  1.7274749E-014 0.0 0.0  8.0609737E-011 0.0 0.0  9.4112666E-009 0.0 0.0  3.2138096E+002 0.0 0.0 -1.7100850E-006 0.0 0.0  3.5163971E+000 0.0 0.0 -2.9576955E-010 0.0 0.0  1.2944764E-001 0.0 0.0  3.5766516E+003 0.0 0.0  1.2358242E+003 0.0 0.0 -4.2018790E+002 0.0 0.0  4.1365031E-013 0.0 0.0 -1.2851633E-009 0.0 0.0  5.5918369E+000 0.0 0.0 -1.3440288E+002 0.0 0.0 -7.2303222E+002 0.0 0.0  6.5254456E-002 0.0 0.0 -1.8558544E-007 0.0 0.0 -1.0052895E+002 0.0 0.0 -3.4377028E-008 0.0 0.0 -4.5213324E-001 0.0 0.0 -2.1415585E-012 0.0 0.0  6.7133823E+001 0.0 0.0  7.6781937E+000 0.0 0.0 -2.2660494E-004 0.0 0.0  1.1956897E+003 0.0 0.0  2.0883452E-006 0.0 0.0  2.5755638E-014 0.0 0.0  7.7561678E+001 0.0 0.0  3.9489854E+002 0.0 0.0 -3.8443873E-002 0.0 0.0 -1.9822050E-002 0.0 0.0 -1.1242592E-002 0.0 0.0 -1.5135702E-002 0.0 0.0 -4.5629399E-002 0.0 0.0 -4.4404360E-004 0.0 0.0 -1.8426597E-002 0.0 0.0  1.7184448E+001 0.0 0.0  8.8831067E+004 0.0 0.0 -3.3898667E-004 0.0 0.0  7.4316288E+003 0.0 0.0 -9.5160487E-008 0.0 0.0 -2.1480245E-002 0.0 0.0  4.9015241E+001 0.0 0.0 -4.3375869E+000 0.0 0.0 -4.5866587E-006 0.0 0.0 -5.2499185E+003 0.0 0.0 -1.0167170E-013 0.0 0.0 -2.0144333E-008 0.0 0.0  3.1799648E+004 0.0 0.0  2.5847439E+004 0.0 0.0  1.1997112E-010 0.0 0.0 -6.4436747E-004 0.0 0.0 -2.6290905E-001 0.0 0.0 -3.8197509E+000 0.0 0.0 -5.3643750E+001 0.0 0.0  1.2734138E+003 0.0 0.0  1.1219799E-003 0.0 0.0  1.6103495E-003 0.0 0.0  1.7221843E-002 0.0 0.0 -7.9734665E+000 0.0 0.0  7.7557905E+003 0.0 0.0 -6.1748486E+000 0.0 0.0  1.2648659E-003 0.0 0.0  4.7536094E-001 0.0 0.0  1.0586875E+002 0.0 0.0 -7.3834912E-009 0.0 0.0  8.2635061E+002 0.0 0.0  4.9916961E-011 0.0 0.0  4.5005263E+004 0.0 0.0  1.7160599E+001 0.0 0.0  1.5062215E+001 0.0 0.0  5.6209589E+001 0.0 0.0 -7.3669506E+004
        </DataArray>
        <DataArray type="Float64" Name="displacement" NumberOfComponents="3" format="ascii">
 0.0 0.0 0.0 0.0 0.0 0.0 0.0 0.0 0.0 0.0 0.0 0.0  5.1827287E-013 0.0 0.0 -4.4810405E-007 0.0 0.0 -2.0769978E-006  8.6309308E-006 0.0  7.4896462E-009  3.3545360E-005 0.0 0.0 0.0 0.0 0.0 0.0 0.0 0.0 0.0 0.0 0.0 0.0 0.0 0.0 0.0 0.0 0.0 0.0 0.0 0.0 0.0 0.0 0.0 0.0 0.0 0.0 0.0 0.0 0.0 0.0 0.0 0.0 0.0 0.0 0.0 0.0 0.0 0.0 0.0 0.0  3.2653851E-014  3.3463319E-005 0.0 0.0 0.0 0.0 0.0 0.0 0.0 0.0 0.0 0.0 0.0 0.0 0.0 0.0 0.0 0.0 0.0 0.0 0.0 0.0 0.0 0.0 0.0 0.0 0.0 0.0 0.0 0.0 0.0 0.0 0.0 0.0 0.0 0.0 0.0 0.0 0.0 0.0 0.0 0.0 0.0 0.0 0.0 0.0 0.0 0.0 0.0 0.0 0.0 0.0 0.0 0.0 0.0 0.0 0.0 0.0 0.0 0.0 0.0 0.0 0.0 0.0 0.0 0.0 0.0 0.0 0.0 0.0 0.0 0.0 0.0 0.0 0.0 0.0 0.0 0.0 0.0 0.0 0.0 0.0 0.0 0.0 0.0 0.0 0.0 -5.5128788E-007  5.2713409E-007 0.0 -6.5294485E-007  1.0515074E-006 0.0 -7.5341597E-007  1.5732230E-006 0.0 -8.5288079E-007  2.0922547E-006 0.0 -9.5140761E-007  2.6086871E-006 0.0 -1.0490563E-006  3.1225963E-006 0.0 -1.1458594E-006  3.6340419E-006 0.0 -1.2419309E-006  4.1431032E-006 0.0 -1.3372775E-006  4.6498976E-006 0.0 -1.4319325E-006  5.1544936E-006 0.0 -1.5259156E-006  5.6569650E-006 0.0 -1.6192517E-006  6.1573704E-006 0.0 -1.7119761E-006  6.6557729E-006 0.0 -1.8041012E-006  7.1522414E-006 0.0 -1.8956521E-006  7.6468438E-006 0.0 -1.9866307E-006  8.1396812E-006 0.0 -8.2849089E-009  3.3544554E-005 0.0 -2.4788649E-008  3.3542416E-005 0.0 -4.2573909E-008  3.3538308E-005 0.0 -6.2182143E-008  3.3531509E-005 0.0 -8.4273338E-008  3.3520932E-005 0.0 -1.0971249E-007  3.3504876E-005 0.0 -1.3970269E-007  3.3480571E-005 0.0 -1.7569790E-007  3.3443591E-005 0.0 -2.1370434E-007  3.3395143E-005 0.0 -2.5149102E-007  3.3337320E-005 0.0 -2.8908020E-007  3.3270164E-005 0.0 -3.2645966E-007  3.3193708E-005 0.0 -3.6360376E-007  3.3108002E-005 0.0 -4.0049080E-007  3.3013107E-005 0.0 -4.3709710E-007  3.2909093E-005 0.0 -4.7341084E-007  3.2796040E-005 0.0 -5.0942619E-007  3.2674022E-005 0.0 -5.4513498E-007  3.2543118E-005 0.0 -5.8053581E-007  3.2403405E-005 0.0 -6.1562565E-007  3.2254961E-005 0.0 -6.5040330E-007  3.2097867E-005 0.0 -6.8487009E-007  3.1932203E-005 0.0 -7.1903808E-007  3.1758053E-005 0.0 -7.5292859E-007  3.1575474E-005 0.0 -7.8651240E-007  3.1384529E-005 0.0 -8.1979030E-007  3.1185323E-005 0.0 -8.5280990E-007  3.0977925E-005 0.0 -8.8557003E-007  3.0762356E-005 0.0 -9.1801819E-007  3.0538677E-005 0.0 -9.5012233E-007  3.0306983E-005 0.0 -9.8186773E-007  3.0067374E-005 0.0 -1.0132577E-006  2.9819947E-005 0.0 -1.0442952E-006  2.9564786E-005 0.0 -1.0749705E-006  2.9301971E-005 0.0 -1.1052685E-006  2.9031600E-005 0.0 -1.1351924E-006  2.8753773E-005 0.0 -1.1647425E-006  2.8468578E-005 0.0 -1.1939154E-006  2.8176106E-005 0.0 -1.2227055E-006  2.7876456E-005 0.0 -1.2511175E-006  2.7569716E-005 0.0 -1.2791339E-006  2.7255978E-005 0.0 -1.3067498E-006  2.6935344E-005 0.0 -1.3339554E-006  2.6607916E-005 0.0 -1.3607503E-006  2.6273797E-005 0.0 -1.3871293E-006  2.5933091E-005 0.0 -1.4130929E-006  2.5585899E-005 0.0 -1.4386323E-006  2.5232324E-005 0.0 -1.4637468E-006  2.4872473E-005 0.0 -1.4884285E-006  2.4506453E-005 0.0 -1.5126811E-006  2.4134371E-005 0.0 -1.5364961E-006  2.3756334E-005 0.0 -1.5598774E-006  2.3372454E-005 0.0 -1.5828213E-006  2.2982837E-005 0.0 -1.6053295E-006  2.2587593E-005 0.0 -1.6274018E-006  2.2186843E-005 0.0 -1.6490669E-006  2.1780703E-005 0.0 -1.6703559E-006  2.1369261E-005 0.0 -1.6912753E-006  2.0952594E-005 0.0 -1.7118233E-006  2.0530792E-005 0.0 -1.7320018E-006  2.0103936E-005 0.0 -1.7517811E-006  1.9672104E-005 0.0 -1.7711349E-006  1.9235415E-005 0.0 -1.7900633E-006  1.8793977E-005 0.0 -1.8085523E-006  1.8347892E-005 0.0 -1.8265845E-006  1.7897277E-005 0.0 -1.8441619E-006  1.7442270E-005 0.0 -1.8613297E-006  1.6982977E-005 0.0 -1.8780875E-006  1.6519454E-005 0.0 -1.8943707E-006  1.6051803E-005 0.0 -1.9101574E-006  1.5580166E-005 0.0 -1.9254392E-006  1.5104674E-005 0.0 -1.9402152E-006  1.4625456E-005 0.0 -1.9544830E-006  1.4142636E-005 0.0 -1.9682328E-006  1.3656341E-005 0.0 -1.9814620E-006  1.3166701E-005 0.0 -1.9941622E-006  1.2673853E-005 0.0 -2.0063477E-006  1.2177936E-005 0.0 -2.0180407E-006  1.1679066E-005 0.0 -2.0292288E-006  1.1177351E-005 0.0 -2.0398965E-006  1.0672914E-005 0.0 -2.0500207E-006  1.0165887E-005 0.0 -2.0595851E-006  9.6564184E-006 0.0 -2.0685697E-006  9.1446776E-006 0.0 0.0 0.0 0.0 0.0 0.0 0.0 0.0 0.0 0.0 0.0 0.0 0.0 0.0 0.0 0.0 0.0 0.0 0.0 0.0 0.0 0.0 0.0 0.0 0.0 0.0 0.0 0.0 0.0 0.0 0.0 0.0 0.0 0.0 0.0 0.0 0.0 0.0 0.0 0.0 0.0 0.0 0.0 0.0 0.0 0.0 0.0 0.0 0.0 0.0 0.0 0.0 0.0 0.0 0.0 0.0 0.0 0.0 0.0 0.0 0.0 0.0 0.0 0.0 0.0 0.0 0.0 0.0 0.0 0.0 0.0 0.0 0.0 0.0 0.0 0.0 0.0 0.0 0.0 0.0 0.0 0.0 0.0 0.0 0.0 0.0 0.0 0.0 0.0 0.0 0.0 0.0 0.0 0.0 0.0 0.0 0.0 0.0 0.0 0.0 0.0 0.0 0.0 0.0 0.0 0.0 0.0 0.0 0.0 0.0 0.0 0.0 0.0 0.0 0.0 0.0 0.0 0.0 0.0 0.0 0.0 0.0 0.0 0.0 0.0 0.0 0.0 0.0 0.0 0.0 0.0 0.0 0.0 0.0 0.0 0.0 0.0 0.0 0.0 0.0 0.0 0.0 0.0 0.0 0.0 0.0 0.0 0.0 0.0 0.0 0.0 0.0 0.0 0.0 0.0 0.0 0.0 0.0 0.0 0.0 0.0 0.0 0.0 0.0 0.0 0.0 0.0 0.0 0.0 0.0 0.0 0.0 0.0 0.0 0.0 0.0 0.0 0.0 0.0 0.0 0.0 0.0 0.0 0.0 0.0 0.0 0.0 0.0 0.0 0.0 0.0 0.0 0.0 0.0 0.0 0.0 0.0 0.0 0.0 0.0 0.0 0.0 0.0 0.0 0.0 0.0 0.0 0.0 0.0 0.0 0.0 0.0 0.0 0.0 0.0 0.0 0.0 0.0 0.0 0.0 0.0 0.0 0.0 0.0 0.0 0.0 0.0 0.0 0.0 0.0 0.0 0.0 0.0 0.0 0.0 0.0 0.0 0.0 0.0 0.0 0.0 0.0 0.0 0.0 0.0 0.0 0.0 0.0 0.0 0.0 0.0 0.0 0.0 0.0 0.0 0.0 0.0 0.0 0.0 0.0 0.0 0.0 0.0 0.0 0.0 0.0 0.0 0.0 0.0 0.0 0.0 0.0 0.0 0.0 0.0 0.0 0.0 0.0 0.0 0.0 0.0 0.0 0.0 0.0 0.0 0.0 0.0 0.0 0.0 0.0 0.0 0.0 0.0 0.0 0.0 0.0 0.0 0.0 0.0 0.0 0.0 0.0 0.0 0.0 0.0 0.0 0.0 0.0 0.0 0.0 0.0 0.0 0.0 0.0 0.0 0.0 0.0 0.0 0.0 0.0 0.0 0.0 0.0 0.0 0.0 0.0 0.0 0.0 0.0 0.0 0.0 0.0 0.0 0.0 0.0 0.0 0.0 0.0 0.0 0.0 0.0 0.0 0.0 0.0 0.0 0.0 0.0 0.0 0.0 0.0 0.0 0.0 0.0 0.0 0.0 0.0 0.0 0.0 0.0 0.0 0.0 0.0 0.0 0.0 0.0 0.0 0.0 0.0 0.0 0.0 0.0 0.0 0.0 0.0 0.0 0.0 0.0 0.0 0.0 0.0 0.0 0.0 0.0 0.0 0.0 0.0 0.0 0.0 0.0 0.0 0.0 0.0 0.0 0.0 0.0 0.0 0.0 0.0 0.0 0.0 0.0 0.0 0.0 0.0 0.0 0.0 0.0 0.0 0.0 0.0 0.0 0.0 0.0 0.0 0.0 0.0 0.0 0.0 0.0 0.0 0.0 0.0 0.0 0.0 0.0 0.0 0.0 0.0 0.0 0.0 0.0 0.0 0.0 0.0 0.0 0.0 0.0 0.0 0.0 0.0 0.0 0.0 0.0 0.0 0.0 0.0 0.0 0.0 0.0 0.0 0.0 0.0 0.0 0.0 0.0 0.0 0.0 0.0 0.0 0.0 0.0 0.0 0.0 0.0 0.0 0.0 0.0 0.0 0.0 0.0 0.0 0.0 0.0 0.0 0.0 0.0 0.0 0.0 0.0 0.0 0.0 0.0 0.0 0.0 0.0 0.0 0.0 0.0 0.0 0.0 0.0 0.0 0.0 0.0 0.0 0.0 0.0 0.0 0.0 0.0 0.0 0.0 0.0 0.0 0.0 0.0 0.0 0.0 0.0 0.0 0.0 0.0 0.0 0.0 0.0 0.0 0.0 0.0 0.0 0.0 0.0 0.0 0.0 0.0 0.0 0.0 0.0 0.0 0.0 0.0 0.0 0.0 0.0 0.0 0.0 0.0 0.0 0.0 0.0 0.0 0.0 0.0 0.0 0.0 0.0 0.0 0.0 0.0 0.0 0.0 0.0 0.0 0.0 0.0 0.0 0.0 0.0 0.0 0.0 0.0 0.0 0.0 0.0 0.0 0.0 0.0 0.0 0.0 0.0 0.0 0.0 0.0 0.0 0.0 0.0 0.0 0.0 0.0 0.0 0.0 0.0 0.0 0.0 0.0 0.0 0.0 0.0 0.0 0.0 0.0 0.0 0.0 0.0 0.0 0.0 0.0 0.0 0.0 0.0 0.0 0.0 0.0 0.0 0.0 0.0 0.0 0.0 0.0 0.0 0.0 0.0 0.0 0.0 0.0 0.0 0.0 0.0 0.0 0.0 0.0 0.0 0.0 0.0 0.0 0.0 0.0 0.0 0.0 0.0 0.0 0.0 0.0 0.0 0.0 0.0 0.0 0.0 0.0 0.0 0.0 0.0 0.0 0.0 0.0 0.0 0.0 0.0 0.0 0.0 0.0 0.0 0.0 0.0 0.0 0.0 0.0 0.0 0.0 0.0 0.0 0.0 0.0 0.0 0.0 0.0 0.0 0.0 0.0 0.0 0.0 0.0 0.0 0.0 0.0 0.0 0.0 0.0 0.0 0.0 0.0 0.0 0.0 0.0 0.0 0.0 0.0 0.0 0.0 0.0 0.0 0.0 0.0 0.0 0.0 0.0 0.0 0.0 0.0 0.0 0.0 0.0 0.0 0.0 0.0 0.0 0.0 0.0 0.0 0.0 0.0 0.0 0.0 0.0 0.0 0.0 0.0 0.0 0.0 0.0 0.0 0.0 0.0 0.0 0.0 0.0 0.0 0.0 0.0 0.0 0.0 0.0 0.0 0.0 0.0 0.0 0.0 0.0 0.0 0.0 0.0 0.0 0.0 0.0 0.0 0.0 0.0 0.0 0.0 0.0 0.0 0.0 0.0 0.0 0.0 0.0 0.0 0.0 0.0 0.0 0.0 0.0 0.0 0.0 0.0 0.0 0.0 0.0 0.0 0.0 0.0 0.0 0.0 0.0 0.0 0.0 0.0 0.0 0.0 0.0 0.0 0.0 0.0 0.0 0.0 0.0 0.0 0.0 0.0 0.0 0.0 0.0 0.0 0.0 0.0 0.0 0.0 0.0 0.0 0.0 0.0 0.0 0.0 0.0 0.0 0.0 0.0 0.0 0.0 0.0 0.0 0.0 0.0 0.0 0.0 0.0 0.0 0.0 0.0 0.0 0.0 0.0 0.0 0.0 0.0 0.0 0.0 0.0 0.0 0.0 0.0 0.0 0.0 0.0 0.0 0.0 0.0 0.0 0.0 0.0 0.0 0.0 0.0 0.0 0.0 0.0 0.0 0.0 0.0 0.0 0.0 0.0 0.0 0.0 0.0 0.0 0.0 0.0 0.0 0.0 0.0 0.0 0.0 0.0 0.0 0.0 0.0 0.0 0.0 0.0 0.0 0.0 0.0 0.0 0.0 0.0 0.0 0.0 0.0 0.0 0.0 0.0 0.0 0.0 0.0 0.0 0.0 0.0 0.0 0.0 0.0 0.0 0.0  7.5367749E-009  3.3529981E-005 0.0  7.1873436E-009  3.3516090E-005 0.0  6.6273447E-009  3.3503776E-005 0.0  5.9145740E-009  3.3493074E-005 0.0  5.0861110E-009  3.3483999E-005 0.0  4.1680021E-009  3.3476563E-005 0.0  3.1827665E-009  3.3470774E-005 0.0  2.1487900E-009  3.3466635E-005 0.0  1.0833234E-009  3.3464149E-005 0.0 0.0 0.0 0.0 0.0 0.0 0.0 0.0 0.0 0.0 0.0 0.0 0.0 0.0 0.0 0.0 0.0 0.0 0.0 0.0 0.0 0.0 0.0 0.0 0.0 0.0 0.0 0.0 0.0 0.0 0.0 0.0 0.0 0.0 0.0 0.0 0.0 0.0 0.0 0.0 0.0 0.0 0.0 0.0 0.0 0.0 0.0 0.0 0.0 0.0 0.0 0.0 0.0 0.0 0.0 0.0 0.0 0.0 0.0 0.0 0.0 0.0 0.0 0.0 0.0 0.0 0.0 0.0 0.0 0.0 0.0 0.0 0.0 0.0 0.0 0.0 0.0 0.0 0.0 0.0 0.0 0.0 0.0 0.0 0.0 0.0 0.0 0.0 0.0 0.0 0.0 0.0 0.0 0.0 0.0 0.0 0.0 0.0 0.0 0.0 0.0 0.0 0.0 0.0 0.0 0.0 0.0 0.0 0.0 0.0 0.0 0.0 0.0 0.0 0.0 0.0 0.0 0.0 0.0 0.0 0.0 0.0 0.0 0.0 0.0 0.0 0.0 0.0 0.0 0.0 0.0 0.0 0.0 0.0 0.0 0.0 0.0 0.0 0.0 0.0 0.0 0.0 0.0 0.0 0.0 0.0 0.0 0.0 -1.0762764E-013  5.5417332E-007 0.0  1.0256106E-014  1.1059514E-006 0.0  1.2875015E-014  1.6547662E-006 0.0  7.7122067E-015  2.2005926E-006 0.0  3.8825768E-015  2.7435022E-006 0.0  1.9442860E-015  3.2835887E-006 0.0  1.2862460E-014  3.8209486E-006 0.0 -4.7286776E-015  4.3556836E-006 0.0 -8.8013319E-015  4.8878919E-006 0.0 -4.0615962E-015  5.4176593E-006 0.0 -2.7642572E-015  5.9450651E-006 0.0  5.2757952E-016  6.4701761E-006 0.0 -6.4217886E-016  6.9930488E-006 0.0 -3.5987467E-015  7.5137240E-006 0.0 -4.4205621E-015  8.0322250E-006 0.0 -4.7880855E-015  8.5485498E-006 0.0  1.3675328E-015  9.0626686E-006 0.0 -1.5915595E-015  9.5745197E-006 0.0  6.6298121E-015  1.0084015E-005 0.0  2.2987271E-015  1.0591048E-005 0.0  1.1724995E-014  1.1095498E-005 0.0  2.9484676E-015  1.1597246E-005 0.0  1.0455440E-014  1.2096177E-005 0.0  5.4777160E-016  1.2592161E-005 0.0  9.3182831E-015  1.3085061E-005 0.0  2.8249158E-015  1.3574753E-005 0.0  8.4112682E-015  1.4061117E-005 0.0  2.3629415E-015  1.4544021E-005 0.0  1.2449713E-014  1.5023336E-005 0.0  5.2736064E-015  1.5498936E-005 0.0  1.0655661E-014  1.5970702E-005 0.0  1.9271298E-015  1.6438511E-005 0.0  8.5498479E-015  1.6902241E-005 0.0  3.2782273E-015  1.7361780E-005 0.0  7.5303879E-015  1.7817020E-005 0.0  1.9843569E-015  1.8267854E-005 0.0  7.0602755E-015  1.8714165E-005 0.0  3.5933604E-015  1.9155841E-005 0.0  9.0162529E-015  1.9592780E-005 0.0 -5.8880859E-016  2.0024870E-005 0.0  9.6735829E-015  2.0452013E-005 0.0  2.2096866E-016  2.0874120E-005 0.0  4.5845015E-015  2.1291092E-005 0.0  3.4467711E-015  2.1702816E-005 0.0  5.5892290E-015  2.2109203E-005 0.0  1.8185157E-015  2.2510171E-005 0.0  8.6564294E-015  2.2905610E-005 0.0 -7.4420731E-016  2.3295404E-005 0.0  8.0825885E-015  2.3679438E-005 0.0  3.2932728E-016  2.4057615E-005 0.0  9.6691289E-015  2.4429836E-005 0.0  9.8967599E-016  2.4795989E-005 0.0  8.4335801E-015  2.5155966E-005 0.0  2.4170982E-017  2.5509662E-005 0.0  6.3364828E-015  2.5856971E-005 0.0  2.6997017E-015  2.6197787E-005 0.0  8.7830865E-015  2.6532011E-005 0.0  8.7061182E-016  2.6859538E-005 0.0  7.9510212E-015  2.7180268E-005 0.0  4.7967637E-017  2.7494101E-005 0.0  6.0238228E-015  2.7800936E-005 0.0  2.5562110E-015  2.8100676E-005 0.0  8.0818552E-015  2.8393227E-005 0.0  7.5448139E-016  2.8678493E-005 0.0  7.2805072E-015  2.8956381E-005 0.0 -3.5119720E-016  2.9226799E-005 0.0  4.7522269E-015  2.9489651E-005 0.0  1.3460074E-015  2.9744849E-005 0.0  6.4757992E-015  2.9992304E-005 0.0  4.6367280E-016  3.0231930E-005 0.0  7.0581151E-015  3.0463640E-005 0.0 -3.3905997E-016  3.0687350E-005 0.0  4.2077968E-015  3.0902976E-005 0.0  1.2891451E-015  3.1110441E-005 0.0  4.6262336E-015  3.1309679E-005 0.0 -1.7417591E-017  3.1500619E-005 0.0  5.9301118E-015  3.1683181E-005 0.0 -3.3814599E-016  3.1857285E-005 0.0  3.1842887E-015  3.2022854E-005 0.0  5.0489058E-016  3.2179827E-005 0.0  5.8622268E-015  3.2328132E-005 0.0  2.6481059E-016  3.2467685E-005 0.0  5.9881852E-015  3.2598412E-005 0.0 -3.1344290E-016  3.2720241E-005 0.0  3.9412207E-015  3.2833097E-005 0.0  1.7725031E-015  3.2936910E-005 0.0  5.4271248E-015  3.3031602E-005 0.0  7.7846784E-016  3.3117098E-005 0.0  2.9729114E-015  3.3193344E-005 0.0  2.4533376E-015  3.3260294E-005 0.0  6.4222928E-015  3.3317899E-005 0.0  4.8038827E-016  3.3366106E-005 0.0  1.3225785E-015  3.3402900E-005 0.0  4.3050255E-015  3.3426989E-005 0.0 -1.2442369E-015  3.3442738E-005 0.0  1.2441495E-015  3.3452907E-005 0.0 -7.8768070E-016  3.3459187E-005 0.0  3.7669972E-016  3.3462633E-005 0.0 -4.2061915E-015  3.3463890E-005 0.0 0.0 0.0 0.0 0.0 0.0 0.0 0.0 0.0 0.0 0.0 0.0 0.0 0.0 0.0 0.0 0.0 0.0 0.0 0.0 0.0 0.0 0.0 0.0 0.0 0.0 0.0 0.0 0.0 0.0 0.0 0.0 0.0 0.0 0.0 0.0 0.0 0.0 0.0 0.0 0.0 0.0 0.0 0.0 0.0 0.0 0.0 0.0 0.0 0.0 0.0 0.0 0.0 0.0 0.0 0.0 0.0 0.0 0.0 0.0 0.0 0.0 0.0 0.0 0.0 0.0 0.0 0.0 0.0 0.0 0.0 0.0 0.0 0.0 0.0 0.0 0.0 0.0 0.0 0.0 0.0 0.0 0.0 0.0 0.0 0.0 0.0 0.0 0.0 0.0 0.0 0.0 0.0 0.0 0.0 0.0 0.0 0.0 0.0 0.0 0.0 0.0 0.0 0.0 0.0 0.0 0.0 0.0 0.0 0.0 0.0 0.0 0.0 0.0 0.0 0.0 0.0 0.0 0.0 0.0 0.0 0.0 0.0 0.0 0.0 0.0 0.0 0.0 0.0 0.0 0.0 0.0 0.0 0.0 0.0 0.0 0.0 0.0 0.0 0.0 0.0 0.0 0.0 0.0 0.0 0.0 0.0 0.0 0.0 0.0 0.0 0.0 0.0 0.0 0.0 0.0 0.0 0.0 0.0 0.0 0.0 0.0 0.0 0.0 0.0 0.0 0.0 0.0 0.0 0.0 0.0 0.0 0.0 0.0 0.0 0.0 0.0 0.0 0.0 0.0 0.0 0.0 0.0 0.0 0.0 0.0 0.0 0.0 0.0 0.0 0.0 0.0 0.0 0.0 0.0 0.0 0.0 0.0 0.0 0.0 0.0 0.0 0.0 0.0 0.0 0.0 0.0 0.0 0.0 0.0 0.0 0.0 0.0 0.0 0.0 0.0 0.0 0.0 0.0 0.0 0.0 0.0 0.0 0.0 0.0 0.0 0.0 0.0 0.0 0.0 0.0 0.0 0.0 0.0 0.0 0.0 0.0 0.0 0.0 0.0 0.0 0.0 0.0 0.0 0.0 0.0 0.0 0.0 0.0 0.0 0.0 0.0 0.0 0.0 0.0 0.0 0.0 0.0 0.0 0.0 0.0 0.0 0.0 0.0 0.0 0.0 0.0 0.0 0.0 0.0 0.0 0.0 0.0 0.0 0.0 0.0 0.0 0.0 0.0 0.0 0.0 0.0 0.0 0.0 0.0 0.0 0.0 0.0 0.0 0.0 0.0 0.0 0.0 0.0 0.0 0.0 0.0 0.0 0.0 0.0 0.0 0.0 0.0 0.0 0.0 0.0 0.0 0.0 0.0 0.0 0.0 0.0 0.0 0.0 0.0 0.0 0.0 0.0 0.0 0.0 0.0 0.0 0.0 0.0 0.0 0.0 0.0 0.0 0.0 0.0 0.0 0.0 0.0 0.0 0.0 0.0 0.0 0.0 0.0 0.0 0.0 0.0 0.0 0.0 0.0 0.0 0.0 0.0 0.0 0.0 0.0 0.0 0.0 0.0 0.0 0.0 0.0 0.0 0.0 0.0 0.0 0.0 0.0 0.0 0.0 0.0 0.0 0.0 0.0 0.0 0.0 0.0 0.0 0.0 0.0 0.0 0.0 0.0 0.0 0.0 0.0 0.0 0.0 0.0 0.0 0.0 0.0 0.0 0.0 0.0 0.0 0.0 0.0 0.0 0.0 0.0 0.0 0.0 0.0 0.0 0.0 0.0 0.0 0.0 0.0 0.0 0.0 0.0 0.0 0.0 0.0 0.0 0.0 0.0 0.0 0.0 0.0 0.0 0.0 0.0 0.0 0.0 0.0 0.0 0.0 0.0 0.0 0.0 0.0 0.0 0.0 0.0 0.0 0.0 0.0 0.0 0.0 0.0 0.0 0.0 0.0 0.0 0.0 0.0 0.0 0.0 0.0 0.0 0.0 0.0 0.0 0.0 0.0 0.0 0.0 0.0 0.0 0.0 0.0 0.0 0.0 0.0 0.0 0.0 0.0 0.0 0.0 0.0 0.0 0.0 0.0 0.0 0.0 0.0 0.0 0.0 0.0 0.0 0.0 0.0 0.0 0.0 0.0 0.0 0.0 0.0 0.0 0.0 0.0 0.0 0.0 0.0 0.0 0.0 0.0 0.0 0.0 0.0 0.0 0.0 0.0 0.0 0.0 0.0 0.0 0.0 0.0 0.0 0.0 0.0 0.0 0.0 0.0 0.0 0.0 0.0 0.0 0.0 0.0 0.0 0.0 0.0 0.0 0.0 0.0 0.0 0.0 0.0 0.0 0.0 0.0 0.0 0.0 0.0 0.0 0.0 0.0 0.0 0.0 0.0 0.0 0.0 0.0 0.0 0.0 0.0 0.0 0.0 0.0 0.0 0.0 0.0 0.0 0.0 0.0 0.0 0.0 0.0 0.0 0.0 0.0 0.0 0.0 0.0 0.0 0.0 0.0 0.0 0.0 0.0 0.0 0.0 0.0 0.0 0.0 0.0 0.0 0.0 0.0 0.0 0.0 0.0 0.0 0.0 0.0 0.0 0.0 0.0 0.0 0.0 0.0 0.0 0.0 0.0 0.0 0.0 0.0 0.0 0.0 0.0 0.0 0.0 0.0 0.0 0.0 0.0 0.0 0.0 0.0 0.0 0.0 0.0 0.0 0.0 0.0 0.0 0.0 0.0 0.0 0.0 0.0 0.0 0.0 0.0 0.0 0.0 0.0 0.0 0.0 0.0 0.0 0.0 0.0 0.0 0.0 0.0 0.0 0.0 0.0 0.0 0.0 0.0 0.0 0.0 0.0 0.0 0.0 0.0 0.0 0.0 0.0 0.0 0.0 0.0 0.0 0.0 0.0 0.0 0.0 0.0 0.0 0.0 0.0 0.0 0.0 0.0 0.0 0.0 0.0 0.0 0.0 0.0 0.0 0.0 0.0 0.0 0.0 0.0 0.0 0.0 0.0 0.0 0.0 0.0 0.0 0.0 0.0 0.0 0.0 0.0 0.0 0.0 0.0 0.0 0.0 0.0 0.0 0.0 0.0 0.0 0.0 0.0 0.0 0.0 0.0 0.0 0.0 0.0 0.0 0.0 0.0 0.0 0.0 0.0 0.0 0.0 0.0 0.0 0.0 0.0 0.0 0.0 0.0 0.0 0.0 0.0 0.0 0.0 0.0 0.0 0.0 0.0 0.0 0.0 0.0 0.0 0.0 0.0 0.0 0.0 0.0 0.0 0.0 0.0 0.0 0.0 0.0 0.0 0.0 0.0 0.0 0.0 0.0 0.0 0.0 0.0 0.0 0.0 0.0 0.0 0.0 0.0 0.0 0.0 0.0 0.0 0.0 0.0 0.0 0.0 0.0 0.0 0.0 0.0 0.0 0.0 0.0 0.0 0.0 0.0 0.0 0.0 0.0 0.0 0.0 0.0 0.0 0.0 0.0 0.0 0.0 0.0 0.0 0.0 0.0 0.0 0.0 0.0 0.0 0.0 0.0 0.0 0.0 0.0 0.0 0.0 0.0 0.0 0.0 0.0 0.0 0.0 0.0 0.0 0.0 0.0 0.0 0.0 0.0 0.0 0.0 0.0 0.0 0.0 0.0 0.0 0.0 0.0 0.0 0.0 0.0 0.0 0.0 0.0 0.0 0.0 0.0 0.0 0.0 0.0 0.0 0.0 0.0 0.0 0.0 0.0 0.0 0.0 0.0 0.0 0.0 0.0 0.0 0.0 0.0 0.0 0.0 0.0 0.0 0.0 0.0 0.0 0.0 0.0 0.0 0.0 0.0 0.0 0.0 0.0 0.0 0.0 0.0 0.0 0.0 0.0 0.0 0.0 0.0 0.0 0.0 0.0 0.0 0.0 0.0 0.0 0.0 0.0 0.0 0.0 0.0 0.0 0.0 0.0 0.0 0.0 0.0 0.0 0.0 0.0 0.0 0.0 0.0 0.0 0.0 0.0 0.0 0.0 0.0 0.0 0.0 0.0 0.0 0.0 0.0 0.0 0.0 0.0 0.0 0.0 0.0 0.0 0.0 0.0 0.0 0.0 0.0 0.0 0.0 0.0 0.0 0.0 0.0 0.0 0.0 0.0 0.0 0.0 0.0 0.0 0.0 0.0 0.0 0.0 0.0 0.0 0.0 0.0 0.0 0.0 0.0 0.0 0.0 0.0 0.0 0.0 0.0 0.0 0.0 0.0 0.0 0.0 0.0 0.0 0.0 0.0 0.0 0.0 0.0 0.0 0.0 0.0 0.0 0.0 0.0 0.0 0.0 0.0 0.0 0.0 0.0 0.0 0.0 0.0 0.0 0.0 0.0 0.0 0.0 0.0 0.0 0.0 0.0 0.0 0.0 0.0 0.0 0.0 0.0 0.0 0.0 0.0 0.0 0.0 0.0 0.0 0.0 0.0 0.0 0.0 0.0 0.0 0.0 0.0 0.0 0.0 0.0 0.0 0.0 0.0 0.0 0.0 0.0 0.0 0.0 0.0 0.0 0.0 0.0 0.0 0.0 0.0 0.0 0.0 0.0 0.0 0.0 0.0 0.0 0.0 0.0 0.0 0.0 0.0 0.0 0.0 0.0 0.0 0.0 0.0 0.0 0.0 0.0 0.0 0.0 0.0 0.0 0.0 0.0 0.0 0.0 0.0 0.0 0.0 0.0 0.0 0.0 0.0 0.0 0.0 0.0 0.0 0.0 0.0 0.0 0.0 0.0 0.0 0.0 0.0 0.0 0.0 0.0 0.0 0.0 0.0 0.0 0.0 0.0 0.0 0.0 0.0 0.0 0.0 0.0 0.0 0.0 0.0 0.0 0.0 0.0 0.0 0.0 0.0 0.0 0.0 0.0 0.0 0.0 0.0 0.0 0.0 0.0 0.0 0.0 0.0 0.0 0.0 0.0 0.0 0.0 0.0 0.0 0.0 0.0 0.0 0.0 0.0 0.0 0.0 0.0 0.0 0.0 0.0 0.0 0.0 0.0 0.0 0.0 0.0 0.0 0.0 0.0 0.0 0.0 0.0 0.0 0.0 0.0 0.0 0.0 0.0 0.0 0.0 0.0 0.0 0.0 0.0 0.0 0.0 0.0 0.0 0.0 0.0 0.0 0.0 0.0 0.0 0.0 0.0 0.0 0.0 0.0 0.0 0.0 0.0 0.0 0.0 0.0 0.0 0.0 0.0 0.0 0.0 0.0 0.0 0.0 0.0 0.0 0.0 0.0 0.0 0.0 0.0 0.0 0.0 0.0 0.0 0.0 0.0 0.0 0.0 0.0 0.0 0.0 0.0 0.0 0.0 0.0 0.0 0.0 0.0 0.0 0.0 0.0 0.0 0.0 0.0 0.0 0.0 0.0 0.0 0.0 0.0 0.0 0.0 0.0 0.0 0.0 0.0 0.0 0.0 0.0 0.0 0.0 0.0 0.0 0.0 0.0 0.0 0.0 0.0 0.0 0.0 0.0 0.0 0.0 0.0 0.0 0.0 0.0 0.0 0.0 0.0 0.0 0.0 0.0 0.0 0.0 0.0 0.0 0.0 0.0 0.0 0.0 0.0 0.0 0.0 0.0 0.0 0.0 0.0 0.0 0.0 0.0 0.0 0.0 0.0 0.0 0.0 0.0 0.0 0.0 0.0 0.0 0.0 0.0 0.0 0.0 0.0 0.0 0.0 0.0 0.0 0.0 0.0 0.0 0.0 0.0 0.0 0.0 0.0 0.0 0.0 0.0 0.0 0.0 0.0 0.0 0.0 0.0 0.0 0.0 0.0 0.0 0.0 0.0 0.0 0.0 0.0 0.0 0.0 0.0 0.0 0.0 0.0 0.0 0.0 0.0 0.0 0.0 0.0 0.0 0.0 0.0 0.0 0.0 0.0 0.0 0.0 0.0 0.0 0.0 0.0 0.0 0.0 0.0 0.0 0.0 0.0 0.0 0.0 0.0 0.0 0.0 0.0 0.0 0.0 0.0 0.0 0.0 0.0 0.0 0.0 0.0 0.0 0.0 0.0 0.0 0.0 0.0 0.0 0.0 0.0 0.0 0.0 0.0 0.0 0.0 0.0 0.0 0.0 0.0 0.0 0.0 0.0 0.0 0.0 0.0 0.0 0.0 0.0 0.0 0.0 0.0 0.0 0.0 0.0 0.0 0.0 0.0 0.0 0.0 0.0 0.0 0.0 0.0 0.0 0.0 0.0 0.0 0.0 0.0 0.0 0.0 0.0 0.0 0.0 0.0 0.0 0.0 0.0 0.0 0.0 0.0 0.0 0.0 0.0 0.0 0.0 0.0 0.0 0.0 0.0 0.0 0.0 0.0 0.0 0.0 0.0 0.0 0.0 0.0 0.0 0.0 0.0 0.0 0.0 0.0 0.0 0.0 0.0 0.0 0.0 0.0 0.0 0.0 0.0 0.0 0.0 0.0 0.0 0.0 0.0 0.0 0.0 0.0 0.0 0.0 0.0 0.0 0.0 0.0 0.0 0.0 0.0 0.0 0.0 0.0 0.0 0.0 0.0 0.0 0.0 0.0 0.0 0.0 0.0 0.0 0.0 0.0 0.0 0.0 0.0 0.0 0.0 0.0 0.0 0.0 0.0 0.0 0.0 0.0 0.0 0.0 0.0 0.0 0.0 0.0 0.0 0.0 0.0 0.0 0.0 0.0 0.0 0.0 0.0 0.0 0.0 0.0 0.0 0.0 0.0 0.0 0.0 0.0 0.0 0.0 0.0 0.0 0.0 0.0 0.0 0.0 0.0 0.0 0.0 0.0 0.0 0.0 0.0 0.0 0.0 0.0 0.0 0.0 0.0 0.0 0.0 0.0 0.0 0.0 0.0 0.0 0.0 0.0 0.0 0.0 0.0 0.0 0.0 0.0 0.0 0.0 0.0 0.0 0.0 0.0 0.0 0.0 0.0 0.0 0.0 0.0 0.0 0.0 0.0 0.0 0.0 0.0 0.0 0.0 0.0 0.0 0.0 0.0 0.0 0.0 0.0 0.0 0.0 0.0 0.0 0.0 0.0 0.0 0.0 0.0 0.0 0.0 0.0 0.0 0.0 0.0 0.0 0.0 0.0 0.0 0.0 0.0 0.0 0.0 0.0 0.0 0.0 0.0 0.0 0.0 0.0 0.0 0.0 0.0 0.0 0.0 0.0 0.0 0.0 0.0 0.0 0.0 0.0 0.0 0.0 0.0 0.0 0.0 0.0 0.0 0.0 0.0 0.0 0.0 0.0 0.0 0.0 0.0 0.0 0.0 0.0 0.0 0.0 0.0 0.0 0.0 0.0 0.0 0.0 0.0 0.0 0.0 0.0 0.0 0.0 0.0 0.0 0.0 0.0 0.0 0.0 0.0 0.0 0.0 0.0 0.0 0.0 0.0 0.0 0.0 0.0 0.0 0.0 0.0 0.0 0.0 0.0 0.0 0.0 0.0 0.0 0.0 0.0 0.0 0.0 0.0 0.0 0.0 0.0 0.0 0.0 0.0 0.0 0.0 0.0 0.0 0.0 0.0 0.0 0.0 0.0 0.0 0.0 0.0 0.0 0.0 0.0 0.0 0.0 0.0 0.0 0.0 0.0 0.0 0.0 0.0 0.0 0.0 0.0 0.0 0.0 0.0 0.0 0.0 0.0 0.0 0.0 0.0 0.0 0.0 0.0 0.0 0.0 0.0 0.0 0.0 0.0 0.0 0.0 0.0 0.0 0.0 0.0 0.0 0.0 0.0 0.0 0.0 0.0 0.0 0.0 0.0 0.0 0.0 0.0 0.0 0.0 0.0 0.0 0.0 0.0 0.0 0.0 0.0 0.0 0.0 0.0 0.0 0.0 0.0 0.0 0.0 0.0 0.0 0.0 0.0 0.0 0.0 0.0 0.0 0.0 0.0 0.0 0.0 0.0 0.0 0.0 0.0 0.0 0.0 0.0 0.0 0.0 0.0 0.0 0.0 0.0 0.0 0.0 0.0 0.0 0.0 0.0 0.0 0.0 0.0 0.0 0.0 0.0 0.0 0.0 0.0 0.0 0.0 0.0 0.0 0.0 0.0 0.0 0.0 0.0 0.0 0.0 0.0 0.0 0.0 0.0 0.0 0.0 0.0 0.0 0.0 0.0 0.0 0.0 0.0 0.0 0.0 0.0 0.0 0.0 0.0 0.0 0.0 0.0 0.0 0.0 0.0 0.0 0.0 0.0 0.0 0.0 0.0 0.0 0.0 0.0 0.0 0.0 0.0 0.0 0.0 0.0 0.0 0.0 0.0 0.0 0.0 0.0 0.0 0.0 0.0 0.0 0.0 0.0 0.0 0.0 0.0 0.0 0.0 0.0 0.0 0.0 0.0 0.0 0.0 0.0 0.0 0.0 0.0 0.0 0.0 0.0 0.0 0.0 0.0 0.0 0.0 0.0 0.0 0.0 0.0 0.0 0.0 0.0 0.0 0.0 0.0 0.0 0.0 0.0 0.0 0.0 0.0 0.0 0.0 0.0 0.0 0.0 0.0 0.0 0.0 0.0 0.0 0.0 0.0 0.0 0.0 0.0 0.0 0.0 0.0 0.0 0.0 0.0 0.0 0.0 0.0 0.0 0.0 0.0 0.0 0.0 0.0 0.0 0.0 0.0 0.0 0.0 0.0 0.0 0.0 0.0 0.0 0.0 0.0 0.0 0.0 0.0 0.0 0.0 0.0 0.0 0.0 0.0 0.0 0.0 0.0 0.0 0.0 0.0 0.0 0.0 0.0 0.0 0.0 0.0 0.0 0.0 0.0 0.0 0.0 0.0 0.0 0.0 0.0 0.0 0.0 0.0 0.0 0.0 0.0 0.0 0.0 0.0 0.0 0.0 0.0 0.0 0.0 0.0 0.0 0.0 0.0 0.0 0.0 0.0 0.0 0.0 0.0 0.0 0.0 0.0 0.0 0.0 0.0 0.0 0.0 0.0 0.0 0.0 0.0 0.0 0.0 0.0 0.0 0.0 0.0 0.0 0.0 0.0 0.0 0.0 0.0 0.0 0.0 0.0 0.0 0.0 0.0 0.0 0.0 0.0 0.0 0.0 0.0 0.0 0.0 0.0 0.0 0.0 0.0 0.0 0.0 0.0 0.0 0.0 0.0 0.0 0.0 0.0 0.0 0.0 0.0 0.0 0.0 0.0 0.0 0.0 0.0 0.0 0.0 0.0 0.0 0.0 0.0 0.0 0.0 0.0 0.0 0.0 0.0 0.0 0.0 0.0 0.0 0.0 0.0 0.0 0.0 0.0 0.0 0.0 0.0 0.0 0.0 0.0 0.0 0.0 0.0 0.0 0.0 0.0 0.0 0.0 0.0 0.0 0.0 0.0 0.0 0.0 0.0 0.0 0.0 0.0 0.0 0.0 0.0 0.0 0.0 0.0 0.0 0.0 0.0 0.0 0.0 0.0 0.0 0.0 0.0 0.0 0.0 0.0 0.0 0.0 0.0 0.0 0.0 0.0 0.0 0.0 0.0 0.0 0.0 0.0 0.0 0.0 0.0 0.0 0.0 0.0 0.0 0.0 0.0 0.0 0.0 0.0 0.0 0.0 0.0 0.0 0.0 0.0 0.0 0.0 0.0 0.0 0.0 0.0 0.0 0.0 0.0 0.0 0.0 0.0 0.0 0.0 0.0 0.0 0.0 0.0 0.0 0.0 0.0 0.0 0.0 0.0 0.0 0.0 0.0 0.0 0.0 0.0 0.0 0.0 0.0 0.0 0.0 0.0 0.0 0.0 0.0 0.0 0.0 0.0 0.0 0.0 0.0 0.0 0.0 0.0 0.0 0.0 0.0 0.0 0.0 0.0 0.0 0.0 0.0 0.0 0.0 0.0 0.0 0.0 0.0 0.0 0.0 0.0 0.0 0.0 0.0 0.0 0.0 0.0 0.0 0.0 0.0 0.0 0.0 0.0 0.0 0.0 0.0 0.0 0.0 0.0 0.0 0.0 0.0 0.0 0.0 0.0 0.0 0.0 0.0 0.0 0.0 0.0 0.0 0.0 0.0 0.0 0.0 0.0 0.0 0.0 0.0 0.0 0.0 0.0 0.0 0.0 0.0 0.0 0.0 0.0 0.0 0.0 0.0 0.0 0.0 0.0 0.0 0.0 0.0 0.0 0.0 0.0 0.0 0.0 0.0 0.0 0.0 0.0 0.0 0.0 0.0 0.0 0.0 0.0 0.0 0.0 0.0 0.0 0.0 0.0 0.0 0.0 0.0 0.0 0.0 0.0 0.0 0.0 0.0 0.0 0.0 0.0 0.0 0.0 0.0 0.0 0.0 0.0 0.0 0.0 0.0 0.0 0.0 0.0 0.0 0.0 0.0 0.0 0.0 0.0 0.0 0.0 0.0 0.0 0.0 0.0 0.0 0.0 0.0 0.0 0.0 0.0 0.0 0.0 0.0 0.0 0.0 0.0 0.0 0.0 0.0 0.0 0.0 0.0 0.0 0.0 0.0 0.0 0.0 0.0 0.0 0.0 0.0 0.0 0.0 0.0 0.0 0.0 0.0 0.0 0.0 0.0 0.0 0.0 0.0 0.0 0.0 0.0 0.0 0.0 0.0 0.0 0.0 0.0 0.0 0.0 0.0 0.0 0.0 0.0 0.0 0.0 0.0 0.0 0.0 0.0 0.0 0.0 0.0 0.0 0.0 0.0 0.0 0.0 0.0 0.0 0.0 0.0 0.0 0.0 0.0 0.0 0.0 0.0 0.0 0.0 0.0 0.0 0.0 0.0 0.0 0.0 0.0 0.0 0.0 0.0 0.0 0.0 0.0 0.0 0.0 0.0 0.0 0.0 0.0 0.0 0.0 0.0 0.0 0.0 0.0 0.0 0.0 0.0 0.0 0.0 0.0 0.0 0.0 0.0 0.0 0.0 0.0 0.0 0.0 0.0 0.0 0.0 0.0 0.0 0.0 0.0 0.0 0.0 0.0 0.0 0.0 0.0 0.0 0.0 0.0 0.0 0.0 0.0 0.0 0.0 0.0 0.0 0.0 0.0 0.0 0.0 0.0 0.0 0.0 0.0 0.0 0.0 0.0 0.0 0.0 0.0 0.0 0.0 0.0 0.0 0.0 0.0 0.0 0.0 0.0 0.0 0.0 0.0 0.0 0.0 0.0 0.0 0.0 0.0 0.0 0.0 0.0 0.0 0.0 0.0 0.0 0.0 0.0 0.0 0.0 0.0 0.0 0.0 0.0 0.0 0.0 0.0 0.0 0.0 0.0 0.0 0.0 0.0 0.0 0.0 0.0 0.0 0.0 0.0 0.0 0.0 0.0 0.0 0.0 0.0 0.0 0.0 0.0 0.0 0.0 0.0 0.0 0.0 0.0 0.0 0.0 0.0 0.0 0.0 0.0 0.0 0.0 0.0 0.0 0.0 0.0 0.0 0.0 0.0 0.0 0.0 0.0 0.0 0.0 0.0 0.0 0.0 0.0 0.0 0.0 0.0 0.0 0.0 0.0 0.0 0.0 0.0 0.0 0.0 0.0 0.0 0.0 0.0 0.0 0.0 0.0 0.0 0.0 0.0 0.0 0.0 0.0 0.0 0.0 0.0 0.0 0.0 0.0 0.0 0.0 0.0 0.0 0.0 0.0 0.0 0.0 0.0 0.0 0.0 0.0 0.0 0.0 0.0 0.0 0.0 0.0 0.0 0.0 0.0 0.0 0.0 0.0 0.0 0.0 0.0 0.0 0.0 0.0 0.0 0.0 0.0 0.0 0.0 0.0 0.0 0.0 0.0 0.0 0.0 0.0 0.0 0.0 0.0 0.0 0.0 0.0 0.0 0.0 0.0 0.0 0.0 0.0 0.0 0.0 0.0 0.0 0.0 0.0 0.0 0.0 0.0 0.0 0.0 0.0 0.0 0.0 0.0 0.0 0.0 0.0 0.0 0.0 0.0 0.0 0.0 0.0 0.0 0.0 0.0 0.0 0.0 0.0 0.0 0.0 0.0 0.0 0.0 0.0 0.0 0.0 0.0 0.0 0.0 0.0 0.0 0.0 0.0 0.0 0.0 0.0 0.0 0.0 0.0 0.0 0.0 0.0 0.0 0.0 0.0 0.0 0.0 0.0 0.0 0.0 0.0 0.0 0.0 0.0 0.0 0.0 0.0 0.0 0.0 0.0 0.0 0.0 0.0 0.0 0.0 0.0 0.0 0.0 0.0 0.0 0.0 0.0 0.0 0.0 0.0 0.0 0.0 0.0 0.0 0.0 0.0 0.0 0.0 0.0 0.0 0.0 0.0 0.0 0.0 0.0 0.0 0.0 0.0 0.0 0.0 0.0 0.0 0.0 0.0 0.0 0.0 0.0 0.0 0.0 0.0 0.0 0.0 0.0 0.0 0.0 0.0 0.0 0.0 0.0 0.0 0.0 0.0 0.0 0.0 0.0 0.0 0.0 0.0 0.0 0.0 0.0 0.0 0.0 0.0 0.0 0.0 0.0 0.0 0.0 0.0 0.0 0.0 0.0 0.0 0.0 0.0 0.0 0.0 0.0 0.0 0.0 0.0 0.0 0.0 0.0 0.0 0.0 0.0 0.0 0.0 0.0 0.0 0.0 0.0 0.0 0.0 0.0 0.0 0.0 0.0 0.0 0.0 0.0 0.0 0.0 0.0 0.0 0.0 0.0 0.0 0.0 0.0 0.0 0.0 0.0 0.0 0.0 0.0 0.0 0.0 0.0 0.0 0.0 0.0 0.0 0.0 0.0 0.0 0.0 0.0 0.0 0.0 0.0 0.0 0.0 0.0 0.0 0.0 0.0 0.0 0.0 0.0 0.0 0.0 0.0 0.0 0.0 0.0 0.0 0.0 0.0 0.0 0.0 0.0 0.0 0.0 0.0 0.0 0.0 0.0 0.0 0.0 0.0 0.0 0.0 0.0 0.0 0.0 0.0 0.0 0.0 0.0 0.0 0.0 0.0 0.0 0.0 0.0 0.0 0.0 0.0 0.0 0.0 0.0 0.0 0.0 0.0 0.0 0.0 0.0 0.0 0.0 0.0 0.0 0.0 0.0 0.0 0.0 0.0 0.0 0.0 0.0 0.0 0.0 0.0 0.0 0.0 0.0 0.0 0.0 0.0 0.0 0.0 0.0 0.0 0.0 0.0 0.0 0.0 0.0 0.0 0.0 0.0 0.0 0.0 0.0 0.0 0.0 0.0 0.0 0.0 0.0 0.0 0.0 0.0 0.0 0.0 0.0 0.0 0.0 0.0 0.0 0.0 0.0 0.0 0.0 0.0 0.0 0.0 0.0 0.0 0.0 0.0 0.0 0.0 0.0 0.0 0.0 0.0 0.0 0.0 0.0 0.0 0.0 0.0 0.0 0.0 0.0 0.0 0.0 0.0 0.0 0.0 0.0 0.0 0.0 0.0 0.0 0.0 0.0 0.0 0.0 0.0 0.0 0.0 0.0 0.0 0.0 0.0 0.0 0.0 0.0 0.0 0.0 0.0 0.0 0.0 0.0 0.0 0.0 0.0 0.0 0.0 0.0 0.0 0.0 0.0 0.0 0.0 0.0 0.0 0.0 0.0 0.0 0.0 0.0 0.0 0.0 0.0 0.0 0.0 0.0 0.0 0.0 0.0 0.0 0.0 0.0 0.0 0.0 0.0 0.0 0.0 0.0 0.0 0.0 0.0 0.0 0.0 0.0 0.0 0.0 0.0 0.0 0.0 0.0 0.0 0.0 0.0 0.0 0.0 0.0 0.0 0.0 0.0 0.0 0.0 0.0 0.0 0.0 0.0 0.0 0.0 0.0 0.0 0.0 0.0 0.0 0.0 0.0 0.0 0.0 0.0 0.0 0.0 0.0 0.0 0.0 0.0 0.0 0.0 0.0 0.0 0.0 0.0 0.0 0.0 0.0 0.0 0.0 0.0 0.0 0.0 0.0 0.0 0.0 0.0 0.0 0.0 0.0 0.0 0.0 0.0 0.0 0.0 0.0 0.0 0.0 0.0 0.0 0.0 0.0 0.0 0.0 0.0 0.0 0.0 0.0 0.0 0.0 0.0 0.0 0.0 0.0 0.0 0.0 0.0 0.0 0.0 0.0 0.0 0.0 0.0 0.0 0.0 0.0 0.0 0.0 0.0 0.0 0.0 0.0 0.0 0.0 0.0 0.0 0.0 0.0 0.0 0.0 0.0 0.0 0.0 0.0 0.0 0.0 0.0 0.0 0.0 0.0 0.0 0.0 0.0 0.0 0.0 0.0 0.0 0.0 0.0 0.0 0.0 0.0 0.0 0.0 0.0 0.0 0.0 0.0 0.0 0.0 0.0 0.0 0.0 0.0 0.0 0.0 0.0 0.0 0.0 0.0 0.0 0.0 0.0 0.0 0.0 0.0 0.0 0.0 0.0 0.0 0.0 0.0 0.0 0.0 0.0 0.0 0.0 0.0 0.0 0.0 0.0 0.0 0.0 0.0 0.0 0.0 0.0 0.0 0.0 0.0 0.0 0.0 0.0 0.0 0.0 0.0 0.0 0.0 0.0 0.0 0.0 0.0 0.0 0.0 0.0 0.0 0.0 0.0 0.0 0.0 0.0 0.0 0.0 0.0 0.0 0.0 0.0 0.0 0.0 0.0 0.0 0.0 0.0 0.0 0.0 0.0 0.0 0.0 0.0 0.0 0.0 0.0 0.0 0.0 0.0 0.0 0.0 0.0 0.0 0.0 0.0 0.0 0.0 0.0 0.0 0.0 0.0 0.0 0.0 0.0 0.0 0.0 0.0 0.0 0.0 0.0 0.0 0.0 0.0 0.0 0.0 0.0 0.0 0.0 0.0 0.0 0.0 0.0 0.0 0.0 0.0 0.0 0.0 0.0 0.0 0.0 0.0 0.0 0.0 0.0 0.0 0.0 0.0 0.0 0.0 0.0 0.0 0.0 0.0 0.0 0.0 0.0 0.0 0.0 0.0 0.0 0.0 0.0 0.0 0.0 0.0 0.0 0.0 0.0 0.0 0.0 0.0 0.0 0.0 0.0 0.0 0.0 0.0 0.0 0.0 0.0 0.0 0.0 0.0 0.0 0.0 0.0 0.0 0.0 0.0 0.0 0.0 0.0 0.0 0.0 0.0 0.0 0.0 0.0 0.0 0.0 0.0 0.0 0.0 0.0 0.0 0.0 0.0 0.0 0.0 0.0 0.0 0.0 0.0 0.0 0.0 0.0 0.0 0.0 0.0 0.0 0.0 0.0 0.0 0.0 0.0 0.0 0.0 0.0 0.0 0.0 0.0 0.0 0.0 0.0 0.0 0.0 0.0 0.0 0.0 0.0 0.0 0.0 0.0 0.0 0.0 0.0 0.0 0.0 0.0 0.0 0.0 0.0 0.0 0.0 0.0 0.0 0.0 0.0 0.0 0.0 0.0 0.0 0.0 0.0 0.0 0.0 0.0 0.0 0.0 0.0 0.0 0.0 0.0 0.0 0.0 0.0 0.0 0.0 0.0 0.0 0.0 0.0 0.0 0.0 0.0 0.0 0.0 0.0 0.0 0.0 0.0 0.0 0.0 0.0 0.0 0.0 0.0 0.0 0.0 0.0 0.0 0.0 0.0 0.0 0.0 0.0 0.0 0.0 0.0 0.0 0.0 0.0 0.0 0.0 0.0 0.0 0.0 0.0 0.0 0.0 0.0 0.0 0.0 0.0 0.0 0.0 0.0 0.0 0.0 0.0 0.0 0.0 0.0 0.0 0.0 0.0 0.0 0.0 0.0 0.0 0.0 0.0 0.0 0.0 0.0 0.0 0.0 0.0 0.0 0.0 0.0 0.0 0.0 0.0 0.0 0.0 0.0 0.0 0.0 0.0 0.0 0.0 0.0 0.0 0.0 0.0 0.0 0.0 0.0 0.0 0.0 0.0 0.0 0.0 0.0 0.0 0.0 0.0 0.0 0.0 0.0 0.0 0.0 0.0 0.0 0.0 0.0 0.0 0.0 0.0 0.0 0.0 0.0 0.0 0.0 0.0 0.0 0.0 0.0 0.0 0.0 0.0 0.0 0.0 0.0 0.0 0.0 0.0 0.0 0.0 0.0 0.0 0.0 0.0 0.0 0.0 0.0 0.0 0.0 0.0 0.0 0.0 0.0 0.0 0.0 0.0 0.0 0.0 0.0 0.0 0.0 0.0 0.0 0.0 0.0 0.0 0.0 0.0 0.0 0.0 0.0 0.0 0.0 0.0 0.0 0.0 0.0 0.0 0.0 0.0 0.0 0.0 0.0 0.0 0.0 0.0 0.0 0.0 0.0 0.0 0.0 0.0 0.0 0.0 0.0 0.0 0.0 0.0 0.0 0.0 0.0 0.0 0.0 0.0 0.0 0.0 0.0 0.0 0.0 0.0 0.0 0.0 0.0 0.0 0.0 0.0 0.0 0.0 0.0 0.0 0.0 0.0 0.0 0.0 0.0 0.0 0.0 0.0 0.0 0.0 0.0 0.0 0.0 0.0 0.0 0.0 0.0 0.0 0.0 0.0 0.0 0.0 0.0 0.0 0.0 0.0 0.0 0.0 0.0 0.0 0.0 0.0 0.0 0.0 0.0 0.0 0.0 0.0 0.0 0.0 0.0 0.0 0.0 0.0 0.0 0.0 0.0 0.0 0.0 0.0 0.0 0.0 0.0 0.0 0.0 0.0 0.0 0.0 0.0 0.0 0.0 0.0 0.0 0.0 0.0 0.0 0.0 0.0 0.0 0.0 0.0 0.0 0.0 0.0 0.0 0.0 0.0 0.0 0.0 0.0 0.0 0.0 0.0 0.0 0.0 0.0 0.0 0.0 0.0 0.0 0.0 0.0 0.0 0.0 0.0 0.0 0.0 0.0 0.0 0.0 0.0 0.0 0.0 0.0 0.0 0.0 0.0 0.0 0.0 0.0 0.0 0.0 0.0 0.0 0.0 0.0 0.0 0.0 0.0 0.0 0.0 0.0 0.0 0.0 0.0 0.0 0.0 0.0 0.0 0.0 0.0 0.0 0.0 0.0 0.0 0.0 0.0 0.0 0.0 0.0 0.0 0.0 0.0 0.0 0.0 0.0 0.0 0.0 0.0 0.0 0.0 0.0 0.0 0.0 0.0 0.0 0.0 0.0 0.0 0.0 0.0 0.0 0.0 0.0 0.0 0.0 0.0 0.0 0.0 0.0 0.0 0.0 0.0 0.0 0.0 0.0 0.0 0.0 0.0 0.0 0.0 0.0 0.0 0.0 0.0 0.0 0.0 0.0 0.0 0.0 0.0 0.0 0.0 0.0 0.0 0.0 0.0 0.0 0.0 0.0 0.0 0.0 0.0 0.0 0.0 0.0 0.0 0.0 0.0 0.0 0.0 0.0 0.0 0.0 0.0 0.0 0.0 0.0 0.0 0.0 0.0 0.0 0.0 0.0 0.0 0.0 0.0 0.0 0.0 0.0 0.0 0.0 0.0 0.0 0.0 0.0 0.0 0.0 0.0 0.0 0.0 0.0 0.0 0.0 0.0 0.0 0.0 0.0 0.0 0.0 0.0 0.0 0.0 0.0 0.0 0.0 0.0 0.0 0.0 0.0 0.0 0.0 0.0 0.0 0.0 0.0 0.0 0.0 0.0 0.0 0.0 0.0 0.0 0.0 0.0 0.0 0.0 0.0 0.0 0.0 0.0 0.0 0.0 0.0 0.0 0.0 0.0 0.0 0.0 0.0 0.0 0.0 0.0 0.0 0.0 0.0 0.0 0.0 0.0 0.0 0.0 0.0 0.0 0.0 0.0 0.0 0.0 0.0 0.0 0.0 0.0 0.0 0.0 0.0 0.0 0.0 0.0 0.0 0.0 0.0 0.0 0.0 0.0 0.0 0.0 0.0 0.0 0.0 0.0 0.0 0.0 0.0 0.0 0.0 0.0 0.0 0.0 0.0 0.0 0.0 0.0 0.0 0.0 0.0 0.0 0.0 0.0 0.0 0.0 0.0 0.0 0.0 0.0 0.0 0.0 0.0 0.0 0.0 0.0 0.0 0.0 0.0 0.0 0.0 0.0 0.0 0.0 0.0 0.0 0.0 0.0 0.0 0.0 0.0 0.0 0.0 0.0 0.0 0.0 0.0 0.0 0.0 0.0 0.0 0.0 0.0 0.0 0.0 0.0 0.0 0.0 0.0 0.0 0.0 0.0 0.0 0.0 0.0 0.0 0.0 0.0 0.0 0.0 0.0 0.0 0.0 0.0 0.0 0.0 0.0 0.0 0.0 0.0 0.0 0.0 0.0 0.0 0.0 0.0 0.0 0.0 0.0 0.0 0.0 0.0 0.0 0.0 0.0 0.0 0.0 0.0 0.0 0.0 0.0 0.0 0.0 0.0 0.0 0.0 0.0 0.0 0.0 0.0 0.0 0.0 0.0 0.0 0.0 0.0 0.0 0.0 0.0 0.0 0.0 0.0 0.0 0.0 0.0 0.0 0.0 0.0 0.0 0.0 0.0 0.0 0.0 0.0 0.0 0.0 0.0 0.0 0.0 0.0 0.0 0.0 0.0 0.0 0.0 0.0 0.0 0.0 0.0 0.0 0.0 0.0 0.0 0.0 0.0 0.0 0.0 0.0 0.0 0.0 0.0 0.0 0.0 0.0 0.0 0.0 0.0 0.0 0.0 0.0 0.0 0.0 0.0 0.0 0.0 0.0 0.0 0.0 0.0 0.0 0.0 0.0 0.0 0.0 0.0 0.0 0.0 0.0 0.0 0.0 0.0 0.0 0.0 0.0 0.0 0.0 0.0 0.0 0.0 0.0 0.0 0.0 0.0 0.0 0.0 0.0 0.0 0.0 0.0 0.0 0.0 0.0 0.0 0.0 0.0 0.0 0.0 0.0 0.0 0.0 0.0 0.0 0.0 0.0 0.0 0.0 0.0 0.0 0.0 0.0 0.0 0.0 0.0 0.0 0.0 0.0 0.0 0.0 0.0 0.0 0.0 0.0 0.0 0.0 0.0 0.0 0.0 0.0 0.0 0.0 0.0 0.0 0.0 0.0 0.0 0.0 0.0 0.0 -1.8787285E-009  3.3488405E-005 0.0 -8.7573661E-009  3.3450521E-005 0.0 -6.5331298E-008  3.3510011E-005 0.0 -1.9766389E-008  3.3418385E-005 0.0 -1.2441574E-009  3.3474399E-005 0.0 -3.3907755E-009  3.3508832E-005 0.0 -1.0531247E-007  3.3471326E-005 0.0 -1.5563151E-007  3.3391362E-005 0.0 -1.6429071E-006  8.9430352E-006 0.0 -2.1397482E-007  3.3267428E-005 0.0 -2.6736641E-007  3.3129037E-005 0.0 -3.3286879E-007  3.2935051E-005 0.0 -3.8635995E-007  3.2693364E-005 0.0 -4.3766196E-007  3.2456494E-005 0.0 -5.0317374E-007  3.2151652E-005 0.0 -5.6178163E-007  3.1827564E-005 0.0 -5.9935904E-007  3.1468020E-005 0.0 -6.6477404E-007  3.1058118E-005 0.0 -7.2211025E-007  3.0635617E-005 0.0 -7.5273641E-007  3.0179696E-005 0.0 -8.1777884E-007  2.9670272E-005 0.0 -8.7323005E-007  2.9154602E-005 0.0 -8.9648671E-007  2.8608119E-005 0.0 -9.6048297E-007  2.8005782E-005 0.0 -1.0136764E-006  2.7403277E-005 0.0 -1.0295920E-006  2.6772772E-005 0.0 -1.0921239E-006  2.6084661E-005 0.0 -1.1426886E-006  2.5402078E-005 0.0 -2.7041306E-009  3.3461974E-005 0.0 -1.1512311E-006  2.4694590E-005 0.0 -1.2219341E-006  2.3939948E-005 0.0 -1.2256156E-006  2.3185277E-005 0.0 -1.2847557E-006  2.2371481E-005 0.0 -1.3191845E-006  2.1559813E-005 0.0 -1.3639591E-006  2.0739174E-005 0.0 -1.3587099E-006  1.9900021E-005 0.0 -1.4152424E-006  1.9001222E-005 0.0 -1.4446251E-006  1.8109740E-005 0.0 -1.4725801E-006  1.7200398E-005 0.0 -1.5122930E-006  1.6286437E-005 0.0 -1.5488270E-006  1.5363008E-005 0.0 -1.5477226E-006  1.4373884E-005 0.0 -1.5695543E-006  1.3402096E-005 0.0 -1.6038910E-006  1.2429483E-005 0.0 -1.6216240E-006  1.1442997E-005 0.0 -1.6252056E-006  1.0412190E-005 0.0 -1.5553646E-006  7.9611313E-006 0.0 -4.2219864E-007  9.8303859E-006 0.0 -4.5184111E-007  7.2551150E-006 0.0 -2.9310810E-008  3.3525497E-005 0.0 -4.7009598E-008  3.3293722E-005 0.0 -6.6329076E-008  3.3159778E-005 0.0 -8.2155955E-008  3.2988829E-005 0.0 -9.3526613E-008  3.2780877E-005 0.0 -1.1365365E-007  3.2537334E-005 0.0 -1.2862701E-007  3.2258337E-005 0.0 -1.3716249E-007  3.1944071E-005 0.0 -1.5863362E-007  3.1595895E-005 0.0 -1.7273743E-007  3.1214192E-005 0.0 -1.7858837E-007  3.0798958E-005 0.0 -2.0131799E-007  3.0351492E-005 0.0 -2.1453303E-007  2.9872471E-005 0.0 -2.1771050E-007  2.9361781E-005 0.0 -2.4142626E-007  2.8820819E-005 0.0 -2.5360824E-007  2.8250570E-005 0.0 -2.5413642E-007  2.7650812E-005 0.0 -2.7862587E-007  2.7022943E-005 0.0 -2.8971768E-007  2.6368222E-005 0.0 -2.8766729E-007  2.5686326E-005 0.0 -3.1270015E-007  2.4978657E-005 0.0 -3.2262845E-007  2.4246734E-005 0.0 -3.3357130E-007  2.3489858E-005 0.0 -3.4270895E-007  2.2710686E-005 0.0 -3.3658720E-007  2.1908527E-005 0.0 -3.4533966E-007  2.1085032E-005 0.0 -3.7095850E-007  2.0240419E-005 0.0 -3.7865171E-007  1.9376704E-005 0.0 -3.6970014E-007  1.8493149E-005 0.0 -3.7712363E-007  1.7591436E-005 0.0 -3.8418358E-007  1.6672310E-005 0.0 -4.0975260E-007  1.5736191E-005 0.0 -4.1542552E-007  1.4785505E-005 0.0 -4.0300643E-007  1.3819526E-005 0.0 -4.0843854E-007  1.2840082E-005 0.0 -4.3334827E-007  1.1847541E-005 0.0 -4.3720169E-007  1.0844590E-005 0.0 -4.4636018E-007  8.8073517E-006 0.0 -1.2315729E-006  6.4526153E-006 0.0 -4.8150155E-007  5.6928022E-006 0.0 -9.4244367E-007  4.9224459E-006 0.0 -4.6769911E-010  3.3465617E-005 0.0 -4.5183807E-007  4.0342125E-006 0.0 -7.2395775E-007  3.5414166E-006 0.0 -2.6445850E-008  3.3390189E-005 0.0 -4.6785570E-008  3.3413803E-005 0.0 -6.1097243E-008  3.3380673E-005 0.0 -3.1727016E-008  3.3438171E-005 0.0 -5.8556152E-008  3.3439360E-005 0.0 -4.3250495E-008  3.3456586E-005 0.0 -6.3304816E-008  3.3463558E-005 0.0 -4.5820087E-008  3.3475595E-005 0.0 -3.1383602E-008  3.3468488E-005 0.0 -3.1458985E-008  3.3483543E-005 0.0 -2.0899349E-008  3.3475947E-005 0.0 -1.9845985E-008  3.3465240E-005 0.0 -1.2717323E-008  3.3470496E-005 0.0 -1.9567564E-008  3.3487627E-005 0.0 -2.8412183E-008  3.3497002E-005 0.0 -1.1412300E-008  3.3463212E-005 0.0 -6.7851375E-009  3.3467315E-005 0.0 -1.4571001E-008  3.3500845E-005 0.0 -1.1473725E-008  3.3479447E-005 0.0 -2.2979015E-008  3.3511178E-005 0.0 -3.7835433E-008  3.3508175E-005 0.0 -1.3863220E-008  3.3523106E-005 0.0 -2.6718508E-008  3.3455596E-005 0.0 -7.9460335E-008  3.3415772E-005 0.0 -1.2156428E-007  3.3433836E-005 0.0 -1.2777230E-008  3.3437583E-005 0.0 -8.4966431E-008  3.3494844E-005 0.0 -4.7483121E-009  3.3457759E-005 0.0 -4.5848116E-007  4.6373885E-006 0.0 -1.0020922E-007  3.2663432E-005 0.0 -2.2033612E-007  3.2625603E-005 0.0 -2.4016625E-007  3.2469626E-005 0.0 -3.3991456E-007  3.2564574E-005 0.0 -4.3567684E-007  6.7327609E-006 0.0 -9.0716222E-007  6.9963349E-006 0.0 -9.0210276E-007  7.5208016E-006 0.0 -4.4780886E-007  8.2918961E-006 0.0 -8.8535358E-007  8.5520738E-006 0.0 -8.3494532E-007  9.0539334E-006 0.0 -1.4314555E-007  3.1774121E-005 0.0 -3.1177891E-007  3.1715534E-005 0.0 -3.3101837E-007  3.1497789E-005 0.0 -4.7084480E-007  3.1610882E-005 0.0 -3.1334806E-007  2.3871213E-005 0.0 -6.6901038E-007  2.3732673E-005 0.0 -6.8009720E-007  2.3282918E-005 0.0 -9.9234681E-007  2.3494520E-005 0.0 -2.2231299E-007  2.9095010E-005 0.0 -4.8032391E-007  2.8998515E-005 0.0 -4.9557129E-007  2.8673116E-005 0.0 -7.1551764E-007  2.8829183E-005 0.0 -4.3863162E-007  6.2103981E-006 0.0 -8.9409367E-007  6.0177241E-006 0.0 -3.8473167E-007  1.6206370E-005 0.0 -7.8422088E-007  1.5956089E-005 0.0 -7.7597541E-007  1.5469067E-005 0.0 -1.1967817E-006  1.5687134E-005 0.0 -3.7483678E-007  1.7133952E-005 0.0 -7.7584685E-007  1.6928116E-005 0.0 -3.4702784E-007  2.0665333E-005 0.0 -7.4529550E-007  2.0509940E-005 0.0 -7.5471799E-007  2.0009717E-005 0.0 -1.1033053E-006  2.0241976E-005 0.0 -3.6770012E-007  1.8044479E-005 0.0 -7.6134147E-007  1.7842246E-005 0.0 -1.8390645E-007  3.0579167E-005 0.0 -3.9859179E-007  3.0501032E-005 0.0 -4.1718022E-007  3.0224772E-005 0.0 -5.9708283E-007  3.0362959E-005 0.0 -2.5800700E-007  2.7340333E-005 0.0 -5.5623805E-007  2.7226847E-005 0.0 -5.7014643E-007  2.6851259E-005 0.0 -8.2912997E-007  2.7032123E-005 0.0 -3.5950228E-007  1.9807225E-005 0.0 -3.3572770E-007  2.1499372E-005 0.0 -6.9618647E-007  2.1313724E-005 0.0 -2.9079137E-007  2.5335671E-005 0.0 -6.2590744E-007  2.5206650E-005 0.0 -6.3834212E-007  2.4785086E-005 0.0 -9.3033331E-007  2.4985080E-005 0.0 -2.8009677E-007  2.6030403E-005 0.0 -5.7846013E-007  2.5876129E-005 0.0 -2.7256593E-007  2.6695727E-005 0.0 -4.0799714E-007  1.2345462E-005 0.0 -8.3056017E-007  1.2079222E-005 0.0 -8.3387157E-007  1.1574437E-005 0.0 -1.2763595E-006  1.1811039E-005 0.0 -3.9955009E-007  1.3331404E-005 0.0 -8.2589661E-007  1.3113370E-005 0.0 -3.0468738E-007  2.4612289E-005 0.0 -2.4632829E-007  2.7954107E-005 0.0 -5.0989067E-007  2.7818587E-005 0.0 -2.0972431E-007  2.9620808E-005 0.0 -4.4530711E-007  2.9502955E-005 0.0 -4.1145013E-007  9.3177806E-006 0.0 -3.9705544E-007  1.4304201E-005 0.0 -8.1509734E-007  1.4088846E-005 0.0 -3.6302801E-007  1.8937168E-005 0.0 -7.4650559E-007  1.8738751E-005 0.0 -3.2952008E-007  2.2312222E-005 0.0 -6.7864734E-007  2.2131213E-005 0.0 -2.3741803E-007  2.8536426E-005 0.0 -1.9979006E-007  3.0112487E-005 0.0 -8.5359823E-008  3.2889196E-005 0.0 -1.8875650E-007  3.2846769E-005 0.0 -4.1696306E-007  1.0338693E-005 0.0 -8.5491919E-007  1.0114042E-005 0.0 -4.1220429E-007  1.5263023E-005 0.0 -3.2433352E-007  2.3099527E-005 0.0 -4.4949181E-007  7.7751895E-006 0.0 -1.5923386E-007  3.1406345E-005 0.0 -1.1647329E-007  3.2400001E-005 0.0 -4.1721193E-007  1.1344406E-005 0.0 -1.2903364E-007  3.2105331E-005 0.0 -2.8087112E-007  3.2035861E-005 0.0 -5.4957901E-008  3.3231167E-005 0.0 -1.2419607E-007  3.3215187E-005 0.0 -1.4447004E-007  3.3124222E-005 0.0 -1.9970622E-007  3.3187523E-005 0.0 -7.1440247E-008  3.3077405E-005 0.0 -1.7049293E-007  3.1010494E-005 0.0 -3.6829525E-007  3.0915311E-005 0.0 -1.6245089E-006  9.4016806E-006 0.0 -1.3835089E-006  1.9439404E-005 0.0 -1.0075603E-006  1.9209307E-005 0.0 -1.6058977E-006  1.0921129E-005 0.0 -1.1549463E-006  1.0647550E-005 0.0 -6.3080531E-007  3.1260213E-005 0.0 -4.6634104E-007  3.1140062E-005 0.0 -1.4357394E-006  1.8557960E-005 0.0 -1.0480164E-006  1.8310188E-005 0.0 -1.2520530E-006  2.2768502E-005 0.0 -9.1323394E-007  2.2557129E-005 0.0 -1.3431192E-006  2.1148235E-005 0.0 -9.6212289E-007  2.0924285E-005 0.0 -5.3340417E-007  3.1991924E-005 0.0 -3.8955867E-007  3.1885345E-005 0.0 -1.3072638E-006  2.1968545E-005 0.0 -9.5565839E-007  2.1741320E-005 0.0 -1.5276443E-006  1.4859513E-005 0.0 -1.1001397E-006  1.4598878E-005 0.0 -1.8260501E-007  3.3338177E-005 0.0 -1.2813361E-007  3.3334515E-005 0.0 -1.4653229E-007  3.3282841E-005 0.0 -9.8842186E-007  2.7704845E-005 0.0 -7.1173252E-007  2.7531209E-005 0.0 -1.1188503E-006  2.5743101E-005 0.0 -8.0388583E-007  2.5550748E-005 0.0 -1.0582722E-006  2.6420972E-005 0.0 -7.7410552E-007  2.6237505E-005 0.0 -3.0001606E-007  3.3033195E-005 0.0 -2.2773759E-007  3.2962976E-005 0.0 -1.4940576E-006  1.6741519E-005 0.0 -1.1346821E-006  1.6577661E-005 0.0 -7.8351806E-007  2.9920365E-005 0.0 -5.7640291E-007  2.9777341E-005 0.0 -9.2629355E-007  2.8300693E-005 0.0 -6.7918856E-007  2.8136545E-005 0.0 -1.5649508E-006  1.3889831E-005 0.0 -1.1404134E-006  1.3621604E-005 0.0 -1.1786068E-006  2.4302414E-005 0.0 -8.6053957E-007  2.4101559E-005 0.0 -8.4673097E-007  2.9413381E-005 0.0 -6.1151155E-007  2.9260358E-005 0.0 -6.9450873E-007  3.0848491E-005 0.0 -5.0375781E-007  3.0717882E-005 0.0 -4.6972624E-007  3.2303139E-005 0.0 -3.5015716E-007  3.2207263E-005 0.0 -1.6367481E-006  9.9056882E-006 0.0 -1.2177521E-006  9.7082905E-006 0.0 -1.4645105E-006  1.7657419E-005 0.0 -1.0685972E-006  1.7405061E-005 0.0 -1.5883739E-006  1.2913386E-005 0.0 -1.2055185E-006  1.2739702E-005 0.0 -3.6270124E-007  3.2824595E-005 0.0 -2.7037886E-007  3.2747394E-005 0.0 -1.9170515E-009  3.3468973E-005 0.0 -3.0340216E-009  3.3497672E-005 0.0 -1.5396431E-009  3.3480554E-005 0.0 -4.5628511E-007  3.1350493E-005 0.0 -1.0088131E-006  1.9655817E-005 0.0 -5.6992669E-007  3.0038055E-005 0.0 -9.1466756E-007  2.2965709E-005 0.0 -7.7076706E-007  2.6583680E-005 0.0 -1.1444149E-006  1.5167808E-005 0.0 -8.6009777E-007  2.4486524E-005 0.0 -6.7289806E-007  2.8440023E-005 0.0 -1.2081753E-006  1.1249533E-005 0.0 -3.3642679E-007  3.2364429E-005 0.0 -2.1013942E-007  3.3063838E-005 0.0 -8.8303755E-007  8.0371234E-006 0.0 -4.9496675E-007  3.0412643E-006 0.0 -1.3743230E-006  7.4338753E-006 0.0 -4.9182135E-007  5.1735317E-006 0.0 -4.5123633E-007  2.4327304E-006 0.0 -8.5431466E-008  3.3448714E-005 0.0 -4.2759436E-008  3.3492718E-005 0.0 -6.2159766E-008  3.3487689E-005 0.0 -1.0677151E-006  5.4836699E-006 0.0 -1.1514362E-009  3.3464023E-005 0.0 -4.7626236E-008  3.3520685E-005 0.0 -3.5277114E-008  3.3347497E-005 0.0 -1.3964207E-006  6.9491267E-006 0.0 -1.6456171E-008  3.3456741E-005 0.0 -4.0353175E-007  1.8950566E-006 0.0 -8.8279014E-007  4.3898593E-006 0.0 -1.6179917E-006  8.4641269E-006 0.0 -6.5446291E-009  3.3472267E-005 0.0 -1.0460190E-007  3.3381308E-005 0.0 -1.0122599E-008  3.3490128E-005 0.0 -2.9710445E-009  3.3521305E-005 0.0 -3.3041336E-009  3.3465244E-005 0.0 -3.5288120E-007  1.3549168E-006 0.0 -7.7258726E-008  3.3331780E-005 0.0 -7.8142202E-007  6.4820890E-006 0.0 -8.8928267E-007  3.9486138E-006 0.0 -1.2323028E-006  8.7868703E-006 0.0 -8.0150310E-007  1.1042632E-005 0.0 -7.6134269E-007  1.4972364E-005 0.0 -1.2255066E-006  8.2729928E-006 0.0 -1.6720640E-006  1.1936898E-005 0.0 -6.8222013E-007  1.9554525E-005 0.0 -6.1701276E-007  2.2871877E-005 0.0 -1.5708126E-006  1.5826856E-005 0.0 -5.8035876E-007  2.4398502E-005 0.0 -5.2036116E-007  2.6504727E-005 0.0 -4.5462509E-007  2.8370518E-005 0.0 -1.4293491E-006  2.0321791E-005 0.0 -7.8256678E-007  9.5690718E-006 0.0 -3.9185127E-007  2.9963691E-005 0.0 -7.3314228E-007  1.0597682E-005 0.0 -3.1447329E-007  3.1288708E-005 0.0 -1.2979376E-006  1.0157682E-005 0.0 -2.3284706E-007  3.2315524E-005 0.0 -1.4684809E-007  3.3028093E-005 0.0 -1.2851341E-006  2.3565791E-005 0.0 -7.9581725E-007  1.2569441E-005 0.0 -7.1689098E-007  1.3595221E-005 0.0 -1.2045639E-006  2.5052063E-005 0.0 -1.2659574E-006  1.3158177E-005 0.0 -6.9784597E-007  1.4550204E-005 0.0 -1.2337302E-006  1.4114883E-005 0.0 -1.0730833E-006  2.7092589E-005 0.0 -7.4947182E-007  1.6417758E-005 0.0 -6.7165311E-007  1.7380512E-005 0.0 -9.2937575E-007  2.8886527E-005 0.0 -6.5875735E-007  1.8286133E-005 0.0 -1.1891312E-006  1.6970739E-005 0.0 -7.7469384E-007  3.0413669E-005 0.0 -6.3560281E-007  1.9163632E-005 0.0 -1.1575155E-006  1.7865268E-005 0.0 -1.1306632E-006  1.8763864E-005 0.0 -6.1008572E-007  3.1654621E-005 0.0 -6.1925750E-007  2.0900026E-005 0.0 -4.4571946E-007  3.2589110E-005 0.0 -6.0066480E-007  2.1719266E-005 0.0 -2.6012810E-007  3.3211581E-005 0.0 -5.7621932E-007  2.2517024E-005 0.0 -1.0553744E-006  2.1337836E-005 0.0 -1.0279498E-006  2.2154372E-005 0.0 -5.4909893E-007  2.4070461E-005 0.0 -5.1739906E-007  2.5531553E-005 0.0 -4.8851934E-007  2.6203878E-005 0.0 -8.7325331E-007  2.5901207E-005 0.0 -4.5804648E-007  2.7514045E-005 0.0 -4.2867983E-007  2.8106591E-005 0.0 -3.9551646E-007  2.9244213E-005 0.0 -7.6985680E-007  2.7841621E-005 0.0 -3.6746708E-007  2.9747958E-005 0.0 -3.2672937E-007  3.0702975E-005 0.0 -2.9831024E-007  3.1114287E-005 0.0 -6.5963223E-007  2.9525461E-005 0.0 -2.5259377E-007  3.1871522E-005 0.0 -2.2412577E-007  3.2185020E-005 0.0 -5.3961186E-007  3.0936642E-005 0.0 -1.7473048E-007  3.2733365E-005 0.0 -1.4596301E-007  3.2943755E-005 0.0 -9.5098261E-008  3.3276503E-005 0.0 -4.1150139E-007  3.2055112E-005 0.0 -2.7650796E-007  3.2864133E-005 0.0 -6.5716083E-009  3.3462850E-005 0.0 -1.8637177E-008  3.3447793E-005 0.0 -1.2409447E-006  9.2498005E-006 0.0 -1.2294085E-006  1.2235012E-005 0.0 -9.0713375E-011  3.3464347E-005 0.0 -3.2496493E-009  3.3533821E-005 0.0 -1.1589994E-006  1.6109552E-005 0.0 -1.6010703E-008  3.3533981E-005 0.0 -1.0840399E-006  2.0561113E-005 0.0 -9.7222527E-007  2.3779721E-005 0.0 -9.0979280E-007  2.5251543E-005 0.0 -7.9980953E-007  2.7271595E-005 0.0 -6.9716262E-007  2.9035915E-005 0.0 -5.7202253E-007  3.0537103E-005 0.0 -4.4685159E-007  3.1747048E-005 0.0 -3.0516283E-007  3.2656762E-005 0.0 -1.7110744E-007  3.3238371E-005 0.0 -2.0457013E-007  3.3125293E-005 0.0 -6.2759253E-009  3.3483034E-005 0.0 -3.0709491E-007  8.4731818E-007 0.0 -3.3672282E-007  3.2461812E-005 0.0 -8.2189604E-008  3.3473165E-005 0.0 -5.0890545E-008  3.3504011E-005 0.0 -1.3065035E-008  3.3512648E-005 0.0 -4.6426025E-007  3.1481777E-005 0.0 -2.3704805E-007  2.7385833E-007 0.0 -1.2949422E-006  5.9595584E-006 0.0 -5.8413153E-007  3.0201343E-005 0.0 -1.1834124E-006  7.7995716E-006 0.0 -5.3773463E-009  3.3477883E-005 0.0 -6.9502343E-007  2.8637589E-005 0.0 -7.9984663E-007  2.6809941E-005 0.0 -8.9495233E-007  2.4737797E-005 0.0 -9.5314072E-007  2.3232080E-005 0.0 -3.1817946E-007  3.5469086E-006 0.0 -1.0051888E-008  3.3457965E-005 0.0 -1.0563598E-006  1.9951859E-005 0.0 0.0 0.0 0.0 0.0 0.0 0.0 0.0 0.0 0.0 0.0 0.0 0.0 0.0 0.0 0.0 0.0 0.0 0.0 0.0 0.0 0.0 0.0 0.0 0.0 0.0 0.0 0.0 0.0 0.0 0.0 0.0 0.0 0.0 0.0 0.0 0.0 0.0 0.0 0.0 0.0 0.0 0.0 0.0 0.0 0.0 0.0 0.0 0.0 0.0 0.0 0.0 0.0 0.0 0.0 0.0 0.0 0.0 0.0 0.0 0.0 0.0 0.0 0.0 0.0 0.0 0.0 0.0 0.0 0.0 0.0 0.0 0.0 0.0 0.0 0.0 0.0 0.0 0.0 0.0 0.0 0.0 0.0 0.0 0.0 0.0 0.0 0.0 0.0 0.0 0.0 0.0 0.0 0.0 0.0 0.0 0.0 0.0 0.0 0.0 0.0 0.0 0.0 0.0 0.0 0.0 0.0 0.0 0.0 0.0 0.0 0.0 0.0 0.0 0.0 0.0 0.0 0.0 0.0 0.0 0.0 0.0 0.0 0.0 0.0 0.0 0.0 0.0 0.0 0.0 0.0 0.0 0.0 0.0 0.0 0.0 0.0 0.0 0.0 0.0 0.0 0.0 0.0 0.0 0.0 0.0 0.0 0.0 0.0 0.0 0.0 0.0 0.0 0.0 0.0 0.0 0.0 0.0 0.0 0.0 0.0 0.0 0.0 0.0 0.0 0.0 0.0 0.0 0.0 0.0 0.0 0.0 0.0 0.0 0.0 0.0 0.0 0.0 0.0 0.0 0.0 0.0 0.0 0.0 0.0 0.0 0.0 0.0 0.0 0.0 0.0 0.0 0.0 0.0 0.0 0.0 0.0 0.0 0.0 0.0 0.0 0.0 0.0 0.0 0.0 0.0 0.0 0.0 0.0 0.0 0.0 0.0 0.0 0.0 0.0 0.0 0.0 0.0 0.0 0.0 0.0 0.0 0.0 0.0 0.0 0.0 0.0 0.0 0.0 0.0 0.0 0.0 0.0 0.0 0.0 0.0 0.0 0.0 0.0 0.0 0.0 0.0 0.0 0.0 0.0 0.0 0.0 0.0 0.0 0.0 0.0 0.0 0.0 0.0 0.0 0.0 0.0 0.0 0.0 0.0 0.0 0.0 0.0 0.0 0.0 0.0 0.0 0.0 0.0 0.0 0.0 0.0 0.0 0.0 0.0 0.0 0.0 0.0 0.0 0.0 0.0 0.0 0.0 0.0 0.0 0.0 0.0 0.0 0.0 0.0 0.0 0.0 0.0 0.0 0.0 0.0 0.0 0.0 0.0 0.0 0.0 0.0 0.0 0.0 0.0 0.0 0.0 0.0 0.0 0.0 0.0 0.0 0.0 0.0 0.0 0.0 0.0 0.0 0.0 0.0 0.0 0.0 0.0 0.0 0.0 0.0 0.0 0.0 0.0 0.0 0.0 0.0 0.0 0.0 0.0 0.0 0.0 0.0 0.0 0.0 0.0 0.0 0.0 0.0 0.0 0.0 0.0 0.0 0.0 0.0 0.0 0.0 0.0 0.0 0.0 0.0 0.0 0.0 0.0 0.0 0.0 0.0 0.0 0.0 0.0 0.0 0.0 0.0 0.0 0.0 0.0 0.0 0.0 0.0 0.0 0.0 0.0 0.0 0.0 0.0 0.0 0.0 0.0 0.0 0.0 0.0 0.0 0.0 0.0 0.0 0.0 0.0 0.0 0.0 0.0 0.0 0.0 0.0 0.0 0.0 0.0 0.0 0.0 0.0 0.0 0.0 0.0 0.0 0.0 0.0 0.0 0.0 0.0 0.0 0.0 0.0 0.0 0.0 0.0 0.0 0.0 0.0 0.0 0.0 0.0 0.0 0.0 0.0 0.0 0.0 0.0 0.0 0.0 0.0 0.0 0.0 0.0 0.0 0.0 0.0 0.0 0.0 0.0 0.0 0.0 0.0 0.0 0.0 0.0 0.0 0.0 0.0 0.0 0.0 0.0 0.0 0.0 0.0 0.0 0.0 0.0 0.0 0.0 0.0 0.0 0.0 0.0 0.0 0.0 0.0 0.0 0.0 0.0 0.0 0.0 0.0 0.0 0.0 0.0 0.0 0.0 0.0 0.0 0.0 0.0 0.0 0.0 0.0 0.0 0.0 0.0 0.0 0.0 0.0 0.0 0.0 0.0 0.0 0.0 0.0 0.0 0.0 0.0 0.0 0.0 0.0 0.0 0.0 0.0 0.0 0.0 0.0 0.0 0.0 0.0 0.0 0.0 0.0 0.0 0.0 0.0 0.0 0.0 0.0 0.0 0.0 0.0 0.0 0.0 0.0 0.0 0.0 0.0 0.0 0.0 0.0 0.0 0.0 0.0 0.0 0.0 0.0 0.0 0.0 0.0 0.0 0.0 0.0 0.0 0.0 0.0 0.0 0.0 0.0 0.0 0.0 0.0 0.0 0.0 0.0 0.0 0.0 0.0 0.0 0.0 0.0 0.0 0.0 0.0 0.0 0.0 0.0 0.0 0.0 0.0 0.0 0.0 0.0 0.0 0.0 0.0 0.0 0.0 0.0 0.0 0.0 0.0 0.0 0.0 0.0 0.0 0.0 0.0 0.0 0.0 0.0 0.0 0.0 0.0 0.0 0.0 0.0 0.0 0.0 0.0 0.0 0.0 0.0 0.0 0.0 0.0 0.0 0.0 0.0 0.0 0.0 0.0 0.0 0.0 0.0 0.0 0.0 0.0 0.0 0.0 0.0 0.0 0.0 0.0 0.0 0.0 0.0 0.0 0.0 0.0 0.0 0.0 0.0 0.0 0.0 0.0 0.0 0.0 0.0 0.0 0.0 0.0 0.0 0.0 0.0 0.0 0.0 0.0 0.0 0.0 0.0 0.0 0.0 0.0 0.0 0.0 0.0 0.0 0.0 0.0 0.0 0.0 0.0 0.0 0.0 0.0 0.0 0.0 0.0 0.0 0.0 0.0 0.0 0.0 0.0 0.0 0.0 0.0 0.0 0.0 0.0 0.0 0.0 0.0 0.0 0.0 0.0 0.0 0.0 0.0 0.0 0.0 0.0 0.0 0.0 0.0 0.0 0.0 0.0 0.0 0.0 0.0 0.0 0.0 0.0 0.0 0.0 0.0 0.0 0.0 0.0 0.0 0.0 0.0 0.0 0.0 0.0 0.0 0.0 0.0 0.0 0.0 0.0 0.0 0.0 0.0 0.0 0.0 0.0 0.0 0.0 0.0 0.0 0.0 0.0 0.0 0.0 0.0 0.0 0.0 0.0 0.0 0.0 0.0 0.0 0.0 0.0 0.0 0.0 0.0 0.0 0.0 0.0 0.0 0.0 0.0 0.0 0.0 0.0 0.0 0.0 0.0 0.0 0.0 0.0 0.0 0.0 0.0 0.0 0.0 0.0 0.0 0.0 0.0 0.0 0.0 0.0 0.0 0.0 0.0 0.0 0.0 0.0 0.0 0.0 0.0 0.0 0.0 0.0 0.0 0.0 0.0 0.0 0.0 0.0 0.0 0.0 0.0 0.0 0.0 0.0 0.0 0.0 0.0 0.0 0.0 0.0 0.0 0.0 0.0 0.0 0.0 0.0 0.0 0.0 0.0 0.0 0.0 0.0 0.0 0.0 0.0 0.0 0.0 0.0 0.0 0.0 0.0 0.0 0.0 0.0 0.0 0.0 0.0 0.0 0.0 0.0 0.0 0.0 0.0 0.0 0.0 0.0 0.0 0.0 0.0 0.0 0.0 0.0 0.0 0.0 0.0 0.0 0.0 0.0 0.0 0.0 0.0 0.0 0.0 0.0 0.0 0.0 0.0 0.0 0.0 0.0 0.0 0.0 0.0 0.0 0.0 0.0 0.0 0.0 0.0 0.0 0.0 0.0 0.0 0.0 0.0 0.0 0.0 0.0 0.0 0.0 0.0 0.0 0.0 0.0 0.0 0.0 0.0 0.0 0.0 0.0 0.0 0.0 0.0 0.0 0.0 0.0 0.0 0.0 0.0 0.0 0.0 0.0 0.0 0.0 0.0 0.0 0.0 0.0 0.0 0.0 0.0 0.0 0.0 0.0 0.0 0.0 0.0 0.0 0.0 0.0 0.0 0.0 0.0 0.0 0.0 0.0 0.0 0.0 0.0 0.0 0.0 0.0 0.0 0.0 0.0 0.0 0.0 0.0 0.0 0.0 0.0 0.0 0.0 0.0 0.0 0.0 0.0 0.0 0.0 0.0 0.0 0.0 0.0 0.0 0.0 0.0 0.0 0.0 0.0 0.0 0.0 0.0 0.0 0.0 0.0 0.0 0.0 0.0 0.0 0.0 0.0 0.0 0.0 0.0 0.0 0.0 0.0 0.0 0.0 0.0 0.0 0.0 0.0 0.0 0.0 0.0 0.0 0.0 0.0 0.0 0.0 0.0 0.0 0.0 0.0 0.0 0.0 0.0 0.0 0.0 0.0 0.0 0.0 0.0 0.0 0.0 0.0 0.0 0.0 0.0 0.0 0.0 0.0 0.0 0.0 0.0 0.0 0.0 0.0 0.0 0.0 0.0 0.0 0.0 0.0 0.0 0.0 0.0 0.0 0.0 0.0 0.0 0.0 0.0 0.0 0.0 0.0 0.0 0.0 0.0 0.0 0.0 0.0 0.0 0.0 0.0 0.0 0.0 0.0 0.0 0.0 0.0 0.0 0.0 0.0 0.0 0.0 0.0 0.0 0.0 0.0 0.0 0.0 0.0 0.0 0.0 0.0 0.0 0.0 0.0 0.0 0.0 0.0 0.0 0.0 0.0 0.0 0.0 0.0 0.0 0.0 0.0 0.0 0.0 0.0 0.0 0.0 0.0 0.0 0.0 0.0 0.0 0.0 0.0 0.0 0.0 0.0 0.0 0.0 0.0 0.0 0.0 0.0 0.0 0.0 0.0 0.0 0.0 0.0 0.0 0.0 0.0 0.0 0.0 0.0 0.0 0.0 0.0 0.0 0.0 0.0 0.0 0.0 0.0 0.0 0.0 0.0 0.0 0.0 0.0 0.0 0.0 0.0 0.0 0.0 0.0 0.0 0.0 0.0 0.0 0.0 0.0 0.0 0.0 0.0 0.0 0.0 0.0 0.0 0.0 0.0 0.0 0.0 0.0 0.0 0.0 0.0 0.0 0.0 0.0 0.0 0.0 0.0 0.0 0.0 0.0 0.0 0.0 0.0 0.0 0.0 0.0 0.0 0.0 0.0 0.0 0.0 0.0 0.0 0.0 0.0 0.0 0.0 0.0 0.0 0.0 0.0 0.0 0.0 0.0 0.0 0.0 0.0 0.0 0.0 0.0 0.0 0.0 0.0 0.0 0.0 0.0 0.0 0.0 0.0 0.0 0.0 0.0 0.0 0.0 0.0 0.0 0.0 0.0 0.0 0.0 0.0 0.0 0.0 0.0 0.0 0.0 0.0 0.0 0.0 0.0 0.0 0.0 0.0 0.0 0.0 0.0 0.0 0.0 0.0 0.0 0.0 0.0 0.0 0.0 0.0 0.0 0.0 0.0 0.0 0.0 0.0 0.0 0.0 0.0 0.0 0.0 0.0 0.0 0.0 0.0 0.0 0.0 0.0 0.0 0.0 0.0 0.0 0.0 0.0 0.0 0.0 0.0 0.0 0.0 0.0 0.0 0.0 0.0 0.0 0.0 0.0 0.0 0.0 0.0 0.0 0.0 0.0 0.0 0.0 0.0 0.0 0.0 0.0 0.0 0.0 0.0 0.0 0.0 0.0 0.0 0.0 0.0 0.0 0.0 0.0 0.0 0.0 0.0 0.0 0.0 0.0 0.0 0.0 0.0 0.0 0.0 0.0 0.0 0.0 0.0 0.0 0.0 0.0 0.0 0.0 0.0 0.0 0.0 0.0 0.0 0.0 0.0 0.0 0.0 0.0 0.0 0.0 0.0 0.0 0.0 0.0 0.0 0.0 0.0 0.0 0.0 0.0 0.0 0.0 0.0 0.0 0.0 0.0 0.0 0.0 0.0 0.0 0.0 0.0 0.0 0.0 0.0 0.0 0.0 0.0 0.0 0.0 0.0 0.0 0.0 0.0 0.0 0.0 0.0 0.0 0.0 0.0 0.0 0.0 0.0 0.0 0.0 0.0 0.0 0.0 0.0 0.0 0.0 0.0 0.0 0.0 0.0 0.0 0.0 0.0 0.0 0.0 0.0 0.0 0.0 0.0 0.0 0.0 0.0 0.0 0.0 0.0 0.0 0.0 0.0 0.0 0.0 0.0 0.0 0.0 0.0 0.0 0.0 0.0 0.0 0.0 0.0 0.0 0.0 0.0 0.0 0.0 0.0 0.0 0.0 0.0 0.0 0.0 0.0 0.0 0.0 0.0 0.0 0.0 0.0 0.0 0.0 0.0 0.0 0.0 0.0 0.0 0.0 0.0 0.0 0.0 0.0 0.0 0.0 0.0 0.0 0.0 0.0 0.0 0.0 0.0 0.0 0.0 0.0 0.0 0.0 0.0 0.0 0.0 0.0 0.0 0.0 0.0 0.0 0.0 0.0 0.0 0.0 0.0 0.0 0.0 0.0 0.0 0.0 0.0 0.0 0.0 0.0 0.0 0.0 0.0 0.0 0.0 0.0 0.0 0.0 0.0 0.0 0.0 0.0 0.0 0.0 0.0 0.0 0.0 0.0 0.0 0.0 0.0 0.0 0.0 0.0 0.0 0.0 0.0 0.0 0.0 0.0 0.0 0.0 0.0 0.0 0.0 0.0 0.0 0.0 0.0 0.0 0.0 0.0 0.0 0.0 0.0 0.0 0.0 0.0 0.0 0.0 0.0 0.0 0.0 0.0 0.0 0.0 0.0 0.0 0.0 0.0 0.0 0.0 0.0 0.0 0.0 0.0 0.0 0.0 0.0 0.0 0.0 0.0 0.0 0.0 0.0 0.0 0.0 0.0 0.0 0.0 0.0 0.0 0.0 0.0 0.0 0.0 0.0 0.0 0.0 0.0 0.0 0.0 0.0 0.0 0.0 0.0 0.0 0.0 0.0 0.0 0.0 0.0 0.0 0.0 0.0 0.0 0.0 0.0 0.0 0.0 0.0 0.0 0.0 0.0 0.0 0.0 0.0 0.0 0.0 0.0 0.0 0.0 0.0 0.0 0.0 0.0 0.0 0.0 0.0 0.0 0.0 0.0 0.0 0.0 0.0 0.0 0.0 0.0 0.0 0.0 0.0 0.0 0.0 0.0 0.0 0.0 0.0 0.0 0.0 0.0 0.0 0.0 0.0 0.0 0.0 0.0 0.0 0.0 0.0 0.0 0.0 0.0 0.0 0.0 0.0 0.0 0.0 0.0 0.0 0.0 0.0 0.0 0.0 0.0 0.0 0.0 0.0 0.0 0.0 0.0 0.0 0.0 0.0 0.0 0.0 0.0 0.0 0.0 0.0 0.0 0.0 0.0 0.0 0.0 0.0 0.0 0.0 0.0 0.0 0.0 0.0 0.0 0.0 0.0 0.0 0.0 0.0 0.0 0.0 0.0 0.0 0.0 0.0 0.0 0.0 0.0 0.0 0.0 0.0 0.0 0.0 0.0 0.0 0.0 0.0 0.0 0.0 0.0 0.0 0.0 0.0 0.0 0.0 0.0 0.0 0.0 0.0 0.0 0.0 0.0 0.0 0.0 0.0 0.0 0.0 0.0 0.0 0.0 0.0 0.0 0.0 0.0 0.0 0.0 0.0 0.0 0.0 0.0 0.0 0.0 0.0 0.0 0.0 0.0 0.0 0.0 0.0 0.0 0.0 0.0 0.0 0.0 0.0 0.0 0.0 0.0 0.0 0.0 0.0 0.0 0.0 0.0 0.0 0.0 0.0 0.0 0.0 0.0 0.0 0.0 0.0 0.0 0.0 0.0 0.0 0.0 0.0 0.0 0.0 0.0 0.0 0.0 0.0 0.0 0.0 0.0 0.0 0.0 0.0 0.0 0.0 0.0 0.0 0.0 0.0 0.0 0.0 0.0 0.0 0.0 0.0 0.0 0.0 0.0 0.0 0.0 0.0 0.0 0.0 0.0 0.0 0.0 0.0 0.0 0.0 0.0 0.0 0.0 0.0 0.0 0.0 0.0 0.0 0.0 0.0 0.0 0.0 0.0 0.0 0.0 0.0 0.0 0.0 0.0 0.0 0.0 0.0 0.0 0.0 0.0 0.0 0.0 0.0 0.0 0.0 0.0 0.0 0.0 0.0 0.0 0.0 0.0 0.0 0.0 0.0 0.0 0.0 0.0 0.0 0.0 0.0 0.0 0.0 0.0 0.0 0.0 0.0 0.0 0.0 0.0 0.0 0.0 0.0 0.0 0.0 0.0 0.0 0.0 0.0 0.0 0.0 0.0 0.0 0.0 0.0 0.0 0.0 0.0 0.0 0.0 0.0 0.0 0.0 0.0 0.0 0.0 0.0 0.0 0.0 0.0 0.0 0.0 0.0 0.0 0.0 0.0 0.0 0.0 0.0 0.0 0.0 0.0 0.0 0.0 0.0 0.0 0.0 0.0 0.0 0.0 0.0 0.0 0.0 0.0 0.0 0.0 0.0 0.0 0.0 0.0 0.0 0.0 0.0 0.0 0.0 0.0 0.0 0.0 0.0 0.0 0.0 0.0 0.0 0.0 0.0 0.0 0.0 0.0 0.0 0.0 0.0 0.0 0.0 0.0 0.0 0.0 0.0 0.0 0.0 0.0 0.0 0.0 0.0 0.0 0.0 0.0 0.0 0.0 0.0 0.0 0.0 0.0 0.0 0.0 0.0 0.0 0.0 0.0 0.0 0.0 0.0 0.0 0.0 0.0 0.0 0.0 0.0 0.0 0.0 0.0 0.0 0.0 0.0 0.0 0.0 0.0 0.0 0.0 0.0 0.0 0.0 0.0 0.0 0.0 0.0 0.0 0.0 0.0 0.0 0.0 0.0 0.0 0.0 0.0 0.0 0.0 0.0 0.0 0.0 0.0 0.0 0.0 0.0 0.0 0.0 0.0 0.0 0.0 0.0 0.0 0.0 0.0 0.0 0.0 0.0 0.0 0.0 0.0 0.0 0.0 0.0 0.0 0.0 0.0 0.0 0.0 0.0 0.0 0.0 0.0 0.0 0.0 0.0 0.0 0.0 0.0 0.0 0.0 0.0 0.0 0.0 0.0 0.0 0.0 0.0 0.0 0.0 0.0 0.0 0.0 0.0 0.0 0.0 0.0 0.0 0.0 0.0 0.0 0.0 0.0 0.0 0.0 0.0 0.0 0.0 0.0 0.0 0.0 0.0 0.0 0.0 0.0 0.0 0.0 0.0 0.0 0.0 0.0 0.0 0.0 0.0 0.0 0.0 0.0 0.0 0.0 0.0 0.0 0.0 0.0 0.0 0.0 0.0 0.0 0.0 0.0 0.0 0.0 0.0 0.0 0.0 0.0 0.0 0.0 0.0 0.0 0.0 0.0 0.0 0.0 0.0 0.0 0.0 0.0 0.0 0.0 0.0 0.0 0.0 0.0 0.0 0.0 0.0 0.0 0.0 0.0 0.0 0.0 0.0 0.0 0.0 0.0 0.0 0.0 0.0 0.0 0.0 0.0 0.0 0.0 0.0 0.0 0.0 0.0 0.0 0.0 0.0 0.0 0.0 0.0 0.0 0.0 0.0 0.0 0.0 0.0 0.0 0.0 0.0 0.0 0.0 0.0 0.0 0.0 0.0 0.0 0.0 0.0 0.0 0.0 0.0 0.0 0.0 0.0 0.0 0.0 0.0 0.0 0.0 0.0 0.0 0.0 0.0 0.0 0.0 0.0 0.0 0.0 0.0 0.0 0.0 0.0 0.0 0.0 0.0 0.0 0.0 0.0 0.0 0.0 0.0 0.0 0.0 0.0 0.0 0.0 0.0 0.0 0.0 0.0 0.0 0.0 0.0 0.0 0.0 0.0 0.0 0.0 0.0 0.0 0.0 0.0 0.0 0.0 0.0 0.0 0.0 0.0 0.0 0.0 0.0 0.0 0.0 0.0 0.0 0.0 0.0 0.0 0.0 0.0 0.0 0.0 0.0 0.0 0.0 0.0 0.0 0.0 0.0 0.0 0.0 0.0 0.0 0.0 0.0 0.0 0.0 0.0 0.0 0.0 0.0 0.0 0.0 0.0 0.0 0.0 0.0 0.0 0.0 0.0 0.0 0.0 0.0 0.0 0.0 0.0 0.0 0.0 0.0 0.0 0.0 0.0 0.0 0.0 0.0 0.0 0.0 0.0 0.0 0.0 0.0 0.0 0.0 0.0 0.0 0.0 0.0 0.0 0.0 0.0 0.0 0.0 0.0 0.0 0.0 0.0 0.0 0.0 0.0 0.0 0.0 0.0 0.0 0.0 0.0 0.0 0.0 0.0 0.0 0.0 0.0 0.0 0.0 0.0 0.0 0.0 0.0 0.0 0.0 0.0 0.0 0.0 0.0 0.0 0.0 0.0 0.0 0.0 0.0 0.0 0.0 0.0 0.0 0.0 0.0 0.0 0.0 0.0 0.0 0.0 0.0 0.0 0.0 0.0 0.0 0.0 0.0 0.0 0.0 0.0 0.0 0.0 0.0 0.0 0.0 0.0 0.0 0.0 0.0 0.0 0.0 0.0 0.0 0.0 0.0 0.0 0.0 0.0 0.0 0.0 0.0 0.0 0.0 0.0 0.0 0.0 0.0 0.0 0.0 0.0 0.0 0.0 0.0 0.0 0.0 0.0 0.0 0.0 0.0 0.0 0.0 0.0 0.0 0.0 0.0 0.0 0.0 0.0 0.0 0.0 0.0 0.0 0.0 0.0 0.0 0.0 0.0 0.0 0.0 0.0 0.0 0.0 0.0 0.0 0.0 0.0 0.0 0.0 0.0 0.0 0.0 0.0 0.0 0.0 0.0 0.0 0.0 0.0 0.0 0.0 0.0 0.0 0.0 0.0 0.0 0.0 0.0 0.0 0.0 0.0 0.0 0.0 0.0 0.0 0.0 0.0 0.0 0.0 0.0 0.0 0.0 0.0 0.0 0.0 0.0 0.0 0.0 0.0 0.0 0.0 0.0 0.0 0.0 0.0 0.0 0.0 0.0 0.0 0.0 0.0 0.0 0.0 0.0 0.0 0.0 0.0 0.0 0.0 0.0 0.0 0.0 0.0 0.0 0.0 0.0 0.0 0.0 0.0 0.0 0.0 0.0 0.0 0.0 0.0 0.0 0.0 0.0 0.0 0.0 0.0 0.0 0.0 0.0 0.0 0.0 0.0 0.0 0.0 0.0 0.0 0.0 0.0 0.0 0.0 0.0 0.0 0.0 0.0 0.0 0.0 0.0 0.0 0.0 0.0 0.0 0.0 0.0 0.0 0.0 0.0 0.0 0.0 0.0 0.0 0.0 0.0 0.0 0.0 0.0 0.0 0.0 0.0 0.0 0.0 0.0 0.0 0.0 0.0 0.0 0.0 0.0 0.0 0.0 0.0 0.0 0.0 0.0 0.0 0.0 0.0 0.0 0.0 0.0 0.0 0.0 0.0 0.0 0.0 0.0 0.0 0.0 0.0 0.0 0.0 0.0 0.0 0.0 0.0 0.0 0.0 0.0 0.0 0.0 0.0 0.0 0.0 0.0 0.0 0.0 0.0 0.0 0.0 0.0 0.0 0.0 0.0 0.0 0.0 0.0 0.0 0.0 0.0 0.0 0.0 0.0 0.0 0.0 0.0 0.0 0.0 0.0 0.0 0.0 0.0 0.0 0.0 0.0 0.0 0.0 0.0 0.0 0.0 0.0 0.0 0.0 0.0 0.0 0.0 0.0 0.0 0.0 0.0 0.0 0.0 0.0 0.0 0.0 0.0 0.0 0.0 0.0 0.0 0.0 0.0 0.0 0.0 0.0 0.0 0.0 0.0 0.0 0.0 0.0 0.0 0.0 0.0 0.0 0.0 0.0 0.0 0.0 0.0 0.0 0.0 0.0 0.0 0.0 0.0 0.0 0.0 0.0 0.0 0.0 0.0 0.0 0.0 0.0 0.0 0.0 0.0 0.0 0.0 0.0 0.0 0.0 0.0 0.0 0.0 0.0 0.0 0.0 0.0 0.0 0.0 0.0 0.0 0.0 0.0 0.0 0.0 0.0 0.0 0.0 0.0 0.0 0.0 0.0 0.0 0.0 0.0 0.0 0.0 0.0 0.0 0.0 0.0 0.0 0.0 0.0 0.0 0.0 0.0 0.0 0.0 0.0 0.0 0.0 0.0 0.0 0.0 0.0 0.0 0.0 0.0 0.0 0.0 0.0 0.0 0.0 0.0 0.0 0.0 0.0 0.0 0.0 0.0 0.0 0.0 0.0 0.0 0.0 0.0 0.0 0.0 0.0 0.0 0.0 0.0 0.0 0.0 0.0 0.0 0.0 0.0 0.0 0.0 0.0 0.0 0.0 0.0 0.0 0.0 0.0 0.0 0.0 0.0 0.0 0.0 0.0 0.0 0.0 0.0 0.0 0.0 0.0 0.0 0.0 0.0 0.0 0.0 0.0 0.0 0.0 0.0 0.0 0.0 0.0 0.0 0.0 0.0 0.0 0.0 0.0 0.0 0.0 0.0 0.0 0.0 0.0 0.0 0.0 0.0 0.0 0.0 0.0 0.0 0.0 0.0 0.0 0.0 0.0 0.0 0.0 0.0 0.0 0.0 0.0 0.0 0.0 0.0 0.0 0.0 0.0 0.0 0.0 0.0 0.0 0.0 0.0 0.0 0.0 0.0 0.0 0.0 0.0 0.0 0.0 0.0 0.0 0.0 0.0 0.0 0.0 0.0 0.0 0.0 0.0 0.0 0.0 0.0 0.0 0.0 0.0 0.0 0.0 0.0 0.0 0.0 0.0 0.0 0.0 0.0 0.0 0.0 0.0 0.0 0.0 0.0 0.0 0.0 0.0 0.0 0.0 0.0 0.0 0.0 0.0 0.0 0.0 0.0 0.0 0.0 0.0 0.0 0.0 0.0 0.0 0.0 0.0 0.0 0.0 0.0 0.0 0.0 0.0 0.0 0.0 0.0 0.0 0.0 0.0 0.0 0.0 0.0 0.0 0.0 0.0 0.0 0.0 0.0 0.0 0.0 0.0 0.0 0.0 0.0 0.0 0.0 0.0 0.0 0.0 0.0 0.0 0.0 0.0 0.0 0.0 0.0 0.0 0.0 0.0 0.0 0.0 0.0 0.0 0.0 0.0 0.0 0.0 0.0 0.0 0.0 0.0 0.0 0.0 0.0 0.0 0.0 0.0 0.0 0.0 0.0 0.0 0.0 0.0 0.0 0.0 0.0 0.0 0.0 0.0 0.0 0.0 0.0 0.0 0.0 0.0 0.0 0.0 0.0 0.0 0.0 0.0 0.0 0.0 0.0 0.0 0.0 0.0 0.0 0.0 0.0 0.0 0.0 0.0 0.0 0.0 0.0 0.0 0.0 0.0 0.0 0.0 0.0 0.0 0.0 0.0 0.0 0.0 0.0 0.0 0.0 0.0 0.0 0.0 0.0 0.0 0.0 0.0 0.0 0.0 0.0 0.0 0.0 0.0 0.0 0.0 0.0 0.0 0.0 0.0 0.0 0.0 0.0 0.0 0.0 0.0 0.0 0.0 0.0 0.0 0.0 0.0 0.0 0.0 0.0 0.0 0.0 0.0 0.0 0.0 0.0 0.0 0.0 0.0 0.0 0.0 0.0 0.0 0.0 0.0 0.0 0.0 0.0 0.0 0.0 0.0 0.0 0.0 0.0 0.0 0.0 0.0 0.0 0.0 0.0 0.0 0.0 0.0 0.0 0.0 0.0 0.0 0.0 0.0 0.0 0.0 0.0 0.0 0.0 0.0 0.0 0.0 0.0 0.0 0.0 0.0 0.0 0.0 0.0 0.0 0.0 0.0 0.0 0.0 0.0 0.0 0.0 0.0 0.0 0.0 0.0 0.0 0.0 0.0 0.0 0.0 0.0 0.0 0.0 0.0 0.0 0.0 0.0 0.0 0.0 0.0 0.0 0.0 0.0 0.0 0.0 0.0 0.0 0.0 0.0 0.0 0.0 0.0 0.0 0.0 0.0 0.0 0.0 0.0 0.0 0.0 0.0 0.0 0.0 0.0 0.0 0.0 0.0 0.0 0.0 0.0 0.0 0.0 0.0 0.0 0.0 0.0 0.0 0.0 0.0 0.0 0.0 0.0 0.0 0.0 0.0 0.0 0.0 0.0 0.0 0.0 0.0 0.0 0.0 0.0 0.0 0.0 0.0 0.0 0.0 0.0 0.0 0.0 0.0 0.0 0.0 0.0 0.0 0.0 0.0 0.0 0.0 0.0 0.0 0.0 0.0 0.0 0.0 0.0 0.0 0.0 0.0 0.0 0.0 0.0 0.0 0.0 0.0 0.0 0.0 0.0 0.0 0.0 0.0 0.0 0.0 0.0 0.0 0.0 0.0 0.0 0.0 0.0 0.0 0.0 0.0 0.0 0.0 0.0 0.0 0.0 0.0 0.0 0.0 0.0 0.0 0.0 0.0 0.0 0.0 0.0 0.0 0.0 0.0 0.0 0.0 0.0 0.0 0.0 0.0 0.0 0.0 0.0 0.0 0.0 0.0 0.0 0.0 0.0 0.0 0.0 0.0 0.0 0.0 0.0 0.0 0.0 0.0 0.0 0.0 0.0 0.0 0.0 0.0 0.0 0.0 0.0 0.0 0.0 0.0 0.0 0.0 0.0 0.0 0.0 0.0 0.0 0.0 0.0 0.0 0.0 0.0 0.0 0.0 0.0 0.0 0.0 0.0 0.0 0.0 0.0 0.0 0.0 0.0 0.0 0.0 0.0 0.0 0.0 0.0 0.0 0.0 0.0 0.0 0.0 0.0 0.0 0.0 0.0 0.0 0.0 0.0 0.0 0.0 0.0 0.0 0.0 0.0 0.0 0.0 0.0 0.0 0.0 0.0 0.0 0.0 0.0 0.0 0.0 0.0 0.0 0.0 0.0 0.0 0.0 0.0 0.0 0.0 0.0 0.0 0.0 0.0 0.0 0.0 0.0 0.0 0.0 0.0 0.0 0.0 0.0 0.0 0.0 0.0 0.0 0.0 0.0 0.0 0.0 0.0 0.0 0.0 0.0 0.0 0.0 0.0 0.0 0.0 0.0 0.0 0.0 0.0 0.0 0.0 0.0 0.0 0.0 0.0 0.0 0.0 0.0 0.0 0.0 0.0 0.0 0.0 0.0 0.0 0.0 0.0 0.0 0.0 0.0 0.0 0.0 0.0 0.0 0.0 0.0 0.0 0.0 0.0 0.0 0.0 0.0 0.0 0.0 0.0 0.0 0.0 0.0 0.0 0.0 0.0 0.0 0.0 0.0 0.0 0.0 0.0 0.0 0.0 0.0 0.0 0.0 0.0 0.0 0.0 0.0 0.0 0.0 0.0 0.0 0.0 0.0 0.0 0.0 0.0 0.0 0.0 0.0 0.0 0.0 0.0 0.0 0.0 0.0 0.0 0.0 0.0 0.0 0.0 0.0 0.0 0.0 0.0 0.0 0.0 0.0 0.0 0.0 0.0 0.0 0.0 0.0 0.0 0.0 0.0 0.0 0.0 0.0 0.0 0.0 0.0 0.0 0.0 0.0 0.0 0.0 0.0 0.0 0.0 0.0 0.0 0.0 0.0 0.0 0.0 0.0 0.0 0.0 0.0 0.0 0.0 0.0 0.0 0.0 0.0 0.0 0.0 0.0 0.0 0.0 0.0 0.0 0.0 0.0 0.0 0.0 0.0 0.0 0.0 0.0 0.0 0.0 0.0 0.0 0.0 0.0 0.0 0.0 0.0 0.0 0.0 0.0 0.0 0.0 0.0 0.0 0.0 0.0 0.0 0.0 0.0 0.0 0.0 0.0 0.0 0.0 0.0 0.0 0.0 0.0 0.0 0.0 0.0 0.0 0.0 0.0 0.0 0.0 0.0 0.0 0.0 0.0 0.0 0.0 0.0 0.0 0.0 0.0 0.0 0.0 0.0 0.0 0.0 0.0 0.0 0.0 0.0 0.0 0.0 0.0 0.0 0.0 0.0 0.0 0.0 0.0 0.0 0.0 0.0 0.0 0.0 0.0 0.0 0.0 0.0 0.0 0.0 0.0 0.0 0.0 0.0 0.0 0.0 0.0 0.0 0.0 0.0 0.0 0.0 0.0 0.0 0.0 0.0 0.0 0.0 0.0 0.0 0.0 0.0 0.0 0.0 0.0 0.0 0.0 0.0 0.0 0.0 0.0 0.0 0.0 0.0 0.0 0.0 0.0 0.0 0.0 0.0 0.0 0.0 0.0 0.0 0.0 0.0 0.0 0.0 0.0 0.0 0.0 0.0 0.0 0.0 0.0 0.0 0.0 0.0 0.0 0.0 0.0 0.0 0.0 0.0 0.0 0.0 0.0 0.0 0.0 0.0 0.0 0.0 0.0 0.0 0.0 0.0 0.0 0.0 0.0 0.0 0.0 0.0 0.0 0.0 0.0 0.0 0.0 0.0 0.0 0.0 0.0 0.0 0.0 0.0 0.0 0.0 0.0 0.0 0.0 0.0 0.0 0.0 0.0 0.0 0.0 0.0 0.0 0.0 0.0 0.0 0.0
        </DataArray>
        <DataArray type="Float64" Name="velocity" NumberOfComponents="3" format="ascii">
 0.0 0.0 0.0 0.0 0.0 0.0 0.0 0.0 0.0 0.0 0.0 0.0 0.0 0.0 0.0 0.0 0.0 0.0 0.0 0.0 0.0 0.0 0.0 0.0 0.0 0.0 0.0 0.0 0.0 0.0 0.0 0.0 0.0 0.0 0.0 0.0 0.0 0.0 0.0 0.0 0.0 0.0 0.0 0.0 0.0 0.0 0.0 0.0 0.0 0.0 0.0 0.0 0.0 0.0 0.0 0.0 0.0 0.0 0.0 0.0 0.0 0.0 0.0 0.0 0.0 0.0 0.0 0.0 0.0 0.0 0.0 0.0 0.0 0.0 0.0 0.0 0.0 0.0 0.0 0.0 0.0 0.0 0.0 0.0 0.0 0.0 0.0 0.0 0.0 0.0 0.0 0.0 0.0 0.0 0.0 0.0 0.0 0.0 0.0 0.0 0.0 0.0 0.0 0.0 0.0 0.0 0.0 0.0 0.0 0.0 0.0 0.0 0.0 0.0 0.0 0.0 0.0 0.0 0.0 0.0 0.0 0.0 0.0 0.0 0.0 0.0 0.0 0.0 0.0 0.0 0.0 0.0 0.0 0.0 0.0 0.0 0.0 0.0 0.0 0.0 0.0 0.0 0.0 0.0 0.0 0.0 0.0 0.0 0.0 0.0 0.0 0.0 0.0 0.0 0.0 0.0 0.0 0.0 0.0 0.0 0.0 0.0 0.0 0.0 0.0 0.0 0.0 0.0 0.0 0.0 0.0 0.0 0.0 0.0 0.0 0.0 0.0 0.0 0.0 0.0 0.0 0.0 0.0 0.0 0.0 0.0 0.0 0.0 0.0 0.0 0.0 0.0 0.0 0.0 0.0 0.0 0.0 0.0 0.0 0.0 0.0 0.0 0.0 0.0 0.0 0.0 0.0 0.0 0.0 0.0 0.0 0.0 0.0 0.0 0.0 0.0 0.0 0.0 0.0 0.0 0.0 0.0 0.0 0.0 0.0 0.0 0.0 0.0 0.0 0.0 0.0 0.0 0.0 0.0 0.0 0.0 0.0 0.0 0.0 0.0 0.0 0.0 0.0 0.0 0.0 0.0 0.0 0.0 0.0 0.0 0.0 0.0 0.0 0.0 0.0 0.0 0.0 0.0 0.0 0.0 0.0 0.0 0.0 0.0 0.0 0.0 0.0 0.0 0.0 0.0 0.0 0.0 0.0 0.0 0.0 0.0 0.0 0.0 0.0 0.0 0.0 0.0 0.0 0.0 0.0 0.0 0.0 0.0 0.0 0.0 0.0 0.0 0.0 0.0 0.0 0.0 0.0 0.0 0.0 0.0 0.0 0.0 0.0 0.0 0.0 0.0 0.0 0.0 0.0 0.0 0.0 0.0 0.0 0.0 0.0 0.0 0.0 0.0 0.0 0.0 0.0 0.0 0.0 0.0 0.0 0.0 0.0 0.0 0.0 0.0 0.0 0.0 0.0 0.0 0.0 0.0 0.0 0.0 0.0 0.0 0.0 0.0 0.0 0.0 0.0 0.0 0.0 0.0 0.0 0.0 0.0 0.0 0.0 0.0 0.0 0.0 0.0 0.0 0.0 0.0 0.0 0.0 0.0 0.0 0.0 0.0 0.0 0.0 0.0 0.0 0.0 0.0 0.0 0.0 0.0 0.0 0.0 0.0 0.0 0.0 0.0 0.0 0.0 0.0 0.0 0.0 0.0 0.0 0.0 0.0 0.0 0.0 0.0 0.0 0.0 0.0 0.0 0.0 0.0 0.0 0.0 0.0 0.0 0.0 0.0 0.0 0.0 0.0 0.0 0.0 0.0 0.0 0.0 0.0 0.0 0.0 0.0 0.0 0.0 0.0 0.0 0.0 0.0 0.0 0.0 0.0 0.0 0.0 0.0 0.0 0.0 0.0 0.0 0.0 0.0 0.0 0.0 0.0 0.0 0.0 0.0 0.0 0.0 0.0 0.0 0.0 0.0 0.0 0.0 0.0 0.0 0.0 0.0 0.0 0.0 0.0 0.0 0.0 0.0 0.0 0.0 0.0 0.0 0.0 0.0 0.0 0.0 0.0 0.0 0.0 0.0 0.0 0.0 0.0 0.0 0.0 0.0 0.0 0.0 0.0 0.0 0.0 0.0 0.0 0.0 0.0 0.0 0.0 0.0 0.0 0.0 0.0 0.0 0.0 0.0 0.0 0.0 0.0 0.0 0.0 0.0 0.0 0.0 0.0 0.0 0.0 0.0 0.0 0.0 0.0 0.0 0.0 0.0 0.0 0.0 0.0 0.0 0.0 0.0 0.0 0.0 0.0 0.0 0.0 0.0 0.0 0.0 0.0 0.0 0.0 0.0 0.0 0.0 0.0 0.0 0.0 0.0 0.0 0.0 0.0 0.0 0.0 0.0 0.0 0.0 0.0 0.0 0.0 0.0 0.0 0.0 0.0 0.0 0.0 0.0 0.0 0.0 0.0 0.0 0.0 0.0 0.0 0.0 0.0 0.0 0.0 0.0 0.0 0.0 0.0 0.0 0.0 0.0 0.0 0.0 0.0 0.0 0.0 0.0 0.0 0.0 0.0 0.0 0.0 0.0 0.0 0.0 0.0 0.0 0.0 0.0 0.0 0.0 0.0 0.0 0.0 0.0 0.0 0.0 0.0 0.0 0.0 0.0 0.0 0.0 0.0 0.0 0.0 0.0 0.0 0.0 0.0 0.0 0.0 0.0 0.0 0.0 0.0 0.0 0.0 0.0 0.0 0.0 0.0 0.0 0.0 0.0 0.0 0.0 0.0 0.0 0.0 0.0 0.0 0.0 0.0 0.0 0.0 0.0 0.0 0.0 0.0 0.0 0.0 0.0 0.0 0.0 0.0 0.0 0.0 0.0 0.0 0.0 0.0 0.0 0.0 0.0 0.0 0.0 0.0 0.0 0.0 0.0 0.0 0.0 0.0 0.0 0.0 0.0 0.0 0.0 0.0 0.0 0.0 0.0 0.0 0.0 0.0 0.0 0.0 0.0 0.0 0.0 0.0 0.0 0.0 0.0 0.0 0.0 0.0 0.0 0.0 0.0 0.0 0.0 0.0 0.0 0.0 0.0 0.0 0.0 0.0 0.0 0.0 0.0 0.0 0.0 0.0 0.0 0.0 0.0 0.0 0.0 0.0 0.0 0.0 0.0 0.0 0.0 0.0 0.0 0.0 0.0 0.0 0.0 0.0 0.0 0.0 0.0 0.0 0.0 0.0 0.0 0.0 0.0 0.0 0.0 0.0 0.0 0.0 0.0 0.0 0.0 0.0 0.0 0.0 0.0 0.0 0.0 0.0 0.0 0.0 0.0 0.0 0.0 0.0 0.0 0.0 0.0 0.0 0.0 0.0 0.0 0.0 0.0 0.0 0.0 0.0 0.0 0.0 0.0 0.0 0.0 0.0 0.0 0.0 0.0 0.0 0.0 0.0 0.0 0.0 0.0 0.0 0.0 0.0 0.0 0.0 0.0 0.0 0.0 0.0 0.0 0.0 0.0 0.0 0.0 0.0 0.0 0.0 0.0 0.0 0.0 0.0 0.0 0.0 0.0 0.0 0.0 0.0 0.0 0.0 0.0 0.0 0.0 0.0 0.0 0.0 0.0 0.0 0.0 0.0 0.0 0.0 0.0 0.0 0.0 0.0 0.0 0.0 0.0 0.0 0.0 0.0 0.0 0.0 0.0 0.0 0.0 0.0 0.0 0.0 0.0 0.0 0.0 0.0 0.0 0.0 0.0 0.0 0.0 0.0 0.0 0.0 0.0 0.0 0.0 0.0 0.0 0.0 0.0 0.0 0.0 0.0 0.0 0.0 0.0 0.0 0.0 0.0 0.0 0.0 0.0 0.0 0.0 0.0 0.0 0.0 0.0 0.0 0.0 0.0 0.0 0.0 0.0 0.0 0.0 0.0 0.0 0.0 0.0 0.0 0.0 0.0 0.0 0.0 0.0 0.0 0.0 0.0  1.1793194E-005  2.2739132E-003 0.0  7.0287191E-005  8.0746311E-003 0.0  1.0028891E-005  1.5879955E-002 0.0 -2.6781516E-006  1.9713004E-002 0.0 -3.7292083E-005  1.7115610E-002 0.0  5.3743240E-005  1.0831201E-002 0.0  1.0215621E-004  5.2228565E-003 0.0  8.0129000E-005  1.7829806E-003 0.0  7.9291020E-005  5.7694064E-004 0.0 0.0 0.0 0.0 0.0 0.0 0.0 0.0 0.0 0.0 0.0 0.0 0.0 0.0 0.0 0.0 0.0 0.0 0.0 0.0 0.0 0.0 0.0 0.0 0.0 0.0 0.0 0.0 0.0 0.0 0.0 0.0 0.0 0.0 0.0 0.0 0.0 0.0 0.0 0.0 0.0 0.0 0.0 0.0 0.0 0.0 0.0 0.0 0.0 0.0 0.0 0.0 0.0 0.0 0.0 0.0 0.0 0.0 0.0 0.0 0.0 0.0 0.0 0.0 0.0 0.0 0.0 0.0 0.0 0.0 0.0 0.0 0.0 0.0 0.0 0.0 0.0 0.0 0.0 0.0 0.0 0.0 0.0 0.0 0.0 0.0 0.0 0.0 0.0 0.0 0.0 0.0 0.0 0.0 0.0 0.0 0.0 0.0 0.0 0.0 0.0 0.0 0.0 0.0 0.0 0.0 0.0 0.0 0.0 0.0 0.0 0.0 0.0 0.0 0.0 0.0 0.0 0.0 0.0 0.0 0.0 0.0 0.0 0.0 0.0 0.0 0.0 0.0 0.0 0.0 0.0 0.0 0.0 0.0 0.0 0.0 0.0 0.0 0.0 0.0 0.0 0.0 0.0 0.0 0.0 0.0 0.0 0.0 0.0 0.0 0.0 0.0 0.0 0.0 0.0 0.0 0.0  2.8405323E-004  1.1583582E-001 0.0  7.3379945E-006  2.7625004E-001 0.0  4.1586390E-004  4.2455067E-001 0.0  1.0294394E-003  5.4523107E-001 0.0  1.5664611E-004  6.3580808E-001 0.0  2.7511309E-003  7.0017457E-001 0.0 -2.3595924E-003  7.3596171E-001 0.0  2.5261266E-003  7.4756193E-001 0.0 -9.2071708E-004  7.3724781E-001 0.0  3.0642306E-003  7.0011464E-001 0.0 -2.0705266E-003  6.4446076E-001 0.0  3.2847910E-003  5.8274365E-001 0.0 -2.0214534E-004  5.1395483E-001 0.0 -2.0643055E-004  4.3296837E-001 0.0  6.5596715E-004  3.5291112E-001 0.0  6.0058401E-004  2.4638331E-001 0.0 -1.2725734E-003  9.4366403E-002 0.0 0.0 0.0 0.0 0.0 0.0 0.0 0.0 0.0 0.0 0.0 0.0 0.0 0.0 0.0 0.0 0.0 0.0 0.0 0.0 0.0 0.0 0.0 0.0 0.0 0.0 0.0 0.0 0.0 0.0 0.0 0.0 0.0 0.0 0.0 0.0 0.0 0.0 0.0 0.0 0.0 0.0 0.0 0.0 0.0 0.0 0.0 0.0 0.0 0.0 0.0 0.0 0.0 0.0 0.0 0.0 0.0 0.0 0.0 0.0 0.0 0.0 0.0 0.0 0.0 0.0 0.0 0.0 0.0 0.0 0.0 0.0 0.0 0.0 0.0 0.0 0.0 0.0 0.0 0.0 0.0 0.0 0.0 0.0 0.0 0.0 0.0 0.0 0.0 0.0 0.0 0.0 0.0 0.0 0.0 0.0 0.0 0.0 0.0 0.0 0.0 0.0 0.0 0.0 0.0 0.0 0.0 0.0 0.0 0.0 0.0 0.0 0.0 0.0 0.0 0.0 0.0 0.0 0.0 0.0 0.0 0.0 0.0 0.0 0.0 0.0 0.0 0.0 0.0 0.0 0.0 0.0 0.0 0.0 0.0 0.0 0.0 0.0 0.0 0.0 0.0 0.0 0.0 0.0 0.0 0.0 0.0 0.0 0.0 0.0 0.0 0.0 0.0 0.0 0.0 0.0 0.0 0.0 0.0 0.0 0.0 0.0 0.0 0.0 0.0 0.0 0.0 0.0 0.0 0.0 0.0 0.0 0.0 0.0 0.0 0.0 0.0 0.0 0.0 0.0 0.0 0.0 0.0 0.0 0.0 0.0 0.0 0.0 0.0 0.0 0.0 0.0 0.0 0.0 0.0 0.0 0.0 0.0 0.0 0.0 0.0 0.0 0.0 0.0 0.0 0.0 0.0 0.0 0.0 0.0 0.0 0.0 0.0 0.0 0.0 0.0 0.0 0.0 0.0 0.0 0.0 0.0 0.0 0.0 0.0 0.0 0.0 0.0 0.0 0.0 0.0 0.0 0.0 0.0 0.0 0.0 0.0 0.0 0.0 0.0 0.0 0.0 0.0 0.0 0.0 0.0 0.0 0.0 0.0 0.0 0.0 0.0 0.0 0.0 0.0 0.0 0.0 0.0 0.0 0.0 0.0 0.0 0.0 0.0 0.0 0.0 0.0 0.0 0.0 0.0 0.0 0.0 0.0 0.0 0.0 0.0 0.0 0.0 0.0 0.0 0.0 0.0 0.0 0.0 0.0 0.0 0.0 0.0 0.0 0.0 0.0 0.0 0.0 0.0 0.0 0.0 0.0 0.0 0.0 0.0 0.0 0.0 0.0 0.0 0.0 0.0 0.0 0.0 0.0 0.0 0.0 0.0 0.0 0.0 0.0 0.0 0.0 0.0 0.0 0.0 0.0 0.0 0.0 0.0 0.0 0.0 0.0 0.0 0.0 0.0 0.0 0.0 0.0 0.0 0.0 0.0 0.0 0.0 0.0 0.0 0.0 0.0 0.0 0.0 0.0 0.0 0.0 0.0 0.0 0.0 0.0 0.0 0.0 0.0 0.0 0.0 0.0 0.0 0.0 0.0 0.0 0.0 0.0 0.0 0.0 0.0 0.0 0.0 0.0 0.0 0.0 0.0 0.0 0.0 0.0 0.0 0.0 0.0 0.0 0.0 0.0 0.0 0.0 0.0 0.0 0.0 0.0 0.0 0.0 0.0 0.0 0.0 0.0 0.0 0.0 0.0 0.0 0.0 0.0 0.0 0.0 0.0 0.0 0.0 0.0 0.0 0.0 0.0 0.0 0.0 0.0 0.0 0.0 0.0 0.0 0.0 0.0 0.0 0.0 0.0 0.0 0.0 0.0 0.0 0.0 0.0 0.0 0.0 0.0 0.0 0.0 0.0 0.0 0.0 0.0 0.0 0.0 0.0 0.0 0.0 0.0 0.0 0.0 0.0 0.0 0.0 0.0 0.0 0.0 0.0 0.0 0.0 0.0 0.0 0.0 0.0 0.0 0.0 0.0 0.0 0.0 0.0 0.0 0.0 0.0 0.0 0.0 0.0 0.0 0.0 0.0 0.0 0.0 0.0 0.0 0.0 0.0 0.0 0.0 0.0 0.0 0.0 0.0 0.0 0.0 0.0 0.0 0.0 0.0 0.0 0.0 0.0 0.0 0.0 0.0 0.0 0.0 0.0 0.0 0.0 0.0 0.0 0.0 0.0 0.0 0.0 0.0 0.0 0.0 0.0 0.0 0.0 0.0 0.0 0.0 0.0 0.0 0.0 0.0 0.0 0.0 0.0 0.0 0.0 0.0 0.0 0.0 0.0 0.0 0.0 0.0 0.0 0.0 0.0 0.0 0.0 0.0 0.0 0.0 0.0 0.0 0.0 0.0 0.0 0.0 0.0 0.0 0.0 0.0 0.0 0.0 0.0 0.0 0.0 0.0 0.0 0.0 0.0 0.0 0.0 0.0 0.0 0.0 0.0 0.0 0.0 0.0 0.0 0.0 0.0 0.0 0.0 0.0 0.0 0.0 0.0 0.0 0.0 0.0 0.0 0.0 0.0 0.0 0.0 0.0 0.0 0.0 0.0 0.0 0.0 0.0 0.0 0.0 0.0 0.0 0.0 0.0 0.0 0.0 0.0 0.0 0.0 0.0 0.0 0.0 0.0 0.0 0.0 0.0 0.0 0.0 0.0 0.0 0.0 0.0 0.0 0.0 0.0 0.0 0.0 0.0 0.0 0.0 0.0 0.0 0.0 0.0 0.0 0.0 0.0 0.0 0.0 0.0 0.0 0.0 0.0 0.0 0.0 0.0 0.0 0.0 0.0 0.0 0.0 0.0 0.0 0.0 0.0 0.0 0.0 0.0 0.0 0.0 0.0 0.0 0.0 0.0 0.0 0.0 0.0 0.0 0.0 0.0 0.0 0.0 0.0 0.0 0.0 0.0 0.0 0.0 0.0 0.0 0.0 0.0 0.0 0.0 0.0 0.0 0.0 0.0 0.0 0.0 0.0 0.0 0.0 0.0 0.0 0.0 0.0 0.0 0.0 0.0 0.0 0.0 0.0 0.0 0.0 0.0 0.0 0.0 0.0 0.0 0.0 0.0 0.0 0.0 0.0 0.0 0.0 0.0 0.0 0.0 0.0 0.0 0.0 0.0 0.0 0.0 0.0 0.0 0.0 0.0 0.0 0.0 0.0 0.0 0.0 0.0 0.0 0.0 0.0 0.0 0.0 0.0 0.0 0.0 0.0 0.0 0.0 0.0 0.0 0.0 0.0 0.0 0.0 0.0 0.0 0.0 0.0 0.0 0.0 0.0 0.0 0.0 0.0 0.0 0.0 0.0 0.0 0.0 0.0 0.0 0.0 0.0 0.0 0.0 0.0 0.0 0.0 0.0 0.0 0.0 0.0 0.0 0.0 0.0 0.0 0.0 0.0 0.0 0.0 0.0 0.0 0.0 0.0 0.0 0.0 0.0 0.0 0.0 0.0 0.0 0.0 0.0 0.0 0.0 0.0 0.0 0.0 0.0 0.0 0.0 0.0 0.0 0.0 0.0 0.0 0.0 0.0 0.0 0.0 0.0 0.0 0.0 0.0 0.0 0.0 0.0 0.0 0.0 0.0 0.0 0.0 0.0 0.0 0.0 0.0 0.0 0.0 0.0 0.0 0.0 0.0 0.0 0.0 0.0 0.0 0.0 0.0 0.0 0.0 0.0 0.0 0.0 0.0 0.0 0.0 0.0 0.0 0.0 0.0 0.0 0.0 0.0 0.0 0.0 0.0 0.0 0.0 0.0 0.0 0.0 0.0 0.0 0.0 0.0 0.0 0.0 0.0 0.0 0.0 0.0 0.0 0.0 0.0 0.0 0.0 0.0 0.0 0.0 0.0 0.0 0.0 0.0 0.0 0.0 0.0 0.0 0.0 0.0 0.0 0.0 0.0 0.0 0.0 0.0 0.0 0.0 0.0 0.0 0.0 0.0 0.0 0.0 0.0 0.0 0.0 0.0 0.0 0.0 0.0 0.0 0.0 0.0 0.0 0.0 0.0 0.0 0.0 0.0 0.0 0.0 0.0 0.0 0.0 0.0 0.0 0.0 0.0 0.0 0.0 0.0 0.0 0.0 0.0 0.0 0.0 0.0 0.0 0.0 0.0 0.0 0.0 0.0 0.0 0.0 0.0 0.0 0.0 0.0 0.0 0.0 0.0 0.0 0.0 0.0 0.0 0.0 0.0 0.0 0.0 0.0 0.0 0.0 0.0 0.0 0.0 0.0 0.0 0.0 0.0 0.0 0.0 0.0 0.0 0.0 0.0 0.0 0.0 0.0 0.0 0.0 0.0 0.0 0.0 0.0 0.0 0.0 0.0 0.0 0.0 0.0 0.0 0.0 0.0 0.0 0.0 0.0 0.0 0.0 0.0 0.0 0.0 0.0 0.0 0.0 0.0 0.0 0.0 0.0 0.0 0.0 0.0 0.0 0.0 0.0 0.0 0.0 0.0 0.0 0.0 0.0 0.0 0.0 0.0 0.0 0.0 0.0 0.0 0.0 0.0 0.0 0.0 0.0 0.0 0.0 0.0 0.0 0.0 0.0 0.0 0.0 0.0 0.0 0.0 0.0 0.0 0.0 0.0 0.0 0.0 0.0 0.0 0.0 0.0 0.0 0.0 0.0 0.0 0.0 0.0 0.0 0.0 0.0 0.0 0.0 0.0 0.0 0.0 0.0 0.0 0.0 0.0 0.0 0.0 0.0 0.0 0.0 0.0 0.0 0.0 0.0 0.0 0.0 0.0 0.0 0.0 0.0 0.0 0.0 0.0 0.0 0.0 0.0 0.0 0.0 0.0 0.0 0.0 0.0 0.0 0.0 0.0 0.0 0.0 0.0 0.0 0.0 0.0 0.0 0.0 0.0 0.0 0.0 0.0 0.0 0.0 0.0 0.0 0.0 0.0 0.0 0.0 0.0 0.0 0.0 0.0 0.0 0.0 0.0 0.0 0.0 0.0 0.0 0.0 0.0 0.0 0.0 0.0 0.0 0.0 0.0 0.0 0.0 0.0 0.0 0.0 0.0 0.0 0.0 0.0 0.0 0.0 0.0 0.0 0.0 0.0 0.0 0.0 0.0 0.0 0.0 0.0 0.0 0.0 0.0 0.0 0.0 0.0 0.0 0.0 0.0 0.0 0.0 0.0 0.0 0.0 0.0 0.0 0.0 0.0 0.0 0.0 0.0 0.0 0.0 0.0 0.0 0.0 0.0 0.0 0.0 0.0 0.0 0.0 0.0 0.0 0.0 0.0 0.0 0.0 0.0 0.0 0.0 0.0 0.0 0.0 0.0 0.0 0.0 0.0 0.0 0.0 0.0 0.0 0.0 0.0 0.0 0.0 0.0 0.0 0.0 0.0 0.0 0.0 0.0 0.0 0.0 0.0 0.0 0.0 0.0 0.0 0.0 0.0 0.0 0.0 0.0 0.0 0.0 0.0 0.0 0.0 0.0 0.0 0.0 0.0 0.0 0.0 0.0 0.0 0.0 0.0 0.0 0.0 0.0 0.0 0.0 0.0 0.0 0.0 0.0 0.0 0.0 0.0 0.0 0.0 0.0 0.0 0.0 0.0 0.0 0.0 0.0 0.0 0.0 0.0 0.0 0.0 0.0 0.0 0.0 0.0 0.0 0.0 0.0 0.0 0.0 0.0 0.0 0.0 0.0 0.0 0.0 0.0 0.0 0.0 0.0 0.0 0.0 0.0 0.0 0.0 0.0 0.0 0.0 0.0 0.0 0.0 0.0 0.0 0.0 0.0 0.0 0.0 0.0 0.0 0.0 0.0 0.0 0.0 0.0 0.0 0.0 0.0 0.0 0.0 0.0 0.0 0.0 0.0 0.0 0.0 0.0 0.0 0.0 0.0 0.0 0.0 0.0 0.0 0.0 0.0 0.0 0.0 0.0 0.0 0.0 0.0 0.0 0.0 0.0 0.0 0.0 0.0 0.0 0.0 0.0 0.0 0.0 0.0 0.0 0.0 0.0 0.0 0.0 0.0 0.0 0.0 0.0 0.0 0.0 0.0 0.0 0.0 0.0 0.0 0.0 0.0 0.0 0.0 0.0 0.0 0.0 0.0 0.0 0.0 0.0 0.0 0.0 0.0 0.0 0.0 0.0 0.0 0.0 0.0 0.0 0.0 0.0 0.0 0.0 0.0 0.0 0.0 0.0 0.0 0.0 0.0 0.0 0.0 0.0 0.0 0.0 0.0 0.0 0.0 0.0 0.0 0.0 0.0 0.0 0.0 0.0 0.0 0.0 0.0 0.0 0.0 0.0 0.0 0.0 0.0 0.0 0.0 0.0 0.0 0.0 0.0 0.0 0.0 0.0 0.0 0.0 0.0 0.0 0.0 0.0 0.0 0.0 0.0 0.0 0.0 0.0 0.0 0.0 0.0 0.0 0.0 0.0 0.0 0.0 0.0 0.0 0.0 0.0 0.0 0.0 0.0 0.0 0.0 0.0 0.0 0.0 0.0 0.0 0.0 0.0 0.0 0.0 0.0 0.0 0.0 0.0 0.0 0.0 0.0 0.0 0.0 0.0 0.0 0.0 0.0 0.0 0.0 0.0 0.0 0.0 0.0 0.0 0.0 0.0 0.0 0.0 0.0 0.0 0.0 0.0 0.0 0.0 0.0 0.0 0.0 0.0 0.0 0.0 0.0 0.0 0.0 0.0 0.0 0.0 0.0 0.0 0.0 0.0 0.0 0.0 0.0 0.0 0.0 0.0 0.0 0.0 0.0 0.0 0.0 0.0 0.0 0.0 0.0 0.0 0.0 0.0 0.0 0.0 0.0 0.0 0.0 0.0 0.0 0.0 0.0 0.0 0.0 0.0 0.0 0.0 0.0 0.0 0.0 0.0 0.0 0.0 0.0 0.0 0.0 0.0 0.0 0.0 0.0 0.0 0.0 0.0 0.0 0.0 0.0 0.0 0.0 0.0 0.0 0.0 0.0 0.0 0.0 0.0 0.0 0.0 0.0 0.0 0.0 0.0 0.0 0.0 0.0 0.0 0.0 0.0 0.0 0.0 0.0 0.0 0.0 0.0 0.0 0.0 0.0 0.0 0.0 0.0 0.0 0.0 0.0 0.0 0.0 0.0 0.0 0.0 0.0 0.0 0.0 0.0 0.0 0.0 0.0 0.0 0.0 0.0 0.0 0.0 0.0 0.0 0.0 0.0 0.0 0.0 0.0 0.0 0.0 0.0 0.0 0.0 0.0 0.0 0.0 0.0 0.0 0.0 0.0 0.0 0.0 0.0 0.0 0.0 0.0 0.0 0.0 0.0 0.0 0.0 0.0 0.0 0.0 0.0 0.0 0.0 0.0 0.0 0.0 0.0 0.0 0.0 0.0 0.0 0.0 0.0 0.0 0.0 0.0 0.0 0.0 0.0 0.0 0.0 0.0 0.0 0.0 0.0 0.0 0.0 0.0 0.0 0.0 0.0 0.0 0.0 0.0 0.0 0.0 0.0 0.0 0.0 0.0 0.0 0.0 0.0 0.0 0.0 0.0 0.0 0.0 0.0 0.0 0.0 0.0 0.0 0.0 0.0 0.0 0.0 0.0 0.0 0.0 0.0 0.0 0.0 0.0 0.0 0.0 0.0 0.0 0.0 0.0 0.0 0.0 0.0 0.0 0.0 0.0 0.0 0.0 0.0 0.0 0.0 0.0 0.0 0.0 0.0 0.0 0.0 0.0 0.0 0.0 0.0 0.0 0.0 0.0 0.0 0.0 0.0 0.0 0.0 0.0 0.0 0.0 0.0 0.0 0.0 0.0 0.0 0.0 0.0 0.0 0.0 0.0 0.0 0.0 0.0 0.0 0.0 0.0 0.0 0.0 0.0 0.0 0.0 0.0 0.0 0.0 0.0 0.0 0.0 0.0 0.0 0.0 0.0 0.0 0.0 0.0 0.0 0.0 0.0 0.0 0.0 0.0 0.0 0.0 0.0 0.0 0.0 0.0 0.0 0.0 0.0 0.0 0.0 0.0 0.0 0.0 0.0 0.0 0.0 0.0 0.0 0.0 0.0 0.0 0.0 0.0 0.0 0.0 0.0 0.0 0.0 0.0 0.0 0.0 0.0 0.0 0.0 0.0 0.0 0.0 0.0 0.0 0.0 0.0 0.0 0.0 0.0 0.0 0.0 0.0 0.0 0.0 0.0 0.0 0.0 0.0 0.0 0.0 0.0 0.0 0.0 0.0 0.0 0.0 0.0 0.0 0.0 0.0 0.0 0.0 0.0 0.0 0.0 0.0 0.0 0.0 0.0 0.0 0.0 0.0 0.0 0.0 0.0 0.0 0.0 0.0 0.0 0.0 0.0 0.0 0.0 0.0 0.0 0.0 0.0 0.0 0.0 0.0 0.0 0.0 0.0 0.0 0.0 0.0 0.0 0.0 0.0 0.0 0.0 0.0 0.0 0.0 0.0 0.0 0.0 0.0 0.0 0.0 0.0 0.0 0.0 0.0 0.0 0.0 0.0 0.0 0.0 0.0 0.0 0.0 0.0 0.0 0.0 0.0 0.0 0.0 0.0 0.0 0.0 0.0 0.0 0.0 0.0 0.0 0.0 0.0 0.0 0.0 0.0 0.0 0.0 0.0 0.0 0.0 0.0 0.0 0.0 0.0 0.0 0.0 0.0 0.0 0.0 0.0 0.0 0.0 0.0 0.0 0.0 0.0 0.0 0.0 0.0 0.0 0.0 0.0 0.0 0.0 0.0 0.0 0.0 0.0 0.0 0.0 0.0 0.0 0.0 0.0 0.0 0.0 0.0 0.0 0.0 0.0 0.0 0.0 0.0 0.0 0.0 0.0 0.0 0.0 0.0 0.0 0.0 0.0 0.0 0.0 0.0 0.0 0.0 0.0 0.0 0.0 0.0 0.0 0.0 0.0 0.0 0.0 0.0 0.0 0.0 0.0 0.0 0.0 0.0 0.0 0.0 0.0 0.0 0.0 0.0 0.0 0.0 0.0 0.0 0.0 0.0 0.0 0.0 0.0 0.0 0.0 0.0 0.0 0.0 0.0 0.0 0.0 0.0 0.0 0.0 0.0 0.0 0.0 0.0 0.0 0.0 0.0 0.0 0.0 0.0 0.0 0.0 0.0 0.0 0.0 0.0 0.0 0.0 0.0 0.0 0.0 0.0 0.0 0.0 0.0 0.0 0.0 0.0 0.0 0.0 0.0 0.0 0.0 0.0 0.0 0.0 0.0 0.0 0.0 0.0 0.0 0.0 0.0 0.0 0.0 0.0 0.0 0.0 0.0 0.0 0.0 0.0 0.0 0.0 0.0 0.0 0.0 0.0 0.0 0.0 0.0 0.0 0.0 0.0 0.0 0.0 0.0 0.0 0.0 0.0 0.0 0.0 0.0 0.0 0.0 0.0 0.0 0.0 0.0 0.0 0.0 0.0 0.0 0.0 0.0 0.0 0.0 0.0 0.0 0.0 0.0 0.0 0.0 0.0 0.0 0.0 0.0 0.0 0.0 0.0 0.0 0.0 0.0 0.0 0.0 0.0 0.0 0.0 0.0 0.0 0.0 0.0 0.0 0.0 0.0 0.0 0.0 0.0 0.0 0.0 0.0 0.0 0.0 0.0 0.0 0.0 0.0 0.0 0.0 0.0 0.0 0.0 0.0 0.0 0.0 0.0 0.0 0.0 0.0 0.0 0.0 0.0 0.0 0.0 0.0 0.0 0.0 0.0 0.0 0.0 0.0 0.0 0.0 0.0 0.0 0.0 0.0 0.0 0.0 0.0 0.0 0.0 0.0 0.0 0.0 0.0 0.0 0.0 0.0 0.0 0.0 0.0 0.0 0.0 0.0 0.0 0.0 0.0 0.0 0.0 0.0 0.0 0.0 0.0 0.0 0.0 0.0 0.0 0.0 0.0 0.0 0.0 0.0 0.0 0.0 0.0 0.0 0.0 0.0 0.0 0.0 0.0 0.0 0.0 0.0 0.0 0.0 0.0 0.0 0.0 0.0 0.0 0.0 0.0 0.0 0.0 0.0 0.0 0.0 0.0 0.0 0.0 0.0 0.0 0.0 0.0 0.0 0.0 0.0 0.0 0.0 0.0 0.0 0.0 0.0 0.0 0.0 0.0 0.0 0.0 0.0 0.0 0.0 0.0 0.0 0.0 0.0 0.0 0.0 0.0 0.0 0.0 0.0 0.0 0.0 0.0 0.0 0.0 0.0 0.0 0.0 0.0 0.0 0.0 0.0 0.0 0.0 0.0 0.0 0.0 0.0 0.0 0.0 0.0 0.0 0.0 0.0 0.0 0.0 0.0 0.0 0.0 0.0 0.0 0.0 0.0 0.0 0.0 0.0 0.0 0.0 0.0 0.0 0.0 0.0 0.0 0.0 0.0 0.0 0.0 0.0 0.0 0.0 0.0 0.0 0.0 0.0 0.0 0.0 0.0 0.0 0.0 0.0 0.0 0.0 0.0 0.0 0.0 0.0 0.0 0.0 0.0 0.0 0.0 0.0 0.0 0.0 0.0 0.0 0.0 0.0 0.0 0.0 0.0 0.0 0.0 0.0 0.0 0.0 0.0 0.0 0.0 0.0 0.0 0.0 0.0 0.0 0.0 0.0 0.0 0.0 0.0 0.0 0.0 0.0 0.0 0.0 0.0 0.0 0.0 0.0 0.0 0.0 0.0 0.0 0.0 0.0 0.0 0.0 0.0 0.0 0.0 0.0 0.0 0.0 0.0 0.0 0.0 0.0 0.0 0.0 0.0 0.0 0.0 0.0 0.0 0.0 0.0 0.0 0.0 0.0 0.0 0.0 0.0 0.0 0.0 0.0 0.0 0.0 0.0 0.0 0.0 0.0 0.0 0.0 0.0 0.0 0.0 0.0 0.0 0.0 0.0 0.0 0.0 0.0 0.0 0.0 0.0 0.0 0.0 0.0 0.0 0.0 0.0 0.0 0.0 0.0 0.0 0.0 0.0 0.0 0.0 0.0 0.0 0.0 0.0 0.0 0.0 0.0 0.0 0.0 0.0 0.0 0.0 0.0 0.0 0.0 0.0 0.0 0.0 0.0 0.0 0.0 0.0 0.0 0.0 0.0 0.0 0.0 0.0 0.0 0.0 0.0 0.0 0.0 0.0 0.0 0.0 0.0 0.0 0.0 0.0 0.0 0.0 0.0 0.0 0.0 0.0 0.0 0.0 0.0 0.0 0.0 0.0 0.0 0.0 0.0 0.0 0.0 0.0 0.0 0.0 0.0 0.0 0.0 0.0 0.0 0.0 0.0 0.0 0.0 0.0 0.0 0.0 0.0 0.0 0.0 0.0 0.0 0.0 0.0 0.0 0.0 0.0 0.0 0.0 0.0 0.0 0.0 0.0 0.0 0.0 0.0 0.0 0.0 0.0 0.0 0.0 0.0 0.0 0.0 0.0 0.0 0.0 0.0 0.0 0.0 0.0 0.0 0.0 0.0 0.0 0.0 0.0 0.0 0.0 0.0 0.0 0.0 0.0 0.0 0.0 0.0 0.0 0.0 0.0 0.0 0.0 0.0 0.0 0.0 0.0 0.0 0.0 0.0 0.0 0.0 0.0 0.0 0.0 0.0 0.0 0.0 0.0 0.0 0.0 0.0 0.0 0.0 0.0 0.0 0.0 0.0 0.0 0.0 0.0 0.0 0.0 0.0 0.0 0.0 0.0 0.0 0.0 0.0 0.0 0.0 0.0 0.0 0.0 0.0 0.0 0.0 0.0 0.0 0.0 0.0 0.0 0.0 0.0 0.0 0.0 0.0 0.0 0.0 0.0 0.0 0.0 0.0 0.0 0.0 0.0 0.0 0.0 0.0 0.0 0.0 0.0 0.0 0.0 0.0 0.0 0.0 0.0 0.0 0.0 0.0 0.0 0.0 0.0 0.0 0.0 0.0 0.0 0.0 0.0 0.0 0.0 0.0 0.0 0.0 0.0 0.0 0.0 0.0 0.0 0.0 0.0 0.0 0.0 0.0 0.0 0.0 0.0 0.0 0.0 0.0 0.0 0.0 0.0 0.0 0.0 0.0 0.0 0.0 0.0 0.0 0.0 0.0 0.0 0.0 0.0 0.0 0.0 0.0 0.0 0.0 0.0 0.0 0.0 0.0 0.0 0.0 0.0 0.0 0.0 0.0 0.0 0.0 0.0 0.0 0.0 0.0 0.0 0.0 0.0 0.0 0.0 0.0 0.0 0.0 0.0 0.0 0.0 0.0 0.0 0.0 0.0 0.0 0.0 0.0 0.0 0.0 0.0 0.0 0.0 0.0 0.0 0.0 0.0 0.0 0.0 0.0 0.0 0.0 0.0 0.0 0.0 0.0 0.0 0.0 0.0 0.0 0.0 0.0 0.0 0.0 0.0 0.0 0.0 0.0 0.0 0.0 0.0 0.0 0.0 0.0 0.0 0.0 0.0 0.0 0.0 0.0 0.0 0.0 0.0 0.0 0.0 0.0 0.0 0.0 0.0 0.0 0.0 0.0 0.0 0.0 0.0 0.0 0.0 0.0 0.0 0.0 0.0 0.0 0.0 0.0 0.0 0.0 0.0 0.0 0.0 0.0 0.0 0.0 0.0 0.0 0.0 0.0 0.0 0.0 0.0 0.0 0.0 0.0 0.0 0.0 0.0 0.0 0.0 0.0 0.0 0.0 0.0 0.0 0.0 0.0 0.0 0.0 0.0 0.0 0.0 0.0 0.0 0.0 0.0 0.0 0.0 0.0 0.0 0.0 0.0 0.0 0.0 0.0 0.0 0.0 0.0 0.0 0.0 0.0 0.0 0.0 0.0 0.0 0.0 0.0 0.0 0.0 0.0 0.0 0.0 0.0 0.0 0.0 0.0 0.0 0.0 0.0 0.0 0.0 0.0 0.0 0.0 0.0 0.0 0.0 0.0 0.0 0.0 0.0 0.0 0.0 0.0 0.0 0.0 0.0 0.0 0.0 0.0 0.0 0.0 0.0 0.0 0.0 0.0 0.0 0.0 0.0 0.0 0.0 0.0 0.0 0.0 0.0 0.0 0.0 0.0 0.0 0.0 0.0 0.0 0.0 0.0 0.0 0.0 0.0 0.0 0.0 0.0 0.0 0.0 0.0 0.0 0.0 0.0 0.0 0.0 0.0 0.0 0.0 0.0 0.0 0.0 0.0 0.0 0.0 0.0 0.0 0.0 0.0 0.0 0.0 0.0 0.0 0.0 0.0 0.0 0.0 0.0 0.0 0.0 0.0 0.0 0.0 0.0 0.0 0.0 0.0 0.0 0.0 0.0 0.0 0.0 0.0 0.0 0.0 0.0 0.0 0.0 0.0 0.0 0.0 0.0 0.0 0.0 0.0 0.0 0.0 0.0 0.0 0.0 0.0 0.0 0.0 0.0 0.0 0.0 0.0 0.0 0.0 0.0 0.0 0.0 0.0 0.0 0.0 0.0 0.0 0.0 0.0 0.0 0.0 0.0 0.0 0.0 0.0 0.0 0.0 0.0 0.0 0.0 0.0 0.0 0.0 0.0 0.0 0.0 0.0 0.0 0.0 0.0 0.0 0.0 0.0 0.0 0.0 0.0 0.0 0.0 0.0 0.0 0.0 0.0 0.0 0.0 0.0 0.0 0.0 0.0 0.0 0.0 0.0 0.0 0.0 0.0 0.0 0.0 0.0 0.0 0.0 0.0 0.0 0.0 0.0 0.0 0.0 0.0 0.0 0.0 0.0 0.0 0.0 0.0 0.0 0.0 0.0 0.0 0.0 0.0 0.0 0.0 0.0 0.0 0.0 0.0 0.0 0.0 0.0 0.0 0.0 0.0 0.0 0.0 0.0 0.0 0.0 0.0 0.0 0.0 0.0 0.0 0.0 0.0 0.0 0.0 0.0 0.0 0.0 0.0 0.0 0.0 0.0 0.0 0.0 0.0 0.0 0.0 0.0 0.0 0.0 0.0 0.0 0.0 0.0 0.0 0.0 0.0 0.0 0.0 0.0 0.0 0.0 0.0 0.0 0.0 0.0 0.0 0.0 0.0 0.0 0.0 0.0 0.0 0.0 0.0 0.0 0.0 0.0 0.0 0.0 0.0 0.0 0.0 0.0 0.0 0.0 0.0 0.0 0.0 0.0 0.0 0.0 0.0 0.0 0.0 0.0 0.0 0.0 0.0 0.0 0.0 0.0 0.0 0.0 0.0 0.0 0.0 0.0 0.0 0.0 0.0 0.0 0.0 0.0 0.0 0.0 0.0 0.0 0.0 0.0 0.0 0.0 0.0 0.0 0.0 0.0 0.0 0.0 0.0 0.0 0.0 0.0 0.0 0.0 0.0 0.0 0.0 0.0 0.0 0.0 0.0 0.0 0.0 0.0 0.0 0.0 0.0 0.0 0.0 0.0 0.0 0.0 0.0 0.0 0.0 0.0 0.0 0.0 0.0 0.0 0.0 0.0 0.0 0.0 0.0 0.0 0.0 0.0 0.0 0.0 0.0 0.0 0.0 0.0 0.0 0.0 0.0 0.0 0.0 0.0 0.0 0.0 0.0 0.0 0.0 0.0 0.0 0.0 0.0 0.0 0.0 0.0 0.0 0.0 0.0 0.0 0.0 0.0 0.0 0.0 0.0 0.0 0.0 0.0 0.0 0.0 0.0 0.0 0.0 0.0 0.0 0.0 0.0 0.0 0.0 0.0 0.0 0.0 0.0 0.0 0.0 0.0 0.0 0.0 0.0 0.0 0.0 0.0 0.0 0.0 0.0 0.0 0.0 0.0 0.0 0.0 0.0 0.0 0.0 0.0 0.0 0.0 0.0 0.0 0.0 0.0 0.0 0.0 0.0 0.0 0.0 0.0 0.0 0.0 0.0 0.0 0.0 0.0 0.0 0.0 0.0 0.0 0.0 0.0 0.0 0.0 0.0 0.0 0.0 0.0 0.0 0.0 0.0 0.0 0.0 0.0 0.0 0.0 0.0 0.0 0.0 0.0 0.0 0.0 0.0 0.0 0.0 0.0 0.0 0.0 0.0 0.0 0.0 0.0 0.0 0.0 0.0 0.0 0.0 0.0 0.0 0.0 0.0 0.0 0.0 0.0 0.0 0.0 0.0 0.0 0.0 0.0 0.0 0.0 0.0 0.0 0.0 0.0 0.0 0.0 0.0 0.0 0.0 0.0 0.0 0.0 0.0 0.0 0.0 0.0 0.0 0.0 0.0 0.0 0.0 0.0 0.0 0.0 0.0 0.0 0.0 0.0 0.0 0.0 0.0 0.0 0.0 0.0 0.0 0.0 0.0 0.0 0.0 0.0 0.0 0.0 0.0 0.0 0.0 0.0 0.0 0.0 0.0 0.0 0.0 0.0 0.0 0.0 0.0 0.0 0.0 0.0 0.0 0.0 0.0 0.0 0.0 0.0 0.0 0.0 0.0 0.0 0.0 0.0 0.0 0.0 0.0 0.0 0.0 0.0 0.0 0.0 0.0 0.0 0.0 0.0 0.0 0.0 0.0 0.0 0.0 0.0 0.0 0.0 0.0 0.0 0.0 0.0 0.0 0.0 0.0 0.0 0.0 0.0 0.0 0.0 0.0 0.0 0.0 0.0 0.0 0.0 0.0 0.0 0.0 0.0 0.0 0.0 0.0 0.0 0.0 0.0 0.0 0.0 0.0 0.0 0.0 0.0 0.0 0.0 0.0 0.0 0.0 0.0 0.0 0.0 0.0 0.0 0.0 0.0 0.0 0.0 0.0 0.0 0.0 0.0 0.0 0.0 0.0 0.0 0.0 0.0 0.0 0.0 0.0 0.0 0.0 0.0 0.0 0.0 0.0 0.0 0.0 0.0 0.0 0.0 0.0 0.0 0.0 0.0 0.0 0.0 0.0 0.0 0.0 0.0 0.0 0.0 0.0 0.0 0.0 0.0 0.0 0.0 0.0 0.0 0.0 0.0 0.0 0.0 0.0 0.0 0.0 0.0 0.0 0.0 0.0 0.0 0.0 0.0 0.0 0.0 0.0 0.0 0.0 0.0 0.0 0.0 0.0 0.0 0.0 0.0 0.0 0.0 0.0 0.0 0.0 0.0 0.0 0.0 0.0 0.0 0.0 0.0 0.0 0.0 0.0 0.0 0.0 0.0 0.0 0.0 0.0 0.0 0.0 0.0 0.0 0.0 0.0 0.0 0.0 0.0 0.0 0.0 0.0 0.0 0.0 0.0 0.0 0.0 0.0 0.0 0.0 0.0 0.0 0.0 0.0 0.0 0.0 0.0 0.0 0.0 0.0 0.0 0.0 0.0 0.0 0.0 0.0 0.0 0.0 0.0 0.0 0.0 0.0 0.0 0.0 0.0 0.0 0.0 0.0 0.0 0.0 0.0 0.0 0.0 0.0 0.0 0.0 0.0 0.0 0.0 0.0 0.0 0.0 0.0 0.0 0.0 0.0 0.0 0.0 0.0 0.0 0.0 0.0 0.0 0.0 0.0 0.0 0.0 0.0 0.0 0.0 0.0 0.0 0.0 0.0 0.0 0.0 0.0 0.0 0.0 0.0 0.0 0.0 0.0 0.0 0.0 0.0 0.0 0.0 0.0 0.0 0.0 0.0 0.0 0.0 0.0 0.0 0.0 0.0 0.0 0.0 0.0 0.0 0.0 0.0 0.0 0.0 0.0 0.0 0.0 0.0 0.0 0.0 0.0 0.0 0.0 0.0 0.0 0.0 0.0 0.0 0.0 0.0 0.0 0.0 0.0 0.0 0.0 0.0 0.0 0.0 0.0 0.0 0.0 0.0 0.0 0.0 0.0 0.0 0.0 0.0 0.0 0.0 0.0 0.0 0.0 0.0 0.0 0.0 0.0 0.0 0.0 0.0 0.0 0.0 0.0 0.0 0.0 0.0 0.0 0.0 0.0 0.0 0.0 0.0 0.0 0.0 0.0 0.0 0.0 0.0 0.0 0.0 0.0 0.0 0.0 0.0 0.0 0.0 0.0 0.0 0.0 0.0 0.0 0.0 0.0 0.0 0.0 0.0 0.0 0.0 0.0 0.0 0.0 0.0 0.0 0.0 0.0 0.0 0.0 0.0 0.0 0.0 0.0 0.0 0.0 0.0 0.0 0.0 0.0 0.0 0.0 0.0 0.0 0.0 0.0 0.0 0.0 0.0 0.0 0.0 0.0 0.0 0.0 0.0 0.0 0.0 0.0 0.0 0.0 0.0 0.0 0.0 0.0 0.0 0.0 0.0 0.0 0.0 0.0 0.0 0.0 0.0 0.0 0.0 0.0 0.0 0.0 0.0 0.0 0.0 0.0 0.0 0.0 0.0 0.0 0.0 0.0 0.0 0.0 0.0 0.0 0.0 0.0 0.0 0.0 0.0 0.0 0.0 0.0 0.0 0.0 0.0 0.0 0.0 0.0 0.0 0.0 0.0 0.0 0.0 0.0 0.0 0.0 0.0 0.0 0.0 0.0 0.0 0.0 0.0 0.0 0.0 0.0 0.0 0.0 0.0 0.0 0.0 0.0 0.0 0.0 0.0 0.0 0.0 0.0 0.0 0.0 0.0 0.0 0.0 0.0 0.0 0.0 0.0 0.0 0.0 0.0 0.0 0.0 0.0 0.0 0.0 0.0 0.0 0.0 0.0 0.0 0.0 0.0 0.0 0.0 0.0 0.0 0.0 0.0 0.0 0.0 0.0 0.0 0.0 0.0 0.0 0.0 0.0 0.0 0.0 0.0 0.0 0.0 0.0 0.0 0.0 0.0 0.0 0.0 0.0 0.0 0.0 0.0 0.0 0.0 0.0 0.0 0.0 0.0 0.0 0.0 0.0 0.0 0.0 0.0 0.0 0.0 0.0 0.0 0.0 0.0 0.0 0.0 0.0 0.0 0.0 0.0 0.0 0.0 0.0 0.0 0.0 0.0 0.0 0.0 0.0 0.0 0.0 0.0 0.0 0.0 0.0 0.0 0.0 0.0 0.0 0.0 0.0 0.0 0.0 0.0 0.0 0.0 0.0 0.0 0.0 0.0 0.0 0.0 0.0 0.0 0.0 0.0 0.0 0.0 0.0 0.0 0.0 0.0 0.0 0.0 0.0 0.0 0.0 0.0 0.0 0.0 0.0 0.0 0.0 0.0 0.0 0.0 0.0 0.0 0.0 0.0 0.0 0.0 0.0 0.0 0.0 0.0 0.0 0.0 0.0 0.0 0.0 0.0 0.0 0.0 0.0 0.0 0.0 0.0 0.0 0.0 0.0 0.0 0.0 0.0 0.0 0.0 0.0 0.0 0.0 0.0 0.0 0.0 0.0 0.0 0.0 0.0 0.0 0.0 0.0 0.0 0.0 0.0 0.0 0.0 0.0 0.0 0.0 0.0 0.0 0.0 0.0 0.0 0.0 0.0 0.0 0.0 0.0 0.0 0.0 0.0 0.0 0.0 0.0 0.0 0.0 0.0 0.0 0.0 0.0 0.0 0.0 0.0 0.0 0.0 0.0 0.0 0.0 0.0 0.0 0.0 0.0 0.0 0.0 0.0 0.0 0.0 0.0 0.0 0.0 0.0 0.0 0.0 0.0 0.0 0.0 0.0 0.0 0.0 0.0 0.0 0.0 0.0 0.0 0.0 0.0 0.0 0.0 0.0 0.0 0.0 0.0 0.0 0.0 0.0 0.0 0.0 0.0 0.0 0.0 0.0 0.0 0.0 0.0 0.0 0.0 0.0 0.0 0.0 0.0 0.0 0.0 0.0 0.0 0.0 0.0 0.0 0.0 0.0 0.0 0.0 0.0 0.0 0.0 0.0 0.0 0.0 0.0 0.0 0.0 0.0 0.0 0.0 0.0 0.0 0.0 0.0 0.0 0.0 0.0 0.0 0.0 0.0 0.0 0.0 0.0 0.0 0.0 0.0 0.0 0.0 0.0 0.0 0.0 0.0 0.0 0.0 0.0 0.0 0.0 0.0 0.0 0.0 0.0 0.0 0.0 0.0 0.0 0.0 0.0 0.0 0.0 0.0 0.0 0.0 0.0 0.0 0.0 0.0 0.0 0.0 0.0 0.0 0.0 0.0 0.0 0.0 0.0 0.0 0.0 0.0 0.0 0.0 0.0 0.0 0.0 0.0 0.0 0.0 0.0 0.0 0.0 0.0 0.0 0.0 0.0 0.0 0.0 0.0 0.0 0.0 0.0 0.0 0.0 0.0 0.0 0.0 0.0 0.0 0.0 0.0 0.0 0.0 0.0 0.0 0.0 0.0 0.0 0.0 0.0 0.0 0.0 0.0 0.0 0.0 0.0 0.0 0.0 0.0 0.0 0.0 0.0 0.0 0.0 0.0 0.0 0.0 0.0 0.0 0.0 0.0 0.0 0.0 0.0 0.0 0.0 0.0 0.0 0.0 0.0 0.0 0.0 0.0 0.0 0.0 0.0 0.0 0.0 0.0 0.0 0.0 0.0 0.0 0.0 0.0 0.0 0.0 0.0 0.0 0.0 0.0 0.0 0.0 0.0 0.0 0.0 0.0 0.0 0.0 0.0 0.0 0.0 0.0 0.0 0.0 0.0 0.0 0.0 0.0 0.0 0.0 0.0 0.0 0.0 0.0 0.0 0.0 0.0 0.0 0.0 0.0 0.0 0.0 0.0 0.0 0.0 0.0 0.0 0.0 0.0 0.0 0.0 0.0 0.0 0.0 0.0 0.0 0.0 0.0 0.0 0.0 0.0 0.0 0.0 0.0 0.0 0.0 0.0 0.0 0.0 0.0 0.0 0.0 0.0 0.0 0.0 0.0 0.0 0.0 0.0 0.0 0.0 0.0 0.0 0.0 0.0 0.0 0.0 0.0 0.0 0.0 0.0 0.0 0.0 0.0 0.0 0.0 0.0 0.0 0.0 0.0 0.0 0.0 0.0 0.0 0.0 0.0 0.0 0.0 0.0 0.0 0.0 0.0 0.0 0.0 0.0 0.0 0.0 0.0 0.0 0.0 0.0 0.0 0.0 0.0 0.0 0.0 0.0 0.0 0.0 0.0 0.0 0.0 0.0 0.0 0.0 0.0 0.0 0.0 0.0 0.0 0.0 0.0 0.0 0.0 0.0 0.0 0.0 0.0 0.0 0.0 0.0 0.0 0.0 0.0 0.0 0.0 0.0 0.0 0.0 0.0 0.0 0.0 0.0 0.0 0.0 0.0 0.0 0.0 0.0 0.0 0.0 0.0 0.0 0.0 0.0 0.0 0.0 0.0 0.0 0.0 0.0 0.0 0.0 0.0 0.0 0.0 0.0 0.0 0.0 0.0 0.0 0.0 0.0 0.0 0.0 0.0 0.0 0.0 0.0 0.0 0.0 0.0 0.0 0.0 0.0 0.0 0.0 0.0 0.0 0.0 0.0 0.0 0.0 0.0 0.0 0.0 0.0 0.0 0.0 0.0 0.0 0.0 0.0 0.0 0.0 0.0 0.0 0.0 0.0 0.0 0.0 0.0 0.0 0.0 0.0 0.0 0.0 0.0 0.0 0.0 0.0 0.0 0.0 0.0 0.0 0.0 0.0 0.0 0.0 0.0 0.0 0.0 0.0 0.0 0.0 0.0 0.0 0.0 0.0 0.0 0.0 0.0 0.0 0.0 0.0 0.0 0.0 0.0 0.0 0.0 0.0 0.0 0.0 0.0 0.0 0.0 0.0 0.0 0.0 0.0 0.0 0.0 0.0 0.0 0.0 0.0 0.0 0.0 0.0 0.0 0.0 0.0 0.0 0.0 0.0 0.0 0.0 0.0 0.0 0.0 0.0 0.0 0.0 0.0 0.0 0.0 0.0 0.0 0.0 0.0 0.0 0.0 0.0 0.0 0.0 0.0 0.0 0.0 0.0 0.0 0.0 0.0 0.0 0.0 0.0 0.0 0.0 0.0 0.0 0.0 0.0 0.0 0.0 0.0 0.0 0.0 0.0 0.0 0.0 0.0 0.0 0.0 0.0 0.0 0.0 0.0 0.0 0.0 0.0 0.0 0.0 0.0 0.0 0.0 0.0 0.0 0.0 0.0 0.0 0.0 0.0 0.0 0.0 0.0 0.0 0.0 0.0 0.0 0.0 0.0 0.0 0.0 0.0 0.0 0.0 0.0 0.0 0.0 0.0 0.0 0.0 0.0 0.0 0.0 0.0 0.0 0.0 0.0 0.0 0.0 0.0 0.0 0.0 0.0 0.0 0.0 0.0 0.0 0.0 0.0 0.0 0.0 0.0 0.0 0.0 0.0 0.0 0.0 0.0 0.0 0.0 0.0 0.0 0.0 0.0 0.0 0.0 0.0 0.0 0.0 0.0 0.0 0.0 0.0 0.0 0.0 0.0 0.0 0.0 0.0 0.0 0.0 0.0 0.0 0.0 0.0 0.0 0.0 0.0 0.0 0.0 0.0 0.0 0.0 0.0 0.0 0.0 0.0 0.0 0.0 0.0 0.0 0.0 0.0 0.0 0.0 0.0 0.0 0.0 0.0 0.0 0.0 0.0 0.0 0.0 0.0 0.0 0.0 0.0 0.0 0.0 0.0 0.0 0.0 0.0 0.0 0.0 0.0 0.0 0.0 0.0 0.0 0.0 0.0 0.0 0.0 0.0 0.0 0.0 0.0 0.0 0.0 0.0 0.0 0.0 0.0 0.0 0.0 0.0 0.0 0.0 0.0 0.0 0.0 0.0 0.0 0.0 0.0 0.0 0.0 0.0 0.0 0.0 0.0 0.0 0.0 0.0 0.0 0.0 0.0 0.0 0.0 0.0 0.0 0.0 0.0 0.0 0.0 0.0 0.0 0.0 0.0 0.0 0.0 0.0 0.0 0.0 0.0 0.0 0.0 0.0 0.0 0.0 0.0 0.0 0.0 0.0 0.0 0.0 0.0 0.0 0.0 0.0 0.0 0.0 0.0 0.0 0.0 0.0 0.0 0.0 0.0 0.0 0.0 0.0 0.0 0.0 0.0 0.0 0.0 0.0 0.0 0.0 0.0 0.0 0.0 0.0 0.0 0.0 0.0 0.0 0.0 0.0 0.0 0.0 0.0 0.0 0.0 0.0 0.0 0.0 0.0 0.0 0.0 0.0 0.0 0.0 0.0 0.0 0.0 0.0 0.0 0.0 0.0 0.0 0.0 0.0 0.0 0.0 0.0 0.0 0.0 0.0 0.0 0.0 0.0 0.0 0.0 0.0 0.0 0.0 0.0 0.0 0.0 0.0 0.0 0.0 0.0 0.0 0.0 0.0 0.0 0.0 0.0 0.0 0.0 0.0 0.0 0.0 0.0 0.0 0.0 0.0 0.0 0.0 0.0 0.0 0.0 0.0 0.0 0.0 0.0 0.0 0.0 0.0 0.0 0.0 0.0 0.0 0.0 0.0 0.0 0.0 0.0 0.0 0.0 0.0 0.0 0.0 0.0 0.0 0.0 0.0 0.0 0.0 0.0 0.0 0.0 0.0 0.0 0.0 0.0 0.0 0.0 0.0 0.0 0.0 0.0 0.0 0.0 0.0 0.0 0.0 0.0 0.0 0.0 0.0 0.0 0.0 0.0 0.0 0.0 0.0 0.0 0.0 0.0 0.0 0.0 0.0 0.0 0.0 0.0 0.0 0.0 0.0 0.0 0.0 0.0 0.0 0.0 0.0 0.0 0.0 0.0 0.0 0.0 0.0 0.0 0.0 0.0 0.0 0.0 0.0 0.0 0.0 0.0 0.0 0.0 0.0 0.0 0.0 0.0 0.0 0.0 0.0 0.0 0.0 0.0 0.0 0.0 0.0 0.0 0.0 0.0 0.0 0.0 0.0 0.0 0.0 0.0 0.0 0.0 0.0 0.0 0.0 0.0 0.0 0.0 0.0 0.0 0.0 0.0 0.0 0.0 0.0 0.0 0.0 0.0 0.0 0.0 0.0 0.0 0.0 0.0 0.0 0.0 0.0 0.0 0.0 0.0 0.0 0.0 0.0 0.0 0.0 0.0 0.0 0.0 0.0 0.0 0.0 0.0 0.0 0.0 0.0 0.0 0.0 0.0 0.0 0.0 0.0 0.0 0.0 0.0 0.0 0.0 0.0 0.0 0.0 0.0 0.0 0.0 0.0 0.0 0.0 0.0 0.0 0.0 0.0 0.0 0.0 0.0 0.0 0.0 0.0 0.0 0.0 0.0 0.0 0.0 0.0 0.0 0.0 0.0 0.0 0.0 0.0 0.0 0.0 0.0 0.0 0.0 0.0 0.0 0.0 0.0 0.0 0.0 0.0 0.0 0.0 0.0 0.0 0.0 0.0 0.0 0.0 0.0 0.0 0.0 0.0 0.0 0.0 0.0 0.0 0.0 0.0 0.0 0.0 0.0 0.0 0.0 0.0 0.0 0.0 0.0 0.0 0.0 0.0 0.0 0.0 0.0 0.0 0.0 0.0 0.0 0.0 0.0 0.0 0.0 0.0 0.0 0.0 0.0 0.0 0.0 0.0 0.0 0.0 0.0 0.0 0.0 0.0 0.0 0.0 0.0 0.0 0.0 0.0 0.0 0.0 0.0 0.0 0.0 0.0 0.0 0.0 0.0 0.0 0.0 0.0 0.0 0.0 0.0 0.0 0.0 0.0 0.0 0.0 0.0 0.0 0.0 0.0 0.0 0.0 0.0 0.0 0.0 0.0 0.0 0.0 0.0 0.0 0.0 0.0 0.0 0.0 0.0 0.0 0.0 0.0 0.0 0.0 0.0 0.0 0.0 0.0 0.0 0.0 0.0 0.0 0.0 0.0 0.0 0.0 0.0 0.0 0.0 0.0 0.0 0.0 0.0 0.0 0.0 0.0 0.0 0.0 0.0 0.0 0.0 0.0 0.0 0.0 0.0 0.0 0.0 0.0 0.0 0.0 0.0 0.0 0.0 0.0 0.0 0.0 0.0 0.0 0.0 0.0 0.0 0.0 0.0 0.0 0.0 0.0 0.0 0.0 0.0 0.0 0.0 0.0 0.0 0.0 0.0 0.0 0.0 0.0 0.0 0.0 0.0 0.0 0.0 0.0 0.0 0.0 0.0 0.0 0.0 0.0 0.0 0.0 0.0 0.0 0.0 0.0 0.0 0.0 0.0 0.0 0.0 0.0 0.0 0.0 0.0 0.0 0.0 0.0 0.0 0.0 0.0 0.0 0.0 0.0 0.0 0.0 0.0 0.0 0.0 0.0 0.0 0.0 0.0 0.0 0.0 0.0 0.0 0.0 0.0 0.0 0.0 0.0 0.0 0.0 0.0 0.0 0.0 0.0 0.0 0.0 0.0 0.0 0.0 0.0 0.0 0.0 0.0 0.0 0.0 0.0 0.0 0.0 0.0 0.0 0.0 0.0 0.0 0.0 0.0 0.0 0.0 0.0 0.0 0.0 0.0 0.0 0.0 0.0 0.0 0.0 0.0 0.0 0.0 0.0 0.0 0.0 0.0 0.0 0.0 0.0 0.0 0.0 0.0 0.0 0.0 0.0 0.0 0.0 0.0 0.0 0.0 0.0 0.0 0.0 0.0 0.0 0.0 0.0 0.0 0.0 0.0 0.0 0.0 0.0 0.0 0.0 0.0 0.0 0.0 0.0 0.0 0.0 0.0 0.0 0.0 0.0 0.0 0.0 0.0 0.0 0.0 0.0 0.0 0.0 0.0 0.0 0.0 0.0 0.0 0.0 0.0 0.0 0.0 0.0 0.0 0.0 0.0 0.0 0.0 0.0 0.0 0.0 0.0 0.0 0.0 0.0 0.0 0.0 0.0 0.0 0.0 0.0 0.0 0.0 0.0 0.0 0.0 0.0 0.0 0.0 0.0 0.0 0.0 0.0 0.0 0.0 0.0 0.0 0.0 0.0 0.0 0.0 0.0 0.0 0.0 0.0 0.0 0.0 0.0 0.0 0.0 0.0 0.0 0.0 0.0 0.0 0.0 0.0 0.0 0.0 0.0 0.0 0.0 0.0 0.0 0.0 0.0 0.0 0.0 0.0 0.0 0.0 0.0 0.0 0.0 0.0 0.0 0.0 0.0 0.0 0.0 0.0 0.0 0.0 0.0 0.0 0.0 0.0 0.0 0.0 0.0 0.0 0.0 0.0 0.0 0.0 0.0 0.0 0.0 0.0 0.0 0.0 0.0 0.0 0.0 0.0 0.0 0.0 0.0 0.0 0.0 0.0 0.0 0.0 0.0 0.0 0.0 0.0 0.0 0.0 0.0 0.0 0.0 0.0 0.0 0.0 0.0 0.0 0.0 0.0 0.0 0.0 0.0 0.0 0.0 0.0 0.0 0.0 0.0 0.0 0.0 0.0 0.0 0.0 0.0 0.0 0.0 0.0 0.0 0.0 0.0 0.0 0.0 0.0 0.0 0.0 0.0 0.0 0.0 0.0 0.0 0.0 0.0 0.0 0.0 0.0 0.0 0.0 0.0 0.0 0.0 0.0 0.0 0.0 0.0 0.0 0.0 0.0 0.0 0.0 0.0 0.0 0.0 0.0 0.0 0.0 0.0 0.0 0.0 0.0 0.0 0.0 0.0 0.0 0.0 0.0 0.0 0.0 0.0 0.0 0.0 0.0 0.0 0.0 0.0 0.0 0.0 0.0 0.0 0.0 0.0 0.0 0.0 0.0 0.0 0.0 0.0 0.0 0.0 0.0 0.0 0.0 0.0 0.0 0.0 0.0 0.0 0.0 0.0 0.0 0.0 0.0 0.0 0.0 0.0 0.0 0.0 0.0 0.0 0.0 0.0 0.0 0.0 0.0 0.0 0.0 0.0 0.0 0.0 0.0 0.0 0.0 0.0 0.0 0.0 0.0 0.0 0.0 0.0 0.0 0.0 0.0 0.0 0.0 0.0 0.0 0.0 0.0 0.0 0.0 0.0 0.0 0.0 0.0 0.0 0.0 0.0 0.0 0.0 0.0 0.0 0.0 0.0 0.0 0.0 0.0 0.0 0.0 0.0 0.0 0.0 0.0 0.0 0.0 0.0 0.0 0.0 0.0 0.0 0.0 0.0 0.0 0.0 0.0 0.0 0.0 0.0 0.0 0.0 0.0 0.0 0.0 0.0 0.0 0.0 0.0 0.0 0.0 0.0 0.0 0.0 0.0 0.0 0.0 0.0 0.0 0.0 0.0 0.0 0.0 0.0 0.0 0.0 0.0 0.0 0.0 0.0 0.0 0.0 0.0 0.0 0.0 0.0 0.0 0.0 0.0 0.0 0.0 0.0 0.0 0.0 0.0 0.0 0.0 0.0 0.0 0.0 0.0 0.0 0.0 0.0 0.0 0.0 0.0 0.0 0.0 0.0 0.0 0.0 0.0 0.0 0.0 0.0 0.0 0.0 0.0 0.0 0.0 0.0 0.0 0.0 0.0 0.0 0.0 0.0 0.0 0.0 0.0 0.0 0.0 0.0 0.0 0.0 0.0 0.0 0.0 0.0 0.0 0.0 0.0 0.0 0.0 0.0 0.0 0.0 0.0 0.0 0.0 0.0 0.0 0.0 0.0 0.0 0.0 0.0 0.0 0.0 0.0 0.0 0.0 0.0 0.0 0.0 0.0 0.0 0.0 0.0 0.0 0.0 0.0 0.0 0.0 0.0 0.0 0.0 0.0 0.0 0.0 0.0 0.0 0.0 0.0 0.0 0.0 0.0 0.0 0.0 0.0 0.0 0.0 0.0 0.0 0.0 0.0 0.0 0.0 0.0 0.0 0.0 0.0 0.0 0.0 0.0 0.0 0.0 0.0 0.0 0.0 0.0 0.0 0.0 0.0 0.0 0.0 0.0 0.0 0.0 0.0 0.0 0.0 0.0 0.0 0.0 0.0 0.0 0.0 0.0 0.0 0.0 0.0 0.0 0.0 0.0 0.0 0.0 0.0 0.0 0.0 0.0 0.0 0.0 0.0 0.0 0.0 0.0 0.0 0.0 0.0 0.0 0.0 0.0 0.0 0.0 0.0 0.0 0.0 0.0 0.0 0.0 0.0 0.0 0.0 0.0 0.0 0.0 0.0 0.0 0.0 0.0 0.0 0.0 0.0 0.0 0.0 0.0 0.0 0.0 0.0 0.0 0.0 0.0 0.0 0.0 0.0 0.0 0.0 0.0 0.0 0.0 0.0 0.0 0.0 0.0 0.0 0.0 0.0 0.0 0.0 0.0 0.0 0.0 0.0 0.0 0.0 0.0 0.0 0.0 0.0 0.0 0.0 0.0 0.0 0.0 0.0 0.0 0.0 0.0 0.0 0.0 0.0 0.0 0.0 0.0 0.0 0.0 0.0 0.0 0.0 0.0 0.0 0.0 0.0 0.0 0.0 0.0 0.0 0.0 0.0 0.0 0.0 0.0 0.0 0.0 0.0 0.0 0.0 0.0 0.0 0.0 0.0 0.0 0.0 0.0 0.0 0.0 0.0 0.0 0.0 0.0 0.0 0.0 0.0 0.0 0.0 0.0 0.0 0.0 0.0 0.0 0.0 0.0 0.0 0.0 0.0 0.0 0.0 0.0 0.0 0.0 0.0 0.0 0.0 0.0 0.0 0.0 0.0 0.0 0.0 0.0 0.0 0.0 0.0 0.0 0.0 0.0 0.0 0.0 0.0 0.0 0.0 0.0 0.0 0.0 0.0 0.0 0.0 0.0 0.0 0.0 0.0 0.0 0.0 0.0 0.0 0.0 0.0 0.0 0.0 0.0 0.0 0.0 0.0 0.0 0.0 0.0 0.0 0.0 0.0 0.0 0.0 0.0 0.0 0.0 0.0 0.0 0.0 0.0 0.0 0.0 0.0 0.0 0.0 0.0 0.0 0.0 0.0 0.0 0.0 0.0 0.0 0.0 0.0 0.0 0.0 0.0 0.0 0.0 0.0 0.0 0.0 0.0 0.0 0.0 0.0 0.0 0.0 0.0 0.0 0.0 0.0 0.0 0.0 0.0 0.0 0.0 0.0 0.0 0.0 0.0 0.0 0.0 0.0 0.0 0.0 0.0 0.0 0.0 0.0 0.0 0.0 0.0 0.0 0.0 0.0 0.0 0.0 0.0 0.0 0.0 0.0 0.0 0.0 0.0 0.0 0.0 0.0 0.0 0.0 0.0 0.0 0.0 0.0 0.0 0.0 0.0 0.0 0.0 0.0 0.0 0.0 0.0 0.0 0.0 0.0 0.0 0.0 0.0 0.0 0.0 0.0 0.0 0.0 0.0 0.0 0.0 0.0 0.0 0.0 0.0 0.0 0.0 0.0 0.0 0.0 0.0 0.0 0.0 0.0 0.0 0.0 0.0 0.0 0.0 0.0 0.0 0.0 0.0 0.0 0.0 0.0 0.0 0.0 0.0 0.0 0.0 0.0 0.0 0.0 0.0 0.0 0.0 0.0 0.0 0.0 0.0 0.0 0.0 0.0 0.0 0.0 0.0 0.0 0.0 0.0 0.0 0.0 0.0 0.0 0.0 0.0 0.0 0.0 0.0 0.0 0.0 0.0 0.0 0.0 0.0 0.0 0.0 0.0 0.0 0.0 0.0 0.0 0.0 0.0 0.0 0.0 0.0 0.0 0.0 0.0 0.0 0.0 0.0 0.0 0.0 0.0 0.0 0.0 0.0 0.0 0.0 0.0 0.0 0.0 0.0 0.0 0.0 0.0 0.0 0.0 0.0 0.0 0.0 0.0 0.0 0.0 0.0 0.0 0.0 0.0 0.0 0.0 0.0 0.0 0.0 0.0 0.0 0.0 0.0 0.0 0.0 0.0 0.0 0.0 0.0 0.0 0.0 0.0 0.0 0.0 0.0 0.0 0.0 0.0 0.0 0.0 0.0 0.0 0.0 0.0 0.0 0.0 0.0 0.0 0.0 0.0 0.0 0.0 0.0 0.0 0.0 0.0 0.0 0.0 0.0 0.0 0.0 0.0 0.0 0.0 0.0 0.0 0.0 0.0 0.0 0.0 0.0 0.0 0.0 0.0 0.0 0.0 0.0 0.0 0.0 0.0 0.0 0.0 0.0 0.0 0.0 0.0 0.0 0.0 0.0 0.0 0.0 0.0 0.0 0.0 0.0 0.0 0.0 0.0 0.0 0.0 0.0 0.0 0.0 0.0 0.0 0.0 0.0 0.0 0.0 0.0 0.0 0.0 0.0 0.0 0.0 0.0 0.0 0.0 0.0 0.0 0.0 0.0 0.0 0.0 0.0 0.0 0.0 0.0 0.0 0.0 0.0 0.0 0.0 0.0 0.0 0.0 0.0 0.0 0.0 0.0 0.0 0.0 0.0 0.0 0.0 0.0 0.0 0.0 0.0 0.0 0.0 0.0 0.0 0.0 0.0 0.0 0.0 0.0 0.0 0.0 0.0 0.0 0.0 0.0 0.0 0.0 0.0 0.0 0.0 0.0 0.0 0.0 0.0 0.0 0.0 0.0 0.0 0.0 0.0 0.0 0.0 0.0 0.0 0.0 0.0 0.0 0.0 0.0 0.0 0.0 0.0 0.0 0.0 0.0 0.0 0.0 0.0 0.0 0.0 0.0 0.0 0.0 0.0 0.0 0.0 0.0 0.0 0.0 0.0 0.0 0.0 0.0 0.0 0.0 0.0 0.0 0.0 0.0 0.0 0.0 0.0 0.0 0.0 0.0 0.0 0.0 0.0 0.0 0.0 0.0 0.0 0.0 0.0 0.0 0.0 0.0 0.0 0.0 0.0 0.0 0.0 0.0 0.0 0.0 0.0 0.0 0.0 0.0 0.0 0.0 0.0 0.0 0.0 0.0 0.0 0.0 0.0 0.0 0.0 0.0 0.0 0.0 0.0 0.0 0.0 0.0 0.0 0.0 0.0 0.0 0.0 0.0 0.0 0.0 0.0 0.0 0.0 0.0 0.0 0.0 0.0 0.0 0.0 0.0 0.0 0.0 0.0 0.0 -1.0269388E-002  1.5592695E-001 0.0 -3.1184602E-002  1.7753693E-001 0.0  1.8480796E-004  1.0438928E-001 0.0 -4.4207575E-004  8.0669817E-002 0.0 -1.3531558E-004  6.4854990E-002 0.0 -2.3119991E-004  4.5604587E-002 0.0 -7.1120734E-004  2.8500611E-002 0.0 -4.5457997E-002  9.1633016E-003 0.0 -6.3496437E-004  1.3501068E-002 0.0 -4.0228316E-002  5.9648255E-001 0.0 -1.2951061E-003  7.3874906E-005 0.0 -1.6539509E-002  9.4363892E-002 0.0  1.8010459E-004 -4.4547762E-006 0.0 -1.4565300E-002  1.3446346E-003 0.0 -3.7038781E-004  7.7528033E-003 0.0  1.4817669E-004 -5.4290340E-006 0.0  3.5852775E-004  1.3359850E-001 0.0 -3.8762039E-002  1.7349964E-001 0.0 -3.4624317E-003  8.4533726E-002 0.0 -2.7436002E-003  1.4235616E-001 0.0 -5.8811029E-005  9.0377502E-002 0.0 -3.4162600E-002  1.0800938E-001 0.0 -1.3265873E-001  1.5756902E-001 0.0 -1.3780653E-003  1.1978468E-004 0.0 -3.4067686E-003  4.6895048E-004 0.0 -1.7112536E-004  2.1646143E-003 0.0 -5.1927933E-005 -1.6741523E-004 0.0  1.0571734E-004 -5.4650270E-006 0.0  1.8194455E-004 -1.6432027E-006 0.0 -6.6802056E-003 -1.4588694E-001 0.0 -4.8473596E-003  4.0819644E-004 0.0 -5.4005120E-002  1.6494458E-002 0.0 -2.9579832E-003  7.6455068E-001 0.0 -2.8789188E-003 -1.0973755E-001 0.0 -2.1450718E-004  7.3515310E-002 0.0 -4.6622768E-004  2.2222650E-002 0.0 -5.1639011E-004  3.9355643E-002 0.0 -5.7755030E-004  5.6641958E-002 0.0  6.6523361E-005 -6.3337107E-006 0.0 -1.1011489E-002 -2.5106430E-001 0.0 -4.8119740E-003 -7.0729894E-002 0.0  3.9539244E-001  1.0029982E-002 0.0 -5.3127287E-003  1.4401374E-003 0.0 -4.3699646E-004 -4.7097717E-005 0.0 -8.3714558E-004 -6.9129487E-005 0.0 -1.3677930E-003  5.2103302E-005 0.0  8.4092796E-003  3.4809428E-003 0.0 -1.1514876E-005 -4.3446888E-005 0.0  2.4661220E-004 -3.0071636E-005 0.0  1.1940235E-004  5.2302513E-006 0.0  1.2264557E-005 -2.6046898E-004 0.0 -3.0284228E-003  6.0175475E-004 0.0 -5.7911854E-003  1.4648493E-003 0.0 -1.1314618E-001  1.9877929E-001 0.0 -1.8561280E-001  2.4940771E-001 0.0  1.1156189E-004  1.6370026E-004 0.0  1.4221225E-004  7.4908291E-007 0.0 -7.8836772E-002  5.0490443E-003 0.0  2.9569423E-002  6.8139565E-001 0.0 -5.0222530E-003  1.5435482E-003 0.0 -9.2221685E-003  3.4099237E-003 0.0  3.4472825E-005  2.4308121E-004 0.0 -5.3005549E-003  1.9737608E-002 0.0  2.1994266E-002 -2.0921693E-001 0.0 -2.1192562E-002  1.6398951E-001 0.0 -1.3345946E-001  2.1927493E-001 0.0 -1.1215356E-001  3.3132354E-001 0.0 -2.0682011E-001  3.6444537E-001 0.0 -1.4367585E-001  4.2846639E-001 0.0 -2.3799532E-001  4.4220785E-001 0.0 -1.8607182E-001  3.8947094E-001 0.0 -2.2028915E-001  3.8168368E-001 0.0 -1.9232550E-002  1.3697707E-003 0.0 -2.0264022E-004  5.4937929E-004 0.0 -5.8467119E-004  1.0960227E-001 0.0 -7.4488684E-004  1.1585583E-002 0.0 -2.3162612E-002  1.3428909E-001 0.0 -1.7496720E-002  9.3450682E-002 0.0  5.2134348E-006 -6.3255759E-005 0.0 -1.8453321E-001  2.7414580E-001 0.0 -1.8609265E-001  2.5796064E-001 0.0 -7.3397395E-003  3.2145812E-003 0.0 -1.2551842E-002  6.4577082E-003 0.0  3.5916231E-001  6.0350297E-002 0.0 -1.6203177E-001  1.5168916E-001 0.0 -1.5135001E-001  1.3636908E-001 0.0 -1.7177681E-001  2.4085218E-001 0.0 -1.3627072E-001  1.1991513E-001 0.0 -1.5107059E-001  2.2828381E-001 0.0 -1.2147435E-001  1.0763770E-001 0.0 -1.2982782E-001  2.1997190E-001 0.0 -1.0980978E-001  1.0169959E-001 0.0 -1.1283280E-001  2.2059810E-001 0.0 -1.0188577E-001  1.0335171E-001 0.0 -1.3341601E-001  3.2995075E-001 0.0 -9.8762401E-002  2.2586243E-001 0.0 -9.5514620E-002  1.1198846E-001 0.0 -8.5470913E-002  2.3692982E-001 0.0 -8.7330588E-002  1.2667107E-001 0.0 -7.0059227E-002  2.5251535E-001 0.0 -7.3479467E-002  1.4530434E-001 0.0 -4.9190695E-002  2.6963433E-001 0.0 -5.0229304E-002  1.6465092E-001 0.0 -1.9413264E-002  2.8483063E-001 0.0 -1.4436543E-002  1.8077784E-001 0.0  2.1975826E-002  2.9411752E-001 0.0  3.6141779E-002  1.8955176E-001 0.0  2.1453991E-001 -2.9572361E-002 0.0 -3.5833425E-003  1.3345947E-003 0.0 -5.5117169E-003  2.7361072E-003 0.0 -2.5337306E-003  1.0391327E-003 0.0 -3.7815165E-002  1.3518299E-002 0.0  7.7204311E-003  1.8187645E-003 0.0 -7.6846124E-004  2.1783384E-005 0.0 -7.1279767E-002  3.6246749E-001 0.0  7.7162595E-002  2.9334460E-001 0.0 -1.0177121E-001 -3.8874045E-003 0.0  7.3183407E-005  1.0979069E-005 0.0 -9.2518579E-002  2.0255188E-002 0.0 -5.2718633E-002 -7.3782903E-003 0.0  3.0024714E-006 -2.5664994E-006 0.0  5.6481925E-002  3.9688042E-001 0.0 -1.3220623E-001  4.0089185E-002 0.0 -1.4373309E-001  5.5480258E-002 0.0  1.0323929E-001  1.8690633E-001 0.0 -1.7976001E-003  1.0553755E-003 0.0  5.5966355E-002  7.7231252E-002 0.0 -3.9342124E-003  2.0359732E-003 0.0 -1.7049041E-003  7.0661272E-004 0.0 -3.7313853E-002  3.5199369E-001 0.0  1.1480083E-001  3.8328689E-001 0.0 -2.2303749E-004  5.0563107E-003 0.0 -1.6446267E-001  2.6551090E-001 0.0 -1.1423043E-001 -3.7342234E-002 0.0 -1.2685969E-001 -1.9070893E-002 0.0 -1.5652020E-002  6.5439365E-003 0.0 -2.1434451E-002  1.3538436E-002 0.0 -2.7408129E-002  1.4525038E-002 0.0 -3.5239339E-002  2.6425526E-002 0.0 -4.5787552E-002  2.9291167E-002 0.0 -5.8769396E-002  5.5796327E-002 0.0 -7.8100657E-002  5.6403297E-002 0.0 -9.9778991E-002  1.1423205E-001 0.0  1.3630712E-001  7.1366207E-002 0.0  8.6440046E-002  4.8706493E-001 0.0  1.1589125E-005  4.5709249E-005 0.0  8.2522699E-002 -4.7285838E-002 0.0 -1.0362044E-003  3.5879494E-004 0.0 -4.7544744E-004  1.0456379E-004 0.0  1.4629778E-001  4.5738936E-001 0.0 -9.9886352E-004  3.2664308E-004 0.0 -1.8012689E-004 -7.6869530E-005 0.0  1.2658372E-004 -1.2419112E-004 0.0  2.8848749E-004 -2.1936937E-004 0.0  5.2409481E-005 -2.4273995E-004 0.0  3.2228360E-004 -2.8723047E-004 0.0 -1.6229517E-003  4.6278743E-003 0.0 -1.5412479E-001  1.5936703E-001 0.0 -1.3119280E-001  2.3670749E-001 0.0 -2.2689495E-001  3.4150945E-001 0.0 -1.7027326E-001  4.2024227E-001 0.0 -2.1830557E-002  7.0733661E-001 0.0 -4.3302473E-002  7.1204384E-001 0.0 -9.8919874E-002 -4.5047870E-003 0.0 -2.3485202E-002  3.9033125E-001 0.0 -4.9474708E-002  5.6787765E-002 0.0 -1.0205401E-002 -1.7322135E-001 0.0 -3.6500064E-003 -1.2565907E-001 0.0 -6.1323012E-003 -4.2248514E-002 0.0  2.7955576E-006 -1.2735738E-005 0.0 -2.4883272E-002  2.1820923E-002 0.0  4.0670683E-004 -1.7443244E-004 0.0  3.5634886E-004 -1.2587881E-004 0.0  1.7618381E-001 -5.5466009E-002 0.0  1.5560012E-004 -4.4307441E-006 0.0  1.2586402E-004 -5.2451910E-006 0.0  1.7500743E-004 -2.4615159E-006 0.0  9.3481303E-005 -6.4209368E-006 0.0  5.0972573E-002  4.8923574E-001 0.0  1.7671777E-004 -3.4763695E-004 0.0  3.3723294E-004 -3.2285698E-004 0.0  1.8850121E-001  3.5271488E-001 0.0  6.0909059E-002 -1.3699845E-002 0.0 -2.0009880E-001  3.6886138E-001 0.0 -2.9627574E-003  1.9278665E-004 0.0  4.1755279E-004 -2.4971542E-004 0.0  3.8824765E-004 -2.4202950E-004 0.0  3.1898062E-004 -3.2439698E-004 0.0  3.2869702E-004 -2.3662661E-004 0.0  2.7029994E-004 -3.0273131E-004 0.0  2.3748910E-004 -3.8908453E-004 0.0 -9.5876482E-002 -9.1481198E-002 0.0 -1.0839968E-001 -6.9459257E-002 0.0 -8.4008045E-002 -1.1365300E-001 0.0 -1.3767058E-001 -4.5213689E-003 0.0 -1.2820082E-004 -2.6771096E-004 0.0  2.6420315E-004 -2.0673820E-004 0.0 -1.1925815E-001 -4.8848358E-002 0.0 -2.0035470E-003  5.3598886E-003 0.0  2.3758041E-001  5.0019763E-002 0.0  1.0906864E-001  5.5848679E-001 0.0  6.1090000E-002  5.8801629E-001 0.0  1.6817121E-001  5.0937950E-001 0.0  4.9664586E-004 -1.3449891E-004 0.0  4.8184238E-004 -1.0556944E-004 0.0 -1.1809700E-003  2.9429415E-004 0.0  1.9336030E-004 -3.5815041E-004 0.0  9.7519706E-003  1.0510712E-003 0.0  1.1392920E-001 -1.7639778E-001 0.0  3.1282706E-002 -1.7807655E-001 0.0  2.1463739E-001 -1.7745680E-001 0.0 -2.9447362E-002  1.6541141E-001 0.0 -6.1687758E-002  3.3318819E-001 0.0 -7.1952142E-005  8.1936112E-004 0.0 -6.5453926E-002 -1.4535706E-001 0.0 -5.6738614E-002 -1.6762464E-001 0.0  4.2527506E-004 -1.8269606E-004 0.0  5.3255612E-004 -9.6795803E-005 0.0  5.3592226E-004 -7.4607147E-005 0.0  4.6454250E-004 -7.4526523E-005 0.0  5.2205102E-004 -5.4830313E-005 0.0  4.3634305E-004 -4.3180830E-005 0.0  5.1252287E-004 -2.9700408E-005 0.0  4.0492949E-004 -6.1035277E-006 0.0  4.7748947E-004  2.5265608E-006 0.0  3.5839528E-004  3.9797554E-005 0.0  4.4932721E-004  3.8289779E-005 0.0  3.1094072E-004  8.7242178E-005 0.0  3.9277702E-004  8.4999388E-005 0.0  5.2341323E-004 -1.0898645E-004 0.0  3.1691464E-003  1.0440933E-003 0.0  1.4034975E-004  9.8042998E-005 0.0 -1.3084654E-003 -1.2960609E-004 0.0 -1.2900888E-003 -3.3951596E-004 0.0  7.1083589E-003  1.2226580E-001 0.0 -6.4411724E-004 -1.4013964E-004 0.0 -1.9514308E-003  2.8232108E-002 0.0 -2.5142586E-002  5.8530751E-002 0.0 -2.2838073E-002  2.7307862E-003 0.0 -8.6247475E-002  3.5385975E-002 0.0  1.7591286E-004 -3.2331595E-005 0.0 -2.1554626E-004 -2.3063317E-004 0.0  2.8675804E-002  1.6242158E-002 0.0  4.9837115E-002  9.3775305E-002 0.0  2.8862223E-002  2.6560542E-002 0.0  5.7610534E-002  9.8907145E-002 0.0  3.2125698E-002  3.5898390E-002 0.0  2.7128807E-002  1.1983595E-001 0.0  3.9284475E-003  2.1982881E-001 0.0  1.7870200E-002  5.1856173E-002 0.0 -1.8726093E-004  1.3548919E-004 0.0 -2.0094740E-004 -4.1452392E-005 0.0 -6.0171740E-004 -1.7804138E-004 0.0 -1.4466396E-001  4.8499045E-003 0.0 -1.1520603E-002  1.0581417E-003 0.0 -7.1790408E-004  1.1996702E-001 0.0 -1.1748654E-002  2.4862966E-001 0.0 -3.8784683E-002  1.5127472E-001 0.0  2.0537542E-001  7.5648795E-002 0.0 -8.8443658E-004  9.9077328E-002 0.0 -4.0205268E-003  1.6963659E-001 0.0 -1.9155189E-003  8.8829340E-002 0.0 -4.6663482E-003  1.5068864E-001 0.0 -1.2817194E-003  1.0810970E-001 0.0 -4.1471597E-003  1.8666274E-001 0.0 -1.2447821E-003  2.1723327E-002 0.0 -4.5408497E-003  4.3697249E-002 0.0 -1.6950742E-003  3.9991999E-002 0.0 -3.6893455E-003  6.2686705E-002 0.0 -1.1581354E-003  3.0171139E-002 0.0 -2.0208606E-003  5.8277142E-002 0.0 -9.1467245E-003  1.3650410E-001 0.0 -1.4703427E-003  4.9772535E-002 0.0 -7.0058668E-003  1.1474221E-001 0.0 -5.0334695E-004  4.8034090E-003 0.0 -1.5717864E-003  6.8947831E-003 0.0 -3.1671567E-004  1.5649588E-003 0.0 -8.5314011E-004  1.8427039E-003 0.0 -1.5304166E-003  7.1179861E-002 0.0 -6.6427877E-003  1.6299376E-001 0.0 -6.4473825E-004  8.2101068E-002 0.0  2.5759224E-004  1.4374967E-004 0.0  3.3809955E-004  1.3066000E-004 0.0  5.4980109E-002 -2.9136919E-001 0.0 -1.1141569E-002 -2.9787291E-001 0.0 -1.9188588E-003 -2.0220236E-003 0.0  3.5868216E-003 -1.6281382E-006 0.0  1.2011632E-002  1.5507038E-003 0.0  8.7472916E-003  1.1329814E-004 0.0  4.9051285E-003 -8.7322957E-004 0.0  3.7222501E-003 -1.6746014E-004 0.0  4.0376139E-003  4.8280328E-006 0.0  7.6099423E-003  9.4099931E-005 0.0  5.3465675E-003  2.2611659E-004 0.0  2.9263898E-003  9.3822169E-005 0.0  3.4908832E-003  4.6588637E-005 0.0  6.1366089E-003 -1.9962399E-004 0.0  5.0615708E-003  9.1109843E-005 0.0  2.9716446E-004 -1.5502989E-004 0.0  2.3172478E-004 -1.2039018E-004 0.0  1.9383556E-004 -1.6066149E-004 0.0  7.5464925E-002  6.5018628E-001 0.0  3.7691157E-002  6.7849660E-001 0.0 -1.7407508E-001  2.5745155E-001 0.0 -2.5250625E-001  3.4864267E-001 0.0 -8.7371087E-002 -9.6422291E-002 0.0 -9.6613635E-002 -7.1008083E-002 0.0  7.9555121E-003  6.2695069E-003 0.0  1.4964914E-004 -4.4157592E-004 0.0  4.6172320E-004 -1.8635300E-004 0.0  4.2644269E-004 -1.2770630E-004 0.0  3.8400023E-004 -1.2224295E-004 0.0  2.8067152E-005  9.8788295E-006 0.0 -2.1583643E-001  4.9338282E-001 0.0 -1.6355922E-001  5.5132269E-001 0.0  4.8233592E-004  6.8036940E-006 0.0  3.9410720E-004  7.5406228E-005 0.0  3.3783401E-004  1.1085855E-004 0.0  2.8419126E-004  1.7528705E-004 0.0  2.6876299E-004  1.4156686E-004 0.0 -7.0991214E-003  1.6987877E-003 0.0  5.1917237E-004 -4.7510332E-005 0.0  1.6068093E-004 -7.4362440E-005 0.0  1.2429124E-004 -1.1341085E-004 0.0  8.5725988E-005 -3.1282726E-005 0.0  1.9070371E-005 -5.2248427E-005 0.0  3.9188137E-005 -1.5880137E-004 0.0  5.0143034E-004 -7.1182919E-005 0.0  4.7964746E-004 -7.4427676E-005 0.0  4.5499920E-002  7.2256574E-001 0.0  3.0514795E-002 -8.2805997E-002 0.0 -7.5312296E-002 -1.3476671E-001 0.0 -5.2434723E-002 -1.8828790E-001 0.0  2.2324012E-004  2.1149748E-004 0.0  1.9051485E-004  1.6211618E-004 0.0  1.8494204E-004  2.3707889E-004 0.0 -6.4122382E-002 -1.0169459E-001 0.0 -7.0765410E-002 -7.3608970E-002 0.0 -1.0157707E-001 -4.6285868E-002 0.0 -3.9156724E-002 -1.7402355E-001 0.0  7.9396816E-002  6.7936009E-001 0.0 -1.0949780E-001  4.9620846E-001 0.0 -1.1732921E-001  6.1430419E-001 0.0 -1.3867488E-001  6.0771274E-001 0.0 -1.0379785E-001  6.6173397E-001 0.0 -8.5924854E-002  6.7478365E-001 0.0 -1.1052987E-001  6.0716306E-001 0.0 -7.8152921E-002  6.6673272E-001 0.0  1.8341598E-004 -5.0073440E-005 0.0  4.6576953E-004 -1.2892921E-004 0.0  1.6649891E-002  7.4656227E-001 0.0  5.8465370E-003  6.9166056E-001 0.0 -9.0211269E-003  7.5458880E-001 0.0 -7.2217669E-002  2.4175925E-001 0.0  4.0137529E-004 -8.2936501E-005 0.0  2.7094586E-004  7.8301688E-005 0.0 -2.2172480E-002  6.9277725E-001 0.0  2.1102233E-004  1.1643898E-002 0.0 -6.0476523E-003 -1.3277917E-002 0.0  5.7189573E-004 -8.1705937E-004 0.0  8.8066258E-007 -7.1188005E-007 0.0 -2.7701929E-002  5.8790012E-003 0.0 -1.5620693E-001  6.3403069E-002 0.0 -1.5579376E-001  5.4004488E-002 0.0  2.6355021E-005 -1.1574426E-005 0.0 -1.5372596E-001  1.1874703E-001 0.0 -1.4341757E-001  8.9447152E-002 0.0  2.5650391E-004 -9.8114790E-006 0.0 -5.0759959E-002  6.8079388E-002 0.0 -7.1466473E-002 -1.5362689E-001 0.0 -5.3062307E-002 -2.0730252E-001 0.0 -3.2221552E-002 -2.1189932E-001 0.0 -3.5006134E-002 -2.3012647E-001 0.0 -5.8410602E-002 -2.2560283E-001 0.0 -4.1568090E-002 -2.4954409E-001 0.0 -6.7727917E-002 -2.4298920E-001 0.0 -5.0927612E-002 -2.7106844E-001 0.0 -7.8628114E-002 -2.5954112E-001 0.0 -6.0815572E-002 -2.9449567E-001 0.0 -8.7698874E-002 -2.7489003E-001 0.0 -6.8625900E-002 -3.1906373E-001 0.0 -9.0585661E-002 -2.8767975E-001 0.0 -7.0338280E-002 -3.4260952E-001 0.0 -9.7020062E-002 -1.9739035E-001 0.0 -7.9420429E-002 -1.8240906E-001 0.0 -8.1914647E-002 -2.9614472E-001 0.0 -6.1112213E-002 -3.6114041E-001 0.0 -9.3614694E-002 -1.9706755E-001 0.0 -4.6783434E-002 -1.5237966E-001 0.0 -2.3232156E-002 -1.5499619E-001 0.0 -1.4568204E-001  8.4721249E-003 0.0 -3.0381863E-002 -1.8353869E-001 0.0  7.5495450E-003 -3.6895323E-001 0.0  6.7211039E-002 -3.5075068E-001 0.0 -2.4210466E-003  1.1874858E-002 0.0 -2.4796038E-003  4.5324439E-003 0.0 -1.2165566E-003  4.3468982E-004 0.0 -2.6900112E-001  3.6024960E-001 0.0 -1.7413211E-002  2.3638255E-001 0.0 -7.7055690E-003  4.9347960E-003 0.0 -5.1149271E-003  3.5607546E-003 0.0  3.9211983E-003  6.2887327E-005 0.0  3.6456716E-003  2.1407133E-005 0.0  5.4613758E-003  4.4565004E-005 0.0  6.7600518E-003 -2.7974906E-004 0.0  7.8640053E-003  1.9581887E-004 0.0  5.4350053E-003 -3.0060243E-005 0.0  4.6048588E-003 -1.3730180E-004 0.0  2.5046710E-003 -2.5370460E-005 0.0  2.5535612E-003  1.7754614E-005 0.0  2.6696993E-003  5.8801335E-005 0.0  3.1822763E-003  6.8343006E-003 0.0  5.2888127E-003  1.4435050E-004 0.0 -2.3832259E-004  3.0047508E-004 0.0  1.3011423E-005  1.0171005E-005 0.0  3.9100404E-006  6.6386209E-006 0.0  6.7767443E-002  1.9363318E-001 0.0  4.3646800E-004 -8.3140935E-005 0.0 -1.9737383E-002  7.6424060E-003 0.0 -3.3027367E-002  7.4728437E-001 0.0  4.6184354E-006  2.3716410E-006 0.0 -4.1548207E-002 -3.3246438E-001 0.0 -4.5211390E-002  1.2714219E-002 0.0  3.5119128E-004 -4.8264963E-005 0.0  4.1617589E-004 -4.2688849E-005 0.0  4.3919970E-004 -4.1460522E-005 0.0  3.9918582E-004 -4.5832347E-005 0.0 -2.9077412E-002  3.0818739E-001 0.0 -3.0321963E-002  4.1392979E-001 0.0 -5.4438440E-002  4.6947883E-001 0.0 -4.9963346E-002  5.4234534E-001 0.0 -3.6525055E-002  4.7970379E-001 0.0 -1.4000373E-001  5.4776694E-001 0.0 -1.0548711E-001  4.8602673E-001 0.0  1.5153264E-004  2.2862883E-004 0.0  3.1132998E-004 -4.4419991E-005 0.0 -7.2197179E-002 -4.6203042E-002 0.0 -2.5549662E-003  9.7256145E-003 0.0 -7.3822599E-004  9.5999061E-004 0.0  4.8518098E-004 -1.7299702E-004 0.0  1.5369291E-002 -3.6097470E-001 0.0  4.6195582E-005  3.2730697E-005 0.0 -9.3057077E-002 -7.5642998E-002 0.0 -1.0255507E-002  6.0583596E-001 0.0 -3.7811591E-002  6.0289322E-001 0.0  1.1623330E-004 -3.8814539E-004 0.0  6.6489270E-005 -4.6025006E-004 0.0  2.4893255E-005 -4.6747782E-004 0.0 -4.7689654E-005 -4.4801478E-004 0.0 -3.0150783E-004 -3.1106053E-004 0.0 -2.0517688E-001  1.8497264E-001 0.0 -1.1161251E-001  4.2932227E-002 0.0  1.0042159E-002  3.9976045E-004 0.0 -2.5407858E-002  6.1129537E-003 0.0 -8.1580261E-002  3.3358846E-001 0.0 -1.5748357E-003  5.1208070E-004 0.0 -9.6939187E-003  8.4292190E-003 0.0  1.1341943E-004  1.5161169E-004 0.0  1.3397962E-004  9.9543404E-005 0.0 -1.7131222E-002  2.2378277E-001 0.0 -5.8220356E-002  3.4764803E-001 0.0  4.2978499E-002  7.3137283E-001 0.0 -2.0471133E-002  7.7742057E-001 0.0  1.2892211E-002  6.1792898E-003 0.0 -1.3247046E-002  1.5706947E-002 0.0 -6.6151377E-002  6.8154875E-002 0.0 -8.5758505E-004 -1.7958317E-004 0.0 -8.1372336E-004 -4.2169864E-004 0.0 -8.9157628E-004 -3.2068748E-004 0.0  1.4245904E-003  4.0298167E-005 0.0 -8.4960682E-002  2.1240562E-001 0.0 -4.5172204E-002 -6.1032344E-002 0.0 -4.4357951E-002 -3.4407161E-002 0.0  5.0468012E-004 -1.0758471E-004 0.0 -2.9967640E-002 -1.3664380E-001 0.0 -5.8541002E-002  6.5027837E-001 0.0  3.0116120E-004 -1.7332396E-005 0.0  3.5138710E-004 -1.6995219E-004 0.0  2.9763185E-004 -1.0679020E-004 0.0 -1.8116274E-002 -1.6985723E-001 0.0 -5.5101989E-003  5.2522576E-003 0.0 -1.1723301E-002  1.4349391E-002 0.0 -2.0320473E-003  1.3119059E-003 0.0  3.3620633E-004 -1.8484877E-005 0.0  4.4783781E-004 -3.6045003E-005 0.0 -6.0544497E-002  3.4159075E-001 0.0 -4.9337654E-002  3.2138705E-001 0.0 -4.7447454E-002  2.9261506E-001 0.0 -6.2551228E-002  4.8445523E-001 0.0 -6.7398984E-002  5.2010278E-001 0.0 -9.3467840E-002 -2.1449213E-002 0.0 -2.0865157E-001  1.8925962E-001 0.0  1.2146636E-004 -2.8818330E-004 0.0  6.1037667E-005 -2.8599242E-004 0.0  4.3408872E-004  4.5411952E-005 0.0  3.8286872E-004  3.5500405E-005 0.0  4.1840231E-004  1.4904443E-005 0.0  3.2372754E-004  1.2737456E-005 0.0 -7.9294561E-003  2.6558294E-001 0.0 -9.0658373E-003  2.4182534E-001 0.0 -7.8431309E-003  2.9436034E-001 0.0  1.2140842E-003  1.8780565E-002 0.0  5.1356944E-005 -4.7061010E-005 0.0 -6.9948706E-004  8.1187480E-004 0.0 -3.6067168E-003  1.9525214E-001 0.0 -1.5173624E-002  3.1008774E-001 0.0 -5.5087672E-003  2.2255021E-001 0.0 -3.1456597E-003  1.2826212E-002 0.0 -3.0515622E-003  1.8222053E-002 0.0 -5.4176138E-003  3.2052628E-002 0.0 -3.9875142E-003  1.6585902E-001 0.0 -1.5094290E-002  2.5868960E-001 0.0 -4.6108009E-002  3.7936484E-001 0.0  6.5744751E-002  6.7815191E-001 0.0  1.1840225E-001  6.1407180E-001 0.0  1.0446276E-001  5.8840170E-001 0.0  1.6742889E-001  5.1880515E-001 0.0  1.4213603E-001  4.7255405E-001 0.0  2.2232693E-001  3.9090698E-001 0.0  2.4219744E-001  4.3075511E-001 0.0  3.1395059E-001  3.0037903E-001 0.0  3.2656284E-001  3.3061123E-001 0.0  1.8187664E-001  3.3570517E-001 0.0 -1.5133196E-002 -1.9409610E-001 0.0 -1.0551664E-003  9.7239041E-004 0.0 -1.1255397E-002  8.9234613E-003 0.0 -2.1431927E-003  2.1175500E-003 0.0 -1.1003716E-003  7.6877674E-004 0.0 -1.5659549E-002  3.2470520E-001 0.0  7.5449675E-005  1.8080924E-004 0.0 -6.1214564E-002  3.8917096E-001 0.0 -5.1164801E-002  5.0061210E-001 0.0  3.3902600E-004  5.8720860E-005 0.0  2.9376111E-004  2.3568728E-005 0.0  2.6129065E-004  3.9219886E-005 0.0  2.0146021E-004  4.2898336E-005 0.0  2.0491442E-004  1.0115979E-004 0.0  2.2541652E-004  7.5716039E-006 0.0  2.3734693E-004 -7.8673390E-005 0.0  2.2837854E-004 -5.6592633E-005 0.0  2.7526723E-004 -6.8519165E-005 0.0  1.7651284E-004 -3.6771637E-005 0.0  1.3806155E-004 -4.5660686E-006 0.0  3.5260785E-004 -1.8483421E-005 0.0 -5.7300709E-006  1.2510863E-005 0.0 -2.1369545E-005  6.8701383E-005 0.0 -2.5604242E-001  4.6326057E-001 0.0 -2.1811120E-001  5.0797390E-001 0.0 -2.4204021E-001  4.6912322E-001 0.0 -1.8379992E-001  1.5344567E-001 0.0 -8.1825194E-003 -1.1962910E-001 0.0  1.2127584E-004  1.2195713E-005 0.0 -2.3138265E-002 -2.2690735E-001 0.0  1.3058923E-004  4.9522764E-005 0.0  7.6702349E-005  4.6849509E-005 0.0  5.0035351E-004 -1.2545041E-005 0.0  4.4446773E-004 -4.7473119E-006 0.0  4.4830780E-004 -1.3325385E-005 0.0  5.1585043E-004 -3.4774492E-005 0.0  4.5616345E-004 -2.7546001E-005 0.0  3.5098694E-004 -5.4368597E-006 0.0  3.3024976E-004 -7.3343900E-006 0.0  3.3860058E-004 -2.9570019E-007 0.0  3.5988369E-004 -7.8942916E-005 0.0  2.6663077E-004 -3.9054808E-005 0.0 -5.3789519E-002  2.0809754E-002 0.0 -2.7727614E-004 -1.5568784E-004 0.0  5.8447643E-005 -2.2042524E-004 0.0 -2.8114820E-001  3.9383745E-001 0.0 -3.6519774E-002 -2.7489852E-001 0.0 -1.0457745E-001  5.5833573E-002 0.0  2.5859395E-003  3.6287332E-003 0.0 -1.0379195E-001  1.3024450E-001 0.0 -7.2081008E-002  8.9986020E-002 0.0 -1.1220024E-001  7.1987522E-002 0.0 -1.2788801E-001  4.2163735E-002 0.0 -9.0017244E-002  2.4788035E-002 0.0  1.0710199E-002  8.6142826E-003 0.0  6.8640602E-003  1.7830363E-002 0.0 -6.4738421E-003  3.3564980E-002 0.0 -1.5767374E-003  1.3078752E-002 0.0 -8.8794697E-003  1.2664288E-002 0.0 -2.7486828E-002  2.9981775E-002 0.0  6.9883414E-005  8.0693900E-005 0.0  3.0722225E-005  3.1333095E-005 0.0 -1.4279915E-002  1.0232486E-002 0.0  2.0650971E-004 -2.6152673E-004 0.0 -2.2394339E-002  2.7241658E-001 0.0 -3.8774379E-004  1.4659614E-004 0.0 -2.0378299E-002 -4.0605966E-002 0.0 -1.9567394E-001  4.4038170E-001 0.0 -2.5940208E-001  4.4392585E-001 0.0 -1.0948429E-002  2.7116752E-002 0.0 -3.5093225E-002 -3.5821042E-001 0.0  8.9937592E-007 -2.1583770E-006 0.0 -7.5275345E-002  5.8293293E-001 0.0 -1.6076687E-001  1.4835086E-001 0.0  1.3765920E-002  7.0869817E-003 0.0  6.9422405E-006 -5.3210693E-006 0.0  1.5095817E-006 -1.0933348E-006 0.0  4.1561353E-005  5.5270686E-006 0.0  2.6810232E-005 -8.7644390E-005 0.0 -1.4147528E-002 -1.7885890E-001 0.0  1.8481509E-004 -5.3143948E-006 0.0  1.7238106E-005 -1.4479680E-004 0.0 -1.7182623E-001  4.9493567E-001 0.0  2.6351732E-004 -8.7443448E-006 0.0  3.4773327E-004 -1.2882297E-005 0.0  5.0634661E-004 -1.5083698E-004 0.0  1.8532061E-004 -2.9310341E-005 0.0  2.3670475E-004 -4.0200391E-005 0.0  1.4613944E-004 -2.3501921E-005 0.0 -3.1949637E-004  2.2792266E-004 0.0 -2.5689380E-004  2.8629712E-004 0.0 -1.3134252E-002 -2.2668241E-001 0.0  3.6614469E-005  3.1759351E-004 0.0  3.7711482E-004 -4.7314730E-005 0.0  2.7365643E-004 -2.2870331E-005 0.0  2.3680843E-004 -1.2095677E-006 0.0 -3.2582046E-003 -1.1726857E-001 0.0 -1.8044818E-002 -2.0898990E-001 0.0 -4.8378205E-003 -1.3417057E-001 0.0 -2.9770500E-002 -2.4904781E-001 0.0 -9.3823688E-003 -1.6058126E-001 0.0 -4.0133069E-002 -3.0018311E-001 0.0 -6.4657703E-002  6.3290768E-001 0.0 -3.5740394E-002 -3.7125875E-001 0.0 -1.7901998E-001  5.5426761E-001 0.0 -5.6321495E-002 -2.9925166E-001 0.0 -8.8605196E-002 -9.0792098E-002 0.0 -7.1348360E-002 -1.9047775E-001 0.0 -7.8227726E-002 -7.4156998E-002 0.0 -9.6131241E-002 -8.7574352E-002 0.0  5.5927232E-002 -3.2532954E-001 0.0  1.3343943E-001 -3.1094518E-001 0.0 -1.0874734E-001  6.7202565E-003 0.0 -8.9246876E-002 -1.0098018E-001 0.0 -5.2305858E-004  2.3072305E-004 0.0 -3.7993395E-004  2.5068078E-004 0.0 -6.2405869E-002  7.2204842E-001 0.0 -1.6515539E-001  1.5936624E-001 0.0 -1.1959343E-001  2.2311995E-002 0.0 -8.6799895E-002  5.7199169E-001 0.0 -9.9028142E-002 -7.7677973E-003 0.0 -9.3715391E-002 -1.0564109E-001 0.0 -9.9168964E-002 -1.0459214E-001 0.0 -8.8524407E-002 -1.9175765E-001 0.0 -5.5904556E-002 -1.2809780E-001 0.0 -3.6503904E-002 -1.1411999E-001 0.0 -4.1836374E-002 -8.8717708E-002 0.0 -1.7244753E-002 -8.4319696E-002 0.0 -1.0215645E-001 -5.7102326E-002 0.0 -7.6356820E-002 -1.2142073E-001 0.0 -1.1122376E-001  3.4439140E-001 0.0 -1.5191889E-001  6.4057157E-002 0.0 -1.2463923E-001 -1.6029985E-002 0.0 -1.1044014E-001 -3.7300787E-003 0.0 -1.3593194E-001  9.3758902E-003 0.0 -3.3132469E-002 -1.9369258E-001 0.0 -9.0732262E-002  3.5320280E-001 0.0 -1.2615183E-001 -3.0789140E-002 0.0 -1.2576615E-002 -1.1651495E-001 0.0 -7.3026771E-002 -1.6965377E-001 0.0 -5.0001710E-002  3.7790144E-001 0.0 -5.5400608E-002  4.8968693E-001 0.0  1.1170419E-002  3.9784036E-001 0.0 -5.5010179E-003  7.1091070E-002 0.0  2.1116016E-002  7.6407309E-001 0.0  1.6815386E-002  7.5288620E-001 0.0  1.3828217E-001 -2.7830986E-001 0.0  2.2504898E-001 -2.5096763E-001 0.0  3.1654556E-001 -1.7087814E-001 0.0  2.7846226E-001 -1.9707746E-001 0.0  3.6140054E-001 -1.3895720E-001 0.0  3.9934867E-001 -9.0233446E-002 0.0  2.6216163E-001 -1.1798006E-001 0.0  1.8545133E-001 -1.5495357E-001 0.0  4.1619107E-001 -7.5279730E-002 0.0  4.6396839E-001 -2.7857125E-002 0.0  4.4887124E-001 -3.0742451E-002 0.0  5.1145745E-001  1.8082191E-002 0.0  4.2448229E-001  7.5777746E-002 0.0  4.6927942E-001  1.0996351E-001 0.0  3.4998292E-001  1.8948925E-001 0.0  3.9187472E-001  2.2029657E-001 0.0  4.9192388E-001  1.2242609E-001 0.0  4.1615336E-001  2.2511821E-001 0.0  4.5344413E-001  1.0370175E-001 0.0  2.8045025E-001  3.0031535E-001 0.0  2.9662603E-001  1.3220861E-001 0.0  2.3778843E-001  2.4533796E-001 0.0  1.8886052E-001  1.6903393E-001 0.0  2.2069947E-001  4.0720076E-001 0.0 -2.3697134E-004  7.7928287E-001 0.0  2.7975769E-001  6.8419009E-002 0.0  1.7123252E-002 -2.8551983E-002 0.0  3.1356338E-002 -1.5068495E-001 0.0  1.8358872E-001 -2.4432384E-001 0.0  3.6071688E-001  1.2994746E-002 0.0  2.8952314E-001 -7.4001420E-002 0.0  3.8790741E-002  5.0103899E-001 0.0 -2.9463583E-002  4.9893508E-001 0.0 -3.4268380E-002 -1.0059233E-002 0.0  1.5528182E-001 -2.9697572E-002 0.0 -4.8265308E-002  6.8536749E-001 0.0  1.2104478E-001  6.0306183E-001 0.0  9.5958758E-003 -4.9760727E-002 0.0  1.4825547E-001  2.7846311E-001 0.0  2.2083904E-002  6.0252083E-001 0.0  1.7593027E-001  5.3170888E-001 0.0 -4.3585257E-002 -5.9919086E-002 0.0  2.4001857E-001  4.3529759E-001 0.0  3.1148743E-001  3.3104321E-001 0.0  9.9192541E-004  5.0365404E-001 0.0 -7.7593597E-002  3.8444314E-002 0.0 -9.8153182E-002  5.3409859E-003 0.0 -1.0044910E-001 -1.9911907E-001 0.0  5.5433066E-005  1.3450558E-005 0.0 -1.0157953E-001 -9.8437592E-002 0.0  4.2568555E-004 -2.3307021E-004 0.0  1.5684175E-004 -5.2499126E-006 0.0  1.4015234E-004 -5.6910005E-006 0.0  1.0108083E-004 -5.8763478E-006 0.0  1.0954999E-004 -5.0060486E-006 0.0  1.7235346E-004 -2.4030244E-006 0.0  1.7484308E-004 -1.1204152E-007 0.0  6.2035851E-005 -5.9371725E-006 0.0  6.5032034E-005  9.5068322E-006 0.0  8.4483549E-005  4.1910313E-006 0.0  1.0523531E-004  1.0215712E-005 0.0  2.2284773E-006 -1.4229896E-006 0.0 -1.5532708E-002 -3.6930067E-001 0.0  5.1584661E-004 -6.3819678E-005 0.0  2.8794084E-004 -2.2041339E-005 0.0  1.7452149E-005 -2.0347847E-004 0.0 -3.5180679E-003 -2.5564681E-001 0.0 -6.2456691E-002  3.4157810E-002 0.0 -1.8442336E-001  1.7198809E-001 0.0 -4.8088131E-004 -3.5673866E-004 0.0 -1.0286134E-003 -3.4903684E-004 0.0  6.3257504E-005  3.5215184E-004 0.0 -7.4308508E-004 -4.3167778E-004 0.0  1.0548068E-002  6.9564867E-003 0.0  5.7374236E-003  3.1391225E-003 0.0 -3.9581510E-004 -4.0999597E-005 0.0  2.7892796E-001  2.2346700E-001 0.0  1.8182862E-005  8.7626975E-005 0.0  3.7881193E-002  5.9846957E-001 0.0  6.0982032E-002  3.5169431E-001 0.0 -2.5258937E-003  1.3290827E-003 0.0 -1.4706166E-003  6.2889826E-004 0.0  4.5736209E-005 -5.0389624E-005 0.0 -4.5347357E-002  4.5472894E-001 0.0 -6.9488332E-002  2.9966555E-001 0.0  4.1035066E-001  2.5992454E-002 0.0 -8.5803474E-003  8.6243149E-004 0.0 -2.4474842E-003  6.4284495E-004 0.0 -2.4769186E-003  1.8995607E-004 0.0 -6.6215616E-003  1.0968437E-003 0.0 -6.8779243E-003  9.1290652E-004 0.0 -1.3005946E-002  2.6369846E-003 0.0  8.2084296E-006  2.2238617E-005 0.0  3.1417666E-004  4.2601532E-006 0.0  3.1727319E-004 -8.0080431E-005 0.0  6.7341261E-005 -6.5949961E-006 0.0  8.5848724E-003 -2.4617893E-001 0.0 -2.8853716E-002  2.3190838E-001 0.0 -5.5153071E-002  2.2402005E-001 0.0 -8.2121060E-004  3.1549503E-004 0.0 -5.7923311E-002  7.2986190E-001 0.0 -2.0430436E-002  1.5463701E-001 0.0  4.0494681E-001  1.9785022E-001 0.0  3.0162887E-004 -2.1028853E-005 0.0 -1.1220599E-003  2.0611845E-003 0.0 -1.0034571E-003  1.6411906E-003 0.0  9.1722972E-002 -2.6153977E-001 0.0 -1.2491053E-002 -2.0040425E-001 0.0  8.5245602E-002 -8.6359955E-002 0.0 -1.9394388E-002  1.7524513E-001 0.0 -2.2230564E-002  1.5290930E-001 0.0 -1.4838502E-001  3.7333652E-002 0.0  1.3668142E-004 -3.2009501E-006 0.0  3.1950152E-002 -1.4657688E-002 0.0 -1.2469654E-002 -5.6574687E-003 0.0 -1.8244172E-003  1.2025352E-004 0.0  3.0377709E-007 -3.0934785E-004 0.0 -7.5238557E-002  1.3650771E-003 0.0  1.0501753E-001 -1.7491617E-001 0.0  1.3421257E-001  8.4818902E-002 0.0 -2.4834429E-002  8.8882173E-003 0.0  6.2443912E-005  8.7297435E-005 0.0  2.4321040E-004 -2.0843076E-005 0.0 -3.7730965E-002  2.6533738E-001 0.0 -1.1189523E-002  7.4672003E-001 0.0  1.2003009E-004  4.1508946E-004 0.0 -3.1304515E-004 -2.5790551E-004 0.0  1.9794824E-007 -8.2884900E-007 0.0 -4.1519548E-002  1.1534048E-001 0.0 -1.3486780E-001  2.3114023E-001 0.0  2.3670496E-004 -3.9196773E-004 0.0  1.3574272E-004 -2.0184426E-004 0.0  2.0895416E-004  1.9170465E-004 0.0 -1.3657490E-001  4.4121232E-001 0.0  8.1176894E-006  4.4562608E-006 0.0  1.3882690E-004  4.0777429E-006 0.0 -5.1340836E-004  1.0165986E-006 0.0  1.4442903E-004  2.7507011E-004 0.0 -1.6001847E-001  3.3355386E-001 0.0  3.4656603E-001 -8.9854029E-003 0.0  8.4145942E-005 -6.8481727E-006 0.0 -1.5118411E-002  6.9979423E-003 0.0 -6.0256662E-003  1.3463576E-001 0.0 -5.0502682E-003  5.9535066E-002 0.0 -4.3145583E-002  1.2946432E-001 0.0 -4.0822404E-003  5.4465892E-002 0.0 -6.2858345E-003  1.9125037E-001 0.0 -1.4254969E-003  4.4662415E-003 0.0 -5.3442556E-003  1.5089282E-001 0.0 -3.2114452E-003  3.1616786E-002 0.0 -5.1524214E-003  1.0386123E-001 0.0 -7.3001831E-003  8.9111958E-002 0.0  1.3710582E-002  1.3745002E-004 0.0  7.0050370E-005 -4.0292127E-004 0.0 -6.7481165E-002 -3.1500028E-003 0.0  3.9379469E-003  1.2612708E-002 0.0  3.1806290E-004 -7.4823709E-005 0.0 -8.0643998E-004  1.6349662E-004 0.0 -7.8617812E-002  4.6807667E-001 0.0  2.0428833E-004  4.2422620E-005 0.0  6.5817047E-005  1.5473952E-004 0.0  6.8125403E-005  1.9959663E-004 0.0 -4.9339259E-005  2.4744844E-004 0.0  4.4265518E-004 -1.9551457E-004 0.0 -1.3738407E-002  6.8527129E-002 0.0  1.3971959E-004  3.2044394E-005 0.0 -2.3121789E-002  7.6013532E-002 0.0  3.3022848E-004 -5.0364117E-005 0.0 -1.2010718E-002  3.0006648E-003 0.0 -7.5749338E-002  4.1149361E-002 0.0 -1.6010236E-003  1.6860090E-002 0.0  5.2714554E-005 -3.6899307E-004 0.0  5.1059952E-003  9.0971697E-003 0.0  2.1998215E-002  1.2380626E-001 0.0  1.8181419E-003  1.8387846E-001 0.0  4.2859977E-003  1.9871653E-002 0.0  6.6892946E-003 -3.6721584E-003 0.0 -4.0983022E-002  7.5906494E-001 0.0  3.9894823E-002  1.8219675E-001 0.0  4.5647277E-004 -3.3585116E-005 0.0 -1.1613762E-001  6.9633338E-002 0.0 -1.4511701E-006  3.3804792E-006 0.0 -5.3707125E-003  8.9722858E-002 0.0 -1.0452944E-006  8.8761922E-008 0.0  4.3498414E-004 -1.7635022E-005 0.0 -5.0286999E-003  8.1625489E-004 0.0  1.9689776E-005  1.3526161E-004 0.0 -6.1983557E-002  5.9889348E-001 0.0  9.7262945E-005  2.7151652E-004 0.0 -6.2795730E-002 -2.3883533E-002 0.0  3.0481612E-001 -8.0177769E-002 0.0  2.7023034E-001 -1.9281966E-002 0.0 -1.1009448E-002  3.0849046E-003 0.0 -5.2662332E-003  2.1490463E-003 0.0  4.6007347E-004 -7.8834396E-005 0.0 -2.6899251E-001  4.3632341E-001 0.0 -4.7821261E-002  1.0803059E-002 0.0  1.3971576E-001 -7.0762318E-002 0.0 -7.4351271E-002  9.4507105E-003 0.0 -2.5113371E-002  3.2534734E-002 0.0  4.8907475E-004 -1.2030471E-004 0.0  1.7273895E-003 -1.7810184E-003 0.0  1.8005725E-004 -1.8411448E-005 0.0  3.4192177E-004 -1.1530513E-004 0.0  5.0459762E-005  1.0406203E-004 0.0  2.1399926E-004 -1.9070087E-005 0.0 -2.3719015E-002  4.2966788E-001 0.0 -9.8069383E-003  3.1930590E-003 0.0 -2.1937708E-001  3.6347457E-001 0.0 -2.5077456E-002  4.1472774E-001 0.0 -6.9533158E-004  1.7916677E-005 0.0 -9.4356991E-003  5.4300190E-003 0.0 -1.3191209E-001  3.6123169E-001 0.0  2.1875564E-004  1.7412633E-005 0.0 -8.5413924E-003  9.0118415E-002 0.0 -9.0225957E-004 -6.6027906E-005 0.0 -6.9134523E-003  1.1549808E-001 0.0  3.4833460E-003 -4.6712890E-005 0.0  5.1092858E-003  1.0141736E-006 0.0  5.4888248E-003 -1.6948481E-005 0.0 -2.4343210E-002  4.0979011E-003 0.0 -9.2677451E-002  5.9700841E-002 0.0 -2.2512462E-003  7.4608853E-004 0.0 -2.6526895E-003  1.0615961E-003 0.0 -2.3531353E-003  7.6301419E-003 0.0  7.0367304E-005 -9.4050879E-004 0.0  8.3217632E-003 -8.6990723E-005 0.0 -6.6871534E-003  4.1329894E-002 0.0 -7.8120808E-003  5.8334266E-002 0.0  5.6850630E-003  1.3495351E-004 0.0  5.0731142E-003  3.9663014E-006 0.0  7.3794256E-003 -1.4218206E-004 0.0  8.6669891E-004 -2.4535337E-005 0.0  3.8776815E-003  8.8833597E-006 0.0  8.1192872E-003  1.5709216E-003 0.0 -1.9093386E-003  2.6357712E-003 0.0  3.5454260E-003  3.4240292E-005 0.0  1.1624133E-004  7.4635443E-005 0.0  8.0988084E-003 -4.0231352E-005 0.0  2.8434966E-003 -4.0572303E-005 0.0 -2.7785468E-004 -3.5938485E-005 0.0 -3.8617281E-004 -1.3801313E-005 0.0  4.1898126E-003  7.0212103E-005 0.0 -1.2911284E-003 -8.5323361E-005 0.0  6.2908876E-003 -8.5608345E-005 0.0 -8.4677076E-004  2.1972835E-004 0.0  3.1011874E-003  4.3978888E-005 0.0  2.4411694E-003  1.1964519E-003 0.0  2.8789360E-003 -3.4814430E-005 0.0  4.2610404E-003  1.6163362E-006 0.0  4.6677271E-003  1.2280978E-003 0.0 -2.8309309E-003  1.6403441E-004 0.0 -1.2547853E-001  2.0466593E-002 0.0 -2.5228466E-003  3.8306326E-003 0.0 -7.6594569E-002  7.0556730E-001 0.0  4.6373631E-003 -4.6693764E-004 0.0  1.0431615E-002 -1.4952938E-004 0.0  7.0835118E-003  2.7184590E-005 0.0  5.9987420E-003 -3.0263181E-005 0.0  8.9971242E-003  2.6981097E-005 0.0 -3.4101723E-002  5.3141796E-003 0.0 -2.2266833E-002  1.6371272E-003 0.0 -1.0311996E-002  1.1477470E-003 0.0 -1.0368054E-002  2.7424224E-001 0.0 -6.3495295E-005  2.0684204E-005 0.0 -5.0384026E-003  1.0344782E-002 0.0 -1.4666290E-005  2.5562265E-004 0.0  1.2594493E-004 -2.1712194E-005 0.0 -4.6422410E-003 -2.1455718E-002 0.0 -1.9765667E-003  4.1789809E-003 0.0 -2.6279087E-002  7.5448303E-001 0.0  1.0932066E-004  4.7147172E-005 0.0 -2.4381469E-002  6.0302935E-002 0.0 -1.2777183E-001  1.5827872E-001 0.0 -5.9302370E-004  7.4367228E-002 0.0 -2.3985704E-003  1.1795388E-001 0.0 -1.8366038E-003  1.0396901E-001 0.0 -2.2971132E-003  1.1278575E-001 0.0 -2.5151310E-005 -3.0205718E-004 0.0 -6.7624171E-004  8.2838608E-002 0.0 -1.7529397E-003  1.3688004E-001 0.0 -7.4553341E-004  1.4175642E-001 0.0 -9.3548150E-004  5.8050006E-002 0.0 -6.5819084E-004  1.6664984E-002 0.0 -6.3987698E-004  1.5530933E-002 0.0 -1.9480926E-004  7.4427200E-004 0.0 -9.4941222E-004  8.5527586E-002 0.0 -9.6922203E-004  3.9322991E-002 0.0 -6.6165156E-004  2.8636509E-002 0.0  5.3643419E-004  1.0335850E-001 0.0 -6.5080581E-004  2.3518660E-002 0.0 -8.3782023E-004  4.5481437E-002 0.0 -3.1946347E-004  2.8712573E-003 0.0 -6.6268457E-004  6.0209016E-002 0.0 -8.2720966E-004  1.3757950E-002 0.0 -6.8676959E-004  1.2195974E-002 0.0 -1.4014501E-003  9.7400407E-002 0.0 -8.4048210E-004  7.1431289E-002 0.0 -5.8711989E-004  8.3316428E-003 0.0 -6.3188560E-004  5.5039870E-003 0.0 -8.7079023E-004  6.7835840E-002 0.0  1.6264785E-004 -1.9221151E-005 0.0 -2.9332968E-002  5.0563887E-001 0.0 -1.4407707E-002  1.0106488E-001 0.0 -4.6412105E-002  2.3159945E-001 0.0  4.0068301E-003  7.6136075E-001 0.0 -3.2372611E-002  1.6572264E-001 0.0 -2.1812605E-002  1.2700123E-001 0.0 -3.8921393E-002  2.5630613E-001 0.0 -2.5244104E-002  1.4216382E-001 0.0 -2.3811327E-002  1.3053878E-001 0.0 -3.2639351E-002  1.6395774E-001 0.0 -2.7929895E-002  1.5950415E-001 0.0 -2.5494823E-002 -6.6982456E-002 0.0  1.0230388E-003  4.8205749E-003 0.0  3.2009742E-002  7.2125319E-001 0.0  4.8899642E-005 -1.7331743E-004 0.0  3.5597202E-001  1.6475154E-001 0.0  5.3676734E-003 -5.5414456E-003 0.0 -3.0358368E-003 -2.8082981E-003 0.0 -3.2386188E-003  2.1815251E-003 0.0  5.0229638E-001  5.6240293E-002 0.0 -3.6500835E-003 -4.3335009E-002 0.0 -2.6793850E-005  1.9399390E-004 0.0  1.8443976E-007 -1.1403137E-007 0.0 -4.2414807E-002  2.0107057E-002 0.0  5.5350851E-004 -2.2345144E-004 0.0 -1.0387228E-002  7.7550279E-001 0.0  6.5158478E-003  1.3576069E-002 0.0 -3.2863728E-004  8.1453680E-005 0.0 -2.3253409E-002 -2.1426593E-002 0.0  1.1240337E-001  4.1093276E-001 0.0  1.2701007E-001  2.7657027E-001 0.0  2.5117016E-005 -4.0392411E-004 0.0  5.2305240E-002  5.6004354E-002 0.0  1.5635701E-004 -4.3824895E-004 0.0  8.7189685E-002  5.3858144E-001 0.0 -3.8559497E-002  3.9099348E-002 0.0  2.8354740E-004 -6.7076390E-006 0.0  3.1415166E-005  5.3113698E-005 0.0 -3.9287008E-002  9.3348330E-002 0.0 -1.9300060E-002 -1.0968391E-001 0.0  6.3179182E-002  6.3271256E-001 0.0  5.0778071E-004 -5.1309845E-005 0.0 -3.8906507E-002  2.6407344E-001 0.0 -5.6826694E-002  1.1952855E-002 0.0  3.8692770E-004 -1.6632720E-004 0.0  1.4123606E-002  7.2387538E-001 0.0 -1.7607043E-003  2.2310568E-001 0.0  1.9302054E-001  1.9248920E-001 0.0 -2.7381715E-001  4.4111140E-001 0.0  3.0134877E-001  2.4526527E-002 0.0  3.6813584E-005 -2.1300508E-004 0.0  8.3453514E-005 -2.1115426E-004 0.0 -1.8551588E-002  6.4437840E-001 0.0  1.1565603E-006 -1.3292693E-006 0.0  1.8314445E-005  1.3069838E-004 0.0 -2.8044061E-003 -6.6207494E-002 0.0  4.2045996E-004  4.3054790E-006 0.0  3.8377495E-004 -1.9822038E-005 0.0  5.3914932E-003 -5.9017110E-005 0.0  4.8305200E-003  2.4411727E-005 0.0  6.4692417E-003  6.2092113E-005 0.0  1.1660964E-002 -5.3451337E-005 0.0  9.2436645E-003 -4.4354791E-005 0.0  4.4038142E-003 -4.2096968E-005 0.0  7.6189272E-003 -5.4968820E-006 0.0  4.2397394E-005  2.7745453E-004 0.0  8.4875526E-007  8.0379130E-007 0.0 -1.6000057E-001  4.0999683E-001 0.0  1.7634814E-004  1.9653947E-005 0.0  4.5948570E-003  7.7510411E-001 0.0  1.5361709E-002  1.7320000E-003 0.0  5.0089312E-004 -2.2976179E-005 0.0 -2.6747372E-001  3.5938481E-001 0.0 -8.1042244E-004  8.1696407E-004 0.0 -3.0653131E-002  2.7012514E-003 0.0 -8.9479279E-004 -6.1658478E-002 0.0  1.4168404E-003  1.3454034E-003 0.0  1.1538812E-004  1.3938434E-006 0.0  1.2439249E-004 -2.1540477E-006 0.0 -5.1692722E-002  4.9253948E-002 0.0 -9.3499085E-004  3.4433902E-004 0.0 -3.1798249E-002  1.5105618E-002 0.0 -1.3566294E-002  3.6895554E-003 0.0 -2.1138082E-002  8.6318662E-003 0.0  1.9291671E-004  6.1266458E-005 0.0 -9.9886632E-005  1.1616192E-004 0.0  9.9506820E-006  5.7584345E-005 0.0 -2.2546383E-004  1.8681633E-004 0.0 -1.5430585E-002  3.6022129E-001 0.0  2.3511031E-004  5.5013936E-006 0.0  5.7647878E-004  8.6563789E-004 0.0 -2.0599687E-003  7.1663368E-004 0.0 -1.6684337E-002  1.6218736E-002 0.0  1.8596231E-004 -4.1941724E-005 0.0  3.0364753E-003  4.6090488E-003 0.0  1.7921354E-004 -1.5841684E-005 0.0 -1.1185699E-001  6.9885105E-003 0.0  1.1201823E-004 -4.4049335E-007 0.0  4.5461270E-004  2.2831545E-005 0.0 -1.5947294E-004 -3.3980916E-004 0.0  3.8926412E-004  2.2208271E-005 0.0  1.2772010E-004 -1.4312533E-004 0.0
        </DataArray>
        <DataArray type="Float64" Name="velocitym" NumberOfComponents="3" format="ascii">
 0.0 0.0 0.0 0.0 0.0 0.0 0.0 0.0 0.0 0.0 0.0 0.0 0.0 0.0 0.0 0.0 0.0 0.0 0.0 0.0 0.0 0.0 0.0 0.0 0.0 0.0 0.0 0.0 0.0 0.0 0.0 0.0 0.0 0.0 0.0 0.0 0.0 0.0 0.0 0.0 0.0 0.0 0.0 0.0 0.0 0.0 0.0 0.0 0.0 0.0 0.0 0.0 0.0 0.0 0.0 0.0 0.0 0.0 0.0 0.0 0.0 0.0 0.0 0.0 0.0 0.0 0.0 0.0 0.0 0.0 0.0 0.0 0.0 0.0 0.0 0.0 0.0 0.0 0.0 0.0 0.0 0.0 0.0 0.0 0.0 0.0 0.0 0.0 0.0 0.0 0.0 0.0 0.0 0.0 0.0 0.0 0.0 0.0 0.0 0.0 0.0 0.0 0.0 0.0 0.0 0.0 0.0 0.0 0.0 0.0 0.0 0.0 0.0 0.0 0.0 0.0 0.0 0.0 0.0 0.0 0.0 0.0 0.0 0.0 0.0 0.0 0.0 0.0 0.0 0.0 0.0 0.0 0.0 0.0 0.0 0.0 0.0 0.0 0.0 0.0 0.0 0.0 0.0 0.0 0.0 0.0 0.0 0.0 0.0 0.0 0.0 0.0 0.0 0.0 0.0 0.0 0.0 0.0 0.0 0.0 0.0 0.0 0.0 0.0 0.0 0.0 0.0 0.0 0.0 0.0 0.0 0.0 0.0 0.0 0.0 0.0 0.0 0.0 0.0 0.0 0.0 0.0 0.0 0.0 0.0 0.0 0.0 0.0 0.0 0.0 0.0 0.0 0.0 0.0 0.0 0.0 0.0 0.0 0.0 0.0 0.0 0.0 0.0 0.0 0.0 0.0 0.0 0.0 0.0 0.0 0.0 0.0 0.0 0.0 0.0 0.0 0.0 0.0 0.0 0.0 0.0 0.0 0.0 0.0 0.0 0.0 0.0 0.0 0.0 0.0 0.0 0.0 0.0 0.0 0.0 0.0 0.0 0.0 0.0 0.0 0.0 0.0 0.0 0.0 0.0 0.0 0.0 0.0 0.0 0.0 0.0 0.0 0.0 0.0 0.0 0.0 0.0 0.0 0.0 0.0 0.0 0.0 0.0 0.0 0.0 0.0 0.0 0.0 0.0 0.0 0.0 0.0 0.0 0.0 0.0 0.0 0.0 0.0 0.0 0.0 0.0 0.0 0.0 0.0 0.0 0.0 0.0 0.0 0.0 0.0 0.0 0.0 0.0 0.0 0.0 0.0 0.0 0.0 0.0 0.0 0.0 0.0 0.0 0.0 0.0 0.0 0.0 0.0 0.0 0.0 0.0 0.0 0.0 0.0 0.0 0.0 0.0 0.0 0.0 0.0 0.0 0.0 0.0 0.0 0.0 0.0 0.0 0.0 0.0 0.0 0.0 0.0 0.0 0.0 0.0 0.0 0.0 0.0 0.0 0.0 0.0 0.0 0.0 0.0 0.0 0.0 0.0 0.0 0.0 0.0 0.0 0.0 0.0 0.0 0.0 0.0 0.0 0.0 0.0 0.0 0.0 0.0 0.0 0.0 0.0 0.0 0.0 0.0 0.0 0.0 0.0 0.0 0.0 0.0 0.0 0.0 0.0 0.0 0.0 0.0 0.0 0.0 0.0 0.0 0.0 0.0 0.0 0.0 0.0 0.0 0.0 0.0 0.0 0.0 0.0 0.0 0.0 0.0 0.0 0.0 0.0 0.0 0.0 0.0 0.0 0.0 0.0 0.0 0.0 0.0 0.0 0.0 0.0 0.0 0.0 0.0 0.0 0.0 0.0 0.0 0.0 0.0 0.0 0.0 0.0 0.0 0.0 0.0 0.0 0.0 0.0 0.0 0.0 0.0 0.0 0.0 0.0 0.0 0.0 0.0 0.0 0.0 0.0 0.0 0.0 0.0 0.0 0.0 0.0 0.0 0.0 0.0 0.0 0.0 0.0 0.0 0.0 0.0 0.0 0.0 0.0 0.0 0.0 0.0 0.0 0.0 0.0 0.0 0.0 0.0 0.0 0.0 0.0 0.0 0.0 0.0 0.0 0.0 0.0 0.0 0.0 0.0 0.0 0.0 0.0 0.0 0.0 0.0 0.0 0.0 0.0 0.0 0.0 0.0 0.0 0.0 0.0 0.0 0.0 0.0 0.0 0.0 0.0 0.0 0.0 0.0 0.0 0.0 0.0 0.0 0.0 0.0 0.0 0.0 0.0 0.0 0.0 0.0 0.0 0.0 0.0 0.0 0.0 0.0 0.0 0.0 0.0 0.0 0.0 0.0 0.0 0.0 0.0 0.0 0.0 0.0 0.0 0.0 0.0 0.0 0.0 0.0 0.0 0.0 0.0 0.0 0.0 0.0 0.0 0.0 0.0 0.0 0.0 0.0 0.0 0.0 0.0 0.0 0.0 0.0 0.0 0.0 0.0 0.0 0.0 0.0 0.0 0.0 0.0 0.0 0.0 0.0 0.0 0.0 0.0 0.0 0.0 0.0 0.0 0.0 0.0 0.0 0.0 0.0 0.0 0.0 0.0 0.0 0.0 0.0 0.0 0.0 0.0 0.0 0.0 0.0 0.0 0.0 0.0 0.0 0.0 0.0 0.0 0.0 0.0 0.0 0.0 0.0 0.0 0.0 0.0 0.0 0.0 0.0 0.0 0.0 0.0 0.0 0.0 0.0 0.0 0.0 0.0 0.0 0.0 0.0 0.0 0.0 0.0 0.0 0.0 0.0 0.0 0.0 0.0 0.0 0.0 0.0 0.0 0.0 0.0 0.0 0.0 0.0 0.0 0.0 0.0 0.0 0.0 0.0 0.0 0.0 0.0 0.0 0.0 0.0 0.0 0.0 0.0 0.0 0.0 0.0 0.0 0.0 0.0 0.0 0.0 0.0 0.0 0.0 0.0 0.0 0.0 0.0 0.0 0.0 0.0 0.0 0.0 0.0 0.0 0.0 0.0 0.0 0.0 0.0 0.0 0.0 0.0 0.0 0.0 0.0 0.0 0.0 0.0 0.0 0.0 0.0 0.0 0.0 0.0 0.0 0.0 0.0 0.0 0.0 0.0 0.0 0.0 0.0 0.0 0.0 0.0 0.0 0.0 0.0 0.0 0.0 0.0 0.0 0.0 0.0 0.0 0.0 0.0 0.0 0.0 0.0 0.0 0.0 0.0 0.0 0.0 0.0 0.0 0.0 0.0 0.0 0.0 0.0 0.0 0.0 0.0 0.0 0.0 0.0 0.0 0.0 0.0 0.0 0.0 0.0 0.0 0.0 0.0 0.0 0.0 0.0 0.0 0.0 0.0 0.0 0.0 0.0 0.0 0.0 0.0 0.0 0.0 0.0 0.0 0.0 0.0 0.0 0.0 0.0 0.0 0.0 0.0 0.0 0.0 0.0 0.0 0.0 0.0 0.0 0.0 0.0 0.0 0.0 0.0 0.0 0.0 0.0 0.0 0.0 0.0 0.0 0.0 0.0 0.0 0.0 0.0 0.0 0.0 0.0 0.0 0.0 0.0 0.0 0.0 0.0 0.0 0.0 0.0 0.0 0.0 0.0 0.0 0.0 0.0 0.0 0.0 0.0 0.0 0.0 0.0 0.0 0.0 0.0 0.0 0.0 0.0 0.0 0.0 0.0 0.0 0.0 0.0 0.0 0.0 0.0 0.0 0.0 0.0 0.0 0.0 0.0 0.0 0.0 0.0 0.0 0.0 0.0 0.0 0.0 0.0 0.0 0.0 0.0 0.0 0.0 0.0 0.0 0.0 0.0 0.0 0.0 0.0 0.0 0.0 0.0 0.0 0.0 0.0 0.0 0.0 0.0 0.0 0.0 0.0 0.0 0.0 0.0 0.0 0.0 0.0 0.0 0.0 0.0 0.0 0.0 0.0 0.0 0.0 0.0 0.0 0.0 0.0 0.0 0.0 0.0 0.0 0.0 0.0 0.0 0.0 0.0 0.0 0.0 0.0 0.0 0.0 0.0 0.0 0.0 0.0 0.0 0.0 0.0 0.0 0.0 0.0 0.0 0.0 0.0 0.0 0.0 0.0 0.0 0.0 0.0 0.0 0.0 0.0 0.0 0.0 0.0 0.0 0.0 0.0 0.0 0.0 0.0 0.0 0.0 0.0 0.0 0.0 0.0 0.0 0.0 0.0 0.0 0.0 0.0 0.0 0.0 0.0 0.0 0.0 0.0 0.0 0.0 0.0 0.0 0.0 0.0 0.0 0.0 0.0 0.0 0.0 0.0 0.0 0.0 0.0 0.0 0.0 0.0 0.0 0.0 0.0 0.0 0.0 0.0 0.0 0.0 0.0 0.0 0.0 0.0 0.0 0.0 0.0 0.0 0.0 0.0 0.0 0.0 0.0 0.0 0.0 0.0 0.0 0.0 0.0 0.0 0.0 0.0 0.0 0.0 0.0 0.0 0.0 0.0 0.0 0.0 0.0 0.0 0.0 0.0 0.0 0.0 0.0 0.0 0.0 0.0 0.0 0.0 0.0 0.0 0.0 0.0 0.0 0.0 0.0 0.0 0.0 0.0 0.0 0.0 0.0 0.0 0.0 0.0 0.0 0.0 0.0 0.0 0.0 0.0 0.0 0.0 0.0 0.0 0.0 0.0 0.0 0.0 0.0 0.0 0.0 0.0 0.0 0.0 0.0 0.0 0.0 0.0 0.0 0.0 0.0 0.0 0.0 0.0 0.0 0.0 0.0 0.0 0.0 0.0 0.0 0.0 0.0 0.0 0.0 0.0 0.0 0.0 0.0 0.0 0.0 0.0 0.0 0.0 0.0 0.0 0.0 0.0 0.0 0.0 0.0 0.0 0.0 0.0 0.0 0.0 0.0 0.0 0.0 0.0 0.0 0.0 0.0 0.0 0.0 0.0 0.0 0.0 0.0 0.0 0.0 0.0 0.0 0.0 0.0 0.0 0.0 0.0 0.0 0.0 0.0 0.0 0.0 0.0 0.0 0.0 0.0 0.0 0.0 0.0 0.0 0.0 0.0 0.0 0.0 0.0 0.0 0.0 0.0 0.0 0.0 0.0 0.0 0.0 0.0 0.0 0.0 0.0 0.0 0.0 0.0 0.0 0.0 0.0 0.0 0.0 0.0 0.0 0.0 0.0 0.0 0.0 0.0 0.0 0.0 0.0 0.0 0.0 0.0 0.0 0.0 0.0 0.0 0.0 0.0 0.0 0.0 0.0 0.0 0.0 0.0 0.0 0.0 0.0 0.0 0.0 0.0 0.0 0.0 0.0 0.0 0.0 0.0 0.0 0.0 0.0 0.0 0.0 0.0 0.0 0.0 0.0 0.0 0.0 0.0 0.0 0.0 0.0 0.0 0.0 0.0 0.0 0.0 0.0 0.0 0.0 0.0 0.0 0.0 0.0 0.0 0.0 0.0 0.0 0.0 0.0 0.0 0.0 0.0 0.0 0.0 0.0 0.0 0.0 0.0 0.0 0.0 0.0 0.0 0.0 0.0 0.0 0.0 0.0 0.0 0.0 0.0 0.0 0.0 0.0 0.0 0.0 0.0 0.0 0.0 0.0 0.0 0.0 0.0 0.0 0.0 0.0 0.0 0.0 0.0 0.0 0.0 0.0 0.0 0.0 0.0 0.0 0.0 0.0 0.0 0.0 0.0 0.0 0.0 0.0 0.0 0.0 0.0 0.0 0.0 0.0 0.0 0.0 0.0 0.0 0.0 0.0 0.0 0.0 0.0 0.0 0.0 0.0 0.0 0.0 0.0 0.0 0.0 0.0 0.0 0.0 0.0 0.0 0.0 0.0 0.0 0.0 0.0 0.0 0.0 0.0 0.0 0.0 0.0 0.0 0.0 0.0 0.0 0.0 0.0 0.0 0.0 0.0 0.0 0.0 0.0 0.0 0.0 0.0 0.0 0.0 0.0 0.0 0.0 0.0 0.0 0.0 0.0 0.0 0.0 0.0 0.0 0.0 0.0 0.0 0.0 0.0 0.0  1.6730705E-008  3.0371642E-006 0.0  1.1566029E-008  9.3529431E-006 0.0  1.2676960E-008  1.8036495E-005 0.0  1.4091033E-008  2.8148437E-005 0.0  4.1608407E-009  3.8208750E-005 0.0  7.2725132E-009  4.6396243E-005 0.0 -1.9983398E-008  4.9735282E-005 0.0  1.3124691E-008  4.6296363E-005 0.0 -4.9951972E-009  3.8074989E-005 0.0  3.3800017E-009  2.8526597E-005 0.0 -2.4942431E-009  1.9516158E-005 0.0 -4.6361025E-009  1.1816396E-005 0.0 -4.3727619E-009  5.8041382E-006 0.0 -3.3623569E-009  1.8567248E-006 0.0 0.0 0.0 0.0 0.0 0.0 0.0 0.0 0.0 0.0 0.0 0.0 0.0 0.0 0.0 0.0 0.0 0.0 0.0 0.0 0.0 0.0 0.0 0.0 0.0 0.0 0.0 0.0 0.0 0.0 0.0 0.0 0.0 0.0 0.0 0.0 0.0 0.0 0.0 0.0 0.0 0.0 0.0 0.0 0.0 0.0 0.0 0.0 0.0 0.0 0.0 0.0 0.0 0.0 0.0 0.0 0.0 0.0 0.0 0.0 0.0 0.0 0.0 0.0 0.0 0.0 0.0 0.0 0.0 0.0 0.0 0.0 0.0 0.0 0.0 0.0 0.0 0.0 0.0 0.0 0.0 0.0 0.0 0.0 0.0 0.0 0.0 0.0 0.0 0.0 0.0 0.0 0.0 0.0 0.0 0.0 0.0 0.0 0.0 0.0 0.0 0.0 0.0 0.0 0.0 0.0 0.0 0.0 0.0 0.0 0.0 0.0 0.0 0.0 0.0 0.0 0.0 0.0 0.0 0.0 0.0 0.0 0.0 0.0 0.0 0.0 0.0 0.0 0.0 0.0 0.0 0.0 0.0 0.0 0.0 0.0 0.0 0.0 0.0 0.0 0.0 0.0 0.0 0.0 0.0 0.0 0.0 0.0 0.0 0.0 0.0 0.0 0.0 0.0 0.0 0.0 0.0 0.0 0.0 0.0 0.0 0.0 0.0 0.0 0.0 0.0 0.0 0.0 0.0 0.0 0.0 0.0 0.0 0.0 0.0 0.0 0.0 0.0 0.0 0.0 0.0 0.0 0.0 0.0 0.0 0.0 0.0 0.0 0.0 0.0 0.0 0.0 0.0 0.0 0.0 0.0 0.0 0.0 0.0 0.0 0.0 0.0 0.0 0.0 0.0 0.0 0.0 0.0 0.0 0.0 0.0 0.0 0.0 0.0 0.0 0.0 0.0 0.0 0.0 0.0 0.0 0.0 0.0 0.0 0.0 0.0 0.0 0.0 0.0 0.0 0.0 0.0 0.0 0.0 0.0 0.0 0.0 0.0 0.0 0.0 0.0 0.0 0.0 0.0 0.0 0.0 0.0 0.0 0.0 0.0 0.0 0.0 0.0 0.0 0.0 0.0 0.0 0.0 0.0 0.0 0.0 0.0 0.0 0.0 0.0 0.0 0.0 0.0 0.0 0.0 0.0 0.0 0.0 0.0 0.0 0.0 0.0 0.0 0.0 0.0 0.0 0.0 0.0 0.0 0.0 0.0 0.0 0.0 0.0 0.0 0.0 0.0 0.0 0.0 0.0 0.0 0.0 0.0 0.0 0.0 0.0 0.0 0.0 0.0 0.0 0.0 0.0 0.0 0.0 0.0 0.0 0.0 0.0 0.0 0.0 0.0 0.0 0.0 0.0 0.0 0.0 0.0 0.0 0.0 0.0 0.0 0.0 0.0 0.0 0.0 0.0 0.0 0.0 0.0 0.0 0.0 0.0 0.0 0.0 0.0 0.0 0.0 0.0 0.0 0.0 0.0 0.0 0.0 0.0 0.0 0.0 0.0 0.0 0.0 0.0 0.0 0.0 0.0 0.0 0.0 0.0 0.0 0.0 0.0 0.0 0.0 0.0 0.0 0.0 0.0 0.0 0.0 0.0 0.0 0.0 0.0 0.0 0.0 0.0 0.0 0.0 0.0 0.0 0.0 0.0 0.0 0.0 0.0 0.0 0.0 0.0 0.0 0.0 0.0 0.0 0.0 0.0 0.0 0.0 0.0 0.0 0.0 0.0 0.0 0.0 0.0 0.0 0.0 0.0 0.0 0.0 0.0 -5.5212101E-006 -3.0188797E-008 0.0 -1.0043500E-005  1.6080929E-007 0.0 -8.0736118E-006  2.7821908E-008 0.0  4.5148471E-006 -8.5150917E-008 0.0 -8.8440183E-006  3.2265410E-007 0.0 -3.9501065E-006 -7.6970191E-008 0.0  2.0557111E-005  1.4314051E-006 0.0  8.0505553E-006 -9.1140256E-008 0.0  1.2114429E-005 -7.5043534E-008 0.0  1.6505653E-005  5.4683701E-008 0.0  5.7631139E-008 -2.2129208E-006 0.0  5.8046937E-006 -6.9799162E-008 0.0 -5.2214795E-006 -3.5505721E-008 0.0  2.8956558E-006 -1.3069475E-007 0.0 -9.7794905E-006  7.2493354E-007 0.0 -2.5027125E-006 -1.5043795E-007 0.0 -1.5372787E-006  4.9562335E-005 0.0 -9.4539910E-008 -2.1906028E-006 0.0  1.6362032E-007 -1.2582772E-006 0.0  9.2564556E-006 -6.3941480E-008 0.0 -6.6551830E-006  7.5766729E-007 0.0  2.0066988E-006 -1.9697868E-007 0.0  1.4056749E-005 -7.9944603E-009 0.0 -7.1410484E-006 -1.8404705E-008 0.0  1.6812675E-005  2.0030363E-006 0.0 -9.8702713E-006  4.8494298E-008 0.0  1.0391167E-005  2.2110851E-006 0.0 -3.0082365E-006  2.3726818E-005 0.0 -2.0355401E-007 -1.1593103E-006 0.0  4.3250163E-006  3.3732165E-005 0.0  5.2567944E-007 -1.4444973E-007 0.0 -1.2696220E-006 -1.9315076E-007 0.0 -4.1796773E-006  1.0084148E-006 0.0  6.9334449E-006 -7.6776622E-008 0.0  1.1066385E-005 -9.0096400E-008 0.0 -1.3846906E-008 -2.4162235E-006 0.0  5.2335992E-006 -7.5016901E-008 0.0  1.6528374E-007 -5.5784078E-007 0.0  1.1384757E-007 -1.7887552E-006 0.0  3.6368873E-006 -1.1070039E-007 0.0 -3.2023262E-006 -9.9490676E-008 0.0 -1.0382978E-005  5.2845586E-007 0.0 -1.2027726E-005  3.3176858E-007 0.0  2.0207556E-005  4.5178753E-007 0.0 -4.0239892E-006 -4.7721415E-008 0.0 -5.1668294E-006 -2.8469885E-008 0.0 -7.3085671E-006 -1.5491167E-008 0.0  5.5281500E-006  1.9453244E-006 0.0 -3.2005497E-006  8.0388425E-006 0.0  3.8691655E-006  1.3317986E-005 0.0 -3.2908365E-007 -1.5230003E-007 0.0  4.1002382E-008 -4.0042046E-008 0.0 -1.7267697E-006  8.6273812E-007 0.0  1.4933995E-006  4.9753526E-005 0.0  2.6318731E-007  4.8648281E-005 0.0 -6.8555786E-006  4.3792854E-005 0.0 -6.1997006E-006  4.3288244E-005 0.0  3.7652136E-006  4.4064849E-005 0.0 -1.1750189E-006  3.9841307E-005 0.0 -1.3597095E-005  3.5499380E-005 0.0 -1.0526026E-005  3.2535780E-005 0.0  3.0115040E-006  3.2641826E-005 0.0 -5.9750511E-006  2.6738919E-005 0.0  9.3752507E-006  2.4947679E-005 0.0  2.8898540E-007  1.9628982E-005 0.0 -1.4313611E-005  1.9668441E-005 0.0 -8.3380710E-006  1.3984338E-005 0.0  7.5724529E-006  1.3269840E-005 0.0  1.3579145E-006  8.6368336E-006 0.0 -1.7056498E-005  8.8919779E-006 0.0 -9.6257358E-006  5.1388437E-006 0.0  6.6484623E-006  3.9306498E-006 0.0 -3.1488021E-006  2.0172806E-006 0.0  1.3100586E-005  6.5639820E-007 0.0  3.2508431E-006 -2.7827452E-007 0.0 -1.0692029E-005  4.6635059E-007 0.0 -4.6320171E-006 -9.9314851E-007 0.0  8.0376237E-006 -1.5875362E-006 0.0  5.3188618E-007 -1.9162827E-006 0.0  1.1405723E-005 -2.1441693E-006 0.0  4.5592022E-006 -2.3600068E-006 0.0 -5.4647686E-006 -1.9981159E-006 0.0 -2.8491053E-006 -2.3163418E-006 0.0  7.4406623E-006 -2.4969195E-006 0.0  1.9749854E-006 -2.5533266E-006 0.0 -6.6641513E-006 -2.1859098E-006 0.0 -2.5551996E-006 -2.5004077E-006 0.0  5.2433253E-006 -2.6654292E-006 0.0  6.7300648E-007 -2.7734696E-006 0.0  7.0653438E-006 -2.7407660E-006 0.0  3.0321546E-006 -3.1240151E-006 0.0 -3.1740175E-006 -2.8430579E-006 0.0 -5.3557839E-007 -3.4835803E-006 0.0  4.5438397E-006 -3.5479133E-006 0.0  1.5710951E-006 -4.1974246E-006 0.0 -3.1122412E-006 -3.7578193E-006 0.0 -8.0683981E-007 -4.7357417E-006 0.0  2.6699839E-006 -4.8560720E-006 0.0 -1.6519795E-005 -4.6323399E-007 0.0 -2.0730039E-005  7.6428900E-007 0.0 -9.8388354E-006 -1.9321394E-006 0.0 -4.9314924E-006 -3.7382023E-006 0.0 -2.3916527E-006 -4.9653397E-006 0.0 -2.0647235E-005  2.6689550E-005 0.0 -1.3108032E-005 -1.6049104E-006 0.0 -6.8496660E-006 -2.8559764E-006 0.0 -1.9863586E-005  2.7349005E-005 0.0  2.0570801E-005  2.1278207E-006 0.0  1.7011133E-005  2.8256634E-005 0.0  2.3378243E-005  2.0487360E-005 0.0 -4.8348110E-006 -3.8810022E-006 0.0  1.1042104E-005 -2.3493547E-006 0.0  1.1384868E-005 -2.2909940E-006 0.0  2.4067549E-005  1.8147465E-007 0.0 -2.8145597E-006 -4.9562461E-006 0.0 -9.2303243E-007 -5.7822268E-006 0.0 -2.2788162E-005  8.7312724E-008 0.0 -2.5290414E-005  7.6434271E-007 0.0 -4.4880892E-006 -3.6618048E-006 0.0 -1.4215033E-005 -1.2830237E-006 0.0 -2.4292326E-005  1.9902402E-005 0.0  2.9106854E-005  2.0730342E-005 0.0 -1.6367190E-005 -9.6281845E-007 0.0  2.9160478E-005  8.6926045E-007 0.0 -2.1832700E-005  1.7531646E-005 0.0  3.2962401E-005  1.4497182E-005 0.0 -2.7411780E-006 -4.5689852E-006 0.0 -3.7488306E-006 -3.2544428E-006 0.0 -6.4353789E-006 -2.5674065E-006 0.0  1.3942902E-005 -1.7967527E-006 0.0  2.9588893E-005 -2.4806251E-007 0.0 -1.7886192E-005  2.4848445E-005 0.0 -1.7888670E-005  1.6113448E-005 0.0  1.3103155E-005 -1.6032161E-006 0.0 -2.4368513E-005  2.0982638E-007 0.0 -2.2910027E-005 -2.4230573E-007 0.0  1.8124356E-005 -1.7551509E-006 0.0  1.8980332E-005 -1.9697333E-006 0.0  2.3191163E-005 -1.5643821E-006 0.0  2.2250879E-005 -1.4917962E-006 0.0  1.4534089E-005 -1.9661266E-006 0.0 -2.2599561E-006 -3.9023807E-006 0.0 -2.5079175E-005  5.5682408E-007 0.0 -2.6910276E-005  1.2875437E-006 0.0  2.7753971E-005  2.9646145E-006 0.0  3.3048127E-005  1.3663916E-006 0.0  3.2917131E-005  3.3994417E-006 0.0  2.9987601E-005  1.3678083E-005 0.0 -2.4094522E-005  1.2658568E-005 0.0 -2.6657611E-005  1.3723100E-005 0.0  2.2422008E-005  2.8388622E-005 0.0 -1.6114057E-005 -1.2813942E-006 0.0 -1.7734908E-005 -7.8797997E-007 0.0 -1.4626385E-006 -4.9210424E-006 0.0 -1.8473595E-005 -9.4479898E-007 0.0  1.5429426E-005 -1.3668675E-006 0.0  1.6542122E-005 -1.5138531E-006 0.0  1.9754528E-005 -1.8054928E-006 0.0  2.0870404E-005 -1.2555794E-006 0.0 -1.5358424E-005 -7.3094688E-007 0.0 -1.4260683E-005 -9.9248042E-007 0.0  2.9704336E-005  2.0239383E-005 0.0  2.4932437E-005  2.5891632E-005 0.0  3.5998276E-005  9.0585596E-006 0.0  1.1574665E-005 -2.0834100E-006 0.0 -2.7934329E-006 -2.6671215E-006 0.0  1.1946042E-005 -1.3817359E-006 0.0  1.0970680E-005 -1.9190264E-006 0.0 -1.8529294E-005 -5.3261199E-007 0.0 -2.2099324E-005 -6.0501653E-008 0.0 -4.0680873E-006 -1.9471307E-006 0.0 -1.3981045E-005 -5.3453354E-007 0.0 -1.3292570E-005 -6.5836421E-007 0.0 -1.2974899E-005 -1.2264297E-006 0.0 -1.2572718E-005 -9.3557349E-007 0.0  2.3595013E-005 -1.1394952E-006 0.0  2.5520179E-005 -1.1996072E-006 0.0  1.0502135E-005 -1.1756256E-006 0.0  9.9590621E-006 -1.7224833E-006 0.0 -1.4711020E-005  2.1522771E-005 0.0 -1.3763082E-005  1.3254833E-005 0.0 -2.4882857E-005  8.2763252E-007 0.0 -2.7476269E-005  1.7111426E-006 0.0 -2.7505821E-005  2.5243103E-006 0.0 -2.8876657E-005  3.0648378E-006 0.0 -2.6830430E-005  1.8778365E-006 0.0 -2.8990057E-005  3.2640840E-006 0.0 -2.1732245E-005 -2.9456826E-007 0.0  2.8678099E-005  1.6951140E-005 0.0  2.4489776E-005  2.1547869E-005 0.0  3.1385015E-005  1.2251164E-005 0.0  2.4943872E-005  1.2367227E-005 0.0  2.1576119E-005  1.6091269E-005 0.0  1.9715889E-005  2.5940518E-005 0.0  1.7067021E-005  1.9992381E-005 0.0  3.4807267E-005  1.5860317E-006 0.0  3.5921883E-005  3.1878061E-006 0.0 -2.1102406E-005 -6.1536669E-007 0.0  3.2030734E-005  6.7047310E-006 0.0  1.4395514E-005  3.0455568E-005 0.0 -1.1412031E-005 -1.5318977E-006 0.0 -1.1513329E-005 -1.2382856E-006 0.0 -1.1484089E-005 -6.8075217E-007 0.0 -1.0859577E-005 -9.4933817E-007 0.0 -2.4227681E-005  8.2624292E-006 0.0 -2.7127489E-005  8.9345523E-006 0.0 -2.8276370E-005  1.3648910E-005 0.0 -2.9112161E-005  9.0260594E-006 0.0 -2.0712946E-005  6.9038363E-006 0.0 -2.8732531E-005  1.3030546E-005 0.0 -3.0011543E-005  8.7936853E-006 0.0 -2.7979004E-005  5.4885357E-006 0.0  3.6155105E-005  8.8321246E-006 0.0 -2.8047256E-005  1.1907172E-005 0.0  1.5803772E-005 -9.5735772E-007 0.0  1.7406334E-005 -1.1519696E-006 0.0  1.7720472E-005 -1.7154041E-006 0.0 -1.5180286E-005  8.9399806E-006 0.0 -1.3984954E-005 -3.9069689E-007 0.0  3.2447247E-005  4.0859972E-007 0.0 -1.6458014E-005 -4.0688946E-007 0.0 -2.9199240E-005  4.9926499E-006 0.0  1.2274385E-005 -9.4885812E-007 0.0  3.5699144E-005  4.7760111E-006 0.0 -1.5537305E-006 -3.0799191E-006 0.0 -1.8349561E-006 -1.9955269E-006 0.0 -2.9532603E-005  5.5677971E-006 0.0  2.5575169E-005 -7.8303490E-007 0.0  9.5841444E-006 -2.5000920E-006 0.0  8.9472478E-006 -2.3565171E-006 0.0  8.5585691E-006 -1.4747656E-006 0.0  7.8844294E-006 -2.1052871E-006 0.0  7.4059698E-006 -3.2791357E-006 0.0  6.7853074E-006 -2.8048517E-006 0.0  6.5155673E-006 -1.7470497E-006 0.0  5.6201141E-006 -2.3802958E-006 0.0  5.5214466E-006 -3.4707697E-006 0.0  4.4941928E-006 -2.9878447E-006 0.0  4.1508788E-006 -4.1759217E-006 0.0  3.0843681E-006 -3.5416751E-006 0.0  2.7407502E-006 -4.7250914E-006 0.0  3.2212040E-006 -2.3084091E-006 0.0  2.1848334E-006 -2.5095531E-006 0.0  2.0505910E-006 -1.5367819E-006 0.0  2.7412133E-006 -1.2372526E-006 0.0  5.0344866E-006 -1.3228721E-006 0.0  3.1895602E-006 -5.1812376E-006 0.0  1.9806297E-006 -5.5503619E-006 0.0  1.6129649E-006 -4.8633325E-006 0.0  1.0853182E-006 -5.4868693E-006 0.0 -9.7680156E-006 -1.9213205E-006 0.0 -2.4940495E-005  1.7229071E-006 0.0  1.4064471E-005 -8.0383286E-007 0.0 -2.2747405E-005  4.9278766E-006 0.0  1.2823137E-006 -1.6265086E-006 0.0  1.3095930E-006 -2.4090077E-006 0.0  1.5003336E-005  3.5467476E-005 0.0  1.7510765E-005  3.4108339E-005 0.0 -1.5834889E-005 -2.5383191E-007 0.0 -1.0908699E-005  1.7871692E-005 0.0 -1.1427436E-005  2.7218289E-005 0.0 -9.5105901E-006  9.9256902E-006 0.0 -1.8329223E-005 -3.3427565E-007 0.0  2.3312082E-005 -8.0472417E-007 0.0  2.6082342E-005 -7.9720118E-007 0.0 -2.1398760E-005  3.3693249E-007 0.0 -9.7955889E-006 -4.5566603E-007 0.0 -9.5832760E-006 -6.6984047E-007 0.0 -1.0001415E-005 -1.2683780E-006 0.0 -9.0590823E-006 -9.5309127E-007 0.0 -8.9541990E-006 -1.6602562E-006 0.0 -8.2218752E-006 -1.2834478E-006 0.0  1.8237271E-006 -5.8028232E-006 0.0  1.0787874E-006 -8.9690366E-007 0.0 -1.8834462E-005 -8.6104335E-008 0.0 -1.8107861E-005  1.9118081E-008 0.0 -2.5288866E-005  3.1348973E-006 0.0 -1.0758936E-005 -1.7742587E-006 0.0 -2.6117091E-005  1.7618280E-005 0.0  3.6917452E-005  5.1766052E-006 0.0 -1.1736899E-005 -2.9399137E-007 0.0 -2.2195268E-005  2.6372811E-006 0.0  1.2054660E-005  2.4217614E-005 0.0  1.2548726E-005  1.3198944E-005 0.0  1.5019293E-005 -6.4953059E-007 0.0  1.6997926E-005 -7.8773627E-007 0.0  2.0354576E-005 -6.8607344E-007 0.0 -7.5417585E-006 -6.5922836E-007 0.0 -6.8003713E-006 -8.7773292E-007 0.0  9.5634266E-006  3.9986333E-005 0.0  7.6576064E-007 -4.3233857E-006 0.0  1.0943785E-006 -3.7845173E-006 0.0  5.1272023E-007 -4.9035783E-006 0.0  4.9117670E-007 -5.7757912E-006 0.0  1.6286025E-007 -5.0443805E-006 0.0 -1.1196362E-007 -5.7050980E-006 0.0  3.0327824E-005  5.0674020E-007 0.0 -1.9575984E-005  4.1596405E-007 0.0 -2.1125718E-005  8.7073062E-007 0.0  5.2217041E-006 -8.1798951E-007 0.0 -1.5376636E-005 -1.4286246E-006 0.0 -2.1168381E-005  4.9835491E-006 0.0 -6.8642244E-006  1.3056169E-005 0.0  2.0712788E-005 -4.1505269E-007 0.0  2.4734926E-005 -5.1135305E-007 0.0 -6.6393579E-006 -2.9375964E-006 0.0 -1.1758131E-007 -4.9996739E-006 0.0 -2.7069673E-005  3.1926107E-006 0.0 -2.5063830E-005  4.7353033E-006 0.0  1.6511180E-005 -1.0967602E-006 0.0 -9.5511689E-006 -2.7458040E-007 0.0 -1.1656719E-005 -4.5856169E-007 0.0 -8.9675647E-006 -1.8491719E-007 0.0 -2.0413662E-005  1.4732270E-006 0.0  4.2134718E-006 -1.7052452E-006 0.0  3.2031082E-005  1.8807640E-007 0.0  2.8791453E-005 -8.3988161E-008 0.0  2.9789996E-005 -3.3262771E-007 0.0  2.3662136E-005 -2.1023164E-007 0.0 -2.3325982E-005  9.3089440E-007 0.0  1.0381371E-005 -2.4507847E-006 0.0 -1.7907073E-005  3.3266383E-006 0.0 -1.4599400E-005  2.8705375E-006 0.0 -1.7829159E-005  6.1543527E-006 0.0  2.8814035E-005 -6.6353174E-007 0.0  1.0491826E-005 -7.7317417E-007 0.0  8.4481250E-006 -5.4181087E-007 0.0 -1.0966660E-005  6.7905121E-006 0.0 -1.0482890E-005  3.5498847E-006 0.0  2.6702467E-005  8.4971355E-006 0.0  2.6267201E-005  5.4042713E-006 0.0  3.2940247E-005  8.5826889E-006 0.0  3.4575840E-005  1.2746067E-005 0.0 -1.7507769E-005  2.4560388E-006 0.0 -1.1731766E-005 -2.4114393E-007 0.0  1.9780486E-005  5.0221913E-006 0.0  1.2257798E-005 -4.1056050E-007 0.0  7.0287904E-006 -1.1977305E-006 0.0  6.8704994E-006 -7.1315403E-007 0.0  8.5296247E-006 -8.9902959E-007 0.0 -1.6188145E-005 -4.9831137E-007 0.0 -1.3730059E-005 -2.2294688E-007 0.0  3.1960207E-005  3.8420491E-006 0.0  2.7875452E-005  1.6977234E-006 0.0 -1.1403576E-006 -3.9888215E-006 0.0 -6.5829387E-007 -2.9392909E-006 0.0 -6.3636787E-007 -4.5067372E-006 0.0  3.6049166E-006 -5.0916540E-007 0.0  2.1264054E-005 -9.6161608E-007 0.0  1.8419166E-005 -6.8349386E-007 0.0  3.3525661E-005  1.2712520E-006 0.0  1.7668054E-005  1.6804234E-005 0.0  1.3952276E-005 -1.0811374E-006 0.0  1.1425803E-005 -5.9530100E-007 0.0  1.7135510E-005  5.2775024E-006 0.0 -1.3375579E-006 -5.6468607E-006 0.0 -2.1748869E-005  1.7978570E-007 0.0 -5.2551932E-006 -2.3493609E-006 0.0 -4.9826676E-006 -1.2621563E-006 0.0 -3.6588740E-006 -9.3573908E-007 0.0 -6.3240375E-006 -1.5336989E-006 0.0 -5.2125639E-006 -6.4699639E-007 0.0  1.9736585E-006 -4.0246092E-006 0.0  8.2074092E-006 -2.8739270E-006 0.0  1.8945223E-005  7.3285123E-006 0.0  1.6750096E-005  9.9281589E-006 0.0  2.4924450E-005  2.1310527E-008 0.0  4.6286080E-007 -5.5922642E-006 0.0 -7.4044191E-008 -6.0856247E-006 0.0 -2.9034803E-006 -1.4938402E-006 0.0  3.0504460E-006 -8.1159362E-007 0.0  1.9437910E-006 -5.1633327E-007 0.0  1.4549330E-006 -6.4427817E-007 0.0 -7.0281099E-006 -1.5080502E-007 0.0  1.4187772E-005 -2.2898363E-006 0.0 -7.3746912E-006 -3.5956290E-007 0.0 -1.6760168E-006 -8.9033643E-007 0.0 -9.5949818E-007 -1.2097695E-006 0.0  1.0589350E-005  4.5875822E-006 0.0 -1.8822179E-005  1.0509887E-005 0.0  5.7528387E-007 -8.3112602E-007 0.0 -1.3799933E-005  3.5370023E-005 0.0 -2.0116028E-005 -6.0267318E-007 0.0  2.3966611E-005 -1.4070134E-006 0.0  3.3967234E-005  8.4005035E-006 0.0  3.3389433E-005  2.3009493E-006 0.0  2.8753126E-005  1.0552893E-006 0.0  2.9263148E-007 -3.5322045E-006 0.0 -6.1054396E-007 -5.4402554E-006 0.0 -3.0044606E-005  5.0734798E-006 0.0 -2.8491752E-005  7.5594988E-006 0.0  2.2177679E-005  2.0936861E-006 0.0 -6.1217614E-006 -2.8024438E-006 0.0 -1.5077117E-005  2.8935943E-008 0.0 -1.1088154E-005  1.4664370E-008 0.0 -1.7605679E-005  6.7796846E-007 0.0 -6.2071136E-006  7.3789219E-006 0.0  9.4941754E-006 -4.3181715E-007 0.0  1.9472397E-005 -1.5845086E-006 0.0  1.8845642E-005  1.0293674E-007 0.0  3.4159797E-007 -3.1403777E-007 0.0  1.1165505E-007 -2.4079150E-007 0.0 -1.1946324E-005  2.2261498E-007 0.0  6.3995770E-007 -1.4061760E-006 0.0 -1.4057099E-005 -1.3645310E-007 0.0 -3.5771210E-006  4.2564403E-005 0.0 -3.7682825E-006  3.2278704E-005 0.0  4.4799390E-006  4.3138037E-005 0.0  2.7817027E-006  5.4898787E-006 0.0  7.1253803E-006  8.2589236E-006 0.0  5.6928206E-006 -3.9508867E-006 0.0  5.2418206E-006 -4.3133821E-006 0.0 -1.7914127E-005  2.1288088E-006 0.0 -1.8478007E-005 -1.0092294E-006 0.0 -1.7628175E-005 -9.4040718E-007 0.0  4.3007306E-006  2.3214011E-005 0.0  1.6282844E-005 -4.0390152E-007 0.0  1.3754712E-005 -3.1326197E-007 0.0  1.4885731E-005 -4.1572800E-007 0.0 -2.4346120E-006 -5.8777019E-007 0.0 -2.3750331E-006 -2.0611551E-007 0.0 -7.8755649E-007 -2.1203697E-006 0.0 -7.5573309E-007 -2.0160696E-007 0.0  1.4371281E-005 -2.2202764E-006 0.0 -1.3002110E-005 -1.6265659E-007 0.0 -1.0941103E-005 -8.3810753E-008 0.0 -1.1559342E-005 -4.7196599E-008 0.0 -1.6743577E-005 -1.3573423E-007 0.0 -1.4881244E-005  1.6642809E-007 0.0 -7.2009454E-006 -2.2422204E-006 0.0 -1.3805271E-007 -1.9781164E-006 0.0  6.3842750E-006 -8.4921689E-008 0.0  7.1321730E-006 -8.2802934E-008 0.0  5.4766448E-006 -8.1985448E-008 0.0 -2.9328651E-006  9.4457538E-007 0.0 -5.0823333E-006  8.9700662E-007 0.0 -2.3657276E-007 -8.2352994E-007 0.0  1.1680482E-005 -8.0279864E-008 0.0  4.2526631E-006 -1.1649551E-007 0.0  9.8571131E-006 -9.2143400E-008 0.0  4.9649249E-006 -9.7189893E-008 0.0  1.6973364E-007 -8.9513920E-007 0.0  1.4079121E-007 -1.5783404E-006 0.0  5.7489150E-007 -2.5656845E-006 0.0  2.7769419E-008 -2.3893405E-006 0.0  1.3200293E-005 -3.7263581E-008 0.0  3.9660992E-006 -1.6764324E-007 0.0 -3.0372052E-006 -1.1819902E-007 0.0 -5.2765598E-008 -2.3063613E-006 0.0  2.8568459E-006 -1.7157344E-007 0.0 -3.4583452E-006 -6.6471637E-008 0.0 -9.9375049E-006  6.3535199E-007 0.0 -4.3492267E-006 -6.2913906E-008 0.0 -1.2315471E-005  6.0419148E-007 0.0 -1.0807272E-005  3.3555463E-007 0.0  2.2763173E-007 -9.8588227E-008 0.0 -5.1607136E-006 -1.1247171E-008 0.0 -1.0399009E-005  9.3481831E-008 0.0 -5.9317329E-006 -2.0776517E-008 0.0 -1.0457833E-005 -1.5068622E-007 0.0 -6.1509017E-006 -1.7827153E-008 0.0 -3.2862310E-006  1.5472849E-005 0.0  2.6757503E-005 -1.0989902E-006 0.0 -2.1397284E-005  1.3056875E-005 0.0  7.8762077E-006 -3.1614689E-006 0.0 -6.7972754E-006  4.1030680E-006 0.0 -7.4905721E-006 -2.4757858E-007 0.0  3.5440579E-005  2.3411809E-006 0.0  2.1821625E-005  1.0486460E-005 0.0  1.0509418E-005  3.5693838E-005 0.0  1.2880810E-005 -3.5437228E-007 0.0 -2.0164886E-005  2.3589379E-005 0.0 -1.0304559E-005 -1.5903233E-006 0.0  1.1420570E-005  1.7550278E-006 0.0 -1.0136242E-005 -1.4265687E-006 0.0 -1.5776400E-007 -1.5774541E-006 0.0  1.5165692E-005 -1.9719164E-006 0.0  2.5838146E-005  5.9217239E-006 0.0 -5.1220215E-006 -3.3730701E-008 0.0 -5.6507516E-006 -3.4341353E-007 0.0 -7.2652594E-006 -1.7039866E-006 0.0 -8.8887213E-006  7.5752835E-007 0.0 -1.1002007E-005 -1.8642136E-006 0.0 -1.3533168E-005 -1.4968377E-006 0.0 -1.0562643E-005  3.5980761E-005 0.0 -2.4851614E-005  1.7369972E-006 0.0  1.3656332E-005 -1.5931044E-008 0.0  9.8059261E-006 -2.5935559E-006 0.0 -4.4184857E-007 -3.4384388E-006 0.0 -1.3813222E-007 -3.1532392E-007 0.0 -1.6232376E-006  3.0071786E-006 0.0  1.8935600E-005  7.4193898E-007 0.0  8.5651143E-006  4.3274753E-005 0.0  1.0194931E-006 -5.9885046E-006 0.0 -7.6145460E-006  7.2375913E-007 0.0 -8.8678638E-006 -9.7709295E-008 0.0  8.9951343E-006  3.4041772E-005 0.0  1.9022778E-005 -9.6865474E-007 0.0  1.0533582E-005 -3.3623239E-007 0.0  8.6904620E-007 -1.4361761E-007 0.0 -5.9419001E-006  8.1328627E-007 0.0  1.9948274E-005  3.0876072E-005 0.0  1.5161665E-005  1.2921971E-006 0.0 -9.1086746E-006 -1.9778314E-006 0.0  2.9815487E-005  4.4215677E-006 0.0 -1.3422263E-005  3.1379706E-008 0.0  3.1847342E-006  1.7871394E-006 0.0 -2.5951605E-005  1.9043078E-005 0.0  6.6509186E-006 -3.8659702E-007 0.0 -1.2531114E-005 -1.4845847E-006 0.0  1.7056242E-005  2.5797153E-007 0.0 -2.2435068E-005  1.5197038E-006 0.0  8.2503551E-006  1.8109585E-005 0.0  4.7365253E-006 -4.4492035E-006 0.0 -8.4244847E-006 -2.1632400E-006 0.0 -2.4337399E-005  1.6745622E-005 0.0  6.4683997E-007 -2.0248756E-006 0.0 -2.9814456E-005  8.2669928E-006 0.0  8.1595420E-006 -7.4989542E-008 0.0  7.8941598E-006 -3.1214799E-006 0.0 -1.6337375E-005  2.1835034E-006 0.0  5.1022024E-007 -6.0071372E-006 0.0  5.4762350E-006 -5.4665309E-007 0.0  7.8850268E-006 -3.5976785E-007 0.0 -3.9366939E-006 -5.8351919E-007 0.0 -2.7110557E-005  4.1447660E-006 0.0  3.1176856E-006 -5.2297781E-006 0.0  4.6787978E-007 -2.9659158E-006 0.0  1.8160526E-005 -4.0327221E-007 0.0 -1.4186701E-005 -5.0403770E-008 0.0  2.1319525E-005 -2.5178808E-007 0.0  1.3931620E-005  1.3060118E-007 0.0 -1.7712064E-005  3.7610036E-007 0.0  9.4267552E-006 -2.8889270E-007 0.0  5.1991145E-006  4.6274284E-005 0.0 -8.9175875E-006  1.6380983E-007 0.0  1.7886815E-006 -1.1113495E-007 0.0 -1.0442260E-005 -1.1590309E-007 0.0  4.0765217E-008 -4.0038201E-008 0.0 -1.4637370E-005  5.3400048E-006 0.0 -7.2206787E-006  2.3092937E-005 0.0 -2.5506124E-005  6.6660948E-006 0.0 -1.8753387E-005  1.4552954E-006 0.0 -1.9841548E-005 -3.0364455E-007 0.0 -1.3790096E-006 -1.1494831E-007 0.0  9.1607637E-006  7.0360525E-006 0.0 -2.0818854E-005 -5.0262219E-007 0.0 -2.3721171E-005  3.2171705E-006 0.0  3.6140041E-005  5.0961230E-006 0.0 -8.4736390E-006 -2.3076715E-006 0.0  2.7510408E-005  1.1361501E-005 0.0  2.8073571E-005  6.0948752E-007 0.0 -2.5103358E-007 -3.4660545E-006 0.0  8.4794428E-006 -2.9477073E-007 0.0  8.3825964E-006 -8.5624643E-008 0.0  1.5340603E-005  3.4204504E-007 0.0  7.1181807E-007 -4.0319449E-007 0.0 -5.0084397E-006 -3.8771241E-007 0.0  1.8037356E-008 -3.9931422E-006 0.0  1.8055920E-007 -3.9622914E-006 0.0  1.0777675E-006 -1.2388991E-007 0.0  1.2539583E-006 -3.0984049E-006 0.0  7.5090534E-008 -1.8899188E-006 0.0  3.4284199E-005  7.7307404E-006 0.0 -1.7977677E-005  1.7705734E-006 0.0  1.8589077E-005 -1.2383467E-006 0.0 -6.7027930E-007 -5.9197772E-007 0.0 -5.8255310E-006 -2.6287358E-007 0.0 -1.5476187E-007 -3.9905019E-006 0.0  1.1269802E-005 -3.1097059E-007 0.0  1.5173564E-005 -3.3921010E-007 0.0  1.5112504E-005  8.7647675E-006 0.0 -7.1695678E-006  5.2653533E-008 0.0  1.0522812E-005  1.0668237E-006 0.0 -7.7874330E-006 -2.5002526E-006 0.0 -6.9614849E-006  3.9358961E-008 0.0 -1.4006900E-005  2.9310634E-005 0.0 -7.6746047E-006  3.5030062E-005 0.0 -1.0678431E-005 -9.5677922E-008 0.0 -9.9698636E-006 -1.8663195E-006 0.0  2.6750534E-005  4.4321209E-007 0.0 -8.6371588E-006 -1.4118942E-007 0.0 -7.6335533E-006 -2.9750014E-009 0.0 -5.1952656E-006 -1.7096565E-008 0.0 -1.6527970E-005  4.1876105E-007 0.0 -7.6671179E-006  3.0667625E-006 0.0  1.2994379E-005  3.8820327E-005 0.0  9.5895051E-006  3.9515081E-005 0.0 -7.7762587E-006 -2.0682419E-006 0.0 -3.9949924E-006  3.6262331E-006 0.0  2.6488782E-005 -3.8219197E-007 0.0  1.7527160E-005 -2.0208506E-006 0.0 -5.2529505E-009  6.2794903E-009 0.0 -7.8648573E-008 -7.7829384E-008 0.0 -3.3751972E-006 -9.1398451E-009 0.0 -1.3690120E-005 -2.9106919E-007 0.0  1.4403666E-006  1.4711138E-006 0.0  5.4655336E-006  1.0224116E-006 0.0 -5.5024074E-006 -3.1487035E-009 0.0  4.2813901E-006 -3.8826716E-007 0.0  2.2127557E-005 -1.1858339E-007 0.0 -1.2450884E-005  2.6869574E-006 0.0 -8.1868309E-007  8.4813907E-007 0.0  7.6513892E-006  2.7721509E-005 0.0  2.0208048E-005 -4.0600289E-007 0.0 -2.7587572E-005  2.9090347E-006 0.0 -5.0493379E-007 -1.3743791E-006 0.0 -1.7187625E-005  1.6299137E-007 0.0  1.9782996E-006 -3.1845237E-006 0.0 -2.3990511E-005  9.3741331E-006 0.0  6.1490939E-006 -3.6681813E-006 0.0 -5.2194829E-007 -5.8201255E-006 0.0  3.5143344E-007 -3.1439410E-006 0.0  3.8212775E-006 -8.6348737E-007 0.0  6.0196128E-006 -3.9580074E-007 0.0  1.8879504E-005 -3.1409339E-007 0.0  1.2259949E-005 -5.8546611E-007 0.0  3.2756685E-005  1.5121093E-005 0.0 -1.5534721E-005 -5.8259595E-007 0.0  2.0466228E-006 -4.0191966E-007 0.0 -8.5569021E-006 -8.0519544E-008 0.0 -2.1304845E-005  1.0475008E-005 0.0 -1.0120075E-005  2.3197565E-006 0.0 -2.6969147E-005  1.0078365E-005 0.0 -2.0955339E-005 -5.2001362E-007 0.0 -1.1226139E-005 -3.4648589E-007 0.0 0.0 0.0 0.0 0.0 0.0 0.0 0.0 0.0 0.0 0.0 0.0 0.0 0.0 0.0 0.0 0.0 0.0 0.0 0.0 0.0 0.0 0.0 0.0 0.0 0.0 0.0 0.0 0.0 0.0 0.0 0.0 0.0 0.0 0.0 0.0 0.0 0.0 0.0 0.0 0.0 0.0 0.0 0.0 0.0 0.0 0.0 0.0 0.0 0.0 0.0 0.0 0.0 0.0 0.0 0.0 0.0 0.0 0.0 0.0 0.0 0.0 0.0 0.0 0.0 0.0 0.0 0.0 0.0 0.0 0.0 0.0 0.0 0.0 0.0 0.0 0.0 0.0 0.0 0.0 0.0 0.0 0.0 0.0 0.0 0.0 0.0 0.0 0.0 0.0 0.0 0.0 0.0 0.0 0.0 0.0 0.0 0.0 0.0 0.0 0.0 0.0 0.0 0.0 0.0 0.0 0.0 0.0 0.0 0.0 0.0 0.0 0.0 0.0 0.0 0.0 0.0 0.0 0.0 0.0 0.0 0.0 0.0 0.0 0.0 0.0 0.0 0.0 0.0 0.0 0.0 0.0 0.0 0.0 0.0 0.0 0.0 0.0 0.0 0.0 0.0 0.0 0.0 0.0 0.0 0.0 0.0 0.0 0.0 0.0 0.0 0.0 0.0 0.0 0.0 0.0 0.0 0.0 0.0 0.0 0.0 0.0 0.0 0.0 0.0 0.0 0.0 0.0 0.0 0.0 0.0 0.0 0.0 0.0 0.0 0.0 0.0 0.0 0.0 0.0 0.0 0.0 0.0 0.0 0.0 0.0 0.0 0.0 0.0 0.0 0.0 0.0 0.0 0.0 0.0 0.0 0.0 0.0 0.0 0.0 0.0 0.0 0.0 0.0 0.0 0.0 0.0 0.0 0.0 0.0 0.0 0.0 0.0 0.0 0.0 0.0 0.0 0.0 0.0 0.0 0.0 0.0 0.0 0.0 0.0 0.0 0.0 0.0 0.0 0.0 0.0 0.0 0.0 0.0 0.0 0.0 0.0 0.0 0.0 0.0 0.0 0.0 0.0 0.0 0.0 0.0 0.0 0.0 0.0 0.0 0.0 0.0 0.0 0.0 0.0 0.0 0.0 0.0 0.0 0.0 0.0 0.0 0.0 0.0 0.0 0.0 0.0 0.0 0.0 0.0 0.0 0.0 0.0 0.0 0.0 0.0 0.0 0.0 0.0 0.0 0.0 0.0 0.0 0.0 0.0 0.0 0.0 0.0 0.0 0.0 0.0 0.0 0.0 0.0 0.0 0.0 0.0 0.0 0.0 0.0 0.0 0.0 0.0 0.0 0.0 0.0 0.0 0.0 0.0 0.0 0.0 0.0 0.0 0.0 0.0 0.0 0.0 0.0 0.0 0.0 0.0 0.0 0.0 0.0 0.0 0.0 0.0 0.0 0.0 0.0 0.0 0.0 0.0 0.0 0.0 0.0 0.0 0.0 0.0 0.0 0.0 0.0 0.0 0.0 0.0 0.0 0.0 0.0 0.0 0.0 0.0 0.0 0.0 0.0 0.0 0.0 0.0 0.0 0.0 0.0 0.0 0.0 0.0 0.0 0.0 0.0 0.0 0.0 0.0 0.0 0.0 0.0 0.0 0.0 0.0 0.0 0.0 0.0 0.0 0.0 0.0 0.0 0.0 0.0 0.0 0.0 0.0 0.0 0.0 0.0 0.0 0.0 0.0 0.0 0.0 0.0 0.0 0.0 0.0 0.0 0.0 0.0 0.0 0.0 0.0 0.0 0.0 0.0 0.0 0.0 0.0 0.0 0.0 0.0 0.0 0.0 0.0 0.0 0.0 0.0 0.0 0.0 0.0 0.0 0.0 0.0 0.0 0.0 0.0 0.0 0.0 0.0 0.0 0.0 0.0 0.0 0.0 0.0 0.0 0.0 0.0 0.0 0.0 0.0 0.0 0.0 0.0 0.0 0.0 0.0 0.0 0.0 0.0 0.0 0.0 0.0 0.0 0.0 0.0 0.0 0.0 0.0 0.0 0.0 0.0 0.0 0.0 0.0 0.0 0.0 0.0 0.0 0.0 0.0 0.0 0.0 0.0 0.0 0.0 0.0 0.0 0.0 0.0 0.0 0.0 0.0 0.0 0.0 0.0 0.0 0.0 0.0 0.0 0.0 0.0 0.0 0.0 0.0 0.0 0.0 0.0 0.0 0.0 0.0 0.0 0.0 0.0 0.0 0.0 0.0 0.0 0.0 0.0 0.0 0.0 0.0 0.0 0.0 0.0 0.0 0.0 0.0 0.0 0.0 0.0 0.0 0.0 0.0 0.0 0.0 0.0 0.0 0.0 0.0 0.0 0.0 0.0 0.0 0.0 0.0 0.0 0.0 0.0 0.0 0.0 0.0 0.0 0.0 0.0 0.0 0.0 0.0 0.0 0.0 0.0 0.0 0.0 0.0 0.0 0.0 0.0 0.0 0.0 0.0 0.0 0.0 0.0 0.0 0.0 0.0 0.0 0.0 0.0 0.0 0.0 0.0 0.0 0.0 0.0 0.0 0.0 0.0 0.0 0.0 0.0 0.0 0.0 0.0 0.0 0.0 0.0 0.0 0.0 0.0 0.0 0.0 0.0 0.0 0.0 0.0 0.0 0.0 0.0 0.0 0.0 0.0 0.0 0.0 0.0 0.0 0.0 0.0 0.0 0.0 0.0 0.0 0.0 0.0 0.0 0.0 0.0 0.0 0.0 0.0 0.0 0.0 0.0 0.0 0.0 0.0 0.0 0.0 0.0 0.0 0.0 0.0 0.0 0.0 0.0 0.0 0.0 0.0 0.0 0.0 0.0 0.0 0.0 0.0 0.0 0.0 0.0 0.0 0.0 0.0 0.0 0.0 0.0 0.0 0.0 0.0 0.0 0.0 0.0 0.0 0.0 0.0 0.0 0.0 0.0 0.0 0.0 0.0 0.0 0.0 0.0 0.0 0.0 0.0 0.0 0.0 0.0 0.0 0.0 0.0 0.0 0.0 0.0 0.0 0.0 0.0 0.0 0.0 0.0 0.0 0.0 0.0 0.0 0.0 0.0 0.0 0.0 0.0 0.0 0.0 0.0 0.0 0.0 0.0 0.0 0.0 0.0 0.0 0.0 0.0 0.0 0.0 0.0 0.0 0.0 0.0 0.0 0.0 0.0 0.0 0.0 0.0 0.0 0.0 0.0 0.0 0.0 0.0 0.0 0.0 0.0 0.0 0.0 0.0 0.0 0.0 0.0 0.0 0.0 0.0 0.0 0.0 0.0 0.0 0.0 0.0 0.0 0.0 0.0 0.0 0.0 0.0 0.0 0.0 0.0 0.0 0.0 0.0 0.0 0.0 0.0 0.0 0.0 0.0 0.0 0.0 0.0 0.0 0.0 0.0 0.0 0.0 0.0 0.0 0.0 0.0 0.0 0.0 0.0 0.0 0.0 0.0 0.0 0.0 0.0 0.0 0.0 0.0 0.0 0.0 0.0 0.0 0.0 0.0 0.0 0.0 0.0 0.0 0.0 0.0 0.0 0.0 0.0 0.0 0.0 0.0 0.0 0.0 0.0 0.0 0.0 0.0 0.0 0.0 0.0 0.0 0.0 0.0 0.0 0.0 0.0 0.0 0.0 0.0 0.0 0.0 0.0 0.0 0.0 0.0 0.0 0.0 0.0 0.0 0.0 0.0 0.0 0.0 0.0 0.0 0.0 0.0 0.0 0.0 0.0 0.0 0.0 0.0 0.0 0.0 0.0 0.0 0.0 0.0 0.0 0.0 0.0 0.0 0.0 0.0 0.0 0.0 0.0 0.0 0.0 0.0 0.0 0.0 0.0 0.0 0.0 0.0 0.0 0.0 0.0 0.0 0.0 0.0 0.0 0.0 0.0 0.0 0.0 0.0 0.0 0.0 0.0 0.0 0.0 0.0 0.0 0.0 0.0 0.0 0.0 0.0 0.0 0.0 0.0 0.0 0.0 0.0 0.0 0.0 0.0 0.0 0.0 0.0 0.0 0.0 0.0 0.0 0.0 0.0 0.0 0.0 0.0 0.0 0.0 0.0 0.0 0.0 0.0 0.0 0.0 0.0 0.0 0.0 0.0 0.0 0.0 0.0 0.0 0.0 0.0 0.0 0.0 0.0 0.0 0.0 0.0 0.0 0.0 0.0 0.0 0.0 0.0 0.0 0.0 0.0 0.0 0.0 0.0 0.0 0.0 0.0 0.0 0.0 0.0 0.0 0.0 0.0 0.0 0.0 0.0 0.0 0.0 0.0 0.0 0.0 0.0 0.0 0.0 0.0 0.0 0.0 0.0 0.0 0.0 0.0 0.0 0.0 0.0 0.0 0.0 0.0 0.0 0.0 0.0 0.0 0.0 0.0 0.0 0.0 0.0 0.0 0.0 0.0 0.0 0.0 0.0 0.0 0.0 0.0 0.0 0.0 0.0 0.0 0.0 0.0 0.0 0.0 0.0 0.0 0.0 0.0 0.0 0.0 0.0 0.0 0.0 0.0 0.0 0.0 0.0 0.0 0.0 0.0 0.0 0.0 0.0 0.0 0.0 0.0 0.0 0.0 0.0 0.0 0.0 0.0 0.0 0.0 0.0 0.0 0.0 0.0 0.0 0.0 0.0 0.0 0.0 0.0 0.0 0.0 0.0 0.0 0.0 0.0 0.0 0.0 0.0 0.0 0.0 0.0 0.0 0.0 0.0 0.0 0.0 0.0 0.0 0.0 0.0 0.0 0.0 0.0 0.0 0.0 0.0 0.0 0.0 0.0 0.0 0.0 0.0 0.0 0.0 0.0 0.0 0.0 0.0 0.0 0.0 0.0 0.0 0.0 0.0 0.0 0.0 0.0 0.0 0.0 0.0 0.0 0.0 0.0 0.0 0.0 0.0 0.0 0.0 0.0 0.0 0.0 0.0 0.0 0.0 0.0 0.0 0.0 0.0 0.0 0.0 0.0 0.0 0.0 0.0 0.0 0.0 0.0 0.0 0.0 0.0 0.0 0.0 0.0 0.0 0.0 0.0 0.0 0.0 0.0 0.0 0.0 0.0 0.0 0.0 0.0 0.0 0.0 0.0 0.0 0.0 0.0 0.0 0.0 0.0 0.0 0.0 0.0 0.0 0.0 0.0 0.0 0.0 0.0 0.0 0.0 0.0 0.0 0.0 0.0 0.0 0.0 0.0 0.0 0.0 0.0 0.0 0.0 0.0 0.0 0.0 0.0 0.0 0.0 0.0 0.0 0.0 0.0 0.0 0.0 0.0 0.0 0.0 0.0 0.0 0.0 0.0 0.0 0.0 0.0 0.0 0.0 0.0 0.0 0.0 0.0 0.0 0.0 0.0 0.0 0.0 0.0 0.0 0.0 0.0 0.0 0.0 0.0 0.0 0.0 0.0 0.0 0.0 0.0 0.0 0.0 0.0 0.0 0.0 0.0 0.0 0.0 0.0 0.0 0.0 0.0 0.0 0.0 0.0 0.0 0.0 0.0 0.0 0.0 0.0 0.0 0.0 0.0 0.0 0.0 0.0 0.0 0.0 0.0 0.0 0.0 0.0 0.0 0.0 0.0 0.0 0.0 0.0 0.0 0.0 0.0 0.0 0.0 0.0 0.0 0.0 0.0 0.0 0.0 0.0 0.0 0.0 0.0 0.0 0.0 0.0 0.0 0.0 0.0 0.0 0.0 0.0 0.0 0.0 0.0 0.0 0.0 0.0 0.0 0.0 0.0 0.0 0.0 0.0 0.0 0.0 0.0 0.0 0.0 0.0 0.0 0.0 0.0 0.0 0.0 0.0 0.0 0.0 0.0 0.0 0.0 0.0 0.0 0.0 0.0 0.0 0.0 0.0 0.0 0.0 0.0 0.0 0.0 0.0 0.0 0.0 0.0 0.0 0.0 0.0 0.0 0.0 0.0 0.0 0.0 0.0 0.0 0.0 0.0 0.0 0.0 0.0 0.0 0.0 0.0 0.0 0.0 0.0 0.0 0.0 0.0 0.0 0.0 0.0 0.0 0.0 0.0 0.0 0.0 0.0 0.0 0.0 0.0 0.0 0.0 0.0 0.0 0.0 0.0 0.0 0.0 0.0 0.0 0.0 0.0 0.0 0.0 0.0 0.0 0.0 0.0 0.0 0.0 0.0 0.0 0.0 0.0 0.0 0.0 0.0 0.0 0.0 0.0 0.0 0.0 0.0 0.0 0.0 0.0 0.0 0.0 0.0 0.0 0.0 0.0 0.0 0.0 0.0 0.0 0.0 0.0 0.0 0.0 0.0 0.0 0.0 0.0 0.0 0.0 0.0 0.0 0.0 0.0 0.0 0.0 0.0 0.0 0.0 0.0 0.0 0.0 0.0 0.0 0.0 0.0 0.0 0.0 0.0 0.0 0.0 0.0 0.0 0.0 0.0 0.0 0.0 0.0 0.0 0.0 0.0 0.0 0.0 0.0 0.0 0.0 0.0 0.0 0.0 0.0 0.0 0.0 0.0 0.0 0.0 0.0 0.0 0.0 0.0 0.0 0.0 0.0 0.0 0.0 0.0 0.0 0.0 0.0 0.0 0.0 0.0 0.0 0.0 0.0 0.0 0.0 0.0 0.0 0.0 0.0 0.0 0.0 0.0 0.0 0.0 0.0 0.0 0.0 0.0 0.0 0.0 0.0 0.0 0.0 0.0 0.0 0.0 0.0 0.0 0.0 0.0 0.0 0.0 0.0 0.0 0.0 0.0 0.0 0.0 0.0 0.0 0.0 0.0 0.0 0.0 0.0 0.0 0.0 0.0 0.0 0.0 0.0 0.0 0.0 0.0 0.0 0.0 0.0 0.0 0.0 0.0 0.0 0.0 0.0 0.0 0.0 0.0 0.0 0.0 0.0 0.0 0.0 0.0 0.0 0.0 0.0 0.0 0.0 0.0 0.0 0.0 0.0 0.0 0.0 0.0 0.0 0.0 0.0 0.0 0.0 0.0 0.0 0.0 0.0 0.0 0.0 0.0 0.0 0.0 0.0 0.0 0.0 0.0 0.0 0.0 0.0 0.0 0.0 0.0 0.0 0.0 0.0 0.0 0.0 0.0 0.0 0.0 0.0 0.0 0.0 0.0 0.0 0.0 0.0 0.0 0.0 0.0 0.0 0.0 0.0 0.0 0.0 0.0 0.0 0.0 0.0 0.0 0.0 0.0 0.0 0.0 0.0 0.0 0.0 0.0 0.0 0.0 0.0 0.0 0.0 0.0 0.0 0.0 0.0 0.0 0.0 0.0 0.0 0.0 0.0 0.0 0.0 0.0 0.0 0.0 0.0 0.0 0.0 0.0 0.0 0.0 0.0 0.0 0.0 0.0 0.0 0.0 0.0 0.0 0.0 0.0 0.0 0.0 0.0 0.0 0.0 0.0 0.0 0.0 0.0 0.0 0.0 0.0 0.0 0.0 0.0 0.0 0.0 0.0 0.0 0.0 0.0 0.0 0.0 0.0 0.0 0.0 0.0 0.0 0.0 0.0 0.0 0.0 0.0 0.0 0.0 0.0 0.0 0.0 0.0 0.0 0.0 0.0 0.0 0.0 0.0 0.0 0.0 0.0 0.0 0.0 0.0 0.0 0.0 0.0 0.0 0.0 0.0 0.0 0.0 0.0 0.0 0.0 0.0 0.0 0.0 0.0 0.0 0.0 0.0 0.0 0.0 0.0 0.0 0.0 0.0 0.0 0.0 0.0 0.0 0.0 0.0 0.0 0.0 0.0 0.0 0.0 0.0 0.0 0.0 0.0 0.0 0.0 0.0 0.0 0.0 0.0 0.0 0.0 0.0 0.0 0.0 0.0 0.0 0.0 0.0 0.0 0.0 0.0 0.0 0.0 0.0 0.0 0.0 0.0 0.0 0.0 0.0 0.0 0.0 0.0 0.0 0.0 0.0 0.0 0.0 0.0 0.0 0.0 0.0 0.0 0.0 0.0 0.0 0.0 0.0 0.0 0.0 0.0 0.0 0.0 0.0 0.0 0.0 0.0 0.0 0.0 0.0 0.0 0.0 0.0 0.0 0.0 0.0 0.0 0.0 0.0 0.0 0.0 0.0 0.0 0.0 0.0 0.0 0.0 0.0 0.0 0.0 0.0 0.0 0.0 0.0 0.0 0.0 0.0 0.0 0.0 0.0 0.0 0.0 0.0 0.0 0.0 0.0 0.0 0.0 0.0 0.0 0.0 0.0 0.0 0.0 0.0 0.0 0.0 0.0 0.0 0.0 0.0 0.0 0.0 0.0 0.0 0.0 0.0 0.0 0.0 0.0 0.0 0.0 0.0 0.0 0.0 0.0 0.0 0.0 0.0 0.0 0.0 0.0 0.0 0.0 0.0 0.0 0.0 0.0 0.0 0.0 0.0 0.0 0.0 0.0 0.0 0.0 0.0 0.0 0.0 0.0 0.0 0.0 0.0 0.0 0.0 0.0 0.0 0.0 0.0 0.0 0.0 0.0 0.0 0.0 0.0 0.0 0.0 0.0 0.0 0.0 0.0 0.0 0.0 0.0 0.0 0.0 0.0 0.0 0.0 0.0 0.0 0.0 0.0 0.0 0.0 0.0 0.0 0.0 0.0 0.0 0.0 0.0 0.0 0.0 0.0 0.0 0.0 0.0 0.0 0.0 0.0 0.0 0.0 0.0 0.0 0.0 0.0 0.0 0.0 0.0 0.0 0.0 0.0 0.0 0.0 0.0 0.0 0.0 0.0 0.0 0.0 0.0 0.0 0.0 0.0 0.0 0.0 0.0 0.0 0.0 0.0 0.0 0.0 0.0 0.0 0.0 0.0 0.0 0.0 0.0 0.0 0.0 0.0 0.0 0.0 0.0 0.0 0.0 0.0 0.0 0.0 0.0 0.0 0.0 0.0 0.0 0.0 0.0 0.0 0.0 0.0 0.0 0.0 0.0 0.0 0.0 0.0 0.0 0.0 0.0 0.0 0.0 0.0 0.0 0.0 0.0 0.0 0.0 0.0 0.0 0.0 0.0 0.0 0.0 0.0 0.0 0.0 0.0 0.0 0.0 0.0 0.0 0.0 0.0 0.0 0.0 0.0 0.0 0.0 0.0 0.0 0.0 0.0 0.0 0.0 0.0 0.0 0.0 0.0 0.0 0.0 0.0 0.0 0.0 0.0 0.0 0.0 0.0 0.0 0.0 0.0 0.0 0.0 0.0 0.0 0.0 0.0 0.0 0.0 0.0 0.0 0.0 0.0 0.0 0.0 0.0 0.0 0.0 0.0 0.0 0.0 0.0 0.0 0.0 0.0 0.0 0.0 0.0 0.0 0.0 0.0 0.0 0.0 0.0 0.0 0.0 0.0 0.0 0.0 0.0 0.0 0.0 0.0 0.0 0.0 0.0 0.0 0.0 0.0 0.0 0.0 0.0 0.0 0.0 0.0 0.0 0.0 0.0 0.0 0.0 0.0 0.0 0.0 0.0 0.0 0.0 0.0 0.0 0.0 0.0 0.0 0.0 0.0 0.0 0.0 0.0 0.0 0.0 0.0 0.0 0.0 0.0 0.0 0.0 0.0 0.0 0.0 0.0 0.0 0.0 0.0 0.0 0.0 0.0 0.0 0.0 0.0 0.0 0.0 0.0 0.0 0.0 0.0 0.0 0.0 0.0 0.0 0.0 0.0 0.0 0.0 0.0 0.0 0.0 0.0 0.0 0.0 0.0 0.0 0.0 0.0 0.0 0.0 0.0 0.0 0.0 0.0 0.0 0.0 0.0 0.0 0.0 0.0 0.0 0.0 0.0 0.0 0.0 0.0 0.0 0.0 0.0 0.0 0.0 0.0 0.0 0.0 0.0 0.0 0.0 0.0 0.0 0.0 0.0 0.0 0.0 0.0 0.0 0.0 0.0 0.0 0.0 0.0 0.0 0.0 0.0 0.0 0.0 0.0 0.0 0.0 0.0 0.0 0.0 0.0 0.0 0.0 0.0 0.0 0.0 0.0 0.0 0.0 0.0 0.0 0.0 0.0 0.0 0.0 0.0 0.0 0.0 0.0 0.0 0.0 0.0 0.0 0.0 0.0 0.0 0.0 0.0 0.0 0.0 0.0 0.0 0.0 0.0 0.0 0.0 0.0 0.0 0.0 0.0 0.0 0.0 0.0 0.0 0.0 0.0 0.0 0.0 0.0 0.0 0.0 0.0 0.0 0.0 0.0 0.0 0.0 0.0 0.0 0.0 0.0 0.0 0.0 0.0 0.0 0.0 0.0 0.0 0.0 0.0 0.0 0.0 0.0 0.0 0.0 0.0 0.0 0.0 0.0 0.0 0.0 0.0 0.0 0.0 0.0 0.0 0.0 0.0 0.0 0.0 0.0 0.0 0.0 0.0 0.0 0.0 0.0 0.0 0.0 0.0 0.0 0.0 0.0 0.0 0.0 0.0 0.0 0.0 0.0 0.0 0.0 0.0 0.0 0.0 0.0 0.0 0.0 0.0 0.0 0.0 0.0 0.0 0.0 0.0 0.0 0.0 0.0 0.0 0.0 0.0 0.0 0.0 0.0 0.0 0.0 0.0 0.0 0.0 0.0 0.0 0.0 0.0 0.0 0.0 0.0 0.0 0.0 0.0 0.0 0.0 0.0 0.0 0.0 0.0 0.0 0.0 0.0 0.0 0.0 0.0 0.0 0.0 0.0 0.0 0.0 0.0 0.0 0.0 0.0 0.0 0.0 0.0 0.0 0.0 0.0 0.0 0.0 0.0 0.0 0.0 0.0 0.0 0.0 0.0 0.0 0.0 0.0 0.0 0.0 0.0 0.0 0.0 0.0 0.0 0.0 0.0 0.0 0.0 0.0 0.0 0.0 0.0 0.0 0.0 0.0 0.0 0.0 0.0 0.0 0.0 0.0 0.0 0.0 0.0 0.0 0.0 0.0 0.0 0.0 0.0 0.0 0.0 0.0 0.0 0.0 0.0 0.0 0.0 0.0 0.0 0.0 0.0 0.0 0.0 0.0 0.0 0.0 0.0 0.0 0.0 0.0 0.0 0.0 0.0 0.0 0.0 0.0 0.0 0.0 0.0 0.0 0.0 0.0 0.0 0.0 0.0 0.0 0.0 0.0 0.0 0.0 0.0 0.0 0.0 0.0 0.0 0.0 0.0 0.0 0.0 0.0 0.0 0.0 0.0 0.0 0.0 0.0 0.0 0.0 0.0 0.0 0.0 0.0 0.0 0.0 0.0 0.0 0.0 0.0 0.0 0.0 0.0 0.0 0.0 0.0 0.0 0.0 0.0 0.0 0.0 0.0 0.0 0.0 0.0 0.0 0.0 0.0 0.0 0.0 0.0 0.0 0.0 0.0 0.0 0.0 0.0 0.0 0.0 0.0 0.0 0.0 0.0 0.0 0.0 0.0 0.0 0.0 0.0 0.0 0.0 0.0 0.0 0.0 0.0 0.0 0.0 0.0 0.0 0.0 0.0 0.0 0.0 0.0 0.0 0.0 0.0 0.0 0.0 0.0 0.0 0.0 0.0 0.0 0.0 0.0 0.0 0.0 0.0 0.0 0.0 0.0 0.0 0.0 0.0 0.0 0.0 0.0 0.0 0.0 0.0 0.0 0.0 0.0 0.0 0.0 0.0 0.0 0.0 0.0 0.0 0.0 0.0 0.0 0.0 0.0 0.0 0.0 0.0 0.0 0.0 0.0 0.0 0.0 0.0 0.0 0.0 0.0 0.0 0.0 0.0 0.0 0.0 0.0 0.0 0.0 0.0 0.0 0.0 0.0 0.0 0.0 0.0 0.0 0.0 0.0 0.0 0.0 0.0 0.0 0.0 0.0 0.0 0.0 0.0 0.0 0.0 0.0 0.0 0.0 0.0 0.0 0.0 0.0 0.0 0.0 0.0 0.0 0.0 0.0 0.0 0.0 0.0 0.0 0.0 0.0 0.0 0.0 0.0 0.0 0.0 0.0 0.0 0.0 0.0 0.0 0.0 0.0 0.0 0.0 0.0 0.0 0.0 0.0 0.0 0.0 0.0 0.0 0.0 0.0 0.0 0.0 0.0 0.0 0.0 0.0 0.0 0.0 0.0 0.0 0.0 0.0 0.0 0.0 0.0 0.0 0.0 0.0 0.0 0.0 0.0 0.0 0.0 0.0 0.0 0.0 0.0 0.0 0.0 0.0 0.0 0.0 0.0 0.0 0.0 0.0 0.0 0.0 0.0 0.0 0.0 0.0 0.0 0.0 0.0 0.0 0.0 0.0 0.0 0.0 0.0 0.0 0.0 0.0 0.0 0.0 0.0 0.0 0.0 0.0 0.0 0.0 0.0 0.0 0.0 0.0 0.0 0.0 0.0 0.0 0.0 0.0 0.0 0.0 0.0 0.0 0.0 0.0 0.0 0.0 0.0 0.0 0.0 0.0 0.0 0.0 0.0 0.0 0.0 0.0 0.0 0.0 0.0 0.0 0.0 0.0 0.0 0.0 0.0 0.0 0.0 0.0 0.0 0.0 0.0 0.0 0.0 0.0 0.0 0.0 0.0 0.0 0.0 0.0 0.0 0.0 0.0 0.0 0.0 0.0 0.0 0.0 0.0 0.0 0.0 0.0 0.0 0.0 0.0 0.0 0.0 0.0 0.0 0.0 0.0 0.0 0.0 0.0 0.0 0.0 0.0 0.0 0.0 0.0 0.0 0.0 0.0 0.0 0.0 0.0 0.0 0.0 0.0 0.0 0.0 0.0 0.0 0.0 0.0 0.0 0.0 0.0 0.0 0.0 0.0 0.0 0.0 0.0 0.0 0.0 0.0 0.0 0.0 0.0 0.0 0.0 0.0 0.0 0.0 0.0 0.0 0.0 0.0 0.0 0.0 0.0 0.0 0.0 0.0 0.0 0.0 0.0 0.0 0.0 0.0 0.0 0.0 0.0 0.0 0.0 0.0 0.0 0.0 0.0 0.0 0.0 0.0 0.0 0.0 0.0 0.0 0.0 0.0 0.0 0.0 0.0 0.0 0.0 0.0 0.0 0.0 0.0 0.0 0.0 0.0 0.0 0.0 0.0 0.0 0.0 0.0 0.0 0.0 0.0 0.0 0.0 0.0 0.0 0.0 0.0 0.0 0.0 0.0 0.0 0.0 0.0 0.0 0.0 0.0 0.0 0.0 0.0 0.0 0.0 0.0 0.0 0.0 0.0 0.0 0.0 0.0 0.0 0.0 0.0 0.0 0.0 0.0 0.0 0.0 0.0 0.0 0.0 0.0 0.0 0.0 0.0 0.0 0.0 0.0 0.0 0.0 0.0 0.0 0.0 0.0 0.0 0.0 0.0 0.0 0.0 0.0 0.0 0.0 0.0 0.0 0.0 0.0 0.0 0.0 0.0 0.0 0.0 0.0 0.0 0.0 0.0 0.0 0.0 0.0 0.0 0.0 0.0 0.0 0.0 0.0 0.0 0.0 0.0 0.0 0.0 0.0 0.0 0.0 0.0 0.0 0.0 0.0 0.0 0.0 0.0 0.0 0.0 0.0 0.0 0.0 0.0 0.0 0.0 0.0 0.0 0.0 0.0 0.0 0.0 0.0 0.0 0.0 0.0 0.0 0.0 0.0 0.0 0.0 0.0 0.0 0.0 0.0 0.0 0.0 0.0 0.0 0.0 0.0 0.0 0.0 0.0 0.0 0.0 0.0 0.0 0.0 0.0 0.0 0.0 0.0 0.0 0.0 0.0 0.0 0.0 0.0 0.0 0.0 0.0 0.0 0.0 0.0 0.0 0.0 0.0 0.0 0.0 0.0 0.0 0.0 0.0 0.0 0.0 0.0 0.0 0.0 0.0 0.0 0.0 0.0 0.0 0.0 0.0 0.0 0.0 0.0 0.0 0.0 0.0 0.0 0.0 0.0 0.0 0.0 0.0 0.0 0.0 0.0 0.0 0.0 0.0 0.0 0.0 0.0 0.0 0.0 0.0 0.0 0.0 0.0 0.0 0.0 0.0 0.0 0.0 0.0 0.0 0.0 0.0 0.0 0.0 0.0 0.0 0.0 0.0 0.0 0.0 0.0 0.0 0.0 0.0 0.0 0.0 0.0 0.0 0.0 0.0 0.0 0.0 0.0 0.0 0.0 0.0 0.0 0.0 0.0 0.0 0.0 0.0 0.0 0.0 0.0 0.0 0.0 0.0 0.0 0.0 0.0 0.0 0.0 0.0 0.0 0.0 0.0 0.0 0.0 0.0 0.0 0.0 0.0 0.0 0.0 0.0 0.0 0.0 0.0 0.0 0.0 0.0 0.0 0.0 0.0 0.0 0.0 0.0 0.0 0.0 0.0 0.0 0.0 0.0 0.0 0.0 0.0 0.0 0.0 0.0 0.0 0.0 0.0 0.0 0.0 0.0 0.0 0.0 0.0 0.0 0.0 0.0 0.0 0.0 0.0 0.0 0.0 0.0 0.0 0.0 0.0 0.0 0.0 0.0 0.0 0.0 0.0 0.0 0.0 0.0 0.0 0.0 0.0 0.0 0.0 0.0 0.0 0.0 0.0 0.0 0.0 0.0 0.0 0.0 0.0 0.0 0.0 0.0 0.0 0.0 0.0 0.0 0.0 0.0 0.0 0.0 0.0 0.0 0.0 0.0 0.0 0.0 0.0 0.0 0.0 0.0 0.0 0.0 0.0 0.0 0.0 0.0 0.0 0.0 0.0 0.0 0.0 0.0 0.0 0.0 0.0 0.0 0.0 0.0 0.0 0.0 0.0 0.0 0.0 0.0 0.0 0.0 0.0 0.0 0.0 0.0 0.0 0.0 0.0 0.0 0.0 0.0 0.0 0.0 0.0 0.0 0.0 0.0 0.0 0.0 0.0 0.0 0.0 0.0 0.0 0.0 0.0 0.0 0.0 0.0 0.0 0.0 0.0 0.0 0.0 0.0 0.0 0.0 0.0 0.0 0.0 0.0 0.0 0.0 0.0 0.0 0.0 0.0 0.0 0.0 0.0 0.0 0.0 0.0 0.0 0.0 0.0 0.0 0.0 0.0 0.0 0.0 0.0 0.0 0.0 0.0 0.0 0.0 0.0 0.0 0.0 0.0 0.0 0.0 0.0 0.0 0.0 0.0 0.0 0.0 0.0 0.0 0.0 0.0 0.0 0.0 0.0 0.0 0.0 0.0 0.0 0.0 0.0 0.0 0.0 0.0 0.0 0.0 0.0 0.0 0.0 0.0 0.0 0.0 0.0 0.0 0.0 0.0 0.0 0.0 0.0 0.0 0.0 0.0 0.0 0.0 0.0 0.0 0.0 0.0 0.0 0.0 0.0 0.0 0.0 0.0 0.0 0.0 0.0 0.0 0.0 0.0 0.0 0.0 0.0 0.0 0.0 0.0 0.0 0.0 0.0 0.0 0.0 0.0 0.0 0.0 0.0 0.0 0.0 0.0 0.0 0.0 0.0 0.0 0.0 0.0 0.0 0.0 0.0 0.0 0.0 0.0 0.0 0.0 0.0 0.0 0.0 0.0 0.0 0.0 0.0 0.0 0.0 0.0 0.0 0.0 0.0 0.0 0.0 0.0 0.0 0.0 0.0 0.0 0.0 0.0 0.0 0.0 0.0 0.0 0.0 0.0 0.0 0.0 0.0 0.0 0.0 0.0 0.0 0.0 0.0 0.0 0.0 0.0 0.0 0.0 0.0 0.0 0.0 0.0 0.0 0.0 0.0 0.0 0.0 0.0 0.0 0.0 0.0 0.0 0.0 0.0 0.0 0.0 0.0 0.0 0.0 0.0 0.0 0.0 0.0 0.0 0.0 0.0 0.0 0.0 0.0 0.0 0.0 0.0 0.0 0.0 0.0 0.0 0.0 0.0 0.0 0.0 0.0 0.0 0.0 0.0 0.0 0.0 0.0 0.0 0.0 0.0 0.0 0.0 0.0 0.0 0.0 0.0 0.0 0.0 0.0 0.0 0.0 0.0 0.0 0.0 0.0 0.0 0.0 0.0 0.0 0.0 0.0 0.0 0.0 0.0 0.0 0.0 0.0 0.0 0.0 0.0 0.0 0.0 0.0 0.0 0.0 0.0 0.0 0.0 0.0 0.0 0.0 0.0 0.0 0.0 0.0 0.0 0.0 0.0 0.0 0.0 0.0 0.0 0.0 0.0 0.0 0.0 0.0 0.0 0.0 0.0 0.0 0.0 0.0 0.0 0.0 0.0 0.0 0.0 0.0 0.0 0.0 0.0 0.0 0.0 0.0 0.0 0.0 0.0 0.0 0.0 0.0 0.0 0.0 0.0 0.0 0.0 0.0 0.0 0.0 0.0 0.0 0.0 0.0 0.0 0.0 0.0 0.0 0.0 0.0 0.0 0.0 0.0 0.0 0.0 0.0 0.0 0.0 0.0 0.0 0.0 0.0 0.0 0.0 0.0 0.0 0.0 0.0 0.0 0.0 0.0 0.0 0.0 0.0 0.0 0.0 0.0 0.0 0.0 0.0 0.0 0.0 0.0 0.0 0.0 0.0 0.0 0.0 0.0 0.0 0.0 0.0 0.0 0.0 0.0 0.0 0.0 0.0 0.0 0.0 0.0 0.0 0.0 0.0 0.0 0.0 0.0 0.0 0.0 0.0 0.0 0.0 0.0 0.0 0.0 0.0 0.0 0.0 0.0 0.0 0.0 0.0 0.0 0.0 0.0 0.0 0.0 0.0 0.0 0.0 0.0 0.0 0.0 0.0 0.0 0.0 0.0 0.0 0.0 0.0 0.0 0.0 0.0 0.0 0.0 0.0 0.0 0.0 0.0 0.0 0.0 0.0 0.0 0.0 0.0 0.0 0.0 0.0 0.0 0.0 0.0 0.0 0.0 0.0 0.0 0.0 0.0 0.0 0.0 0.0 0.0 0.0 0.0 0.0 0.0 0.0 0.0 0.0 0.0 0.0 0.0 0.0 0.0 0.0 0.0 0.0 0.0 0.0 0.0 0.0 0.0 0.0 0.0 0.0 0.0 0.0 0.0 0.0 0.0 0.0 0.0 0.0 0.0 0.0 0.0 0.0 0.0 0.0 0.0 0.0 0.0 0.0 0.0 0.0 0.0 0.0 0.0 0.0 0.0 0.0 0.0 0.0 0.0 0.0 0.0 0.0 0.0 0.0 0.0 0.0 0.0 0.0 0.0 0.0 0.0 0.0 0.0 0.0 0.0 0.0 0.0 0.0 0.0 0.0 0.0 0.0 0.0 0.0 0.0 0.0 0.0 0.0 0.0 0.0 0.0 0.0 0.0 0.0 0.0 0.0 0.0 0.0 0.0 0.0 0.0 0.0 0.0 0.0 0.0 0.0 0.0 0.0 0.0 0.0 0.0 0.0 0.0 0.0 0.0 0.0 0.0 0.0 0.0 0.0 0.0 0.0 0.0 0.0 0.0 0.0 0.0 0.0 0.0 0.0 0.0 0.0 0.0 0.0 0.0 0.0 0.0 0.0 0.0 0.0 0.0 0.0 0.0 0.0 0.0 0.0 0.0 0.0 0.0 0.0 0.0 0.0 0.0 0.0 0.0 0.0 0.0 0.0 0.0 0.0 0.0 0.0 0.0 0.0 0.0 0.0 0.0 0.0 0.0 0.0 0.0 0.0 0.0 0.0 0.0 0.0 0.0 0.0 0.0 0.0 0.0 0.0 0.0 0.0 0.0 0.0 0.0 0.0 0.0 0.0 0.0 0.0 0.0 0.0 0.0 0.0 0.0 0.0 0.0 0.0 0.0 0.0 0.0 0.0 0.0 0.0 0.0 0.0 0.0 0.0 0.0 0.0 0.0 0.0 0.0 0.0 0.0 0.0 0.0 0.0 0.0 0.0 0.0 0.0 0.0 0.0 0.0 0.0 0.0 0.0 0.0 0.0 0.0 0.0 0.0 0.0 0.0 0.0 0.0 0.0 0.0 0.0 0.0 0.0 0.0 0.0 0.0 0.0 0.0 0.0 0.0 0.0 0.0 0.0 0.0 0.0 0.0 0.0 0.0 0.0 0.0 0.0 0.0 0.0 0.0 0.0 0.0 0.0 0.0 0.0 0.0 0.0 0.0 0.0 0.0 0.0 0.0 0.0 0.0 0.0 0.0 0.0 0.0 0.0 0.0 0.0 0.0 0.0 0.0 0.0 0.0 0.0 0.0 0.0 0.0 0.0 0.0 0.0 0.0 0.0 0.0 0.0 0.0 0.0 0.0 0.0 0.0 0.0 0.0 0.0 0.0 0.0 0.0 0.0 0.0 0.0 0.0 0.0 0.0 0.0 0.0 0.0 0.0 0.0 0.0 0.0 0.0 0.0 0.0 0.0 0.0 0.0 0.0 0.0 0.0 0.0 0.0 0.0 0.0 0.0 0.0 0.0 0.0 0.0 0.0 0.0 0.0 0.0 0.0 0.0 0.0 0.0 0.0 0.0 0.0 0.0 0.0 0.0 0.0 0.0 0.0 0.0 0.0 0.0 0.0 0.0 0.0 0.0 0.0 0.0 0.0 0.0 0.0 0.0 0.0 0.0 0.0 0.0 0.0 0.0 0.0 0.0 0.0 0.0 0.0 0.0 0.0 0.0 0.0 0.0 0.0 0.0 0.0 0.0 0.0 0.0 0.0 0.0 0.0 0.0 0.0 0.0 0.0 0.0 0.0 0.0 0.0 0.0 0.0 0.0 0.0 0.0 0.0 0.0 0.0 0.0 0.0 0.0 0.0 0.0 0.0 0.0 0.0 0.0 0.0 0.0 0.0 0.0 0.0 0.0 0.0 0.0 0.0 0.0 0.0 0.0 0.0 0.0 0.0 0.0 0.0 0.0 0.0 0.0 0.0 0.0 0.0 0.0 0.0 0.0 0.0 0.0 0.0 0.0 0.0 0.0 0.0 0.0 0.0 0.0 0.0 0.0 0.0 0.0 0.0 0.0 0.0 0.0 0.0 0.0 0.0 0.0 0.0 0.0 0.0 0.0 0.0 0.0 0.0 0.0 0.0 0.0 0.0 0.0 0.0 0.0 0.0 0.0 0.0 0.0 0.0 0.0 0.0 0.0 0.0 0.0 0.0 0.0 0.0 0.0 0.0 0.0 0.0 0.0 0.0 0.0 0.0 0.0 0.0 0.0 0.0 0.0 0.0 0.0 0.0 0.0 0.0 0.0 0.0 0.0 0.0 0.0 0.0 0.0 0.0 0.0 0.0 0.0 0.0 0.0 0.0 0.0 0.0 0.0 0.0 0.0 0.0 0.0 0.0 0.0 0.0 0.0 0.0 0.0 0.0 0.0 0.0 0.0 0.0 0.0 0.0 0.0 0.0 0.0 0.0 0.0 0.0 0.0 0.0 0.0 0.0 0.0 0.0 0.0 0.0 0.0 0.0 0.0 0.0 0.0 0.0 0.0 0.0 0.0 0.0 0.0 0.0 0.0 0.0 0.0 0.0 0.0 0.0 0.0 0.0 0.0 0.0 0.0 0.0 0.0 0.0 0.0 0.0 0.0 0.0 0.0 0.0 0.0 0.0 0.0 0.0 0.0 0.0 0.0 0.0 0.0 0.0 0.0 0.0 0.0 0.0 0.0 0.0 0.0 0.0 0.0 0.0 0.0 0.0 0.0 0.0 0.0 0.0 0.0 0.0 0.0 0.0 0.0 0.0 0.0 0.0 0.0 0.0 0.0 0.0 0.0 0.0 0.0 0.0 0.0 0.0 0.0 0.0 0.0 0.0 0.0 0.0 0.0 0.0 0.0 0.0 0.0 0.0 0.0 0.0 0.0 0.0 0.0 0.0 0.0 0.0 0.0 0.0 0.0 0.0 0.0 0.0 0.0 0.0 0.0 0.0 0.0 0.0 0.0 0.0 0.0 0.0 0.0 0.0 0.0 0.0 0.0 0.0 0.0 0.0 0.0 0.0 0.0 0.0 0.0 0.0 0.0 0.0 0.0 0.0 0.0 0.0 0.0 0.0 0.0 0.0 0.0 0.0 0.0 0.0 0.0 0.0 0.0 0.0 0.0 0.0 0.0 0.0 0.0 0.0 0.0 0.0 0.0 0.0 0.0 0.0 0.0 0.0 0.0 0.0 0.0 0.0 0.0 0.0 0.0 0.0 0.0 0.0 0.0 0.0 0.0 0.0 0.0 0.0 0.0 0.0 0.0 0.0 0.0 0.0 0.0 0.0 0.0 0.0 0.0 0.0 0.0 0.0 0.0 0.0 0.0 0.0 0.0 0.0 0.0 0.0 0.0 0.0 0.0 0.0 0.0 0.0 0.0 0.0 0.0 0.0 0.0 0.0 0.0 0.0 0.0 0.0 0.0 0.0 0.0 0.0 0.0 0.0 0.0 0.0 0.0 0.0 0.0 0.0 0.0 0.0 0.0 0.0 0.0 0.0 0.0 0.0 0.0 0.0 0.0 0.0 0.0 0.0 0.0 0.0 0.0 0.0 0.0 0.0 0.0 0.0 0.0 0.0 0.0 0.0 0.0 0.0 0.0 0.0 0.0 0.0 0.0 0.0 0.0 0.0 0.0 0.0 0.0 0.0 0.0 0.0 0.0 0.0 0.0 0.0 0.0 0.0 0.0 0.0 0.0 0.0 0.0 0.0 0.0 0.0 0.0 0.0 0.0 0.0 0.0 0.0 0.0 0.0 0.0 0.0 0.0 0.0 0.0 0.0 0.0 0.0 0.0 0.0 0.0 0.0 0.0 0.0 0.0 0.0 0.0 0.0 0.0 0.0 0.0 0.0 0.0 0.0 0.0 0.0 0.0 0.0 0.0 0.0 0.0 0.0 0.0 0.0 0.0 0.0 0.0 0.0 0.0 0.0 0.0 0.0 0.0 0.0 0.0 0.0 0.0 0.0 0.0 0.0 0.0 0.0 0.0 0.0 0.0 0.0 0.0 0.0 0.0 0.0 0.0 0.0 0.0 0.0 0.0 0.0 0.0 0.0 0.0 0.0 0.0 0.0 0.0 0.0 0.0 0.0 0.0 0.0 0.0 0.0 0.0 0.0 0.0 0.0 0.0 0.0 0.0 0.0 0.0 0.0 0.0 0.0 0.0 0.0 0.0 0.0 0.0 0.0 0.0 0.0 0.0 0.0 0.0 0.0 0.0 0.0 0.0 0.0 0.0 0.0 0.0 0.0 0.0 0.0 0.0 0.0 0.0 0.0 0.0 0.0 0.0 0.0 0.0 0.0 0.0 0.0 0.0 0.0 0.0 0.0 0.0 0.0 0.0 0.0 0.0 0.0 0.0 0.0 0.0 0.0 0.0 0.0 0.0 0.0 0.0 0.0 0.0 0.0 0.0 0.0 0.0 0.0 0.0 0.0 0.0 0.0 0.0 0.0 0.0 0.0 0.0 0.0 0.0 0.0 0.0 0.0 0.0 0.0 0.0 0.0 0.0 0.0 0.0 0.0 0.0 0.0 0.0 0.0 0.0 0.0 0.0 0.0 0.0 0.0 0.0 0.0 0.0 0.0 0.0 0.0 0.0 0.0 0.0 0.0 0.0 0.0 0.0 0.0 0.0 0.0 0.0 0.0 0.0 0.0 0.0 0.0 0.0 0.0 0.0 0.0 0.0 0.0 0.0 0.0 0.0 0.0 0.0 0.0 0.0 0.0 0.0 0.0 0.0 0.0 0.0 0.0 0.0 0.0 0.0 0.0 0.0 0.0 0.0 0.0 0.0 0.0 0.0 0.0 0.0 0.0 0.0 0.0 0.0 0.0 0.0 0.0 0.0 0.0 0.0 0.0 0.0 0.0 0.0 0.0 0.0 0.0 0.0 0.0 0.0 0.0 0.0 0.0 0.0 0.0 0.0 0.0 0.0 0.0 0.0 0.0 0.0 0.0 0.0 0.0 0.0 0.0 0.0 0.0 0.0 0.0 0.0 0.0 0.0 0.0 0.0 0.0 0.0 0.0 0.0 0.0 0.0 0.0 0.0 0.0 0.0 0.0 0.0 0.0 0.0 0.0 0.0 0.0 0.0 0.0 0.0 0.0 0.0 0.0 0.0 0.0 0.0 0.0 0.0 0.0 0.0 0.0 0.0 0.0 0.0 0.0 0.0 0.0 0.0 0.0 0.0 0.0 0.0 0.0 0.0 0.0 0.0 0.0 0.0 0.0 0.0 0.0 0.0 0.0 0.0 0.0 0.0 0.0 0.0 0.0 0.0 0.0 0.0 0.0 0.0 0.0 0.0 0.0 0.0 0.0 0.0 0.0 0.0 0.0 0.0 0.0 0.0 0.0 0.0 0.0 0.0 0.0 0.0 0.0 0.0 0.0 0.0 0.0 0.0 0.0 0.0 0.0 0.0 0.0 0.0 0.0 0.0 0.0 0.0 0.0 0.0 0.0 0.0 0.0 0.0 0.0 0.0 0.0 0.0 0.0 0.0 0.0 0.0 0.0 0.0 0.0 0.0 0.0 0.0 0.0 0.0 0.0 0.0 0.0 0.0 0.0 0.0 0.0 0.0 0.0 0.0 0.0 0.0 0.0 0.0 0.0 0.0 0.0 0.0 0.0 0.0 0.0 0.0 0.0 0.0 0.0 0.0 0.0 0.0 0.0 0.0 0.0 0.0 0.0 0.0 0.0 0.0 0.0 0.0 0.0 0.0 0.0 0.0 0.0 0.0 0.0 0.0 0.0 0.0 0.0 0.0 0.0 0.0 0.0 0.0 0.0 0.0 0.0 0.0 0.0 0.0 0.0 0.0 0.0 0.0 0.0 0.0 0.0 0.0 0.0 0.0 0.0 0.0 0.0 0.0 0.0 0.0 0.0 0.0 0.0 0.0 0.0 0.0 0.0 0.0 0.0 0.0 0.0 0.0 0.0 0.0 0.0 0.0 0.0 0.0 0.0 0.0 0.0 0.0 0.0 0.0 0.0 0.0 0.0 0.0 0.0 0.0 0.0 0.0 0.0 0.0 0.0 0.0 0.0 0.0 0.0 0.0 0.0 0.0 0.0 0.0 0.0 0.0 0.0 0.0 0.0 0.0 0.0 0.0 0.0 0.0 0.0 0.0 0.0 0.0 0.0 0.0 0.0 0.0 0.0 0.0 0.0 0.0 0.0 0.0 0.0 0.0 0.0 0.0 0.0 0.0 0.0 0.0 0.0 0.0 0.0 0.0 0.0 0.0 0.0 0.0 0.0 0.0 0.0 0.0 0.0 0.0 0.0 0.0 0.0 0.0 0.0 0.0 0.0 0.0 0.0 0.0 0.0 0.0 0.0 0.0 0.0 0.0 0.0 0.0 0.0 0.0 0.0 0.0 0.0 0.0 0.0 0.0 0.0 0.0 0.0 0.0 0.0 0.0 0.0 0.0 0.0 0.0 0.0 0.0 0.0 0.0 0.0 0.0 0.0 0.0 0.0 0.0 0.0 0.0 0.0 0.0 0.0 0.0 0.0 0.0 0.0 0.0 0.0 0.0 0.0 0.0 0.0 0.0 0.0 0.0 0.0 0.0 0.0 0.0 0.0 0.0 0.0 0.0 0.0 0.0 0.0 0.0 0.0 0.0 0.0 0.0 0.0 0.0 0.0 0.0 0.0 0.0 0.0 0.0 0.0 0.0 0.0 0.0 0.0 0.0 0.0 0.0 0.0 0.0 0.0 0.0 0.0 0.0 0.0 0.0 0.0 0.0 0.0 0.0 0.0 0.0 0.0 0.0 0.0 0.0 0.0 0.0 0.0 0.0 0.0 0.0 0.0 0.0 0.0 0.0 0.0 0.0 0.0 0.0 0.0 0.0 0.0 0.0 0.0 0.0 0.0 0.0 0.0 0.0 0.0 0.0 0.0 0.0 0.0 0.0 0.0 0.0 0.0 0.0 0.0 0.0 0.0 0.0 0.0 0.0 0.0 0.0 0.0 0.0 0.0 0.0 0.0 0.0 0.0 0.0 0.0 0.0 0.0 0.0 0.0 0.0 0.0 0.0 0.0 0.0 0.0 0.0 0.0 0.0 0.0 0.0 0.0 0.0 0.0 0.0 0.0 0.0 0.0 0.0 0.0 0.0 0.0 0.0 0.0 0.0 0.0 0.0 0.0 0.0 0.0 0.0 0.0 0.0 0.0 0.0 0.0 0.0 0.0 0.0 0.0 0.0 0.0 0.0 0.0 0.0 0.0 0.0 0.0 0.0 0.0 0.0 0.0 0.0 0.0 0.0 0.0 0.0 0.0 0.0 0.0 0.0 0.0 0.0 0.0 0.0 0.0 0.0 0.0 0.0 0.0 0.0 0.0 0.0 0.0 0.0 0.0 0.0 0.0 0.0 0.0 0.0 0.0 0.0 0.0 0.0 0.0 0.0 0.0 0.0 0.0 0.0 0.0 0.0 0.0 0.0 0.0 0.0 0.0 0.0 0.0 0.0 0.0 0.0 0.0 0.0 0.0 0.0 0.0 0.0 0.0 0.0 0.0 0.0 0.0 0.0 0.0 0.0 0.0 0.0 0.0 0.0 0.0 0.0 0.0 0.0 0.0 0.0 0.0 0.0 0.0 0.0 0.0 0.0 0.0 0.0 0.0 0.0 0.0 0.0 0.0 0.0 0.0 0.0 0.0 0.0 0.0 0.0 0.0 0.0 0.0 0.0 0.0 0.0 0.0 0.0 0.0 0.0 0.0 0.0 0.0 0.0 0.0 0.0 0.0 0.0 0.0 0.0 0.0 0.0 0.0 0.0 0.0 0.0 0.0 0.0 0.0 0.0 0.0 0.0 0.0 0.0 0.0 0.0 0.0 0.0 0.0 0.0 0.0 0.0 0.0 0.0 0.0 0.0 0.0 0.0 0.0 0.0 0.0 0.0 0.0 0.0 0.0 0.0 0.0 0.0 0.0 0.0 0.0 0.0 0.0 0.0 0.0 0.0 0.0 0.0 0.0 0.0 0.0 0.0 0.0 0.0 0.0 0.0 0.0 0.0 0.0 0.0 0.0 0.0 0.0 0.0 0.0 0.0 0.0 0.0 0.0 0.0 0.0 0.0 0.0 0.0 0.0 0.0 0.0 0.0 0.0 0.0 0.0 0.0 0.0 0.0 0.0 0.0 0.0 0.0 0.0 0.0 0.0 0.0 0.0 0.0 0.0 0.0 0.0 0.0 0.0 0.0 0.0 0.0 0.0 0.0 0.0 0.0 0.0 0.0 0.0 0.0 0.0 0.0 0.0 0.0 0.0 0.0 0.0 0.0 0.0 0.0 0.0 0.0 0.0 0.0 0.0 0.0 0.0 0.0 0.0 0.0 0.0 0.0 0.0 0.0 0.0 0.0 0.0 0.0 0.0 0.0 0.0 0.0 0.0 0.0 0.0 0.0 0.0 0.0 0.0 0.0 0.0 0.0 0.0 0.0 0.0 0.0 0.0 0.0 0.0 0.0 0.0 0.0 0.0 0.0 0.0 0.0 0.0 0.0 0.0 0.0 0.0 0.0 0.0 0.0 0.0 0.0 0.0 0.0 0.0 0.0 0.0 0.0 0.0 0.0 0.0 0.0 0.0 0.0 0.0 0.0 0.0 0.0 0.0 0.0 0.0 0.0 0.0 0.0 0.0 0.0 0.0 0.0 0.0 0.0 0.0 0.0 0.0 0.0 0.0 0.0 0.0 0.0 0.0 0.0 0.0 0.0 0.0 0.0 0.0 0.0 0.0 0.0 0.0 0.0 0.0 0.0 0.0 0.0 0.0 0.0 0.0 0.0 0.0 0.0 0.0 0.0 0.0 0.0 0.0 0.0 0.0 0.0 0.0 0.0 0.0 0.0 0.0 0.0 0.0 0.0 0.0 0.0 0.0 0.0 0.0 0.0 0.0 0.0 0.0 0.0 0.0 0.0 0.0 0.0 0.0 0.0 0.0 0.0 0.0 0.0 0.0 0.0 0.0 0.0 0.0 0.0 0.0 0.0 0.0 0.0 0.0 0.0 0.0 0.0 0.0 0.0 0.0 0.0 0.0 0.0 0.0 0.0 0.0 0.0 0.0 0.0 0.0 0.0 0.0 0.0 0.0 0.0 0.0 0.0 0.0 0.0 0.0 0.0 0.0 0.0 0.0 0.0 0.0 0.0 0.0 0.0 0.0 0.0 0.0 0.0 0.0 0.0 0.0 0.0 0.0 0.0 0.0 0.0 0.0 0.0 0.0 0.0 0.0 0.0 0.0 0.0 0.0 0.0 0.0 0.0 0.0 0.0 0.0 0.0 0.0 0.0 0.0 0.0 0.0 0.0 0.0 0.0 0.0 0.0 0.0 0.0 0.0 0.0 0.0 0.0 0.0 0.0 0.0 0.0 0.0 0.0 0.0 0.0 0.0 0.0 0.0 0.0 0.0 0.0 0.0 0.0 0.0 0.0 0.0 0.0 0.0 0.0 0.0 0.0 0.0 0.0 0.0 0.0 0.0 0.0 0.0 0.0 0.0 0.0 0.0 0.0 0.0 0.0 0.0 0.0 0.0 0.0 0.0 0.0 0.0 0.0 0.0 0.0 0.0 0.0 0.0 0.0 0.0 0.0 0.0 0.0 0.0 0.0 0.0 0.0 0.0 0.0 0.0 0.0 0.0 0.0 0.0 0.0 0.0 0.0 0.0 0.0 0.0 0.0 0.0 0.0 0.0 0.0 0.0 0.0 0.0 0.0 0.0 0.0 0.0 0.0 0.0 0.0 0.0 0.0 0.0 0.0 0.0 0.0 0.0 0.0 0.0 0.0 0.0 0.0 0.0 0.0 0.0 0.0 0.0 0.0 0.0 0.0 0.0 0.0 0.0 0.0 0.0 0.0 0.0 0.0 0.0 0.0 0.0 0.0 0.0 0.0 0.0 0.0 0.0 0.0 0.0 0.0 0.0 0.0 0.0 0.0 0.0 0.0 0.0 0.0 0.0 0.0 0.0 0.0 0.0 0.0 0.0 0.0 0.0 0.0 0.0 0.0 0.0 0.0 0.0 0.0 0.0 0.0 0.0 0.0 0.0 0.0 0.0 0.0 0.0 0.0 0.0 0.0 0.0 0.0 0.0 0.0 0.0 0.0 0.0 0.0 0.0 0.0 0.0 0.0 0.0 0.0 0.0 0.0 0.0 0.0 0.0 0.0 0.0 0.0 0.0 0.0 0.0 0.0 0.0 0.0 0.0 0.0 0.0 0.0 0.0 0.0 0.0 0.0 0.0 0.0 0.0 0.0 0.0 0.0 0.0 0.0 0.0 0.0 0.0 0.0 0.0 0.0 0.0 0.0 0.0 0.0 0.0 0.0 0.0 0.0 0.0 0.0 0.0 0.0 0.0 0.0 0.0 0.0 0.0 0.0 0.0 0.0 0.0 0.0 0.0 0.0 0.0 0.0 0.0 0.0 0.0 0.0 0.0 0.0 0.0 0.0 0.0 0.0 0.0 0.0 0.0 0.0 0.0 0.0 0.0 0.0 0.0 0.0 0.0 0.0 0.0 0.0 0.0 0.0 0.0 0.0 0.0 0.0 0.0 0.0 0.0 0.0 0.0 0.0 0.0 0.0 0.0 0.0 0.0 0.0 0.0 0.0 0.0 0.0 0.0 0.0 0.0 0.0 0.0 0.0 0.0 0.0 0.0 0.0 0.0 0.0 0.0 0.0 0.0 0.0 0.0 0.0 0.0 0.0 0.0 0.0 0.0 0.0 0.0 0.0 0.0 0.0 0.0 0.0 0.0 0.0 0.0 0.0 0.0 0.0 0.0 0.0 0.0 0.0 0.0 0.0 0.0 0.0 0.0 0.0 0.0 0.0 0.0 0.0 0.0 0.0 0.0 0.0 0.0 0.0 0.0 0.0 0.0 0.0 0.0 0.0 0.0 0.0 0.0 0.0 0.0 0.0 0.0 0.0 0.0 0.0 0.0 0.0 0.0 0.0 0.0 0.0 0.0 0.0 0.0 0.0 0.0 0.0 0.0 0.0 0.0 0.0 0.0 0.0 0.0 0.0 0.0 0.0 0.0 0.0 0.0 0.0 0.0 0.0 0.0 0.0 0.0 0.0 0.0 0.0 0.0 0.0 0.0 0.0 0.0 0.0 0.0 0.0 0.0 0.0 0.0 0.0 0.0 0.0 0.0 0.0 0.0 0.0 0.0 0.0 0.0 0.0 0.0 0.0 0.0 0.0 0.0 0.0 0.0 0.0 0.0 0.0 0.0 0.0 0.0 0.0 0.0 0.0 0.0 0.0 0.0 0.0 0.0 0.0 0.0 0.0 0.0 0.0 0.0 0.0 0.0 0.0 0.0 0.0 0.0 0.0 0.0 0.0 0.0 0.0 0.0 0.0 0.0 0.0 0.0 0.0 0.0 0.0 0.0 0.0 0.0 0.0 0.0 0.0 0.0 0.0 0.0 0.0 0.0 0.0 0.0 0.0 0.0 0.0 0.0 0.0 0.0 0.0 0.0 0.0 0.0 0.0 0.0 0.0 0.0 0.0 0.0 0.0 0.0 0.0 0.0 0.0 0.0 0.0 0.0 0.0 0.0 0.0 0.0 0.0 0.0 0.0 0.0 0.0 0.0 0.0 0.0 0.0 0.0 0.0 0.0 0.0 0.0 0.0 0.0 0.0 0.0 0.0 0.0 0.0 0.0 0.0 0.0 0.0 0.0 0.0 0.0 0.0 0.0 0.0 0.0 0.0 0.0 0.0 0.0 0.0 0.0 0.0 0.0 0.0 0.0 0.0 0.0 0.0 0.0 0.0 0.0 0.0 0.0 0.0 0.0 0.0 0.0 0.0 0.0 0.0 0.0 0.0 0.0 0.0 0.0 0.0 0.0 0.0 0.0 0.0 0.0 0.0 0.0 0.0 0.0 0.0 0.0 0.0 0.0 0.0 0.0 0.0 0.0 0.0 0.0 0.0 0.0 0.0 0.0 0.0 0.0 0.0 0.0 0.0 0.0 0.0 0.0 0.0 0.0 0.0 0.0 0.0 0.0 0.0 0.0 0.0 0.0 0.0 0.0 0.0 0.0 0.0 0.0 0.0 0.0 0.0 0.0 0.0 0.0 0.0 0.0 0.0 0.0 0.0 0.0 0.0 0.0 0.0 0.0 0.0 0.0 0.0 0.0 0.0 0.0 0.0 0.0 0.0 0.0 0.0 0.0 0.0 0.0 0.0 0.0 0.0 0.0 0.0 0.0 0.0 0.0 0.0 0.0 0.0 0.0 0.0 0.0 0.0 0.0 0.0 0.0 0.0 0.0 0.0 0.0 0.0 0.0 0.0 0.0 0.0 0.0 0.0 0.0 0.0 0.0 0.0 0.0 0.0 0.0 0.0 0.0 0.0 0.0 0.0 0.0 0.0 0.0 0.0 0.0 0.0 0.0 0.0 0.0 0.0 0.0 0.0 0.0 0.0 0.0 0.0 0.0 0.0 0.0 0.0 0.0 0.0 0.0 0.0 0.0 0.0 0.0 0.0 0.0 0.0 0.0 0.0 0.0 0.0 0.0 0.0 0.0 0.0 0.0 0.0 0.0 0.0 0.0 0.0 0.0 0.0 0.0 0.0 0.0 0.0 0.0 0.0 0.0 0.0 0.0 0.0 0.0 0.0 0.0 0.0 0.0 0.0 0.0 0.0 0.0 0.0 0.0 0.0 0.0 0.0 0.0 0.0 0.0 0.0 0.0 0.0 0.0 0.0 0.0 0.0 0.0 0.0 0.0 0.0 0.0 0.0 0.0 0.0 0.0 0.0 0.0 0.0 0.0 0.0 0.0 0.0 0.0 0.0 0.0 0.0 0.0 0.0 0.0 0.0 0.0 0.0 0.0 0.0 0.0 0.0 0.0 0.0 0.0 0.0 0.0 0.0 0.0 0.0 0.0 0.0 0.0 0.0 0.0 0.0 0.0 0.0 0.0 0.0 0.0 0.0 0.0 0.0 0.0 0.0 0.0 0.0 0.0 0.0 0.0 0.0 0.0 0.0 0.0 0.0 0.0 0.0 0.0 0.0 0.0 0.0 0.0 0.0 0.0 0.0 0.0 0.0 0.0 0.0 0.0 0.0 0.0 0.0 0.0 0.0 0.0 0.0 0.0 0.0 0.0 0.0 0.0 0.0 0.0 0.0 0.0 0.0 0.0 0.0 0.0 0.0 0.0 0.0 0.0 0.0 0.0 0.0 0.0 0.0 0.0 0.0 0.0 0.0 0.0 0.0 0.0 0.0 0.0 0.0 0.0 0.0 0.0 0.0 0.0 0.0 0.0 0.0 0.0 0.0 0.0 0.0 0.0 0.0 0.0 0.0 0.0 0.0 0.0 0.0 0.0 0.0 0.0 0.0 0.0 0.0 0.0 0.0 0.0 0.0 0.0 0.0 0.0 0.0 0.0 0.0 0.0 0.0 0.0 0.0 0.0 0.0 0.0 0.0 0.0 0.0 0.0 0.0 0.0 0.0 0.0 0.0 0.0 0.0 0.0 0.0 0.0 0.0 0.0 0.0 0.0 0.0 0.0 0.0 0.0 0.0 0.0 0.0 0.0 0.0 0.0 0.0 0.0 0.0 0.0 0.0 0.0 0.0 0.0 0.0 0.0 0.0 0.0 0.0 0.0 0.0 0.0 0.0 0.0 0.0 0.0 0.0 0.0 0.0 0.0 0.0 0.0 0.0 0.0 0.0 0.0 0.0 0.0 0.0 0.0 0.0 0.0 0.0 0.0 0.0 0.0 0.0 0.0 0.0 0.0 0.0 0.0 0.0 0.0 0.0 0.0 0.0 0.0 0.0 0.0 0.0 0.0 0.0 0.0 0.0 0.0 0.0 0.0 0.0 0.0 0.0 0.0 0.0 0.0 0.0 0.0 0.0 0.0 0.0 0.0 0.0 0.0 0.0 0.0 0.0 0.0 0.0 0.0 0.0 0.0 0.0 0.0 0.0 0.0 0.0 0.0 0.0 0.0 0.0 0.0 0.0 0.0 0.0 0.0 0.0 0.0 0.0 0.0 0.0 0.0 0.0 0.0 0.0 0.0 0.0 0.0 0.0 0.0 0.0 0.0 0.0 0.0 0.0 0.0 0.0 0.0 0.0 0.0 0.0 0.0 0.0 0.0 0.0 0.0 0.0 0.0 0.0 0.0 0.0 0.0 0.0 0.0 0.0 0.0 0.0 0.0 0.0 0.0 0.0 0.0 0.0 0.0 0.0 0.0 0.0 0.0 0.0 0.0 0.0 0.0 0.0 0.0 0.0 0.0 0.0 0.0 0.0 0.0 0.0 0.0 0.0 0.0 0.0 0.0 0.0 0.0 0.0 0.0 0.0 0.0 0.0 0.0 0.0 0.0 0.0 0.0 0.0 0.0 0.0 0.0 0.0 0.0 0.0 0.0 0.0 0.0 0.0 0.0 0.0 0.0 0.0 0.0 0.0 0.0 0.0 0.0 0.0 0.0 0.0 0.0 0.0 0.0 0.0 0.0 0.0 0.0 0.0 0.0 0.0 0.0 0.0 0.0 0.0 0.0 0.0 0.0 0.0 0.0 0.0 0.0 0.0 0.0 0.0 0.0 0.0 0.0 0.0 0.0 0.0 0.0 0.0 0.0 0.0 0.0 0.0 0.0 0.0 0.0 0.0 0.0 0.0 0.0 0.0 0.0 0.0 0.0 0.0 0.0 0.0 0.0 0.0 0.0 0.0 0.0 0.0 0.0 0.0 0.0 0.0 0.0 0.0 0.0 0.0 0.0 0.0 0.0 0.0 0.0 0.0 0.0 0.0 0.0 0.0 0.0 0.0 0.0 0.0 0.0 0.0 0.0 0.0 0.0 0.0 0.0 0.0 0.0 0.0 0.0 0.0 0.0 0.0 0.0 0.0 0.0 0.0 0.0 0.0 0.0 0.0 0.0 0.0 0.0 0.0 0.0 0.0 0.0 0.0 0.0 0.0 0.0 0.0 0.0 0.0 0.0 0.0 0.0 0.0 0.0 0.0 0.0 0.0 0.0 0.0 0.0 0.0 0.0 0.0 0.0 0.0 0.0 0.0 0.0 0.0 0.0 0.0 0.0 0.0 0.0 0.0 0.0 0.0 0.0 0.0 0.0 0.0 0.0 0.0 0.0 0.0 0.0 0.0 0.0 0.0 0.0 0.0 0.0 0.0 0.0 0.0 0.0 0.0 0.0 0.0 0.0 0.0 0.0 0.0 0.0 0.0 0.0 0.0 0.0 0.0 0.0 0.0 0.0 0.0 0.0 0.0 0.0 0.0 0.0 0.0 0.0 0.0 0.0 0.0 0.0 0.0 0.0 0.0 0.0 0.0 0.0 0.0 0.0 0.0 0.0 0.0 0.0 0.0 0.0 0.0 0.0 0.0 0.0 0.0 0.0 0.0 0.0 0.0 0.0 0.0 0.0 0.0 0.0 0.0 0.0 0.0 0.0 0.0 0.0 0.0 0.0 0.0 0.0 0.0 0.0 0.0 0.0 0.0 0.0 0.0 0.0 0.0 0.0 0.0 0.0 0.0 0.0 0.0 0.0 0.0 0.0 0.0 0.0 0.0 0.0 0.0 0.0 0.0 0.0 0.0 0.0 0.0 0.0 0.0 0.0 0.0 0.0 0.0 0.0 0.0 0.0 0.0 0.0 0.0 0.0 0.0 0.0 0.0 0.0 0.0 0.0 0.0 0.0 0.0 0.0 0.0 0.0 0.0 0.0 0.0 0.0 0.0 0.0 0.0 0.0 0.0 0.0 0.0 0.0 0.0 0.0 0.0 0.0 0.0 0.0 0.0 0.0 0.0 0.0 0.0 0.0 0.0 0.0 0.0 0.0 0.0 0.0 0.0 0.0 0.0 0.0 0.0 0.0 0.0 0.0 0.0 0.0 0.0 0.0 0.0 0.0 0.0 0.0 0.0 0.0 0.0
        </DataArray>
      </PointData>
      <CellData>
        <DataArray type="Int32" Name="GeometryIds" format="ascii">
 3 3 3 3 3 3 3 3 3 3 3 3 3 3 3 3 3 3 3 3 3 3 3 3 3 3 3 3 3 3 3 3 3 3 3 3 3 3 3 3 3 3 3 3 3 3 3 3 3 3 3 3 3 3 3 3 3 3 3 3 3 3 3 3 3 3 3 3 3 3 3 3 3 3 3 3 3 3 3 3 3 3 3 3 3 3 3 3 3 3 3 3 3 3 3 3 3 3 3 3 3 3 3 3 3 3 3 3 3 3 3 3 3 3 3 3 3 3 3 3 3 3 3 3 3 3 3 3 3 3 3 3 3 3 3 3 3 3 3 3 3 3 3 3 3 3 3 3 3 3 3 3 3 3 3 3 3 3 3 3 3 3 3 3 3 3 3 3 3 3 3 3 3 3 3 3 3 3 3 3 3 3 3 3 3 3 3 3 3 3 3 3 3 3 3 3 3 3 3 3 3 3 3 3 3 3 3 3 3 3 3 3 3 3 3 3 3 3 3 3 3 3 3 3 3 3 3 3 3 3 3 3 3 3 3 3 3 3 3 3 3 3 3 3 3 3 3 3 3 3 3 3 3 3 3 3 3 3 3 3 3 3 3 3 3 3 3 3 3 3 3 3 3 3 3 3 3 3 3 3 3 3 3 3 3 3 3 3 3 3 3 3 3 3 3 3 3 3 3 3 3 3 3 3 3 3 3 3 3 3 3 3 3 3 3 3 3 3 3 3 3 3 3 3 3 3 3 3 3 3 3 3 3 3 3 3 3 3 3 3 3 3 3 3 3 3 3 3 3 3 3 3 3 3 3 3 3 3 3 3 3 3 3 3 3 3 3 3 3 3 3 3 3 3 3 3 3 3 3 3 3 3 3 3 3 3 3 3 3 3 3 3 3 3 3 3 3 3 3 3 3 3 3 3 3 3 3 3 3 3 3 3 3 3 3 3 3 3 3 3 3 3 3 3 3 3 3 3 3 3 3 3 3 3 3 3 3 3 3 3 3 3 3 3 3 3 3 3 3 3 3 3 3 3 3 3 3 3 3 3 3 3 3 3 3 3 3 3 3 3 3 3 3 3 3 3 3 3 3 3 3 3 3 3 3 3 3 3 3 3 3 3 3 3 3 3 3 3 3 3 3 3 3 3 3 3 3 3 3 3 3 3 3 3 3 3 3 3 3 3 3 3 3 3 3 3 3 3 3 3 3 3 3 3 3 3 3 3 3 3 3 3 3 3 3 3 3 3 3 3 3 3 3 3 3 3 3 3 3 3 3 3 3 3 3 3 3 3 3 3 3 3 3 3 3 3 3 3 3 3 3 3 3 3 3 3 3 3 3 3 3 3 3 3 3 3 3 3 3 3 3 3 3 3 3 3 3 3 3 3 3 3 3 3 3 3 3 3 3 3 3 3 3 3 3 3 3 3 3 3 3 3 3 3 3 3 3 3 3 3 3 3 3 3 3 3 3 3 3 3 3 3 3 3 3 3 3 3 3 3 3 3 3 3 3 3 3 3 3 3 3 3 3 3 3 3 3 3 3 3 3 3 3 3 3 3 3 3 3 3 3 3 3 3 3 3 3 3 3 3 3 3 3 3 3 3 3 3 3 3 3 3 3 3 3 3 3 3 3 3 3 3 3 3 3 3 3 3 3 3 3 3 3 3 3 3 3 3 3 3 3 3 3 3 3 3 3 3 3 3 3 3 3 3 3 3 3 3 3 3 3 3 3 3 3 3 3 3 3 3 3 3 3 3 3 3 3 3 3 3 3 3 3 3 3 3 3 3 3 3 3 3 3 3 3 3 3 3 3 3 3 3 3 3 3 3 3 3 3 3 3 3 3 3 3 3 3 3 3 3 3 3 3 3 3 3 3 3 3 3 3 3 3 3 3 3 3 3 3 3 3 3 3 3 3 3 3 3 3 3 3 3 3 3 3 3 3 3 3 3 3 3 3 3 3 3 3 3 3 3 3 3 3 3 3 3 3 3 3 3 3 3 3 3 3 3 3 3 3 3 3 3 3 3 3 3 3 3 3 3 3 3 3 3 3 3 3 3 3 3 3 3 3 3 3 3 3 3 3 3 3 3 3 3 3 3 3 3 3 3 3 3 3 3 3 3 3 3 3 3 3 3 3 3 3 3 3 3 3 3 3 3 3 3 3 3 3 3 3 3 3 3 3 3 3 3 3 3 3 3 3 3 3 3 3 3 3 3 3 3 3 3 3 3 3 3 3 3 3 3 3 3 3 3 3 3 3 3 3 3 3 3 3 3 3 3 3 3 3 3 3 3 3 3 3 3 3 3 3 3 3 3 3 3 3 3 3 3 3 3 3 3 3 3 3 3 3 3 3 3 3 3 3 3 3 3 3 3 3 3 3 3 3 3 3 3 3 3 3 3 3 3 3 3 3 3 3 3 3 3 3 3 3 3 3 3 3 3 3 3 3 3 3 3 3 3 3 3 3 3 3 3 3 3 3 3 3 3 3 3 3 3 3 3 3 3 3 3 3 3 3 3 3 3 3 3 3 3 3 3 3 3 3 3 3 3 3 3 3 3 3 3 3 3 3 3 3 3 3 3 3 3 3 3 3 3 3 3 3 3 3 3 3 3 3 3 3 3 3 3 3 3 3 3 3 3 3 3 3 3 3 3 3 3 3 3 3 3 3 3 3 3 3 3 3 3 3 3 3 3 3 3 3 3 3 3 3 3 3 3 3 3 3 3 3 3 3 3 3 3 3 3 3 3 3 3 3 3 3 3 3 3 3 3 3 3 3 3 3 3 3 3 3 3 3 3 3 3 3 3 3 3 3 3 3 3 3 3 3 3 3 3 3 3 3 3 3 3 3 3 3 3 3 3 3 3 3 3 3 3 3 3 3 3 3 3 3 3 3 3 3 3 3 3 3 3 3 3 3 3 3 3 3 3 3 3 3 3 3 3 3 3 3 3 3 3 3 3 3 3 3 3 3 3 3 3 3 3 3 3 3 3 3 3 3 3 3 3 3 3 3 3 3 3 3 3 3 3 3 3 3 3 3 3 3 3 3 3 3 3 3 3 3 3 3 3 3 3 3 3 3 3 3 3 3 3 3 3 3 3 3 3 3 3 3 3 3 3 3 3 3 3 3 3 3 4 4 4 4 4 4 4 4 4 4 4 4 4 4 4 4 4 4 4 4 4 4 4 4 4 4 4 4 4 4 4 4 4 4 4 4 4 4 4 4 4 4 4 4 4 4 4 4 4 4 4 4 4 4 4 4 4 4 4 4 4 4 4 4 4 4 4 4 4 4 4 4 4 4 4 4 4 4 4 4 4 4 4 4 4 4 4 4 4 4 4 4 4 4 4 4 4 4 4 4 4 4 4 4 4 4 4 4 4 4 4 4 4 4 4 4 4 4 4 4 4 4 4 4 4 4 4 4 4 4 4 4 4 4 4 4 4 4 4 4 4 4 4 4 4 4 4 4 4 4 4 4 4 4 4 4 4 4 4 4 4 4 4 4 4 4 4 4 4 4 4 4 4 4 4 4 4 4 4 4 4 4 4 4 4 4 4 4 4 4 4 4 4 4 4 4 4 4 4 4 4 4 4 4 4 4 4 4 4 4 4 4 4 4 4 4 4 4 4 4 4 4 4 4 4 4 4 4 4 4 4 4 4 4 4 4 4 4 4 4 4 4 4 4 4 4 4 4 4 4 4 4 4 4 4 4 4 4 4 4 4 4 4 4 4 4 4 4 4 4 4 4 4 4 4 4 4 4 4 4 4 4 4 4 4 4 4 4 4 4 4 4 4 4 4 4 4 4 4 4 4 4 4 4 4 4 4 4 4 4 4 4 4 4 4 4 4 4 4 4 4 4 4 4 4 4 4 4 4 4 4 4 4 4 4 4 4 4 4 4 4 4 4 4 4 4 4 4 4 4 4 4 4 4 4 4 4 4 4 4 4 4 4 4 4 4 4 4 4 4 4 4 4 4 4 4 4 4 4 4 4 4 4 4 4 4 4 4 4 4 4 4 4 4 4 4 4 4 4 4 4 4 4 4 4 4 4 4 4 4 4 4 4 4 4 4 4 4 4 4 4 4 4 4 4 4 4 4 4 4 4 4 4 4 4 4 4 4 4 4 4 4 4 4 4 4 4 4 4 4 4 4 4 4 4 4 4 4 4 4 4 4 4 4 4 4 4 4 4 4 4 4 4 4 4 4 4 4 4 4 4 4 4 4 4 4 4 4 4 4 4 4 4 4 4 4 4 4 4 4 4 4 4 4 4 4 4 4 4 4 4 4 4 4 4 4 4 4 4 4 4 4 4 4 4 4 4 4 4 4 4 4 4 4 4 4 4 4 4 4 4 4 4 4 4 4 4 4 4 4 4 4 4 4 4 4 4 4 4 4 4 4 4 4 4 4 4 4 4 4 4 4 4 4 4 4 4 4 4 4 4 4 4 4 4 4 4 4 4 4 4 4 4 4 4 4 4 4 4 4 4 4 4 4 4 4 4 4 4 4 4 4 4 4 4 4 4 4 4 4 4 4 4 4 4 4 4 4 4 4 4 4 4 4 4 4 4 4 4 4 4 4 4 4 4 4 4 4 4 4 4 4 4 4 4 4 4 4 4 4 4 4 4 4 4 4 4 4 4 4 4 4 4 4 4 4 4 4 4 4 4 4 4 4 4 4 4 4 4 4 4 4 4 4 4 4 4 4 4 4 4 4 4 4 4 4 4 4 4 4 4 4 4 4 4 4 4 4 4 4 4 4 4 4 4 4 4 4 4 4 4 4 4 4 4 4 4 4 4 4 4 4 4 4 4 4 4 4 4 4 4 4 4 4 4 4 4 4 4 4 4 4 4 4 4 4 4 4 4 4 4 4 4 4 4 4 4 4 4 4 4 4 4 4 4 4 4 4 4 4 4 4 4 4 4 4 4 4 4 4 4 4 4 4 4 4 4 4 4 4 4 4 4 4 4 4 4 4 4 4 4 4 4 4 4 4 4 4 4 4 4 4 4 4 4 4 4 4 4 4 4 4 4 4 4 4 4 4 4 4 4 4 4 4 4 4 4 4 4 4 4 4 4 4 4 4 4 4 4 4 4 4 4 4 4 4 4 4 4 4 4 4 4 4 4 4 4 4 4 4 4 4 4 4 4 4 4 4 4 4 4 4 4 4 4 4 4 4 4 4 4 4 4 4 4 4 4 4 4 4 4 4 4 4 4 4 4 4 4 4 4 4 4 4 4 4 4 4 4 4 4 4 4 4 4 4 4 4 4 4 4 4 4 4 4 4 4 4 4 4 4 4 4 4 4 4 4 4 4 4 4 4 4 4 4 4 4 4 4 4 4 4 4 4 4 4 4 4 4 4 4 4 4 4 4 4 4 4 4 4 4 4 4 4 4 4 4 4 4 4 4 4 4 4 4 4 4 4 4 4 4 4 4 4 4 4 4 4 4 4 4 4 4 4 4 4 4 4 4 4 4 4 4 4 4 4 4 4 4 4 4 4 4 4 4 4 4 4 4 4 4 4 4 4 4 4 4 4 4 4 4 4 4 4 4 4 4 4 4 4 4 4 4 4 4 4 4 4 4 4 4 4 4 4 4 4 4 4 4 4 4 4 4 4 4 4 4 4 4 4 4 4 4 4 4 4 4 4 4 4 4 4 4 4 4 4 4 4 4 4 4 4 4 4 4 4 4 4 4 4 4 4 4 4 4 4 4 4 4 4 4 4 4 4 4 4 4 4 4 4 4 4 4 4 4 4 4 4 4 4 4 4 4 4 4 4 4 4 4 4 4 4 4 4 4 4 4 4 4 4 4 4 4 4 4 4 4 4 4 4 4 4 4 4 4 4 4 4 4 4 4 4 4 4 4 4 4 4 4 4 4 4 4 4 4 4 4 4 4 4 4 4 4 4 4 4 4 4 4 4 4 4 4 4 4 4 4 4 4 4 4 4 4 4 4 4 4 4 4 4 4 4 4 4 4 4 4 4 4 4 4 4 4 4 4 4 4 4 4 4 4 4 4 4 4 4 4 4 4 4 4 4 4 4 4 4 4 4 4 4 4 4 4 4 4 4 4 4 4 4 4 4 4 4 4 4 4 4 4 4 4 4 4 4 4 4 4 4 4 4 4 4 4 4 4 4 4 4 4 4 4 4 4 4 4 4 4 4 4 4 4 4 4 4 4 4 4 4 4 4 4 4 4 4 4 4 4 4 4 4 4 4 4 4 4 4 4 4 4 4 4 4 4 4 4 4 4 4 4 4 4 4 4 4 4 4 4 4 4 4 4 4 4 4 4 4 4 4 4 4 4 4 4 4 4 4 4 4 4 4 4 4 4 4 4 4 4 4 4 4 4 4 4 4 4 4 4 4 4 4 4 4 4 4 4 4 4 4 4 4 4 4 4 4 4 4 4 4 4 4 4 4 4 4 4 4 4 4 4 4 4 4 4 4 4 4 4 4 4 4 4 4 4 4 4 4 4 4 4 4 4 4 4 4 4 4 4 4 4 4 4 4 4 4 4 4 4 4 4 4 4 4 4 4 4 4 4 4 4 4 4 4 4 4 4 4 4 4 4 4 4 4 4 4 4 4 4 4 4 4 4 4 4 4 4 4 4 4 4 4 4 4 4 4 4 4 4 4 4 4 4 4 4 4 4 4 4 4 4 4 4 4 4 4 4 4 4 4 4 4 4 4 4 4 4 4 4 4 4 4 4 4 4 4 4 4 4 4 4 4 4 4 4 4 4 4 4 4 4 4 4 4 4 4 4 4 4 4 4 4 4 4 4 4 4 4 4 4 4 4 4 4 4 4 4 4 4 4 4 4 4 4 4 4 4 4 4 4 4 4 4 4 4 4 4 4 4 4 4 4 4 4 4 4 4 4 4 4 4 4 4 4 4 4 4 4 4 4 4 4 4 4 4 4 4 4 4 4 4 4 4 4 4 4 4 4 4 4 4 4 4 4 4 4 4 4 4 4 4 4 4 4 4 4 4 4 4 4 4 4 4 4 4 4 4 4 4 4 4 4 4 4 4 4 4 4 4 4 4 4 4 4 4 4 4 4 4 4 4 4 4 4 2 2 2 2 2 2 2 2 2 2 2 2 2 2 2 2 2 2 2 2 2 2 2 2 2 2 2 2 2 2 2 2 2 2 2 2 2 2 2 2 2 2 2 2 2 2 2 2 2 2 2 2 2 2 2 2 2 2 2 2 2 2 2 2 2 2 2 2 2 2 2 2 2 2 2 2 2 2 2 2 2 2 2 2 2 2 2 2 2 2 2 2 2 2 2 2 2 2 2 2 2 2 2 2 2 2 2 2 2 2 2 2 2 2 2 2 2 2 2 2 2 2 2 2 2 2 2 2 2 2 2 2 2 2 2 2 2 2 2 2 2 2 2 2 2 2 2 2 2 2 2 2 2 2 2 2 2 2 2 2 2 2 2 2 2 2 2 2 2 2 2 2 2 2 2 2 2 2 2 2 2 2 2 2 2 2 2 2 2 2 2 2 2 2 2 2 2 2 2 2 2 2 2 2 2 2 2 2 2 2 2 2 2 2 2 2 2 2 2 2 2 2 2 2 2 2 2 2 2 2 2 2 2 2 2 2 2 2 2 2 2 2 2 2 2 2 2 2 2 2 2 2 2 2 2 2 2 2 2 2 2 2 2 2 2 2 2 2 2 2 2 2 2 2 2 2 2 2 2 2 2 2 2 2 2 2 2 2 2 2 2 2 2 2 2 2 2 2 2 2 2 2 2 2 2 2 2 2 2 2 2 2 2 2 2 2 2 2 2 2 2 2 2 2 2 2 2 2 2 2 2 2 2 2 2 2 2 2 2 2 2 2 2 2 2 2 2 2 2 2 2 2 2 2 2 2 2 2 2 2 2 2 2 2 2 2 2 2 2 2 2 2 2 2 2 2 2 2 2 2 2 2 2 2 2 2 2 2 2 2 2 2 2 2 2 2 2 2 2 2 2 2 2 2 2 2 2 2 2 2 2 2 2 2 2 2 2 2 2 2 2 2 2 2 2 2 2 2 2 2 2 2 2 2 2 2 2 2 2 2 2 2 2 2 2 2 2 2 2 2 2 2 2 2 2 2 2 2 2 2 2 2 2 2 2 2 2 2 2 2 2 2 2 2 2 2 2 2 2 2 2 2 2 2 2 2 2 2 2 2 2 2 2 2 2 2 2 2 2 2 2 2 2 2 2 2 2 2 2 2 2 2 2 2 2 2 2 2 2 2 2 2 2 2 2 2 2 2 2 2 2 2 2 2 2 2 2 2 2 2 2 2 2 2 2 2 2 2 2 2 2 2 2 2 2 2 2 2 2 2 2 2 2 2 2 2 2 2 2 2 2 2 2 2 2 2 2 2 2 2 2 2 2 2 2 2 2 2 2 2 2 2 2 2 2 2 2 2 2 2 2 2 2 2 2 2 2 2 2 2 2 2 2 2 2 2 2 2 2 2 2 2 2 2 2 2 2 2 2 2 2 2 2 2 2 2 2 2 2 2 2 2 2 2 2 2 2 2 2 2 2 2 2 2 2 2 2 2 2 2 2 2 2 2 2 2 2 2 2 2 2 2 2 2 2 2 2 2 2 2 2 2 2 2 2 2 2 2 2 2 2 2 2 2 2 2 2 2 2 2 2 2 2 2 2 2 2 2 2 2 2 2 2 2 2 2 2 2 2 2 2 2 2 2 2 2 2 2 2 2 2 2 2 2 2 2 2 2 2 2 2 2 2 2 2 2 2 2 2 2 2 2 2 2 2 2 2 2 2 2 2 2 2 2 2 2 2 2 2 2 2 2 2 2 2 2 2 2 2 2 2 2 2 2 2 2 2 2 2 2 2 2 2 2 2 2 2 2 2 2 2 2 2 2 2 2 2 2 2 2 2 2 2 2 2 2 2 2 2 2 2 2 2 2 2 2 2 2 2 2 2 2 2 2 2 2 2 2 2 2 2 2 2 2 2 2 2 2 2 2 2 2 2 2 2 2 2 2 2 2 2 2 2 2 2 2 2 2 2 2 2 2 2 2 2 2 2 2 2 2 2 2 2 2 2 2 2 2 2 2 2 2 2 2 2 2 2 2 2 2 2 2 2 2 2 2 2 2 2 2 2 2 2 2 2 2 2 2 2 2 2 2 2 2 2 2 2 2 2 2 2 2 2 2 2 2 2 2 2 2 2 2 2 2 2 2 2 2 2 2 2 2 2 2 2 2 2 2 2 2 2 2 2 2 2 2 2 2 2 2 2 2 2 2 2 2 2 2 2 2 2 2 2 2 2 2 2 2 2 2 2 2 2 2 2 2 2 2 2 2 2 2 2 2 2 2 2 2 2 2 2 2 2 2 2 2 2 2 2 2 2 2 2 2 2 2 2 2 2 2 5 5 5 5 5 5 5 5 5 5 5 5 5 5 5 5 5 5 5 5 5 5 5 5 5 5 5 5 5 5 5 5 5 5 5 5 5 5 5 5 5 5 5 5 5 5 5 5 5 5 5 5 5 5 5 5 5 5 5 5 5 5 5 5 5 5 5 5 5 5 5 5 5 5 5 5 5 5 5 5 5 5 5 5 5 5 5 5 5 5 5 5 5 5 5 5 5 5 5 5 5 5 5 5 5 5 5 5 5 5 5 5 5 5 5 5 5 5 5 5 5 5 5 5 5 5 5 5 5 5 5 5 5 5 5 5 5 5 5 5 5 5 5 5 5 5 5 5 5 5 5 5 5 5 5 5 5 5 5 5 5 5 5 5 5 5 5 5 5 5 5 5 5 5 5 5 5 5 5 5 5 5 5 5 5 5 5 5 5 5 5 5 5 5 5 5 5 5 5 5 5 5 5 5 5 5 5 5 5 5 5 5 5 5 5 5 5 5 5 5 5 5 5 5 5 5 5 5 5 5 5 5 5 5 5 5 5 5 5 5 5 5 5 5 5 5 5 5 5 5 5 5 5 5 5 5 5 5 5 5 5 5 5 5 5 5 5 5 5 5 5 5 5 5 5 5 5 5 5 5 5 5 5 5 5 5 5 5 5 5 5 5 5 5 5 5 5 5 5 5 5 5 5 5 5 5 5 5 5 5 5 5 5 5 5 5 5 5 5 5 5 5 5 5 5 5 5 5 5 5 5 5 5 5 5 5 5 5 5 5 5 5 5 5 5 5 5 5 5 5 5 5 5 5 5 5 5 5 5 5 5 5 5 5 5 5 5 5 5 5 5 5 5 5 5 5 5 5 5 5 1 1 1 1 1 1 1 1 1 1 1 1 1 1 1 1 1 1 1 1 1 1 1 1 1 1 1 1 1 1 1 1 1 1 1 1 1 1 1 1 1 1 1 1 1 1 1 1 1 1 1 1 1 1 1 1 1 1 1 1 1 1 1 1 1 1 1 1 1 1 1 1 1 1 1 1 1 1 1 1 1 1 1 1 1 1 1 1 1 1 1 1 1 1 1 1 1 1 1 1 1 1 1 1 1 1 1 1 1 1 1 1 1 1 1 1 1 1 6 6 6 6 6 6 6 6 6 6 6 6 6 6 6 6 6 6 6 6 6 6 6 6 6 6 6 6 6 6 6 6 6 6 6 6 6 6 6 6 6 6 6 6 6 6 6 6 6 6 6 6 6 6 6 6 6 6 6 6 6 6 6 6 6 6 6 6 6 6 6 6 6 6 6 6 6 6 6 6 6 6 6 6 6 6 6 6 6 6 6 6 6 6 6 6 6 6 6 6 6 6 6 6 6 6 6 6 6 6 6 6 6 6 6 6 6 6 6 6 6 6 6 6 6 6 6 6 6 6 6 6 6 6 6 6 6 6 6 6 6 6 6 6 6 6 6 6 6 6 6 6 6 6 6 6 6 6 6 6 6 6 6 6 6 6 6 6 6 6 6 6 6 6 6 6 6 6 6 6 6 6 6 6 6 6 6 6 6 6 6 6 6 6 6 6 6 6 6 6 6 6 6 6 6 6 6 6 6 6 6 6 6 6 6 6 6 6 6 6 6 6 6 6 6 6 6 6 6 6 6 6 6 6 6 6 6 6 6 6 6 6 6 6 6 6 6 6 6 6 6 6 6 6 6 6 6 6 6 6 6 6 6 6 6 6 6 6 6 6 6 6 6 6 6 6 6 6 6 6 6 6 6 6 6 6 6 6 6 6 6 6 6 6 6 6 6 6 6 6 6 6 6 6 6 6 6 6 6 6 6 6 6 6 6 6 6 6 6 6 6 6 6 6 6 6 6 6 6 6 6 6 6 6 6 6 6 6 6 6 6 6 6 6 6 6 6 6 6 6 6 6 6 6 6 6 6 6 6 6 6 6 6 6 6 6 6 6 6 6 6 6 6 6 6 6 6 6 6 6 6 6 6 6 6 6 6 6 6 6 6 6 6 6 6 6 6 6 6 6 6 6 6 6 6 6 6 6 6 6 6 6 6 6 6 6 6 6 6 6 6 6 6 6 6 6 6 6 6 6 6 6 6 6 6 6 6 6 6 6 6 6 6 6 6 6 6 6 6 6 6 6 6 6 6 6 6 6 6 6 6 6 6 6 6 6 6 6 6 6 6 6 6 6 6 6 6 6 6 6 6 6 6 6 6 6 6 6 6 6 6 6 6 6 6 6 6 6 6 6 6 6 6 6 6 6 6 6 6 6 6 6 6 6 6 6 6 6 6 6 6 6 6 6 6 6 6 6 6 6 6 6 6 6 6 6 6 6 6 6 6 6 6 6 6 6 6 6 6 6 6 6 6 6 6 6 6 6 6 6 6 6 6 6 6 6 6 6 6 6 6 6 6 6 6 6 6 6 6 6 6 6 6 6 6 6 6 6 6 6 6 6 6 6 6 6 6 6 6 6 6 6 6 6 6 6 6 6 6 6 6 6 6 6 6 6 6 6 6 6 6 6 6 6 6 6 6 6 6 6 6 6 6 6 6 6 6 6 6 6 6 6 6 6 6 6 6 6 6 6 6 6 6 6 6 6 6 6 6 6 6 6 6 6 6 6 6 6 6 6 6 6 6 6 6 6 6 6 6 6 6 6 6 6 6 6 6 6 6 6 6 6 6 6 6 6 6 6 6 6 6 6 6 6 6 6 6 6 6 6 6 6 6 6 6 6 6 6 6 6 6 6 6 6 6 6 6 6 6 6 6 6 6 6 6 6 6 6 6 6 6 6 6 6 6 6 6 6 6 6 6 6 6 6 6 6 6 6 6 6 6 6 6 6 6 6 6 6 6 6 6 6 6 6 6 6 6 6 6 6 6 6 6 6 6 6 6 6 6 6 6 6 6 6 6 6 6 6 6 6 6 6 6 6 6 6 6 6 6 6 6 6 6 6 6 6 6 6 6 6 6 6 6 6 6 6 6 6 6 6 6 6 6 6 6 6 6 6 6 6 6 6 6 6 6 6 6 6 6 6 6 6 6 6 6 6 6 6 6 6 6 6 6 6 6 6 6 6 6 6 6 6 6 6 6 6 6 6 6 6 6 6 6 6 6 6 6 6 6 6 6 6 6 6 6 6 6 6 6 6 6 6 6 6 6 6 6 6 6 6 6 6 6 6 6 6 6 6 6 6 6 6 6 6 6 6 6 6 6 6 6 6 6 6 6 6 6 6 6 6 6 6 6 6 6 6 6 6 6 6 6 6 6 6 6 6 6 6 6 6 6 6 6 6 6 6 6 6 6 6 6 6 6 6 6 6 6 6 6 6 6 6 6 6 6 6 6 6 6 6 6 6 6 6 6 6 6 6 6 6 6 6 6 6 6 6 6 6 6 6 6 6 6 6 6 6 6 6 6 6 6 6 6 6 6 6 6 6 6 6 6 6 6 6 6 6 6 6 6 6 6 6 6 6 6 6 6 6 6 6 6 6 6 6 6 6 6 6 6 6 6 6 6 6 6 6 6 6 6 6 6 6 6 6 6 6 6 6 6 6 6 6 6 6 6 6 6 6 6 6 6 6 6 6 6 6 6 6 6 6 6 6 6 6 6 6 6 6 6 6 6 6 6 6 6 6 6 6 6 6 6 6 6 6 6 6 6 6 6 6 6 6 6 6 6 6 6 6 6 6 6 6 6 6 6 6 6 6 6 6 6 6 6 6 6 6 6 6 6 6 6 6 6 6 6 6 6 6 6 6 6 6 6 6 6 6 6 6 6 6 6 6 6 6 6 6 6 6 6 6 6 6 6 6 6 6 6 6 6 6 6 6 6 6 6 6 6 6 6 6 6 6 6 6 6 6 6 6 6 6 6 6 6 6 6 6 6 6 6 6 6 6 6 6 6 6 6 6 6 6 6 6 6 6 6 6 6 6 6 6 6 6 6 6 6 6 6 6 6 6 6 6 6 6 6 6 6 6 6 6 6 6 6 6 6 6 6 6 6 6 6 6 6 6 6 6 6 6 6 6 6 6 6 6 6 6 6 6 6 6 6 6 6 6 6 6 6 6 6 6 6 6 6 6 6 6 6 6 6 6 6 6 6 6 6 6 6 6 6 6 6 6 6 6 6 6 6 6 6 6 6 6 6 6 6 6 6 6 6 6 6 6 6 6 6 6 6 6 6 6 6 6 6 6 6 6 6 6 6 6 6 6 6 6 6 6 6 6 6 6 6 6 6 6 6 6 6 6 6 6 6 6 6 6 6 6 6 6 6 6 6 6 6 6 6 6 6 6 6 6 6 6 6 6 6 6 6 6 6 6 6 6 6 6 6 6 6 6 6 6 6 6 6 6 6 6 6 6 6 6 6 6 6 6 6 6 6 6 6 6 6 6 6 6 6 6 6 6 6 6 6 6 6 6 6 6 6 6 6 6 6 6 6 6 6 6 6 6 6 6 6 6 6 6 6 6 6 6 6 6 6 6 6 6 6 6 6 6 6 6 6 6 6 6 6 6 6 6 6 6 6 6 6 6 6 6 6 6 6 6 6 6 6 6 6 6 6 6 6 6 6 6 6 6 6 6 6 6 6 6 6 6 6 6 6 6 6 6 6 6 6 6 6 6 6 6 6 6 6 6 6 6 6 6 6 6 6 6 6 6 6 6 6 6 6 6 6 6 6 6 6 6 6 6 6 6 6 6 6 6 6 6 6 6 6 6 6 6 6 6 6 6 6 6 6 6 6 6 6 6 6 6 6 6 6 6 6 6 6 6 6 6 6 6 6 6 6 6 6 6 6 6 6 6 6 6 6 6 6 6 6 6 6 6 6 6 6 6 6 6 6 6 6 6 6 6 6 6 6 6 6 6 6 6 6 6 6 6 6 6 6 6 6 6 6 6 6 6 6 6 6 6 6 6 6 6 6 6 6 6 6 6 6 6 6 6 6 6 6 6 6 6 6 6 6 6 6 6 6 6 6 6 6 6 6 6 6 6 6 6 6 6 6 6 6 6 6 6 6 6 6 6 6 6 6 6 6 6 6 6 6 6 6 6 6 6 6 6 6 6 6 6 6 6 6 6 6 6 6 6 6 6 6 6 6 6 6 6 6 6 6 6 6 6 6 6 6 6 6 6 6 6 6 6 6 6 6 6 6 6 6 6 6 6 6 6 6 6 6 6 6 6 6 6 6 6 6 6 6 6 6 6 6 6 6 6 6 6 6 6 6 6 6 6 6 6 6 6 6 6 6 6 6 6 6 6 6 6 6 6 6 6 6 6 6 6 6 6 6 6 6 6 6 6 6 6 6 6 6 6 6 6 6 6 6 6 6 6 6 6 6 6 6 6 6 6 6 6 6 6 6 6 6 6 6 6 6 6 6 6 6 6 6 6 6 6 6 6 6 6 6 6 6 6 6 6 6 6 6 6 6 6 6 6 6 6 6 6 6 6 6 6 6 6 6 6 6 6 6 6 6 6 6 6 6 6 6 6 6 6 6 6 6 6 6 6 6 6 6 6 6 6 6 6 6 6 6 6 6 6 6 6 6 6 6 6 6 6 6 6 6 6 6 6 6 6 6 6 6 6 6 6 6 6 6 6 6 6 6 6 6 6 6 6 6 6 6 6 6 6 6 6 6 6 6 6 6 6 6 6 6 6 6 6 6 6 6 6 6 6 6 6 6 6 6 6 6 6 6 6 6 6 6 6 6 6 6 6 6 6 6 6 6 6 6 6 6 6 6 6 6 6 6 6 6 6 6 6 6 6 6 6 6 6 6 6 6 6 6 6 6 6 6 6 6 6 6 6 6 6 6 6 6 6 6 6 6 6 6 6 6 6 6 6 6 6 6 6 6 6 6 6 6 6 6 6 6 6 6 6 6 6 6 6 6 6 6 6 6 6 6 6 6 6 6 6 6 6 6 6 6 6 6 6 6 6 6 6 6 6 6 6 6 6 6 6 6 6 6 6 6 6 6 6 6 6 6 6 6 6 6 6 6 6 6 6 6 6 6 6 6 6 6 6 6 6 6 6 6 6 6 6 6 6 6 6 6 6 6 6 6 6 6 6 6 6 6 6 6 6 6 6 6 6 6 6 6 6 6 6 6 6 6 6 6 6 6 6 6 6 6 6 6 6 6 6 6 6 6 6 6 6 6 6 6 6 6 6 6 6 6 6 6 6 6 6 6 6 6 6 6 6 6 6 6 6 6 6 6 6 6 6 6 6 6 6 6 6 6 6 6 6 6 6 6 6 6 6 6 6 6 6 6 6 6 6 6 6 6 6 6 6 6 6 6 6 6 6 6 6 6 6 6 6 6 6 6 6 6 6 6 6 6 6 6 6 6 6 6 6 6 6 6 6 6 6 6 6 6 6 6 6 6 6 6 6 6 6 6 6 6 6 6 6 6 6 6 6 6 6 6 6 6 6 6 6 6 6 6 6 6 6 6 6 6 6 6 6 6 6 6 6 6 6 6 6 6 6 6 6 6 6 6 6 6 6 6 6 6 6 6 6 6 6 6 6 6 6 6 6 6 6 6 6 6 6 6 6 6 6 6 6 6 6 6 6 6 6 6 6 6 6 6 6 6 6 6 6 6 6 6 6 6 6 6 6 6 6 6 6 6 6 6 6 6 6 6 6 6 6 6 6 6 6 6 6 6 6 6 6 6 6 6 6 6 6 6 6 6 6 6 6 6 6 6 6 6 6 6 6 6 6 6 6 6 6 6 6 6 6 6 6 6 6 6 6 6 6 6 6 6 6 6 6 6 6 6 6 6 6 6 6 6 6 6 6 6 6 6 6 104 104 104 104 104 104 104 104 104 104 104 104 104 104 104 104 104 104 104 104 104 104 104 104 104 104 104 104 104 106 103 103 103 103 103 103 103 103 103 103 103 103 103 103 103 103 103 103 103 103 103 103 103 103 103 103 103 103 103 103 103 103 103 103 103 103 103 103 103 103 103 103 103 103 103 103 103 103 103 103 103 103 103 103 103 103 103 103 103 103 103 103 103 103 103 103 103 103 103 103 103 103 103 103 103 103 103 103 103 103 103 103 103 103 103 103 103 103 103 103 103 103 103 103 103 103 103 103 103 103 103 105 105 105 105 105 105 105 105 105 105 105 105 105 105 105 105 105 105 105 105 105 105 105 105 105 105 105 105 105 105 105 105 105 105 105 105 105 105 105 105 107 107 107 107 107 107 107 107 107 107 107 107 107 107 107 107 107 107 107 107 107 107 107 107 107 107 107 107 107 107 107 107 107 107 107 107 107 107 107 107 107 107 107 107 107 107 107 107 107 107 107 107 107 107 107 107 107 107 107 107 105 105 105 105 105 105 105 105 105 105 105 105 104 104 104 104 104 104 104 104 102 102 102 102 102 102 102 102 102 102 102 102 102 102 102 102 102 102 102 102 102 102 102 102 102 102 102 102 102 102 102 102 102 102 102 102 102 102 102 102 100 100 100 100 100 100 100 100 100 100 110 110 110 110 110 110 110 110 110 110 110 110 110 110 110 110 110 110 110 110 110 110 110 110 110 110 110 110 110 110 110 110 110 110 110 110 110 110 110 110 110 110 110 110 110 110 110 110 110 110 110 110 110 110 110 100 100 100 100 100 100 100 100 100 100 100 100 100 100 100 100 100 100 108 108 108 108 108 108 108 108 108 108 108 108 108 108 108 108 108 108 108 108 108 108 108 108 108 108 108 108 108 108 108 108 108 108 108 108 108 108 108 108 108 108 108 108 108 108 108 108 108 108 108 108 108 108 108 108 108 108 108 108 108 108 108 108 108 108 108 108 108 108 101 101 101 101 101 101 101 101 101 101 100 100 100 100 100 100 100 100 100 100 100 100 100 100 100 100 100 100 100 100 100 100 100 100 100 100 100 100 109 109 109 109 109 109 109 109 109 109 109 109 109 109 109 109 109 109 109 109 109 109 109 109 100 100 100 100 100 100 100 100 100 100 100 100 100 100 100 100 100 100 100 100 100 100 100 100 100 100 100 100 100 100 100 100 100 100 100 100 100 100 100 100 100 100 100 100 100 100 100 100 100 100 100 100 100 100 100 100 100 100 100 100 100 100 100 100 100 100 100 100 100 100 100 100 100 100 100 100 100 100 100 100 100 100 100 100 100 100 100 100 100 100 100 100 100 100 100 100 100 100 100 100 100 100 100 100
        </DataArray>
      </CellData>
      <Points>
        <DataArray type="Float64" NumberOfComponents="3" format="ascii">
  2.5000000E-002  1.0000000E-002 0.0  2.5000000E-002  1.5000000E-002 0.0  6.0000000E-002  1.5000000E-002 0.0  6.0000000E-002 -1.5000000E-002 0.0 0.0  1.3000000E-001 0.0  1.0000000E-003  1.3000000E-001 0.0  5.0000000E-003  1.1000000E-001 0.0  5.0000000E-003  1.0000000E-002 0.0 0.0 -2.5000000E-002 0.0  9.0000000E-002 -2.5000000E-002 0.0  9.0000000E-002 -1.5000000E-002 0.0  2.0000000E-002 -4.0000000E-002 0.0  9.0000000E-002 -4.0000000E-002 0.0  9.0000000E-002 -3.5000000E-002 0.0  2.0000000E-002 -3.5000000E-002 0.0 0.0 -1.3500000E-001 0.0  3.0000000E-001 -1.3500000E-001 0.0  3.0000000E-001  3.6500000E-001 0.0 0.0  3.6500000E-001 0.0 0.0 0.0 0.0  2.5000000E-002 0.0 0.0 0.0  1.0000000E-002 0.0 0.0 -1.5000000E-002 0.0  5.7593274E-002  1.5000000E-002 0.0  5.5186548E-002  1.5000000E-002 0.0  5.2779823E-002  1.5000000E-002 0.0  5.0373097E-002  1.5000000E-002 0.0  4.7966371E-002  1.5000000E-002 0.0  4.5559645E-002  1.5000000E-002 0.0  4.3152919E-002  1.5000000E-002 0.0  4.0746194E-002  1.5000000E-002 0.0  3.8339468E-002  1.5000000E-002 0.0  3.5932742E-002  1.5000000E-002 0.0  3.3540770E-002  1.5000000E-002 0.0  3.1513374E-002  1.5000000E-002 0.0  2.9864063E-002  1.5000000E-002 0.0  2.8464753E-002  1.5000000E-002 0.0  2.7228140E-002  1.5000000E-002 0.0  2.6090447E-002  1.5000000E-002 0.0  6.0000000E-002 -1.2500000E-002 0.0  6.0000000E-002 -1.0000000E-002 0.0  6.0000000E-002 -7.5000000E-003 0.0  6.0000000E-002 -5.0000000E-003 0.0  6.0000000E-002 -2.5000000E-003 0.0  6.0000000E-002 0.0 0.0  6.0000000E-002  2.5000000E-003 0.0  6.0000000E-002  5.0000000E-003 0.0  6.0000000E-002  7.5000000E-003 0.0  6.0000000E-002  1.0000000E-002 0.0  6.0000000E-002  1.2500000E-002 0.0  1.2352941E-003  1.2882353E-001 0.0  1.4705882E-003  1.2764706E-001 0.0  1.7058824E-003  1.2647059E-001 0.0  1.9411765E-003  1.2529412E-001 0.0  2.1764706E-003  1.2411765E-001 0.0  2.4117647E-003  1.2294118E-001 0.0  2.6470588E-003  1.2176471E-001 0.0  2.8823529E-003  1.2058824E-001 0.0  3.1176471E-003  1.1941176E-001 0.0  3.3529412E-003  1.1823529E-001 0.0  3.5882353E-003  1.1705882E-001 0.0  3.8235294E-003  1.1588235E-001 0.0  4.0588235E-003  1.1470588E-001 0.0  4.2941176E-003  1.1352941E-001 0.0  4.5294118E-003  1.1235294E-001 0.0  4.7647059E-003  1.1117647E-001 0.0  5.0000000E-003  1.0501292E-002 0.0  5.0000000E-003  1.1027679E-002 0.0  5.0000000E-003  1.1595904E-002 0.0  5.0000000E-003  1.2223799E-002 0.0  5.0000000E-003  1.2933139E-002 0.0  5.0000000E-003  1.3752410E-002 0.0  5.0000000E-003  1.4720685E-002 0.0  5.0000000E-003  1.5886865E-002 0.0  5.0000000E-003  1.7125196E-002 0.0  5.0000000E-003  1.8363527E-002 0.0  5.0000000E-003  1.9601857E-002 0.0  5.0000000E-003  2.0840188E-002 0.0  5.0000000E-003  2.2078519E-002 0.0  5.0000000E-003  2.3316849E-002 0.0  5.0000000E-003  2.4555180E-002 0.0  5.0000000E-003  2.5793511E-002 0.0  5.0000000E-003  2.7031842E-002 0.0  5.0000000E-003  2.8270172E-002 0.0  5.0000000E-003  2.9508503E-002 0.0  5.0000000E-003  3.0746834E-002 0.0  5.0000000E-003  3.1985164E-002 0.0  5.0000000E-003  3.3223495E-002 0.0  5.0000000E-003  3.4461826E-002 0.0  5.0000000E-003  3.5700157E-002 0.0  5.0000000E-003  3.6938487E-002 0.0  5.0000000E-003  3.8176818E-002 0.0  5.0000000E-003  3.9415149E-002 0.0  5.0000000E-003  4.0653480E-002 0.0  5.0000000E-003  4.1891810E-002 0.0  5.0000000E-003  4.3130141E-002 0.0  5.0000000E-003  4.4368472E-002 0.0  5.0000000E-003  4.5606802E-002 0.0  5.0000000E-003  4.6845133E-002 0.0  5.0000000E-003  4.8083464E-002 0.0  5.0000000E-003  4.9321795E-002 0.0  5.0000000E-003  5.0560125E-002 0.0  5.0000000E-003  5.1798456E-002 0.0  5.0000000E-003  5.3036787E-002 0.0  5.0000000E-003  5.4275117E-002 0.0  5.0000000E-003  5.5513448E-002 0.0  5.0000000E-003  5.6751779E-002 0.0  5.0000000E-003  5.7990110E-002 0.0  5.0000000E-003  5.9228440E-002 0.0  5.0000000E-003  6.0466771E-002 0.0  5.0000000E-003  6.1705102E-002 0.0  5.0000000E-003  6.2943433E-002 0.0  5.0000000E-003  6.4181763E-002 0.0  5.0000000E-003  6.5420094E-002 0.0  5.0000000E-003  6.6658425E-002 0.0  5.0000000E-003  6.7896755E-002 0.0  5.0000000E-003  6.9135086E-002 0.0  5.0000000E-003  7.0373417E-002 0.0  5.0000000E-003  7.1611748E-002 0.0  5.0000000E-003  7.2850078E-002 0.0  5.0000000E-003  7.4088409E-002 0.0  5.0000000E-003  7.5326740E-002 0.0  5.0000000E-003  7.6565070E-002 0.0  5.0000000E-003  7.7803401E-002 0.0  5.0000000E-003  7.9041732E-002 0.0  5.0000000E-003  8.0280063E-002 0.0  5.0000000E-003  8.1518393E-002 0.0  5.0000000E-003  8.2756724E-002 0.0  5.0000000E-003  8.3995055E-002 0.0  5.0000000E-003  8.5233386E-002 0.0  5.0000000E-003  8.6471716E-002 0.0  5.0000000E-003  8.7710047E-002 0.0  5.0000000E-003  8.8948378E-002 0.0  5.0000000E-003  9.0186708E-002 0.0  5.0000000E-003  9.1425039E-002 0.0  5.0000000E-003  9.2663370E-002 0.0  5.0000000E-003  9.3901701E-002 0.0  5.0000000E-003  9.5140031E-002 0.0  5.0000000E-003  9.6378362E-002 0.0  5.0000000E-003  9.7616693E-002 0.0  5.0000000E-003  9.8855023E-002 0.0  5.0000000E-003  1.0009335E-001 0.0  5.0000000E-003  1.0133168E-001 0.0  5.0000000E-003  1.0257002E-001 0.0  5.0000000E-003  1.0380835E-001 0.0  5.0000000E-003  1.0504668E-001 0.0  5.0000000E-003  1.0628501E-001 0.0  5.0000000E-003  1.0752334E-001 0.0  5.0000000E-003  1.0876167E-001 0.0  2.5000000E-003 -2.5000000E-002 0.0  5.0000000E-003 -2.5000000E-002 0.0  7.5000000E-003 -2.5000000E-002 0.0  1.0000000E-002 -2.5000000E-002 0.0  1.2500000E-002 -2.5000000E-002 0.0  1.5000000E-002 -2.5000000E-002 0.0  1.7500000E-002 -2.5000000E-002 0.0  2.0000000E-002 -2.5000000E-002 0.0  2.2500000E-002 -2.5000000E-002 0.0  2.5000000E-002 -2.5000000E-002 0.0  2.7500000E-002 -2.5000000E-002 0.0  3.0000000E-002 -2.5000000E-002 0.0  3.2500000E-002 -2.5000000E-002 0.0  3.5000000E-002 -2.5000000E-002 0.0  3.7500000E-002 -2.5000000E-002 0.0  4.0000000E-002 -2.5000000E-002 0.0  4.2500000E-002 -2.5000000E-002 0.0  4.5000000E-002 -2.5000000E-002 0.0  4.7500000E-002 -2.5000000E-002 0.0  5.0000000E-002 -2.5000000E-002 0.0  5.2500000E-002 -2.5000000E-002 0.0  5.5000000E-002 -2.5000000E-002 0.0  5.7500000E-002 -2.5000000E-002 0.0  6.0000000E-002 -2.5000000E-002 0.0  6.2500000E-002 -2.5000000E-002 0.0  6.5000000E-002 -2.5000000E-002 0.0  6.7500000E-002 -2.5000000E-002 0.0  7.0000000E-002 -2.5000000E-002 0.0  7.2500000E-002 -2.5000000E-002 0.0  7.5000000E-002 -2.5000000E-002 0.0  7.7500000E-002 -2.5000000E-002 0.0  8.0000000E-002 -2.5000000E-002 0.0  8.2500000E-002 -2.5000000E-002 0.0  8.5000000E-002 -2.5000000E-002 0.0  8.7500000E-002 -2.5000000E-002 0.0  9.0000000E-002 -2.2500000E-002 0.0  9.0000000E-002 -2.0000000E-002 0.0  9.0000000E-002 -1.7500000E-002 0.0  2.2500000E-002 -4.0000000E-002 0.0  2.5000000E-002 -4.0000000E-002 0.0  2.7500000E-002 -4.0000000E-002 0.0  3.0000000E-002 -4.0000000E-002 0.0  3.2500000E-002 -4.0000000E-002 0.0  3.5000000E-002 -4.0000000E-002 0.0  3.7500000E-002 -4.0000000E-002 0.0  4.0000000E-002 -4.0000000E-002 0.0  4.2500000E-002 -4.0000000E-002 0.0  4.5000000E-002 -4.0000000E-002 0.0  4.7500000E-002 -4.0000000E-002 0.0  5.0000000E-002 -4.0000000E-002 0.0  5.2500000E-002 -4.0000000E-002 0.0  5.5000000E-002 -4.0000000E-002 0.0  5.7500000E-002 -4.0000000E-002 0.0  6.0000000E-002 -4.0000000E-002 0.0  6.2500000E-002 -4.0000000E-002 0.0  6.5000000E-002 -4.0000000E-002 0.0  6.7500000E-002 -4.0000000E-002 0.0  7.0000000E-002 -4.0000000E-002 0.0  7.2500000E-002 -4.0000000E-002 0.0  7.5000000E-002 -4.0000000E-002 0.0  7.7500000E-002 -4.0000000E-002 0.0  8.0000000E-002 -4.0000000E-002 0.0  8.2500000E-002 -4.0000000E-002 0.0  8.5000000E-002 -4.0000000E-002 0.0  8.7500000E-002 -4.0000000E-002 0.0  9.0000000E-002 -3.7500000E-002 0.0  8.7500000E-002 -3.5000000E-002 0.0  8.5000000E-002 -3.5000000E-002 0.0  8.2500000E-002 -3.5000000E-002 0.0  8.0000000E-002 -3.5000000E-002 0.0  7.7500000E-002 -3.5000000E-002 0.0  7.5000000E-002 -3.5000000E-002 0.0  7.2500000E-002 -3.5000000E-002 0.0  7.0000000E-002 -3.5000000E-002 0.0  6.7500000E-002 -3.5000000E-002 0.0  6.5000000E-002 -3.5000000E-002 0.0  6.2500000E-002 -3.5000000E-002 0.0  6.0000000E-002 -3.5000000E-002 0.0  5.7500000E-002 -3.5000000E-002 0.0  5.5000000E-002 -3.5000000E-002 0.0  5.2500000E-002 -3.5000000E-002 0.0  5.0000000E-002 -3.5000000E-002 0.0  4.7500000E-002 -3.5000000E-002 0.0  4.5000000E-002 -3.5000000E-002 0.0  4.2500000E-002 -3.5000000E-002 0.0  4.0000000E-002 -3.5000000E-002 0.0  3.7500000E-002 -3.5000000E-002 0.0  3.5000000E-002 -3.5000000E-002 0.0  3.2500000E-002 -3.5000000E-002 0.0  3.0000000E-002 -3.5000000E-002 0.0  2.7500000E-002 -3.5000000E-002 0.0  2.5000000E-002 -3.5000000E-002 0.0  2.2500000E-002 -3.5000000E-002 0.0  2.0000000E-002 -3.7500000E-002 0.0  8.7500000E-002 -1.5000000E-002 0.0  8.5000000E-002 -1.5000000E-002 0.0  8.2500000E-002 -1.5000000E-002 0.0  8.0000000E-002 -1.5000000E-002 0.0  7.7500000E-002 -1.5000000E-002 0.0  7.5000000E-002 -1.5000000E-002 0.0  7.2500000E-002 -1.5000000E-002 0.0  7.0000000E-002 -1.5000000E-002 0.0  6.7500000E-002 -1.5000000E-002 0.0  6.5000000E-002 -1.5000000E-002 0.0  6.2500000E-002 -1.5000000E-002 0.0  2.5000000E-002  1.0453970E-002 0.0  2.5000000E-002  1.0927271E-002 0.0  2.5000000E-002  1.1432451E-002 0.0  2.5000000E-002  1.1982365E-002 0.0  2.5000000E-002  1.2592065E-002 0.0  2.5000000E-002  1.3280379E-002 0.0  2.5000000E-002  1.4071919E-002 0.0  2.4500000E-002  1.0000000E-002 0.0  2.4000000E-002  1.0000000E-002 0.0  2.3500000E-002  1.0000000E-002 0.0  2.3000000E-002  1.0000000E-002 0.0  2.2500000E-002  1.0000000E-002 0.0  2.2000000E-002  1.0000000E-002 0.0  2.1500000E-002  1.0000000E-002 0.0  2.1000000E-002  1.0000000E-002 0.0  2.0500000E-002  1.0000000E-002 0.0  2.0000000E-002  1.0000000E-002 0.0  1.9500000E-002  1.0000000E-002 0.0  1.9000000E-002  1.0000000E-002 0.0  1.8500000E-002  1.0000000E-002 0.0  1.8000000E-002  1.0000000E-002 0.0  1.7500000E-002  1.0000000E-002 0.0  1.7000000E-002  1.0000000E-002 0.0  1.6500000E-002  1.0000000E-002 0.0  1.6000000E-002  1.0000000E-002 0.0  1.5500000E-002  1.0000000E-002 0.0  1.5000000E-002  1.0000000E-002 0.0  1.4500000E-002  1.0000000E-002 0.0  1.4000000E-002  1.0000000E-002 0.0  1.3500000E-002  1.0000000E-002 0.0  1.3000000E-002  1.0000000E-002 0.0  1.2500000E-002  1.0000000E-002 0.0  1.2000000E-002  1.0000000E-002 0.0  1.1500000E-002  1.0000000E-002 0.0  1.1000000E-002  1.0000000E-002 0.0  1.0500000E-002  1.0000000E-002 0.0  1.0000000E-002  1.0000000E-002 0.0  9.5000002E-003  1.0000000E-002 0.0  9.0000002E-003  1.0000000E-002 0.0  8.5000003E-003  1.0000000E-002 0.0  8.0000003E-003  1.0000000E-002 0.0  7.5000003E-003  1.0000000E-002 0.0  7.0000003E-003  1.0000000E-002 0.0  6.5000003E-003  1.0000000E-002 0.0  6.0000003E-003  1.0000000E-002 0.0  5.5000003E-003  1.0000000E-002 0.0 0.0 -2.7642991E-002 0.0 0.0 -3.1240581E-002 0.0 0.0 -3.6137553E-002 0.0 0.0 -4.2803221E-002 0.0 0.0 -5.1878425E-002 0.0 0.0 -6.4227176E-002 0.0 0.0 -8.0846103E-002 0.0 0.0 -9.8897402E-002 0.0 0.0 -1.1694870E-001 0.0  2.0000000E-002 -1.3500000E-001 0.0  4.0000000E-002 -1.3500000E-001 0.0  6.0000000E-002 -1.3500000E-001 0.0  8.0000000E-002 -1.3500000E-001 0.0  1.0000000E-001 -1.3500000E-001 0.0  1.2000000E-001 -1.3500000E-001 0.0  1.4000000E-001 -1.3500000E-001 0.0  1.6000000E-001 -1.3500000E-001 0.0  1.8000000E-001 -1.3500000E-001 0.0  2.0000000E-001 -1.3500000E-001 0.0  2.2000000E-001 -1.3500000E-001 0.0  2.4000000E-001 -1.3500000E-001 0.0  2.6000000E-001 -1.3500000E-001 0.0  2.8000000E-001 -1.3500000E-001 0.0  3.0000000E-001 -1.1500000E-001 0.0  3.0000000E-001 -9.5000000E-002 0.0  3.0000000E-001 -7.5000000E-002 0.0  3.0000000E-001 -5.5000000E-002 0.0  3.0000000E-001 -3.5000000E-002 0.0  3.0000000E-001 -1.5000000E-002 0.0  3.0000000E-001  5.0000000E-003 0.0  3.0000000E-001  2.5000000E-002 0.0  3.0000000E-001  4.5000000E-002 0.0  3.0000000E-001  6.5000000E-002 0.0  3.0000000E-001  8.5000000E-002 0.0  3.0000000E-001  1.0500000E-001 0.0  3.0000000E-001  1.2500000E-001 0.0  3.0000000E-001  1.4500000E-001 0.0  3.0000000E-001  1.6500000E-001 0.0  3.0000000E-001  1.8500000E-001 0.0  3.0000000E-001  2.0500000E-001 0.0  3.0000000E-001  2.2500000E-001 0.0  3.0000000E-001  2.4500000E-001 0.0  3.0000000E-001  2.6500000E-001 0.0  3.0000000E-001  2.8500000E-001 0.0  3.0000000E-001  3.0500000E-001 0.0  3.0000000E-001  3.2500000E-001 0.0  3.0000000E-001  3.4500000E-001 0.0  2.8000000E-001  3.6500000E-001 0.0  2.6000000E-001  3.6500000E-001 0.0  2.4000000E-001  3.6500000E-001 0.0  2.2000000E-001  3.6500000E-001 0.0  2.0000000E-001  3.6500000E-001 0.0  1.8000000E-001  3.6500000E-001 0.0  1.6000000E-001  3.6500000E-001 0.0  1.4000000E-001  3.6500000E-001 0.0  1.2000000E-001  3.6500000E-001 0.0  1.0000000E-001  3.6500000E-001 0.0  8.0000000E-002  3.6500000E-001 0.0  6.0000000E-002  3.6500000E-001 0.0  4.0000000E-002  3.6500000E-001 0.0  2.0000000E-002  3.6500000E-001 0.0 0.0  3.4597495E-001 0.0 0.0  3.2694990E-001 0.0 0.0  3.0792486E-001 0.0 0.0  2.8889981E-001 0.0 0.0  2.6987476E-001 0.0 0.0  2.5084971E-001 0.0 0.0  2.3182467E-001 0.0 0.0  2.1279962E-001 0.0 0.0  1.9377457E-001 0.0 0.0  1.7558686E-001 0.0 0.0  1.6193447E-001 0.0 0.0  1.5205660E-001 0.0 0.0  1.4492093E-001 0.0 0.0  1.3976574E-001 0.0 0.0  1.3604092E-001 0.0 0.0  1.3334961E-001 0.0 0.0  1.3140503E-001 0.0  5.0000165E-004 0.0 0.0  1.0000016E-003 0.0 0.0  1.5000016E-003 0.0 0.0  2.0000016E-003 0.0 0.0  2.5000015E-003 0.0 0.0  3.0000015E-003 0.0 0.0  3.5000015E-003 0.0 0.0  4.0000014E-003 0.0 0.0  4.5000014E-003 0.0 0.0  5.0000014E-003 0.0 0.0  5.5000013E-003 0.0 0.0  6.0000013E-003 0.0 0.0  6.5000012E-003 0.0 0.0  7.0000012E-003 0.0 0.0  7.5000012E-003 0.0 0.0  8.0000011E-003 0.0 0.0  8.5000011E-003 0.0 0.0  9.0000010E-003 0.0 0.0  9.5000009E-003 0.0 0.0  1.0000001E-002 0.0 0.0  1.0500001E-002 0.0 0.0  1.1000001E-002 0.0 0.0  1.1500001E-002 0.0 0.0  1.2000001E-002 0.0 0.0  1.2500001E-002 0.0 0.0  1.3000000E-002 0.0 0.0  1.3500000E-002 0.0 0.0  1.4000000E-002 0.0 0.0  1.4500000E-002 0.0 0.0  1.5000000E-002 0.0 0.0  1.5500000E-002 0.0 0.0  1.6000000E-002 0.0 0.0  1.6500000E-002 0.0 0.0  1.7000000E-002 0.0 0.0  1.7500000E-002 0.0 0.0  1.8000000E-002 0.0 0.0  1.8500000E-002 0.0 0.0  1.9000000E-002 0.0 0.0  1.9500000E-002 0.0 0.0  2.0000000E-002 0.0 0.0  2.0500000E-002 0.0 0.0  2.1000000E-002 0.0 0.0  2.1500000E-002 0.0 0.0  2.2000000E-002 0.0 0.0  2.2500000E-002 0.0 0.0  2.3000000E-002 0.0 0.0  2.3499999E-002 0.0 0.0  2.3999999E-002 0.0 0.0  2.4499999E-002 0.0 0.0  2.5000000E-002  4.9999976E-004 0.0  2.5000000E-002  1.0000001E-003 0.0  2.5000000E-002  1.5000004E-003 0.0  2.5000000E-002  1.9999999E-003 0.0  2.5000000E-002  2.4999994E-003 0.0  2.5000000E-002  2.9999998E-003 0.0  2.5000000E-002  3.5000002E-003 0.0  2.5000000E-002  3.9999999E-003 0.0  2.5000000E-002  4.4999995E-003 0.0  2.5000000E-002  5.0000000E-003 0.0  2.5000000E-002  5.5000005E-003 0.0  2.5000000E-002  6.0000001E-003 0.0  2.5000000E-002  6.4999998E-003 0.0  2.5000000E-002  7.0000002E-003 0.0  2.5000000E-002  7.5000006E-003 0.0  2.5000000E-002  8.0000001E-003 0.0  2.5000000E-002  8.4999996E-003 0.0  2.5000000E-002  8.9999999E-003 0.0  2.5000000E-002  9.5000002E-003 0.0  4.5000000E-003  1.0000000E-002 0.0  4.0000000E-003  1.0000000E-002 0.0  3.5000000E-003  1.0000000E-002 0.0  3.0000000E-003  1.0000000E-002 0.0  2.5000000E-003  1.0000000E-002 0.0  2.0000000E-003  1.0000000E-002 0.0  1.5000000E-003  1.0000000E-002 0.0  9.9999999E-004  1.0000000E-002 0.0  5.0000003E-004  1.0000000E-002 0.0 0.0  9.5152507E-003 0.0 0.0  9.0075226E-003 0.0 0.0  8.4616415E-003 0.0 0.0  7.8616609E-003 0.0 0.0  7.1883931E-003 0.0 0.0  6.4171306E-003 0.0 0.0  5.5145561E-003 0.0 0.0  4.4857036E-003 0.0 0.0  3.5830772E-003 0.0 0.0  2.8117736E-003 0.0 0.0  2.1384717E-003 0.0 0.0  1.5384616E-003 0.0 0.0  9.9255282E-004 0.0 0.0  4.8479594E-004 0.0 0.0 -4.7631306E-004 0.0 0.0 -9.7454635E-004 0.0 0.0 -1.5091294E-003 0.0 0.0 -2.0951073E-003 0.0 0.0 -2.7504464E-003 0.0 0.0 -3.4980964E-003 0.0 0.0 -4.3687373E-003 0.0 0.0 -5.4049400E-003 0.0 0.0 -6.6678945E-003 0.0 0.0 -8.2488722E-003 0.0 0.0 -1.0289801E-002 0.0 0.0 -1.2644788E-002 0.0  2.5000000E-003 -1.5000000E-002 0.0  5.0000000E-003 -1.5000000E-002 0.0  7.5000000E-003 -1.5000000E-002 0.0  1.0000000E-002 -1.5000000E-002 0.0  1.2500000E-002 -1.5000000E-002 0.0  1.5000000E-002 -1.5000000E-002 0.0  1.7500000E-002 -1.5000000E-002 0.0  2.0000000E-002 -1.5000000E-002 0.0  2.2500000E-002 -1.5000000E-002 0.0  2.5000000E-002 -1.5000000E-002 0.0  2.7500000E-002 -1.5000000E-002 0.0  3.0000000E-002 -1.5000000E-002 0.0  3.2500000E-002 -1.5000000E-002 0.0  3.5000000E-002 -1.5000000E-002 0.0  3.7500000E-002 -1.5000000E-002 0.0  4.0000000E-002 -1.5000000E-002 0.0  4.2500000E-002 -1.5000000E-002 0.0  4.5000000E-002 -1.5000000E-002 0.0  4.7500000E-002 -1.5000000E-002 0.0  5.0000000E-002 -1.5000000E-002 0.0  5.2500000E-002 -1.5000000E-002 0.0  5.5000000E-002 -1.5000000E-002 0.0  5.7500000E-002 -1.5000000E-002 0.0 0.0  1.2875980E-001 0.0 0.0  1.2751960E-001 0.0 0.0  1.2627941E-001 0.0 0.0  1.2503921E-001 0.0 0.0  1.2379901E-001 0.0 0.0  1.2255881E-001 0.0 0.0  1.2131862E-001 0.0 0.0  1.2007842E-001 0.0 0.0  1.1883822E-001 0.0 0.0  1.1759802E-001 0.0 0.0  1.1635782E-001 0.0 0.0  1.1511763E-001 0.0 0.0  1.1387743E-001 0.0 0.0  1.1263723E-001 0.0 0.0  1.1139703E-001 0.0 0.0  1.1015684E-001 0.0 0.0  1.0891664E-001 0.0 0.0  1.0767644E-001 0.0 0.0  1.0643624E-001 0.0 0.0  1.0519604E-001 0.0 0.0  1.0395585E-001 0.0 0.0  1.0271565E-001 0.0 0.0  1.0147545E-001 0.0 0.0  1.0023525E-001 0.0 0.0  9.8995055E-002 0.0 0.0  9.7754857E-002 0.0 0.0  9.6514659E-002 0.0 0.0  9.5274461E-002 0.0 0.0  9.4034264E-002 0.0 0.0  9.2794066E-002 0.0 0.0  9.1553868E-002 0.0 0.0  9.0313670E-002 0.0 0.0  8.9073472E-002 0.0 0.0  8.7833275E-002 0.0 0.0  8.6593077E-002 0.0 0.0  8.5352879E-002 0.0 0.0  8.4112681E-002 0.0 0.0  8.2872483E-002 0.0 0.0  8.1632286E-002 0.0 0.0  8.0392088E-002 0.0 0.0  7.9151890E-002 0.0 0.0  7.7911692E-002 0.0 0.0  7.6671494E-002 0.0 0.0  7.5431297E-002 0.0 0.0  7.4191099E-002 0.0 0.0  7.2950901E-002 0.0 0.0  7.1710703E-002 0.0 0.0  7.0470505E-002 0.0 0.0  6.9230307E-002 0.0 0.0  6.7990110E-002 0.0 0.0  6.6749912E-002 0.0 0.0  6.5509714E-002 0.0 0.0  6.4269516E-002 0.0 0.0  6.3029318E-002 0.0 0.0  6.1789121E-002 0.0 0.0  6.0548923E-002 0.0 0.0  5.9308725E-002 0.0 0.0  5.8068527E-002 0.0 0.0  5.6828329E-002 0.0 0.0  5.5588132E-002 0.0 0.0  5.4347934E-002 0.0 0.0  5.3107736E-002 0.0 0.0  5.1867538E-002 0.0 0.0  5.0627340E-002 0.0 0.0  4.9387143E-002 0.0 0.0  4.8146945E-002 0.0 0.0  4.6906747E-002 0.0 0.0  4.5666549E-002 0.0 0.0  4.4426351E-002 0.0 0.0  4.3186154E-002 0.0 0.0  4.1945956E-002 0.0 0.0  4.0705758E-002 0.0 0.0  3.9465560E-002 0.0 0.0  3.8225362E-002 0.0 0.0  3.6985164E-002 0.0 0.0  3.5744967E-002 0.0 0.0  3.4504769E-002 0.0 0.0  3.3264571E-002 0.0 0.0  3.2024373E-002 0.0 0.0  3.0784175E-002 0.0 0.0  2.9543978E-002 0.0 0.0  2.8303780E-002 0.0 0.0  2.7063582E-002 0.0 0.0  2.5823384E-002 0.0 0.0  2.4583186E-002 0.0 0.0  2.3342989E-002 0.0 0.0  2.2102791E-002 0.0 0.0  2.0862593E-002 0.0 0.0  1.9622395E-002 0.0 0.0  1.8382197E-002 0.0 0.0  1.7142000E-002 0.0 0.0  1.5901802E-002 0.0 0.0  1.4731879E-002 0.0 0.0  1.3760432E-002 0.0 0.0  1.2938862E-002 0.0 0.0  1.2227808E-002 0.0 0.0  1.1598596E-002 0.0 0.0  1.1029322E-002 0.0 0.0  1.0502062E-002 0.0 0.0 -1.7500000E-002 0.0 0.0 -2.0000000E-002 0.0 0.0 -2.2500000E-002 0.0  1.5750000E-002  4.1013835E-004 0.0  9.2159558E-003  4.2992886E-004 0.0  1.2308015E-002  4.3677495E-004 0.0  1.8250000E-002  9.5669873E-003 0.0  6.7361216E-003  3.5035388E-004 0.0  1.9740878E-002  4.5093694E-004 0.0  5.2712737E-003  9.5189472E-003 0.0  1.4243711E-002  9.5479736E-003 0.0  1.0701460E-002  9.5739842E-003 0.0  7.7928391E-003  9.5849518E-003 0.0  2.4603132E-002  5.3122033E-003 0.0  1.6250000E-002  9.5803857E-003 0.0  1.7768319E-002  4.7246482E-004 0.0  2.0264667E-002  9.5777259E-003 0.0  4.7505443E-003  4.4362870E-004 0.0  2.1750000E-002  4.3301267E-004 0.0  8.2027755E-004  4.9604011E-003 0.0  2.4579508E-002  3.2500000E-003 0.0  2.4568122E-002  7.2447547E-003 0.0  1.2729399E-002  9.5757743E-003 0.0  3.2497612E-003  3.8719446E-004 0.0  2.1728107E-002  9.5025460E-003 0.0  9.2247294E-003  9.5904320E-003 0.0  1.4215780E-002  4.6466842E-004 0.0  3.7300777E-003  9.5181008E-003 0.0  1.0698129E-002  4.7027866E-004 0.0  2.2338606E-003  9.5275746E-003 0.0  4.3128622E-004  2.4519240E-003 0.0  2.4566988E-002  1.7500001E-003 0.0  5.4728373E-004  7.5345949E-003 0.0  2.3241271E-002  9.5678331E-003 0.0  2.3234114E-002  4.4581385E-004 0.0  1.7500016E-003  4.1704358E-004 0.0  1.5257888E-002  9.5586330E-003 0.0  1.1704719E-002  9.5530470E-003 0.0  2.4587295E-002  4.2384159E-003 0.0  1.7250000E-002  9.5669873E-003 0.0  2.4532008E-002  8.2640071E-003 0.0  2.4603302E-002  6.2690012E-003 0.0  1.9231309E-002  9.5824267E-003 0.0  2.0739065E-002  4.2838338E-004 0.0  5.7500013E-003  4.3301267E-004 0.0  7.7544211E-003  4.8777872E-004 0.0  6.6922147E-003  9.5297822E-003 0.0  1.8694810E-002  3.9522025E-004 0.0  1.6735601E-002  4.1966954E-004 0.0  1.3245948E-002  4.2995186E-004 0.0  1.2500000E-003  9.5669873E-003 0.0  5.7142678E-004  1.2560413E-003 0.0  4.6273553E-004  8.7287391E-003 0.0  2.4253609E-002  4.3000409E-004 0.0  2.4252386E-002  9.5784992E-003 0.0  7.5091197E-004  3.8090687E-004 0.0  7.9895888E-004  5.9189624E-003 0.0  1.7401717E-003  5.5289147E-003 0.0  1.6511902E-003  4.2745054E-003 0.0  2.6032593E-003  4.7961517E-003 0.0  2.6614292E-003  5.8640907E-003 0.0  3.4984889E-003  5.3921119E-003 0.0  3.4282982E-003  4.1925537E-003 0.0  4.3230786E-003  4.6736174E-003 0.0  4.4923081E-003  5.6948483E-003 0.0  5.2619895E-003  5.0722303E-003 0.0  5.3877955E-003  6.0546471E-003 0.0  6.2167720E-003  5.4543280E-003 0.0  6.0960115E-003  4.4796579E-003 0.0  7.0606956E-003  4.8690759E-003 0.0  7.0601990E-003  5.8499769E-003 0.0  7.9757076E-003  5.4355440E-003 0.0  7.9096745E-003  4.2042926E-003 0.0  8.8508088E-003  4.6628616E-003 0.0  9.0013625E-003  5.7231445E-003 0.0  9.8074354E-003  5.0445525E-003 0.0  1.0021033E-002  6.1587856E-003 0.0  1.0778813E-002  5.4581164E-003 0.0  1.0641356E-002  4.4102432E-003 0.0  1.1541329E-002  4.8230544E-003 0.0  1.1727663E-002  5.8312585E-003 0.0  1.2472861E-002  5.2068892E-003 0.0  1.2628753E-002  6.1854199E-003 0.0  1.3423570E-002  5.5720186E-003 0.0  1.3189903E-002  4.6179970E-003 0.0  1.4191538E-002  4.8161230E-003 0.0  1.4325329E-002  5.9082935E-003 0.0  1.5179996E-002  5.3167757E-003 0.0  1.5119302E-002  4.2929327E-003 0.0  1.6010693E-002  4.7371188E-003 0.0  1.6156132E-002  5.7526108E-003 0.0  1.6947710E-002  5.1331767E-003 0.0  1.7090209E-002  6.1070843E-003 0.0  1.7903906E-002  5.4998433E-003 0.0  1.7795449E-002  4.4918760E-003 0.0  1.8762207E-002  4.8669162E-003 0.0  1.8853943E-002  5.8452063E-003 0.0  1.9686135E-002  5.2602134E-003 0.0  1.9604793E-002  4.2456568E-003 0.0  2.0492975E-002  4.6543047E-003 0.0  2.0566515E-002  5.5951820E-003 0.0  1.1498235E-002  3.7352858E-003 0.0  1.0597778E-002  3.4355268E-003 0.0  1.5922352E-002  3.7087206E-003 0.0  2.0348831E-002  3.5741945E-003 0.0  2.1231008E-002  4.0306297E-003 0.0  4.2651694E-003  3.6226389E-003 0.0  1.5076930E-002  3.3513764E-003 0.0  1.9472799E-002  3.3684303E-003 0.0  3.4445563E-003  3.2541948E-003 0.0  9.1976056E-003  6.6620392E-003 0.0  4.6398311E-003  6.6259362E-003 0.0  5.4372868E-003  6.9537017E-003 0.0  2.1164871E-002  3.1742433E-003 0.0  1.6339264E-002  6.6780119E-003 0.0  1.7166537E-002  6.9950110E-003 0.0  9.9342106E-003  7.0273407E-003 0.0  2.1937105E-002  3.5313033E-003 0.0  2.2037110E-002  4.3336788E-003 0.0  1.1228921E-002  2.8903565E-003 0.0  1.0524598E-002  2.6034251E-003 0.0  2.1837065E-002  2.7268656E-003 0.0  1.5730428E-002  2.8431546E-003 0.0  4.1062442E-003  2.7696316E-003 0.0  4.7342073E-003  7.5438902E-003 0.0  1.5043678E-002  2.4343778E-003 0.0  9.2929018E-003  7.4607384E-003 0.0  3.4456098E-003  2.3445563E-003 0.0  5.4662626E-003  7.7559117E-003 0.0  2.2522731E-002  3.0542444E-003 0.0  2.2434247E-002  2.3321887E-003 0.0  2.1102206E-002  2.3592767E-003 0.0  1.6504954E-002  7.4915702E-003 0.0  9.9380969E-003  7.7930682E-003 0.0  2.7776197E-003  2.8144585E-003 0.0  2.7576158E-003  2.0889689E-003 0.0  1.7206975E-002  7.7741357E-003 0.0  1.1118918E-002  2.1680807E-003 0.0  1.1765438E-002  2.3964552E-003 0.0  1.1914629E-002  6.7714543E-003 0.0  1.2706784E-002  7.0543312E-003 0.0  1.2095817E-002  7.5620674E-003 0.0  1.2767658E-002  7.8219114E-003 0.0  1.5783568E-002  7.2690052E-003 0.0  2.3065694E-002  2.6046630E-003 0.0  1.0470592E-002  1.9009294E-003 0.0  9.9076211E-003  2.2876689E-003 0.0  8.5792458E-003  7.1932986E-003 0.0  8.7055778E-003  7.9010315E-003 0.0  8.0473605E-003  7.6735685E-003 0.0  6.0694381E-003  7.3699789E-003 0.0  4.0942773E-003  2.0318085E-003 0.0  4.6871034E-003  2.3143991E-003 0.0  4.0336154E-003  7.1617690E-003 0.0  1.4383062E-002  2.9550276E-003 0.0  1.4334244E-002  2.2007001E-003 0.0  2.3177656E-002  3.2779593E-003 0.0  1.3725666E-002  2.5957260E-003 0.0  1.5929855E-002  7.9591277E-003 0.0  1.5283370E-002  7.7499950E-003 0.0  1.3346907E-002  7.4282472E-003 0.0  1.3368684E-002  8.1067991E-003 0.0  1.5691960E-002  2.0972083E-003 0.0  1.6302861E-002  2.3630043E-003 0.0  4.0951233E-003  7.9075432E-003 0.0  3.4877379E-003  7.6549178E-003 0.0  6.0718546E-003  8.0600509E-003 0.0  1.7815643E-002  7.3891664E-003 0.0  2.2991864E-002  1.9535429E-003 0.0  1.7859525E-002  8.0746683E-003 0.0  1.8421012E-002  7.7028903E-003 0.0  1.3732081E-002  1.9009052E-003 0.0  1.1661159E-002  1.7469965E-003 0.0  2.2401743E-002  1.6599129E-003 0.0  1.6189776E-002  1.7020089E-003 0.0  1.6862924E-002  1.8282030E-003 0.0  1.6939065E-002  2.5757922E-003 0.0  1.7472387E-002  2.1234426E-003 0.0  1.2213010E-002  8.2425448E-003 0.0  1.1586627E-002  8.0347822E-003 0.0  1.8472440E-002  8.3594616E-003 0.0  1.9027688E-002  8.0119438E-003 0.0  2.1746129E-003  2.4316504E-003 0.0  2.1617306E-003  1.7769143E-003 0.0  9.8567953E-003  1.6235344E-003 0.0  9.3015954E-003  1.9675649E-003 0.0  9.3333793E-003  2.6510057E-003 0.0  8.7491828E-003  2.3100229E-003 0.0  8.7235284E-003  1.6619317E-003 0.0  8.2112972E-003  1.9879872E-003 0.0  1.2236357E-002  1.9969188E-003 0.0  3.5956085E-003  8.3064888E-003 0.0  3.0026444E-003  8.0906727E-003 0.0  4.1296878E-003  8.5551140E-003 0.0  3.1211580E-003  8.6942888E-003 0.0  2.5553728E-003  8.4962776E-003 0.0  2.4191408E-003  7.8870582E-003 0.0  1.9597401E-003  8.3012532E-003 0.0  8.1791803E-003  8.3227469E-003 0.0  7.5917866E-003  8.1441793E-003 0.0  1.2453977E-002  2.5942706E-003 0.0  7.2759741E-003  7.4892311E-003 0.0  1.8161567E-003  7.6702968E-003 0.0  1.7581672E-002  2.8174164E-003 0.0  1.8089826E-002  2.3518085E-003 0.0  1.7972731E-002  1.7056927E-003 0.0  1.8574962E-002  1.9001702E-003 0.0  4.5987107E-003  1.6571591E-003 0.0  5.2211805E-003  1.9011869E-003 0.0  5.2986974E-003  2.5522460E-003 0.0  5.8485833E-003  2.1345765E-003 0.0  4.0685648E-003  1.4012535E-003 0.0  5.9380399E-003  2.8174426E-003 0.0  6.4580098E-003  2.3847501E-003 0.0  6.3687357E-003  1.7230514E-003 0.0  5.5466888E-003  8.3931109E-003 0.0  6.5980049E-003  3.1004545E-003 0.0  1.5418302E-002  8.3927283E-003 0.0  1.4827696E-002  8.2035473E-003 0.0  1.4521317E-002  7.5554845E-003 0.0  2.6690688E-003  1.4474686E-003 0.0  1.5625985E-002  1.4580791E-003 0.0  8.7946154E-003  8.5474268E-003 0.0  1.4272398E-002  1.5592964E-003 0.0  8.1715287E-003  2.6395816E-003 0.0  1.7303215E-002  8.4403865E-003 0.0  6.0897320E-003  8.6927601E-003 0.0  2.3568182E-002  2.2196258E-003 0.0  2.3494166E-002  1.6093657E-003 0.0  6.9554139E-003  1.9800733E-003 0.0  1.0603152E-002  7.3499136E-003 0.0  1.8973862E-002  7.3426411E-003 0.0  1.9572941E-002  7.6525822E-003 0.0  1.9629232E-002  8.3192356E-003 0.0  2.0173418E-002  7.9832926E-003 0.0  2.0193712E-002  7.1734035E-003 0.0  2.0744495E-002  7.6531935E-003 0.0  2.0738666E-002  8.3085626E-003 0.0  2.1323287E-002  8.0104407E-003 0.0  2.1351023E-002  7.3596322E-003 0.0  2.1935447E-002  7.7149854E-003 0.0  2.1958973E-002  7.0159323E-003 0.0  2.2648026E-002  7.3745374E-003 0.0  2.2603971E-002  6.6457664E-003 0.0  2.2520486E-002  8.0768971E-003 0.0  2.3114878E-002  7.8402097E-003 0.0  2.3025504E-002  8.4484439E-003 0.0  2.2462344E-002  8.7057828E-003 0.0  2.1252385E-002  8.6336964E-003 0.0  2.1978509E-002  6.2842331E-003 0.0  2.2619130E-002  5.9681419E-003 0.0  2.3193507E-002  6.3055271E-003 0.0  2.3223403E-002  5.6774136E-003 0.0  1.8292180E-002  3.0161848E-003 0.0  8.2462114E-003  1.3668747E-003 0.0  1.5975939E-002  8.5876934E-003 0.0  5.1176900E-003  1.3101319E-003 0.0  2.3588631E-002  8.1840000E-003 0.0  2.3647976E-002  7.6304567E-003 0.0  2.2859384E-003  7.2270436E-003 0.0  3.3408561E-003  6.9536676E-003 0.0  1.3723404E-002  1.2871218E-003 0.0  1.6057504E-003  2.0876818E-003 0.0  1.6874276E-003  2.7968224E-003 0.0  1.5966371E-003  1.4543248E-003 0.0  1.3207959E-002  1.5625281E-003 0.0  1.1720443E-002  8.6260574E-003 0.0  1.1122838E-002  8.4394842E-003 0.0  1.0359413E-002  1.2848366E-003 0.0  1.8431376E-002  1.3029338E-003 0.0  1.9023310E-002  1.4848330E-003 0.0  1.9165154E-002  2.0717911E-003 0.0  1.9611546E-002  1.6448852E-003 0.0  1.9771865E-002  2.2139188E-003 0.0  2.0210109E-002  1.7720795E-003 0.0  2.1993224E-002  5.5524856E-003 0.0  2.3510923E-002  8.7508942E-003 0.0  1.2163431E-002  1.3398525E-003 0.0  1.1555836E-002  1.1452016E-003 0.0  6.8354020E-003  1.3603256E-003 0.0  1.7074273E-002  3.2134725E-003 0.0  5.4159792E-003  3.1836204E-003 0.0  6.6060305E-003  8.3481443E-003 0.0  1.6604624E-002  1.2526305E-003 0.0  6.3024882E-003  1.1075369E-003 0.0  1.3788965E-003  8.0864111E-003 0.0  1.4818356E-003  8.7249177E-003 0.0  1.4943742E-002  8.7574776E-003 0.0  1.4369124E-002  8.6075828E-003 0.0  1.2353002E-002  8.7916296E-003 0.0  2.0066338E-002  1.2496398E-003 0.0  2.0725754E-002  1.3263392E-003 0.0  1.6072262E-003  6.9961325E-003 0.0  2.3794871E-002  6.0506617E-003 0.0  2.3696504E-002  6.6478416E-003 0.0  2.3751917E-002  5.4154300E-003 0.0  2.3272503E-002  5.0769395E-003 0.0  2.3792674E-002  4.8154924E-003 0.0  2.3354212E-002  4.4871824E-003 0.0  8.3272862E-003  8.9144394E-003 0.0  9.8124566E-003  1.0437910E-003 0.0  8.6741606E-003  1.0656447E-003 0.0  2.0733456E-002  8.9263374E-003 0.0  1.3725577E-002  3.3321637E-003 0.0  8.8005838E-003  3.7391680E-003 0.0  1.0679078E-003  1.6860391E-003 0.0  1.1248607E-002  9.0417819E-003 0.0  1.0722310E-002  8.8012557E-003 0.0  2.0562360E-002  2.8287150E-003 0.0  2.3786226E-002  4.3273659E-003 0.0  7.3875886E-003  1.5508650E-003 0.0  5.7751336E-003  1.4171709E-003 0.0  1.1033299E-002  6.4824678E-003 0.0  1.7858032E-002  1.0917885E-003 0.0  1.7428396E-002  1.4807134E-003 0.0  1.7383938E-002  9.1846655E-004 0.0  7.2826138E-003  9.6228756E-004 0.0  2.1852198E-002  8.4390922E-003 0.0  9.3312707E-003  8.1756516E-003 0.0  9.3609279E-003  8.7880904E-003 0.0  9.8805146E-003  8.4607300E-003 0.0  9.8807988E-003  9.0872272E-003 0.0  9.2285947E-003  1.3074733E-003 0.0  1.5320096E-002  6.3714221E-003 0.0  4.5377324E-003  9.8165486E-004 0.0  3.9395774E-003  8.4313187E-004 0.0  3.5955374E-003  1.2533553E-003 0.0  1.0487049E-002  8.2135420E-003 0.0  1.7928012E-002  8.6730030E-003 0.0  1.8483989E-002  8.9639661E-003 0.0  2.0949799E-003  1.1938420E-003 0.0  2.5408524E-003  8.5842582E-004 0.0  3.6720631E-003  8.9219244E-003 0.0  4.1993238E-003  9.1408385E-003 0.0  4.6710639E-003  8.7460095E-003 0.0  5.0055202E-003  8.2160401E-003 0.0  9.7246842E-003  3.9521147E-003 0.0  1.6070064E-002  1.1429896E-003 0.0  3.2034035E-003  9.2444191E-003 0.0  1.5477982E-002  9.0346838E-003 0.0  2.0178790E-002  8.5966731E-003 0.0  1.9700304E-002  8.9147913E-003 0.0  1.9132745E-002  8.6987088E-003 0.0  1.4828993E-002  1.7341205E-003 0.0  1.4685364E-002  1.1848818E-003 0.0  5.5647826E-003  9.0318630E-003 0.0  6.1569429E-003  9.2467308E-003 0.0  2.3641860E-002  2.8289496E-003 0.0  2.4089204E-002  2.4927196E-003 0.0  2.3778420E-002  3.4258999E-003 0.0  2.1207948E-002  9.2039453E-003 0.0  1.2847950E-002  8.4594677E-003 0.0  1.3400137E-002  8.7221638E-003 0.0  7.8131808E-003  8.7296060E-003 0.0  6.2688713E-003  6.4996324E-003 0.0  1.6581942E-002  8.2709029E-003 0.0  1.6868013E-002  8.8240134E-003 0.0  8.3873354E-003  6.3975497E-003 0.0  2.2650017E-002  3.8604490E-003 0.0  1.0979994E-002  1.4452207E-003 0.0  2.1811003E-002  2.0079658E-003 0.0  2.1845096E-002  1.3742792E-003 0.0  2.2378920E-002  1.0821938E-003 0.0  2.1264772E-002  1.6679431E-003 0.0  2.1325452E-002  1.0237256E-003 0.0  2.3175400E-002  6.9097784E-003 0.0  1.8023620E-002  6.4771629E-003 0.0  2.6680845E-003  9.0749435E-003 0.0  2.1447121E-003  8.9140598E-003 0.0  8.9108344E-003  9.1607119E-003 0.0  2.1405854E-002  4.9477410E-003 0.0  2.2749369E-002  4.6022894E-003 0.0  2.2924641E-002  1.3504305E-003 0.0  2.1963340E-002  9.0047811E-003 0.0  2.2404393E-002  9.2262442E-003 0.0  2.2989356E-002  9.0708477E-003 0.0  1.8320233E-002  7.5133285E-004 0.0  1.3511048E-002  6.5933940E-003 0.0  1.9515848E-002  9.9849401E-004 0.0  2.3471955E-002  9.7958215E-004 0.0  2.3965126E-002  1.2416458E-003 0.0  1.7500000E-003  9.3126620E-003 0.0  3.2054598E-003  1.6588671E-003 0.0  2.4037102E-002  8.5196083E-003 0.0  2.5904301E-003  3.7040256E-003 0.0  1.3139369E-002  2.2470301E-003 0.0  1.1417985E-002  7.3936224E-003 0.0  6.6658825E-003  7.7066663E-003 0.0  6.6411378E-003  8.9264901E-003 0.0  7.0657909E-003  9.1600304E-003 0.0  2.4221455E-002  5.6794801E-003 0.0  2.3394450E-002  3.9036589E-003 0.0  7.6007770E-003  2.2082436E-003 0.0  7.6056192E-003  2.9699245E-003 0.0  4.7128478E-003  9.4467395E-003 0.0  1.8683027E-002  3.7947901E-003 0.0  1.1084974E-002  8.2644240E-004 0.0  1.1493207E-002  5.8037728E-004 0.0  8.2290538E-003  8.0681762E-004 0.0  1.1471950E-003  1.2059889E-003 0.0  1.7448900E-002  9.0235210E-003 0.0  1.3897954E-002  7.7789316E-003 0.0  8.3679405E-003  9.4864696E-003 0.0  2.4026360E-002  9.1060419E-003 0.0  2.4541979E-002  8.7732761E-003 0.0  8.6738335E-003  5.0275873E-004 0.0  2.4087379E-002  7.9694332E-003 0.0  1.3232861E-002  9.8218893E-004 0.0  7.1296103E-004  3.9651308E-003 0.0  5.7450797E-004  3.0781282E-003 0.0  8.1088096E-004  6.8320697E-003 0.0  4.2545826E-004  9.2450278E-003 0.0  9.4333844E-004  9.0307018E-003 0.0  1.9807841E-002  6.2892406E-003 0.0  2.0676394E-002  6.4894088E-003 0.0  5.4821382E-003  8.6713751E-004 0.0  1.3091066E-002  2.9743106E-003 0.0  1.2369940E-002  3.3814059E-003 0.0  4.8922876E-004  8.1616512E-003 0.0  1.2931959E-002  9.0842092E-003 0.0  1.3442656E-002  9.2035690E-003 0.0  1.3944809E-002  9.0304250E-003 0.0  2.2838650E-002  7.9456932E-004 0.0  2.2343896E-002  5.1441675E-004 0.0  2.4074797E-002  1.8661939E-003 0.0  2.3759444E-002  4.4816743E-004 0.0  1.4401033E-002  6.7960525E-003 0.0  1.4201011E-002  1.0032602E-003 0.0  1.3728167E-002  7.4624208E-004 0.0  1.2770846E-002  7.1375787E-004 0.0  1.2743940E-002  1.2056567E-003 0.0  1.0252132E-002  7.5002206E-004 0.0  1.6839548E-002  3.9715273E-003 0.0  2.4563387E-002  2.7487864E-003 0.0  1.5750000E-002  9.5669873E-003 0.0  1.4750267E-002  9.5754211E-003 0.0  1.6750000E-002  9.5760186E-003 0.0  1.2501533E-003  4.0524827E-004 0.0  2.2568100E-003  4.0481960E-004 0.0  2.4498759E-002  1.2250359E-003 0.0  1.1174065E-002  9.5615090E-003 0.0  1.8745869E-002  9.5515287E-003 0.0  1.2217525E-002  9.5773004E-003 0.0  1.7741483E-002  9.5555851E-003 0.0  2.4559506E-002  7.7436576E-003 0.0  2.4579201E-002  6.7522927E-003 0.0  2.4139731E-002  6.9529077E-003 0.0  2.4589743E-002  4.7822935E-003 0.0  1.0208502E-002  9.5618731E-003 0.0  1.9743905E-002  9.4831553E-003 0.0  2.1208152E-002  4.5235906E-004 0.0  2.4591720E-002  3.7364854E-003 0.0  2.0779438E-002  9.5155033E-003 0.0  2.0246657E-002  4.2272846E-004 0.0  5.2471146E-003  4.2862414E-004 0.0  1.9228400E-002  4.6483223E-004 0.0  6.2813168E-003  5.0831122E-004 0.0  7.2500012E-003  4.3301266E-004 0.0  2.3753336E-002  9.5773652E-003 0.0  1.6247600E-002  3.9970111E-004 0.0  9.7624354E-003  4.6172110E-004 0.0  1.5250000E-002  4.2040066E-004 0.0  1.5560409E-002  8.8058246E-004 0.0  1.4758069E-002  4.1717970E-004 0.0  4.9745531E-004  1.8520835E-003 0.0  1.1043530E-002  7.8862689E-003 0.0  6.9564538E-003  3.8969533E-003 0.0  1.9553431E-002  6.9501291E-003 0.0  1.5484243E-003  8.8465576E-004 0.0  1.8868996E-002  8.9960769E-004 0.0  7.1877701E-003  8.6493153E-003 0.0  7.1211515E-003  6.7177141E-003 0.0  3.8472202E-003  6.2789120E-003 0.0  1.4541942E-002  9.1236027E-003 0.0  5.1686672E-003  3.9284924E-003 0.0  1.8720012E-002  2.5230261E-003 0.0  2.8092248E-003  9.5874982E-003 0.0  1.2358983E-002  4.2489825E-003 0.0  2.4577388E-002  2.2499997E-003 0.0  1.5061877E-002  7.1483918E-003 0.0  7.8774327E-003  6.9949454E-003 0.0  1.7216910E-002  4.3752860E-004 0.0  2.0465739E-002  8.4982300E-004 0.0  2.0779120E-002  1.9160720E-003 0.0  4.2481179E-003  4.3035295E-004 0.0  1.4376253E-002  3.8437946E-003 0.0  1.3074123E-002  3.7606326E-003 0.0  1.8439068E-003  3.5503027E-003 0.0  9.9291577E-003  3.0275449E-003 0.0  9.7119535E-003  9.5754615E-003 0.0  1.8395634E-002  7.0592595E-003 0.0  2.4143538E-002  3.0410593E-003 0.0  2.4599679E-002  7.4999991E-004 0.0  4.2132280E-004  7.2132785E-004 0.0  5.7603060E-003  9.5780751E-003 0.0  2.1751070E-003  6.4930720E-003 0.0  2.2698019E-002  5.3245764E-003 0.0  3.7428068E-003  3.9832654E-004 0.0  1.6428582E-002  7.9125766E-004 0.0  1.1871801E-003  7.4931351E-003 0.0  1.3865302E-002  8.4078607E-003 0.0  1.6039040E-002  9.1361024E-003 0.0  2.2745185E-002  9.5875842E-003 0.0  2.7500015E-003  3.9402833E-004 0.0  2.8800043E-003  7.4363127E-003 0.0  4.2390050E-003  9.6152263E-003 0.0  1.9312950E-002  2.6594494E-003 0.0  5.0766801E-003  9.0886371E-003 0.0  1.1921468E-002  7.8035498E-004 0.0  7.5922639E-004  9.5824786E-003 0.0  4.7841212E-003  2.9701724E-003 0.0  1.9000000E-002  9.1586916E-003 0.0  1.6425937E-002  3.0181434E-003 0.0  7.2606769E-003  9.5933318E-003 0.0  7.7909901E-003  1.1160899E-003 0.0  9.3200364E-004  8.4461869E-003 0.0  2.1356977E-002  6.6926016E-003 0.0  1.7711025E-002  3.5508778E-003 0.0  6.0288594E-003  3.5677702E-003 0.0  2.4110850E-002  7.4408733E-003 0.0  7.0543963E-003  2.6647521E-003 0.0  1.3739979E-002  9.5742092E-003 0.0  1.8934722E-002  6.6606066E-003 0.0  5.0193175E-003  8.1244414E-004 0.0  2.2202180E-002  4.9586904E-003 0.0  2.0123202E-002  9.1052491E-003 0.0  1.7970477E-002  9.1566125E-003 0.0  2.1928673E-002  8.8552560E-004 0.0  8.7810762E-003  2.9712878E-003 0.0  2.1335964E-002  5.9135658E-003 0.0  2.4180601E-002  6.4999998E-003 0.0  1.1871032E-002  9.1090689E-003 0.0  1.2381540E-002  8.9527939E-004 0.0  1.0414006E-002  9.1385351E-003 0.0  8.8101686E-003  9.6150698E-003 0.0  9.3900607E-003  8.7922886E-004 0.0  1.6546845E-002  9.1889969E-003 0.0  1.4264690E-003  6.3538303E-003 0.0  8.2314621E-003  3.5947101E-004 0.0  2.1250000E-002  9.6476102E-003 0.0  1.5010549E-002  8.2177889E-004 0.0  2.4576343E-002  9.2658580E-003 0.0  3.0848172E-003  1.1058926E-003 0.0  1.0322413E-003  2.4274167E-003 0.0  8.1477200E-003  3.3583100E-003 0.0  6.7068214E-003  8.6003272E-004 0.0  1.2721015E-002  1.7196472E-003 0.0  2.2783332E-002  3.5095998E-004 0.0  1.3474123E-003  9.1398395E-003 0.0  1.1863302E-002  2.9995548E-003 0.0  9.3383907E-003  3.3407626E-003 0.0  7.0376905E-003  8.0739059E-003 0.0  1.8884998E-002  3.1387529E-003 0.0  6.6620088E-003  7.1398113E-003 0.0  7.5498158E-003  9.1617117E-003 0.0  2.4253570E-002  3.4767882E-003 0.0  1.6972752E-002  9.2359074E-003 0.0  1.3197019E-002  9.5929643E-003 0.0  6.2500003E-003  9.6644528E-003 0.0  2.3504249E-002  9.2145964E-003 0.0  2.0892832E-002  8.1612604E-004 0.0  2.4195804E-002  4.5201704E-003 0.0  2.4175438E-002  5.1034061E-003 0.0  2.2246994E-002  9.6524977E-003 0.0  2.3669745E-002  7.1604709E-003 0.0  2.4635752E-002  5.7818617E-003 0.0  5.1578897E-003  8.6828885E-003 0.0  5.9415829E-003  8.4231875E-004 0.0  1.4296279E-002  8.1106814E-003 0.0  2.4096990E-002  8.3360450E-004 0.0  2.0007092E-002  7.9432445E-004 0.0  2.4174665E-002  3.9304964E-003 0.0  1.4994364E-002  9.2099636E-003 0.0  1.2500000E-002  9.2259121E-003 0.0  7.6843652E-003  6.2791460E-003 0.0  1.0250001E-002  3.2199780E-004 0.0  3.2500000E-003  9.6780518E-003 0.0  1.9906357E-002  2.8200489E-003 0.0  1.1844538E-002  3.5950144E-004 0.0  2.1974949E-003  3.0544358E-003 0.0  1.2201181E-003  3.3351181E-003 0.0  1.4580428E-002  8.0588708E-004 0.0  1.3711479E-002  4.0741422E-003 0.0  7.9702125E-003  9.1754357E-003 0.0  1.6913604E-002  8.1457067E-004 0.0  1.1145328E-002  3.7257997E-004 0.0  1.3746871E-002  3.1492371E-004 0.0  9.0049278E-003  7.7687045E-004 0.0  2.0000016E-003  7.5941988E-004 0.0  2.7515347E-003  6.7397737E-003 0.0  3.1846574E-003  6.3090738E-003 0.0  2.0414427E-002  2.2838544E-003 0.0  9.4823903E-004  8.0902815E-004 0.0  1.0276936E-002  8.7402580E-003 0.0  1.3911821E-002  7.2154713E-003 0.0  2.4637330E-002  9.6373306E-003 0.0  2.4636520E-002  3.6347951E-004 0.0  1.8252432E-002  3.0946764E-004 0.0  1.5185464E-002  1.2843195E-003 0.0  3.6734606E-004  9.6365875E-003 0.0  1.7500000E-003  9.7017962E-003 0.0  1.2753895E-002  3.0225893E-004 0.0  2.0493542E-002  9.2602710E-003 0.0  9.4373631E-003  9.2270876E-003 0.0  3.4318507E-003  7.7930991E-004 0.0  3.6114797E-004  3.5703127E-004 0.0  8.9959948E-004  7.8968302E-003 0.0  1.0397923E-002  6.7546269E-003 0.0  7.8540284E-003  1.6661334E-003 0.0  2.4269615E-002  1.5105710E-003 0.0  1.0659189E-002  9.5088117E-004 0.0  2.3251205E-002  7.3830906E-003 0.0  7.5809836E-003  3.5895361E-003 0.0  2.0845345E-002  7.0946999E-003 0.0  2.3037012E-002  4.2133949E-003 0.0  2.4246901E-002  6.0845142E-003 0.0  2.1551195E-002  8.9491803E-003 0.0  1.9378305E-002  9.1893796E-003 0.0  1.0862808E-002  9.2167925E-003 0.0  1.6402356E-002  8.8015418E-003 0.0  4.5064848E-003  8.2009137E-003 0.0  1.5302240E-002  1.7999154E-003 0.0  2.2064949E-002  9.3498299E-003 0.0  1.6000000E-002  7.1798454E-004 0.0  3.7013481E-003  1.7319119E-003 0.0  2.9871557E-003  6.9238697E-004 0.0  7.1590916E-003  3.2443241E-003 0.0  1.2637679E-002  2.1394667E-003 0.0  1.7038697E-002  1.2589168E-003 0.0  2.5425909E-002  7.8617639E-004 0.0  2.5405080E-002  3.7596510E-003 0.0  2.5450234E-002  6.1975320E-003 0.0  7.2500012E-003 -4.0410425E-004 0.0  9.7500009E-003 -4.1866906E-004 0.0  1.2251773E-002 -4.2838998E-004 0.0  1.4749825E-002 -3.9838737E-004 0.0  1.7250000E-002 -4.3301266E-004 0.0  1.9732854E-002 -4.2517464E-004 0.0  2.2250000E-002 -4.0887637E-004 0.0  2.5438021E-002  8.2427905E-003 0.0  2.5408048E-002  1.0247914E-002 0.0  2.4219101E-002 -4.2766273E-004 0.0  5.2500013E-003 -4.3301267E-004 0.0  3.9385824E-002  1.2735382E-002 0.0  3.8503923E-002 -1.2950291E-002 0.0  1.2132472E-003 -7.4589938E-003 0.0  3.2148569E-003 -4.1226689E-004 0.0  2.5420467E-002  1.1692622E-002 0.0  5.7808833E-002 -1.2927898E-003 0.0  2.5470796E-002  2.1543536E-003 0.0  3.2281257E-002  1.3300712E-002 0.0  7.0074053E-004 -3.9334168E-003 0.0  4.6784312E-002  1.2794929E-002 0.0  3.1250000E-002 -1.2834936E-002 0.0  4.6250000E-002 -1.2982496E-002 0.0  2.1235687E-002 -1.2910564E-002 0.0  8.8346314E-003 -1.2971459E-002 0.0  1.7877264E-003 -4.1675546E-004 0.0  2.9189169E-002  1.3895168E-002 0.0  5.7916916E-002  6.2185036E-003 0.0  2.5589315E-002  1.2869479E-002 0.0  5.3396443E-004 -2.3517018E-003 0.0  5.7679013E-002 -5.9768612E-003 0.0  1.3730249E-002 -1.3260553E-002 0.0  2.6300515E-002 -1.2961375E-002 0.0  5.1250000E-002 -1.2834936E-002 0.0  2.5418824E-002  9.2563672E-003 0.0  2.1208402E-002 -4.5316387E-004 0.0  2.3229820E-002 -4.0413737E-004 0.0  2.5451716E-002  7.2149061E-003 0.0  2.5426273E-002  4.7824383E-003 0.0  4.2374150E-003 -4.1149312E-004 0.0  1.8745717E-002 -4.1414309E-004 0.0  6.2500013E-003 -4.3483328E-004 0.0  8.2500011E-003 -4.1403004E-004 0.0  1.6250000E-002 -4.1237095E-004 0.0  1.0821741E-002 -4.6250748E-004 0.0  1.3743996E-002 -3.9793971E-004 0.0  5.1727525E-002  1.3015426E-002 0.0  4.4886073E-004 -1.1963993E-003 0.0  3.7500000E-003 -1.2834936E-002 0.0  5.7777595E-002  1.1246810E-002 0.0  5.6087033E-002 -1.2735828E-002 0.0  2.6627980E-002  1.4038683E-002 0.0  7.4940689E-004 -3.9741295E-004 0.0  2.7828339E-002  1.3836586E-002 0.0  2.8575553E-002  1.2838391E-002 0.0  2.9724859E-002  1.2812198E-002 0.0  2.9069095E-002  1.1895674E-002 0.0  2.8080982E-002  1.1908518E-002 0.0  2.8531701E-002  1.1090599E-002 0.0  2.9475082E-002  1.0979427E-002 0.0  2.8822279E-002  1.0173389E-002 0.0  2.9898466E-002  1.0089380E-002 0.0  2.9174255E-002  9.1766528E-003 0.0  3.0349707E-002  9.1404576E-003 0.0  2.9737538E-002  8.2726276E-003 0.0  3.0881897E-002  8.1517195E-003 0.0  3.0057345E-002  7.0885761E-003 0.0  3.1416783E-002  7.0474560E-003 0.0  3.0688863E-002  6.0020156E-003 0.0  3.2056063E-002  5.8782126E-003 0.0  3.1283821E-002  4.7500373E-003 0.0  3.2748049E-002  4.5874033E-003 0.0  3.1845245E-002  3.2735074E-003 0.0  3.3452091E-002  3.1729891E-003 0.0  3.2644502E-002  1.7193079E-003 0.0  3.4471962E-002  1.6891836E-003 0.0  3.3318354E-002  8.8130011E-005 0.0  3.5357974E-002 -1.8385038E-004 0.0  3.6619159E-002  1.6957223E-003 0.0  3.7710928E-002 -3.6437295E-004 0.0  3.9049419E-002  1.5755443E-003 0.0  4.0190949E-002 -5.1735773E-004 0.0  4.1538576E-002  1.4519539E-003 0.0  4.2681127E-002 -7.1926995E-004 0.0  4.4036011E-002  1.3680851E-003 0.0  4.5177010E-002 -8.4951042E-004 0.0  3.1577093E-002  4.3410442E-004 0.0  3.2192105E-002 -1.2161037E-003 0.0  3.0511095E-002 -1.0921896E-003 0.0  3.1193081E-002 -2.4236698E-003 0.0  2.9881614E-002 -2.4094415E-003 0.0  3.0363111E-002 -3.5174369E-003 0.0  2.9108229E-002 -3.4198050E-003 0.0  3.1597340E-002 -3.5999331E-003 0.0  2.9601319E-002 -4.6011029E-003 0.0  2.8292571E-002 -4.3222876E-003 0.0  3.2183587E-002  8.1547217E-003 0.0  4.6532869E-002  1.2497508E-003 0.0  3.0191887E-002  2.4977909E-004 0.0  2.7899198E-002 -3.1844417E-003 0.0  2.7117999E-002 -3.9523558E-003 0.0  2.9755844E-002  4.9050218E-003 0.0  2.7497095E-002 -5.1743607E-003 0.0  2.6380705E-002 -4.8883317E-003 0.0  2.6023974E-002 -3.8819566E-003 0.0  2.5341485E-002 -4.6344784E-003 0.0  2.5142396E-002 -3.6761556E-003 0.0  2.4362150E-002 -4.2203140E-003 0.0  2.4615116E-002 -5.3723341E-003 0.0  2.3587173E-002 -5.0577752E-003 0.0  2.3328505E-002 -4.0461993E-003 0.0  2.2587009E-002 -4.7377525E-003 0.0  2.2461226E-002 -3.7816436E-003 0.0  2.1631656E-002 -4.2578888E-003 0.0  2.1789379E-002 -5.3992748E-003 0.0  2.0786266E-002 -5.0378148E-003 0.0  2.3797568E-002 -6.2452798E-003 0.0  2.0614236E-002 -4.0025489E-003 0.0  1.9830267E-002 -4.6368592E-003 0.0  1.9922599E-002 -5.7599255E-003 0.0  1.8814733E-002 -5.1362317E-003 0.0  1.8941955E-002 -6.4724436E-003 0.0  1.7813111E-002 -5.9041806E-003 0.0  1.7624738E-002 -4.7709854E-003 0.0  1.6727265E-002 -5.3428259E-003 0.0  1.6636421E-002 -4.2984414E-003 0.0  1.5733270E-002 -4.8101093E-003 0.0  4.7673933E-002 -9.7370237E-004 0.0  2.5677141E-002 -3.0349906E-003 0.0  1.9710147E-002 -3.6271320E-003 0.0  2.8855547E-002  7.4860185E-003 0.0  1.5710381E-002 -6.0043956E-003 0.0  1.4751236E-002 -5.3493149E-003 0.0  1.7989055E-002 -7.4169165E-003 0.0  1.4858174E-002 -4.1332734E-003 0.0  1.3794312E-002 -4.7029425E-003 0.0  1.3728188E-002 -5.8850058E-003 0.0  1.2739930E-002 -5.1796559E-003 0.0  1.2596518E-002 -6.4459468E-003 0.0  1.1611125E-002 -5.6726311E-003 0.0  1.1766494E-002 -4.5784880E-003 0.0  1.0658377E-002 -4.9546070E-003 0.0  1.0472312E-002 -6.1060817E-003 0.0  9.5811128E-003 -5.3086811E-003 0.0  9.7798639E-003 -4.2246886E-003 0.0  8.7565904E-003 -4.5521674E-003 0.0  8.4835785E-003 -5.6506650E-003 0.0  7.6444925E-003 -4.7597349E-003 0.0  7.3287947E-003 -5.9985077E-003 0.0  6.5504477E-003 -5.0850095E-003 0.0  1.3918045E-002 -3.6849811E-003 0.0  6.8441315E-003 -4.0100645E-003 0.0  5.8562419E-003 -4.2684661E-003 0.0  4.1422261E-002 -2.6740871E-003 0.0  4.2894717E-002  3.5991766E-003 0.0  4.9029783E-002  1.1266636E-003 0.0  1.4688844E-002 -3.2074040E-003 0.0  8.9068669E-003 -3.5267053E-003 0.0  9.8694899E-003 -3.2841675E-003 0.0  6.1122832E-003 -6.2715072E-003 0.0  2.8462568E-002  9.5108147E-003 0.0  4.6317976E-002 -3.0739820E-003 0.0  8.2556654E-003 -6.6842467E-003 0.0  4.7888707E-002  3.3510562E-003 0.0  4.8814986E-002 -3.1979568E-003 0.0  2.6759443E-002 -6.0890840E-003 0.0  2.4951411E-002 -2.8359172E-003 0.0  6.0976481E-003 -3.2528312E-003 0.0  5.2226653E-003 -3.5567581E-003 0.0  1.3749522E-002 -7.2441089E-003 0.0  1.2351342E-002 -7.9246870E-003 0.0  4.9278996E-003 -4.4169835E-003 0.0  4.3486142E-003 -3.7027530E-003 0.0  2.0061222E-002 -7.0501058E-003 0.0  2.0427197E-002 -3.1090566E-003 0.0  3.8020137E-002  3.6004521E-003 0.0  1.9695071E-002 -2.7748693E-003 0.0  2.5389314E-002 -2.2919421E-003 0.0  2.7973567E-002 -6.4393398E-003 0.0  9.2307285E-003 -2.7176185E-003 0.0  1.3990097E-002 -2.8104943E-003 0.0  4.6721687E-003 -2.9174374E-003 0.0  3.8274338E-003 -2.9098853E-003 0.0  3.4766522E-003 -3.7877133E-003 0.0  2.7639239E-002  1.1143724E-002 0.0  9.9644788E-003 -2.4440657E-003 0.0  3.0206363E-003 -3.0865429E-003 0.0  2.0298952E-002 -2.3060511E-003 0.0  1.4661378E-002 -2.3346540E-003 0.0  5.0385629E-002  3.2272831E-003 0.0  3.3931270E-002  6.0846360E-003 0.0  4.9244555E-002  5.4516439E-003 0.0  3.1013031E-002  1.0068840E-002 0.0  4.7459124E-002 -5.2983294E-003 0.0  4.9956075E-002 -5.4223139E-003 0.0  6.9553663E-003 -3.0804944E-003 0.0  6.4457729E-003 -2.5138902E-003 0.0  7.1257576E-003 -2.3539139E-003 0.0  2.4725436E-002 -2.1267154E-003 0.0  3.2722436E-003 -2.3724922E-003 0.0  2.5750740E-003 -2.4655870E-003 0.0  1.9687745E-002 -1.9546236E-003 0.0  1.9062814E-002 -2.4285035E-003 0.0  3.6459623E-002 -2.4657058E-003 0.0  2.0999399E-002 -2.5784610E-003 0.0  2.5157059E-002 -1.6162319E-003 0.0  2.5796309E-002 -1.7597063E-003 0.0  2.7069092E-002 -7.5697690E-003 0.0  2.8659182E-002 -7.9366301E-003 0.0  1.5323280E-002 -2.7466221E-003 0.0  1.5337409E-002 -2.0453150E-003 0.0  1.5938157E-002 -2.3868387E-003 0.0  5.1311924E-002 -3.3219236E-003 0.0  9.4819714E-003 -1.9170989E-003 0.0  1.3995468E-002 -2.0647899E-003 0.0  1.3413569E-002 -2.3976280E-003 0.0  1.0575676E-002 -2.9047143E-003 0.0  1.0665897E-002 -2.1870583E-003 0.0  1.1227497E-002 -2.5997196E-003 0.0  1.1279612E-002 -1.9401027E-003 0.0  2.3104012E-002 -3.1307407E-003 0.0  2.7242677E-002  1.1850095E-002 0.0  2.6871923E-002  1.1162653E-002 0.0  5.1741478E-002  5.3276757E-003 0.0  5.2862357E-002  3.1064009E-003 0.0  2.5575073E-002 -1.1599878E-003 0.0  2.6175465E-002 -1.2646073E-003 0.0  2.5964207E-002 -7.0591175E-004 0.0  2.6552544E-002 -8.0148359E-004 0.0  2.6342744E-002 -2.3075188E-004 0.0  2.6937334E-002 -3.4009572E-004 0.0  2.6724351E-002  2.2800594E-004 0.0  2.7121787E-002 -9.5141288E-004 0.0  2.7350982E-002  1.2932045E-004 0.0  2.7120456E-002  7.5935592E-004 0.0  2.7799733E-002  6.4079007E-004 0.0  2.7545485E-002  1.2800905E-003 0.0  2.8038332E-002 -3.2855702E-005 0.0  2.6880850E-002  1.3889298E-003 0.0  2.7285594E-002  1.8730789E-003 0.0  2.7967689E-002  1.8257779E-003 0.0  2.7577108E-002  2.4850380E-003 0.0  2.8428729E-002  2.4079366E-003 0.0  2.8123269E-002  3.1142613E-003 0.0  2.7354544E-002  3.2063553E-003 0.0  2.7806056E-002  3.7920245E-003 0.0  2.7096843E-002  3.8539483E-003 0.0  2.7487291E-002  4.4270175E-003 0.0  2.6682565E-002  3.3324601E-003 0.0  2.8966066E-002  3.0624823E-003 0.0  2.7231634E-002  1.0534867E-002 0.0  2.6433796E-002 -1.8234698E-003 0.0  2.0873685E-002 -1.8844632E-003 0.0  2.1496052E-002 -2.0935306E-003 0.0  6.6395312E-003 -1.8733418E-003 0.0  6.0266622E-003 -1.9740051E-003 0.0  2.8892739E-003 -1.8268220E-003 0.0  2.2272359E-003 -1.8869637E-003 0.0  3.4744841E-003 -1.7596789E-003 0.0  2.6817339E-002  4.4823461E-003 0.0  2.7183030E-002  5.0517235E-003 0.0  2.7880568E-002  4.9944630E-003 0.0  2.7551430E-002  5.6140319E-003 0.0  2.6877946E-002  5.6557980E-003 0.0  2.7220136E-002  6.2116530E-003 0.0  7.2511227E-003 -1.7005952E-003 0.0  4.8600219E-002 -7.5227140E-003 0.0  4.6239472E-002 -7.3192802E-003 0.0  5.1097146E-002 -7.6467146E-003 0.0  8.7396768E-003 -2.1986626E-003 0.0  1.3472353E-002 -1.7196569E-003 0.0  1.2898429E-002 -1.9838481E-003 0.0  1.2812329E-002 -2.6267428E-003 0.0  2.6301684E-003 -3.8753378E-003 0.0  3.1579841E-003 -4.6609252E-003 0.0  1.9028087E-002 -1.7592032E-003 0.0  1.8454799E-002 -2.1330197E-003 0.0  1.8473395E-002 -2.8156665E-003 0.0  1.7755645E-002 -2.4671255E-003 0.0  1.7904846E-002 -1.7712593E-003 0.0  2.8278894E-002  5.5811797E-003 0.0  2.9300453E-002  2.2512082E-003 0.0  1.5918472E-002 -1.7316250E-003 0.0  8.9150351E-003 -1.5541264E-003 0.0  5.0600403E-002  7.5520732E-003 0.0  4.8103480E-002  7.6760726E-003 0.0  2.6636014E-002  1.9089470E-003 0.0  2.5404508E-003 -1.3174834E-003 0.0  2.1285028E-003 -4.7798625E-003 0.0  1.9122850E-003 -2.4980861E-003 0.0  5.3095534E-002  7.4292353E-003 0.0  1.6496128E-002 -2.0324477E-003 0.0  1.5949714E-003 -1.8932336E-003 0.0  2.7627232E-003 -5.6164653E-003 0.0  1.2978317E-002 -1.3621104E-003 0.0  2.6563859E-002  6.2220396E-003 0.0  2.6899766E-002  6.7734852E-003 0.0  2.6253710E-002  5.6796964E-003 0.0  2.7549263E-002  6.7705405E-003 0.0  2.7219447E-002  7.3402029E-003 0.0  2.6586512E-002  7.3346129E-003 0.0  2.6877391E-002  7.8977176E-003 0.0  2.7526198E-002  7.9245275E-003 0.0  2.7166614E-002  8.4741477E-003 0.0  1.5382563E-002 -1.4082550E-003 0.0  1.3980375E-002 -1.4674011E-003 0.0  2.4558689E-002 -1.4943622E-003 0.0  2.4099057E-002 -1.9479415E-003 0.0  2.3956057E-002 -1.3476436E-003 0.0  2.3498098E-002 -1.7243824E-003 0.0  2.6540026E-002  8.4386376E-003 0.0  2.6800586E-002  8.9951894E-003 0.0  2.6534822E-002  1.0569917E-002 0.0  1.3743386E-002 -8.8777979E-003 0.0  1.1950198E-002 -9.8741071E-003 0.0  2.6259401E-002  1.4878871E-003 0.0  1.0765466E-002 -1.5384246E-003 0.0  1.1350567E-002 -1.3532966E-003 0.0  1.6547395E-002 -2.6987118E-003 0.0  1.2429101E-002 -1.5722627E-003 0.0  7.7480109E-003 -2.7983310E-003 0.0  2.1359134E-002 -1.4874450E-003 0.0  2.1963357E-002 -1.6694272E-003 0.0  2.0775604E-002 -1.2799839E-003 0.0  1.6471829E-002 -1.4188968E-003 0.0  2.2103376E-002 -2.2887526E-003 0.0  6.8280313E-003 -1.2848363E-003 0.0  1.9428497E-002 -1.4225612E-003 0.0  9.4025358E-003 -1.3440318E-003 0.0  8.9709324E-003 -9.2725028E-004 0.0  2.9346468E-002 -7.9377022E-004 0.0  2.8607819E-002 -1.6354040E-003 0.0  2.8517586E-002  5.0781651E-004 0.0  3.0631818E-002  1.2104074E-003 0.0  2.7453479E-002 -9.2674579E-003 0.0  2.5630095E-002 -8.6072126E-003 0.0  1.7911283E-002 -3.2708189E-003 0.0  8.3148520E-003 -1.8207454E-003 0.0  1.7506788E-003 -5.5857880E-003 0.0  2.6514310E-002  1.1768147E-002 0.0  2.6826051E-002  1.2517645E-002 0.0  1.0518899E-002 -8.4713286E-003 0.0  2.9887417E-002  2.9852224E-003 0.0  4.9459328E-002  9.7764790E-003 0.0  2.6831817E-002  9.9944370E-003 0.0  2.6231804E-002  1.0026713E-002 0.0  1.8564595E-002 -3.5667633E-003 0.0  2.5763066E-002 -1.8603315E-004 0.0  2.9372329E-002 -9.6953293E-003 0.0  3.0683753E-002 -7.8450439E-003 0.0  1.1790127E-002 -2.3571695E-003 0.0  1.1793475E-002 -3.0045693E-003 0.0  3.7997488E-003 -5.5079797E-003 0.0  3.4266760E-003 -6.6392136E-003 0.0  1.5276701E-002 -7.7024666E-003 0.0  1.5570480E-002 -9.9430485E-003 0.0  2.6237245E-002  8.9793836E-003 0.0  2.2558683E-002 -1.8467063E-003 0.0  2.2403188E-002 -1.2197311E-003 0.0  2.3414660E-002 -1.1551078E-003 0.0  4.9446659E-002 -9.6098230E-003 0.0  5.1981859E-002 -1.0317920E-002 0.0  5.3594069E-002 -7.7707172E-003 0.0  1.8973967E-002 -1.1982856E-003 0.0  2.9557570E-002  6.0597737E-003 0.0  2.4835968E-002 -6.3582468E-003 0.0  2.6453969E-002 -3.1145783E-003 0.0  2.7388032E-002 -2.4031299E-003 0.0  1.6975952E-002 -1.7023839E-003 0.0  2.8657389E-002  4.9277886E-003 0.0  2.3912609E-002 -3.3795936E-003 0.0  1.0177855E-002 -1.7723077E-003 0.0  1.0372986E-002 -1.2098269E-003 0.0  8.0744012E-003 -3.9503454E-003 0.0  2.7521140E-002  9.9773007E-003 0.0  2.7508537E-002  8.9590200E-003 0.0  7.3938460E-003 -1.1516251E-003 0.0  5.4803499E-002 -1.0332481E-002 0.0  1.6982947E-002 -1.0218014E-003 0.0  2.8696324E-002  8.3286393E-003 0.0  5.3805739E-003 -2.7367266E-003 0.0  4.8993970E-003 -2.1916878E-003 0.0  4.2840313E-003 -2.2492719E-003 0.0  4.5512536E-003 -1.6500688E-003 0.0  5.1121880E-003 -1.5619355E-003 0.0  4.7634535E-003 -1.1108677E-003 0.0  4.2489624E-003 -1.2127061E-003 0.0  2.3478694E-002 -2.4089275E-003 0.0  4.6842130E-002  1.0160892E-002 0.0  4.5586511E-002  7.8434808E-003 0.0  4.4465482E-002  1.0024478E-002 0.0  4.3156011E-002  7.9568172E-003 0.0  4.1969166E-002  1.0010512E-002 0.0  4.0740306E-002  7.8428614E-003 0.0  2.6457462E-002  3.9322247E-003 0.0  2.6225797E-002  4.5426854E-003 0.0  2.6121647E-002  3.4357879E-003 0.0  2.6266222E-002  2.8933760E-003 0.0  2.6874456E-002  2.7629155E-003 0.0  2.5772416E-002  3.0345936E-003 0.0  2.6547148E-002  5.1011467E-003 0.0  2.6400352E-002  8.5776158E-004 0.0  2.5904337E-002  5.0794140E-003 0.0  1.2879795E-002 -4.0584772E-003 0.0  2.6226449E-002  1.1137707E-002 0.0  1.5945827E-002 -1.1666189E-003 0.0  1.5433368E-002 -8.3978544E-004 0.0  1.4938779E-002 -1.1273022E-003 0.0  1.4865410E-002 -1.6611092E-003 0.0  3.1533423E-003 -1.3100964E-003 0.0  1.5856369E-002 -3.8466641E-003 0.0  1.3490357E-002 -1.1508162E-003 0.0  1.3075863E-002 -8.2941654E-004 0.0  2.6081878E-002  2.6589937E-004 0.0  2.6046894E-002  2.0067308E-003 0.0  2.5731537E-002  1.6149361E-003 0.0  1.2491615E-002 -9.3777908E-004 0.0  1.8466007E-002 -1.4814414E-003 0.0  1.7941516E-002 -1.1783898E-003 0.0  6.2792669E-003 -1.3841831E-003 0.0  2.4993484E-002 -1.0532232E-003 0.0  2.5880301E-002  1.0553091E-002 0.0  8.4141234E-003 -1.2348629E-003 0.0  2.5552971E-002  1.1154282E-002 0.0  2.0303532E-002 -1.6387284E-003 0.0  2.0286928E-002 -1.0371932E-003 0.0  2.0746856E-002 -7.4384327E-004 0.0  1.0779552E-002 -3.9064181E-003 0.0  2.5716992E-002  5.6859185E-003 0.0  2.5414607E-002 -6.3773177E-004 0.0  8.5318149E-003 -2.8702569E-003 0.0  2.4461126E-002 -7.4624972E-003 0.0  2.3724374E-002 -9.1371561E-003 0.0  2.2750247E-002 -7.2563012E-003 0.0  2.1736733E-002 -9.0318591E-003 0.0  2.3788549E-002 -7.9539120E-004 0.0  2.7891340E-003 -8.0287360E-004 0.0  2.1351254E-003 -8.4734727E-004 0.0  1.8839574E-003 -1.3569850E-003 0.0  1.2997102E-003 -1.3514964E-003 0.0  2.1197760E-002 -3.3476154E-003 0.0  1.1912114E-002 -1.1839891E-003 0.0  9.8028257E-003 -1.0737613E-002 0.0  8.4492977E-003 -9.1943196E-003 0.0  4.3324408E-002  1.2248877E-002 0.0  3.1792673E-002 -1.0498225E-002 0.0  3.3223145E-002 -8.2633564E-003 0.0  3.4423509E-002 -1.0569921E-002 0.0  3.5739344E-002 -8.4814398E-003 0.0  3.4597169E-002 -6.0542718E-003 0.0  3.7199072E-002 -6.4647968E-003 0.0  3.8218076E-002 -8.6561339E-003 0.0  3.9563273E-002 -6.7027584E-003 0.0  4.0686571E-002 -8.8799200E-003 0.0  4.1754177E-002 -6.9522488E-003 0.0  4.3150851E-002 -9.1257275E-003 0.0  4.2057421E-002 -1.1003397E-002 0.0  3.8381312E-002 -4.4692575E-003 0.0  3.2115047E-002 -6.2953309E-003 0.0  3.4511241E-002  1.3270744E-002 0.0  3.3281853E-002  1.1427385E-002 0.0  3.5622659E-002  1.1307109E-002 0.0  3.4501023E-002  9.5182074E-003 0.0  3.6719320E-002  9.4136976E-003 0.0  3.1498346E-002  1.1806668E-002 0.0  3.5491275E-002  7.4694259E-003 0.0  3.8080912E-002  7.5750920E-003 0.0  9.4316011E-004 -1.8254316E-003 0.0  5.3461852E-003 -9.9233844E-004 0.0  1.8481052E-002 -8.6381165E-004 0.0  1.7963145E-002 -6.1890138E-004 0.0  2.4852071E-002 -4.6180692E-004 0.0  1.5244905E-003 -9.2693364E-003 0.0  3.9403618E-002  1.0150880E-002 0.0  3.9308204E-002  5.6704764E-003 0.0  2.1750950E-002 -1.1408881E-003 0.0  2.5843080E-002  1.1065747E-003 0.0  2.6295401E-002  7.9117153E-003 0.0  3.0163863E-002  1.1838881E-002 0.0  2.6234354E-002  6.7574808E-003 0.0  2.5994353E-002  7.3598829E-003 0.0  3.4054474E-002 -1.7208263E-003 0.0  2.9474010E-002  3.8728291E-003 0.0  1.8373022E-003 -1.1431879E-002 0.0  3.6874871E-003 -9.9336963E-003 0.0  5.5887933E-003 -1.1281758E-002 0.0  5.9188072E-003 -8.9269356E-003 0.0  1.0112593E-003 -4.8671444E-003 0.0  7.7404518E-003 -2.0967499E-003 0.0  1.1828763E-003 -2.6104293E-003 0.0  1.5972532E-003 -3.1098321E-003 0.0  2.5999441E-002  6.1777653E-003 0.0  4.7613811E-003 -6.3010615E-003 0.0  4.3478361E-003 -7.8736877E-003 0.0  2.7634295E-002  1.2715879E-002 0.0  5.8659417E-004 -3.1024232E-003 0.0  2.5932717E-002  8.4746467E-003 0.0  2.4445286E-002 -9.1870977E-004 0.0  3.7068584E-002 -1.0723876E-002 0.0  2.2720019E-002 -2.4729351E-003 0.0  3.0688719E-002  1.3835520E-002 0.0  4.3840294E-002 -2.8665613E-003 0.0  4.4304790E-002  5.7378565E-003 0.0  4.5071891E-002 -5.1063614E-003 0.0  5.0170852E-002 -1.0975929E-003 0.0  5.2659218E-002 -1.2259246E-003 0.0  5.3807422E-002 -3.4466554E-003 0.0  5.5162656E-002 -1.3028075E-003 0.0  5.6294637E-002 -3.5732390E-003 0.0  5.6416220E-002  1.0468809E-003 0.0  5.1513352E-002  9.9822676E-004 0.0  4.5400788E-002  3.4802678E-003 0.0  5.2452759E-002 -5.5464409E-003 0.0  5.4140108E-002  5.1997810E-003 0.0  4.6977337E-002 -9.2670575E-003 0.0  5.1956251E-002  9.6524794E-003 0.0  5.4247095E-002  9.4438263E-003 0.0  4.6752755E-002  5.5859539E-003 0.0  4.3676237E-002 -1.3004181E-002 0.0  1.5968138E-002 -1.2483549E-002 0.0  5.3711925E-002 -1.2800730E-002 0.0  5.7599690E-002 -1.0726567E-002 0.0  2.8752192E-002 -1.2902447E-002 0.0  1.1495593E-002 -1.2496660E-002 0.0  1.8713137E-002 -1.2808300E-002 0.0  1.9990050E-002 -1.0626985E-002 0.0  2.3792235E-002 -1.2958612E-002 0.0  5.7929429E-002  8.6811286E-003 0.0  5.7757126E-002  3.4342481E-003 0.0  4.8750000E-002 -1.2834936E-002 0.0  5.4978125E-002 -5.7057262E-003 0.0  5.5696538E-002  7.3975588E-003 0.0  2.6127575E-002  1.2354938E-002 0.0  2.6334972E-002  1.3106036E-002 0.0  1.0867928E-002 -1.0002565E-003 0.0  1.1420066E-002 -7.8804762E-004 0.0  2.6512717E-002  9.5016914E-003 0.0  2.5907041E-002  9.5018616E-003 0.0  2.5494512E-002  2.6295043E-004 0.0  1.2522568E-003 -4.3052634E-004 0.0  9.5071871E-004 -8.8906757E-004 0.0  2.2746636E-002 -4.1034064E-004 0.0  2.5426551E-002  8.7456340E-003 0.0  2.1754703E-002 -3.9599369E-004 0.0  2.5449943E-002  7.7195967E-003 0.0  2.5421560E-002  6.7276525E-003 0.0  2.5412887E-002  4.2570147E-003 0.0  2.5872811E-002  3.9904689E-003 0.0  3.7420463E-003 -4.1312518E-004 0.0  4.7353173E-003 -4.0419747E-004 0.0  2.0250000E-002 -4.3301267E-004 0.0  5.7243653E-003 -4.5616703E-004 0.0  5.9635324E-003 -9.2726991E-004 0.0  1.9246428E-002 -4.1100810E-004 0.0  6.7500012E-003 -4.2229331E-004 0.0  8.7451563E-003 -4.1927146E-004 0.0  7.7500011E-003 -4.0414796E-004 0.0  7.9583567E-003 -8.7958468E-004 0.0  1.5738895E-002 -3.9604475E-004 0.0  1.6747158E-002 -4.5733407E-004 0.0  9.2443487E-003 -4.3545065E-004 0.0  1.0261957E-002 -4.0943341E-004 0.0  1.4244768E-002 -4.2050157E-004 0.0  1.7584641E-002 -1.0669868E-002 0.0  2.5703894E-002  1.3625760E-002 0.0  2.7887737E-002  8.4404157E-003 0.0  5.4105422E-002  1.3085812E-002 0.0  4.9318724E-002  1.3038402E-002 0.0  2.2317118E-002 -2.9686348E-003 0.0  2.8616772E-002  3.7793901E-003 0.0  2.8034895E-002  1.0464810E-002 0.0  2.7905930E-002  7.3557838E-003 0.0  2.8339547E-002  6.7753308E-003 0.0  3.3672023E-002 -1.2864551E-002 0.0  5.6125162E-002 -8.1566156E-003 0.0  5.3987243E-002  9.4118813E-004 0.0  2.5406437E-002  9.7500001E-003 0.0  3.4519090E-002 -3.6851002E-003 0.0  5.5235196E-002  3.1214165E-003 0.0  1.6929138E-002 -8.6428771E-003 0.0  2.5390381E-002  5.2996286E-003 0.0  3.5560640E-002  3.3799597E-003 0.0  4.4988454E-002 -1.0778978E-002 0.0  1.7073385E-002 -2.3174537E-003 0.0  1.7536355E-002 -8.3656837E-004 0.0  1.9462221E-002 -9.1212476E-004 0.0  1.7203444E-002 -2.9796683E-003 0.0  1.3989227E-002 -8.9285946E-004 0.0  1.5515825E-003 -8.8202967E-004 0.0  6.5118057E-003 -8.8034694E-004 0.0  5.4797659E-003 -5.2601684E-003 0.0  1.6399627E-002 -8.6806718E-004 0.0  3.0514961E-002  3.7859347E-003 0.0  3.5000015E-003 -8.7424727E-004 0.0  1.3302074E-002 -3.1659755E-003 0.0  1.1734992E-002 -3.8614587E-004 0.0  2.6067392E-002 -2.4169073E-003 0.0  2.5259260E-002 -1.0750420E-002 0.0  2.9601732E-002  1.2900664E-003 0.0  2.7939381E-002  6.1860794E-003 0.0  1.5930327E-002 -3.0721019E-003 0.0  5.6372981E-002  1.3123089E-002 0.0  2.1228006E-002 -9.7423443E-004 0.0  5.6945783E-003 -1.4728760E-003 0.0  2.7002715E-003 -7.9220862E-003 0.0  1.1855119E-002 -1.7618732E-003 0.0  3.7136105E-002  1.3058454E-002 0.0  1.6367253E-003 -3.8755475E-003 0.0  3.0335023E-002 -6.1995746E-003 0.0  2.2468508E-002 -1.1012547E-002 0.0  2.8239665E-002  4.3759557E-003 0.0  3.6028006E-002 -1.2851440E-002 0.0  2.5886894E-002  2.5275781E-003 0.0  4.1746465E-004 -7.1382639E-004 0.0  3.2627447E-002  9.6245723E-003 0.0  1.1238455E-002 -3.2495098E-003 0.0  1.2758244E-002 -4.2127006E-004 0.0  1.9102115E-002 -3.2354674E-003 0.0  2.4192171E-002 -2.7099623E-003 0.0  7.8454588E-003 -1.4806939E-003 0.0  9.5000009E-003 -8.4751308E-004 0.0  2.8685118E-002 -1.5221786E-004 0.0  2.8237956E-002 -8.3292242E-004 0.0  2.7865377E-002 -1.6880074E-003 0.0  2.5503862E-002  1.2237418E-002 0.0  2.6690314E-002 -1.3273066E-003 0.0  2.0038419E-002 -8.5857922E-003 0.0  2.2938092E-002 -8.8861984E-004 0.0  1.6740942E-002 -6.8356104E-003 0.0  2.8078763E-002 -2.4005618E-003 0.0  2.5386326E-002  1.2929480E-003 0.0  1.5243601E-002 -3.9160780E-004 0.0  2.2871688E-003 -3.0927907E-003 0.0  2.1664579E-002 -2.7839580E-003 0.0  4.0635402E-003 -4.5490563E-003 0.0  2.8242179E-002  1.1772274E-003 0.0  5.6202169E-003 -7.3536280E-003 0.0  2.7100969E-002  1.3319337E-002 0.0  1.7392412E-002 -3.8306927E-003 0.0  2.2776295E-002 -5.7536433E-003 0.0  1.7444276E-002 -1.3999690E-003 0.0  2.7566351E-002 -5.1473887E-004 0.0  3.9630763E-002 -1.0914966E-002 0.0  1.9085650E-002 -4.1401288E-003 0.0  4.0380326E-002  3.4049491E-003 0.0  2.5665932E-002 -5.7209492E-003 0.0  7.2627069E-003 -7.4743166E-003 0.0  4.5540705E-004 -1.7372868E-003 0.0  1.1420541E-002 -6.9420254E-003 0.0  1.4573821E-002 -8.0958782E-004 0.0  4.1797392E-002  5.7020229E-003 0.0  2.2924204E-002 -1.4526821E-003 0.0  2.5370203E-002  1.0678725E-002 0.0  1.6594395E-002 -3.4543800E-003 0.0  4.2783188E-002 -4.9762495E-003 0.0  2.3269984E-003 -4.0507402E-004 0.0  7.0389478E-003 -8.1219005E-004 0.0  1.3250000E-002 -3.7355512E-004 0.0  1.2500106E-002 -3.2135503E-003 0.0  9.3682988E-003 -6.4852465E-003 0.0  9.0580271E-003 -7.6808051E-003 0.0  2.0954356E-002 -6.1895990E-003 0.0  2.5381941E-002  3.2478195E-003 0.0  2.8689472E-002  1.7230484E-003 0.0  1.4643205E-002 -6.4370584E-003 0.0  2.8793436E-002 -5.5195581E-003 0.0  1.1901579E-002 -3.7021129E-003 0.0  1.8337983E-002 -3.7937122E-004 0.0  2.7661985E-003 -3.2404290E-004 0.0  3.2764873E-002 -2.8926306E-003 0.0  2.5815567E-002  8.0000001E-003 0.0  3.0871409E-002  1.2718796E-002 0.0  2.1259172E-002 -7.4183057E-003 0.0  3.8980859E-002 -2.4160421E-003 0.0  3.1174165E-002 -4.8205882E-003 0.0  2.5418674E-002  2.7440573E-003 0.0  4.1115279E-002 -1.3063770E-002 0.0  3.6373926E-002  5.4683793E-003 0.0  5.8190555E-002 -8.4501306E-003 0.0  1.2360641E-002 -2.1645836E-003 0.0  3.0664856E-002  1.0921125E-002 0.0  2.7163801E-002  9.4838664E-003 0.0  2.3726700E-002 -3.7045155E-004 0.0  2.0976358E-003 -6.5431607E-003 0.0  3.1411134E-002  9.0280622E-003 0.0  2.2476845E-002 -7.5128212E-004 0.0  1.0050440E-002 -8.4357011E-004 0.0  2.5775896E-002  6.9167694E-003 0.0  2.6451373E-002  2.3950251E-003 0.0  2.5768379E-002  1.0011047E-002 0.0  3.6231253E-002 -4.6278264E-003 0.0  3.3671683E-002  7.7879812E-003 0.0  2.8867244E-002  1.0177603E-003 0.0  1.0167615E-002 -7.1370974E-003 0.0  2.8170000E-002  7.9487452E-003 0.0  2.7592747E-002 -1.1246338E-002 0.0  5.8357491E-002 -3.6918414E-003 0.0  1.3743007E-002 -1.1155953E-002 0.0  3.0303581E-002  2.1021256E-003 0.0  3.0876085E-002  2.8418994E-003 0.0  1.9092554E-002 -7.7125023E-003 0.0  2.3041284E-002 -2.0037887E-003 0.0  4.0081621E-003 -1.7234363E-003 0.0  3.7267095E-003 -1.2794736E-003 0.0  2.5950425E-002  1.1666509E-002 0.0  5.5017168E-003 -2.0754925E-003 0.0  1.4453963E-002 -1.2839409E-003 0.0  6.3099704E-003 -1.3261472E-002 0.0  7.5783041E-003 -1.1067193E-002 0.0  4.1494772E-002  1.3258160E-002 0.0  1.0500001E-002 -7.7694787E-004 0.0  1.1282400E-002 -3.2802186E-004 0.0  1.0121368E-003 -6.0879869E-003 0.0  3.9856692E-003 -8.1988332E-004 0.0  3.4413195E-002  4.5386735E-003 0.0  5.8396436E-002  1.1376678E-003 0.0  2.9285249E-002  3.9064252E-004 0.0  5.6212064E-002  5.0270778E-003 0.0  1.1962112E-002 -7.4487032E-004 0.0  5.5269452E-002  1.1367964E-002 0.0  4.4012875E-002 -7.0675483E-003 0.0  2.5684464E-002  1.4347272E-002 0.0  2.7134963E-002 -1.6979883E-003 0.0  2.5347856E-002 -2.0251156E-004 0.0  4.4749498E-003 -7.9653478E-004 0.0  3.7663350E-002  1.1280543E-002 0.0  2.8997485E-002  5.5224121E-003 0.0  2.8700471E-002  6.1558970E-003 0.0  2.5317431E-002  1.7500001E-003 0.0  2.5784476E-002  8.9915786E-003 0.0  8.2161292E-003 -2.3743962E-003 0.0  2.5769154E-002  4.4999995E-003 0.0  7.5412079E-003 -3.4909691E-003 0.0  4.0480845E-002 -4.6984406E-003 0.0  5.3090004E-002  1.1232760E-002 0.0  5.8169873E-002 -1.3169873E-002 0.0  5.0000014E-003 -7.5848950E-004 0.0  2.6739674E-002 -2.3999796E-003 0.0  2.5776639E-002  6.5464356E-003 0.0  2.0747670E-002 -3.1039551E-004 0.0  8.4729281E-004 -1.3462641E-003 0.0  4.5154523E-002  1.1784656E-002 0.0  5.0728568E-002  1.1227035E-002 0.0  1.8271878E-002 -4.1692535E-003 0.0  1.7636245E-002 -3.6733601E-004 0.0  1.2251336E-002 -2.6733231E-003 0.0  1.9000000E-002 -7.4991331E-004 0.0  5.8307723E-002  1.3307458E-002 0.0  2.5294683E-002  5.7500003E-003 0.0  1.4383896E-002 -1.7540558E-003 0.0  1.6174604E-003 -1.3382321E-002 0.0  3.2671073E-002  6.9796013E-003 0.0  1.9917844E-002 -8.2210353E-004 0.0  4.8370967E-002  1.1289486E-002 0.0  2.8826090E-002 -2.5645500E-003 0.0  3.5580160E-004 -3.4921912E-004 0.0  1.3509889E-002 -7.2891742E-004 0.0  8.4677140E-003 -7.7499987E-004 0.0  1.8501643E-002 -8.9754062E-003 0.0  2.5838661E-002  6.6593357E-004 0.0  3.2862767E-002 -4.6014543E-003 0.0  5.6184022E-002  9.6274575E-003 0.0  1.5024158E-002 -7.1273319E-004 0.0  3.1940347E-002  1.0743555E-002 0.0  2.7860724E-002  9.4432456E-003 0.0  1.7419771E-002 -1.9414678E-003 0.0  4.7620106E-002 -1.1311916E-002 0.0  1.9901126E-002 -1.3330743E-003 0.0  9.8734452E-003 -1.3599288E-003 0.0  2.7665639E-002 -1.0883631E-003 0.0  2.9257020E-002 -6.7275921E-003 0.0  2.1574657E-002 -7.7411298E-004 0.0  1.5953543E-002 -7.3657745E-004 0.0  7.5000012E-003 -7.2993440E-004 0.0  4.5073798E-002 -8.7117183E-003 0.0  2.2000000E-002 -7.2720474E-004 0.0  2.6997758E-002  2.2706031E-003 0.0  1.1161434E-003 -3.4179270E-003 0.0  3.0000000E-002 -1.1499522E-002 0.0  4.6064671E-003 -5.2070499E-003 0.0  2.1905890E-002 -6.4034248E-003 0.0  4.4795162E-002  1.3365692E-002 0.0  7.5260583E-003 -4.0527785E-003 0.0  2.3393732E-002 -7.6760884E-004 0.0  2.4551519E-002 -3.3403048E-003 0.0  2.9409300E-002 -1.6173804E-003 0.0  2.8989916E-002  4.3350506E-003 0.0  3.1416366E-002  1.9810291E-003 0.0  2.3671871E-002 -2.9073060E-003 0.0  3.7635316E-003 -2.1894187E-003 0.0  4.1021041E-002  1.1632642E-002 0.0  4.9902921E-002 -1.1456007E-002 0.0  2.1873766E-002 -3.4267535E-003 0.0  2.7176178E-002 -3.0341507E-003 0.0  2.9125003E-002  6.6953675E-003 0.0  8.1350841E-003 -3.2963986E-003 0.0  1.5317264E-002 -3.3901104E-003 0.0  2.8311011E-002  8.8952071E-003 0.0  2.5736943E-002 -6.9679598E-003 0.0  5.8969011E-003 -2.5157237E-003 0.0  2.5710779E-002  3.4936642E-003 0.0  2.8149385E-002  9.9179080E-003 0.0  2.7361671E-003  1.0410336E-002 0.0  6.2440213E-004  1.2507688E-002 0.0  4.4432282E-003  1.2592290E-002 0.0  7.9919477E-004  1.4217094E-002 0.0  1.7890826E-003  1.0424936E-002 0.0  3.7112191E-003  1.0424510E-002 0.0  4.2259697E-003  1.4236547E-002 0.0  3.9813912E-003  1.6534184E-002 0.0  3.9652207E-003  1.0923273E-001 0.0  3.8983138E-003  1.9124407E-002 0.0  3.9066935E-003  2.1368882E-002 0.0  3.9750463E-003  2.3936015E-002 0.0  3.8984760E-003  2.6557259E-002 0.0  3.9062978E-003  2.8800501E-002 0.0  3.9750109E-003  3.1365999E-002 0.0  4.0088191E-003  3.3799750E-002 0.0  3.9058942E-003  3.6232120E-002 0.0  3.9749636E-003  3.8795983E-002 0.0  4.0089929E-003  4.1231199E-002 0.0  3.9054827E-003  4.3663737E-002 0.0  3.9749046E-003  4.6225968E-002 0.0  4.0091588E-003  4.8662640E-002 0.0  3.9050632E-003  5.1095354E-002 0.0  3.9748337E-003  5.3655952E-002 0.0  4.0093168E-003  5.6094075E-002 0.0  3.9046358E-003  5.8526969E-002 0.0  3.9747510E-003  6.1085936E-002 0.0  4.0094669E-003  6.3525503E-002 0.0  4.3540783E-004  1.1282725E-002 0.0  3.9042004E-003  6.5958583E-002 0.0  4.0095624E-003  6.8479784E-002 0.0  3.9039058E-003  7.0912991E-002 0.0  3.9745870E-003  7.3469244E-002 0.0  3.9745503E-003  7.5945905E-002 0.0  4.0097426E-003  7.8388339E-002 0.0  3.9033058E-003  8.0821807E-002 0.0  3.9744322E-003  8.3375889E-002 0.0  3.9743902E-003  8.5852551E-002 0.0  3.9743469E-003  8.8329212E-002 0.0  4.0099474E-003  9.0774016E-002 0.0  4.0403929E-003  9.3202195E-002 0.0  3.9742091E-003  9.5759197E-002 0.0  3.9741605E-003  9.8235858E-002 0.0  4.0100945E-003  1.0068255E-001 0.0  4.0080131E-003  1.0313357E-001 0.0  3.9740070E-003  1.0566584E-001 0.0  3.7253616E-003  1.1159026E-001 0.0  1.0270388E-003  1.0705634E-001 0.0  1.0763403E-003  1.1325580E-001 0.0  4.4870281E-003  1.1287882E-002 0.0  1.0105522E-003  1.7754789E-002 0.0  1.0763403E-003  2.0244025E-002 0.0  1.0740428E-003  2.2722890E-002 0.0  1.0259823E-003  2.5203285E-002 0.0  1.0763403E-003  2.7685212E-002 0.0  1.0740428E-003  3.0164077E-002 0.0  1.0260197E-003  3.2644472E-002 0.0  1.0763403E-003  3.5126399E-002 0.0  1.0740428E-003  3.7605263E-002 0.0  1.0260689E-003  4.0085659E-002 0.0  1.0763403E-003  4.2567586E-002 0.0  1.0740428E-003  4.5046450E-002 0.0  1.0261299E-003  4.7526846E-002 0.0  1.0763403E-003  5.0008773E-002 0.0  1.0740428E-003  5.2487637E-002 0.0  1.0262028E-003  5.4968033E-002 0.0  1.0763403E-003  5.7449960E-002 0.0  1.0740428E-003  5.9928824E-002 0.0  1.0262874E-003  6.2409220E-002 0.0  1.0763403E-003  6.4891146E-002 0.0  1.0740428E-003  6.7370011E-002 0.0  1.0763403E-003  6.9851938E-002 0.0  1.0740428E-003  7.2330802E-002 0.0  1.0264547E-003  7.4811198E-002 0.0  1.0264921E-003  7.7291593E-002 0.0  1.0763403E-003  7.9773520E-002 0.0  1.0740428E-003  8.2252384E-002 0.0  1.0266122E-003  8.4732780E-002 0.0  1.0266548E-003  8.7213176E-002 0.0  1.0266988E-003  8.9693571E-002 0.0  1.0763403E-003  9.2175498E-002 0.0  1.0740428E-003  9.4654363E-002 0.0  1.0268385E-003  9.7134758E-002 0.0  1.0268878E-003  9.9615154E-002 0.0  1.0763403E-003  1.0209708E-001 0.0  1.0740428E-003  1.0457594E-001 0.0  1.0763403E-003  1.0953520E-001 0.0  2.9150966E-003  1.1517372E-001 0.0  1.1325996E-003  1.1695398E-001 0.0  2.2023745E-003  1.1876646E-001 0.0  7.2022947E-004  1.0426106E-002 0.0  1.0476139E-003  1.2082685E-001 0.0  1.6709604E-003  1.2197015E-001 0.0  8.5104132E-004  1.5240263E-002 0.0  1.7010263E-003  1.4661777E-002 0.0  1.7806695E-003  1.5763291E-002 0.0  1.5287008E-003  1.3576992E-002 0.0  2.4683463E-003  1.4050484E-002 0.0  2.3786024E-003  1.3162623E-002 0.0  3.1366571E-003  1.3479130E-002 0.0  3.0231053E-003  1.2676067E-002 0.0  2.3588437E-003  1.2385967E-002 0.0  2.9537200E-003  1.1961070E-002 0.0  2.3454897E-003  1.1692406E-002 0.0  1.7905171E-003  1.2038431E-002 0.0  1.7704840E-003  1.1426864E-002 0.0  2.8868549E-003  1.1352241E-002 0.0  3.4385390E-003  1.1578365E-002 0.0  1.2599393E-003  1.1723196E-002 0.0  1.2705290E-003  1.1144035E-002 0.0  3.4289519E-003  1.0948511E-002 0.0  2.2990741E-003  1.1080624E-002 0.0  3.9245615E-003  1.1191060E-002 0.0  3.9873078E-003  1.1765059E-002 0.0  4.3003626E-003  1.0768966E-002 0.0  1.7331224E-003  1.2724515E-002 0.0  2.6588567E-003  1.5043966E-002 0.0  3.8870031E-003  1.5264907E-002 0.0  6.7025482E-004  1.3308668E-002 0.0  4.3695265E-003  1.3353979E-002 0.0  4.8306273E-004  1.1847009E-002 0.0  1.0687485E-003  1.1942483E-001 0.0  1.0183551E-003  2.6443738E-002 0.0  2.1762876E-003  2.6930773E-002 0.0  2.1876471E-003  2.8411608E-002 0.0  3.2194091E-003  2.7678519E-002 0.0  1.0335534E-003  1.1449727E-001 0.0  2.1565746E-003  1.1387743E-001 0.0  2.1533818E-003  1.1262804E-001 0.0  1.0754063E-003  1.1077591E-001 0.0  2.1304648E-003  1.1015605E-001 0.0  2.0173460E-003  1.0894489E-001 0.0  1.0183988E-003  3.3884925E-002 0.0  2.1765230E-003  3.4370020E-002 0.0  2.1871940E-003  3.5850005E-002 0.0  3.1863937E-003  3.5191558E-002 0.0  1.0267333E-003  6.8610464E-002 0.0  2.1789620E-003  6.9086427E-002 0.0  2.1762462E-003  7.0538833E-002 0.0  3.1999895E-003  6.9892145E-002 0.0  1.0185274E-003  4.8767299E-002 0.0  2.1770404E-003  4.9248496E-002 0.0  2.1769105E-003  5.0701001E-002 0.0  3.1854274E-003  5.0068191E-002 0.0  1.0361817E-003  1.1573369E-001 0.0  2.1087977E-003  1.1619430E-001 0.0  1.0191910E-003  9.0934024E-002 0.0  2.0678074E-003  9.1606945E-002 0.0  2.0287259E-003  9.2885650E-002 0.0  3.1400622E-003  9.2333251E-002 0.0  1.0108662E-003  8.8453373E-002 0.0  2.0834774E-003  8.9019860E-002 0.0  1.0189499E-003  7.8532046E-002 0.0  2.1782604E-003  7.9005379E-002 0.0  2.1757616E-003  8.0457745E-002 0.0  3.1997446E-003  7.9811771E-002 0.0  1.0108091E-003  8.5972978E-002 0.0  2.0834258E-003  8.6541065E-002 0.0  1.0184562E-003  4.1326112E-002 0.0  2.1767739E-003  4.1809261E-002 0.0  2.1867523E-003  4.3288399E-002 0.0  3.1861974E-003  4.2630659E-002 0.0  1.0186123E-003  5.6208486E-002 0.0  2.1773224E-003  5.6687725E-002 0.0  2.1766112E-003  5.8140190E-002 0.0  3.2001691E-003  5.7492606E-002 0.0  1.0310684E-003  8.1023385E-002 0.0  1.0105982E-003  7.6051395E-002 0.0  2.0832352E-003  7.6625884E-002 0.0  1.0187111E-003  6.3649673E-002 0.0  2.1776197E-003  6.4126948E-002 0.0  2.1763200E-003  6.5579377E-002 0.0  3.2000294E-003  6.4932330E-002 0.0  1.0182986E-003  6.1169022E-002 0.0  2.0841340E-003  6.1753113E-002 0.0  1.0309047E-003  5.8700825E-002 0.0  1.0194115E-003  1.0085561E-001 0.0  2.0683844E-003  1.0152792E-001 0.0  2.0645504E-003  1.0278184E-001 0.0  3.1682013E-003  1.0220841E-001 0.0  1.0111120E-003  9.8374956E-002 0.0  2.0836992E-003  9.8935041E-002 0.0  1.0309462E-003  6.6141679E-002 0.0  1.0182038E-003  5.3727835E-002 0.0  2.0840375E-003  5.4316727E-002 0.0  1.0181228E-003  4.6286648E-002 0.0  2.1301096E-003  4.6897124E-002 0.0  9.9638294E-004  1.0830099E-001 0.0  1.0189233E-003  9.5894560E-002 0.0  2.0847665E-003  9.6456246E-002 0.0  1.0186657E-003  8.3492582E-002 0.0  2.0845061E-003  8.4062270E-002 0.0  1.0184873E-003  7.3571000E-002 0.0  2.0843254E-003  7.4147089E-002 0.0  1.0308763E-003  5.1259971E-002 0.0  1.0324500E-003  4.3823549E-002 0.0  1.0179624E-003  2.3963088E-002 0.0  2.1565746E-003  2.4583186E-002 0.0  1.0191561E-003  1.0581614E-001 0.0  2.0849883E-003  1.0637141E-001 0.0  1.0740428E-003  9.3414165E-002 0.0  1.0310004E-003  7.1102247E-002 0.0  1.0751015E-003  1.1201441E-001 0.0  1.0324688E-003  3.6382827E-002 0.0  1.0325013E-003  2.8942105E-002 0.0  1.0304010E-003  1.0334381E-001 0.0  1.0180021E-003  3.1404274E-002 0.0  2.1565746E-003  3.2024373E-002 0.0  1.0157579E-003  1.9001333E-002 0.0  2.1757012E-003  1.9491345E-002 0.0  2.1880592E-003  2.0973184E-002 0.0  3.2375064E-003  2.0249854E-002 0.0  1.0325386E-003  2.1501379E-002 0.0  1.0180555E-003  3.8845461E-002 0.0  2.1565746E-003  3.9465560E-002 0.0  3.9357708E-003  1.0812364E-001 0.0  3.9275741E-003  8.2137559E-002 0.0  2.8450424E-003  8.2756724E-002 0.0  3.9470273E-003  1.0441824E-001 0.0  2.8311714E-003  1.0507394E-001 0.0  3.9275741E-003  3.7557653E-002 0.0  2.8450424E-003  3.8176818E-002 0.0  3.9900445E-003  8.4614220E-002 0.0  2.8971332E-003  8.5269965E-002 0.0  3.9275741E-003  7.2230913E-002 0.0  2.8450424E-003  7.2850078E-002 0.0  3.9960744E-003  7.7178531E-002 0.0  2.8450424E-003  7.7803401E-002 0.0  3.9964578E-003  3.2597178E-002 0.0  2.8450424E-003  3.3223495E-002 0.0  3.9902519E-003  7.4707574E-002 0.0  2.8972676E-003  7.5358747E-002 0.0  3.9524576E-003  9.4507476E-002 0.0  2.8353559E-003  9.5157289E-002 0.0  3.9275741E-003  1.7744361E-002 0.0  2.9060855E-003  1.7354554E-002 0.0  2.8899464E-003  1.8438988E-002 0.0  3.9963341E-003  5.4887860E-002 0.0  2.8450424E-003  5.5513448E-002 0.0  3.9962627E-003  6.2318085E-002 0.0  2.8450424E-003  6.2943433E-002 0.0  3.9275741E-003  5.9847606E-002 0.0  2.8450424E-003  6.0466771E-002 0.0  3.9275741E-003  2.2697684E-002 0.0  2.8450424E-003  2.3316849E-002 0.0  3.9958712E-003  8.9562234E-002 0.0  3.0259352E-003  8.9975342E-002 0.0  3.9275741E-003  4.4987637E-002 0.0  2.8450424E-003  4.5606802E-002 0.0  3.9275741E-003  5.2417621E-002 0.0  2.8450424E-003  5.3036787E-002 0.0  3.9897460E-003  9.6997527E-002 0.0  2.8969400E-003  9.7658988E-002 0.0  3.9275741E-003  6.7277590E-002 0.0  2.8450424E-003  6.7896755E-002 0.0  3.9963904E-003  4.7457634E-002 0.0  2.8450424E-003  4.8083464E-002 0.0  3.9964317E-003  4.0027406E-002 0.0  2.8450424E-003  4.0653480E-002 0.0  3.9275741E-003  3.0127668E-002 0.0  2.8450424E-003  3.0746834E-002 0.0  3.9831009E-003  1.0690101E-001 0.0  2.9585811E-003  1.0736764E-001 0.0  3.9899883E-003  8.7090882E-002 0.0  2.8969355E-003  8.7747770E-002 0.0  3.9956783E-003  9.9469193E-002 0.0  3.0263185E-003  9.9888150E-002 0.0  3.9781086E-003  2.5198443E-002 0.0  2.8579695E-003  2.5788275E-002 0.0  1.2527259E-003  1.0557437E-002 0.0  3.2155568E-003  1.0440598E-002 0.0  2.2544800E-003  1.0417298E-002 0.0  2.9083275E-003  3.6870758E-002 0.0  2.8808204E-003  8.1489628E-002 0.0  2.9079707E-003  4.4302958E-002 0.0  2.8914199E-003  7.1569308E-002 0.0  2.8918033E-003  5.9183288E-002 0.0  2.9764253E-003  9.3686687E-002 0.0  2.8915677E-003  6.6614900E-002 0.0  2.8920427E-003  5.1751675E-002 0.0  2.9802826E-003  1.0359531E-001 0.0  2.9086900E-003  2.9438558E-002 0.0  2.9090539E-003  2.2006354E-002 0.0  2.1163426E-003  1.1139275E-001 0.0  1.1370364E-003  1.2311873E-001 0.0  3.2783699E-003  1.1284556E-001 0.0  1.1518060E-003  1.1817265E-001 0.0  1.0304840E-003  1.2451200E-001 0.0  3.3579181E-003  1.4324113E-002 0.0  3.5298537E-003  1.2187457E-002 0.0  3.7565333E-003  1.2893014E-002 0.0  2.5071133E-003  1.1745436E-001 0.0  4.0244986E-004  1.0765692E-002 0.0  4.5178849E-003  1.1925875E-002 0.0  9.1179838E-004  1.6476364E-002 0.0  3.3184385E-003  1.1400028E-001 0.0  1.2728392E-003  1.2332135E-002 0.0  9.1664087E-004  1.2573611E-001 0.0  2.0533560E-003  1.2000699E-001 0.0  3.8903844E-003  1.1038522E-001 0.0  1.6859861E-003  1.0915280E-002 0.0  2.8404222E-003  1.6169490E-002 0.0  2.8799778E-003  1.0843794E-002 0.0  4.1969472E-003  1.0378928E-002 0.0  8.3270523E-004  1.0934384E-002 0.0  7.9723119E-004  1.2695925E-001 0.0  1.8285273E-003  1.7056038E-002 0.0  1.8500408E-003  1.1509528E-001 0.0  2.0602684E-003  1.2103139E-001 0.0  2.9707537E-003  1.0959771E-001 0.0  1.9729548E-003  1.0409448E-001 0.0  1.9741128E-003  9.4178769E-002 0.0  2.9424433E-003  1.1083381E-001 0.0  4.1558147E-003  1.0191277E-001 0.0  1.9435879E-003  8.1758314E-002 0.0  1.9445356E-003  7.1839031E-002 0.0  4.1305295E-003  9.1990339E-002 0.0  1.9443927E-003  6.6880074E-002 0.0  1.9442300E-003  5.9441638E-002 0.0  1.9440989E-003  5.2003202E-002 0.0  4.1527038E-003  7.9613199E-002 0.0  1.8991245E-003  1.0769629E-001 0.0  1.9830413E-003  4.4622451E-002 0.0  1.7964627E-003  1.0518638E-001 0.0  1.9831204E-003  3.7185172E-002 0.0  3.1663697E-003  1.0627597E-001 0.0  1.9832165E-003  2.9747893E-002 0.0  1.9833186E-003  2.2310607E-002 0.0  4.1532191E-003  6.9704821E-002 0.0  1.9937739E-003  1.0030218E-001 0.0  1.8206712E-003  9.7711998E-002 0.0  4.1534419E-003  6.4750631E-002 0.0  3.1953593E-003  9.8837446E-002 0.0  1.7974402E-003  9.5268245E-002 0.0  3.1562035E-003  9.6405849E-002 0.0  4.1537435E-003  5.7319342E-002 0.0  1.9930095E-003  9.0382910E-002 0.0  1.8202719E-003  8.7795049E-002 0.0  4.1530964E-003  4.9888980E-002 0.0  1.8204973E-003  8.5315812E-002 0.0  3.1953132E-003  8.8926884E-002 0.0  4.1533467E-003  4.2457819E-002 0.0  1.7931690E-003  8.2864455E-002 0.0  3.1683746E-003  8.6500447E-002 0.0  3.1582317E-003  8.4015814E-002 0.0  4.1535174E-003  3.5026559E-002 0.0  1.8303960E-003  7.7851661E-002 0.0  4.2270552E-003  2.7651007E-002 0.0  1.8203762E-003  7.5398863E-002 0.0  4.2272740E-003  2.0221023E-002 0.0  1.7932867E-003  7.2947600E-002 0.0  3.1592340E-003  7.6582494E-002 0.0  3.1582949E-003  7.4106546E-002 0.0  1.8138346E-003  6.7968746E-002 0.0  1.8303589E-003  6.2976477E-002 0.0  1.7931496E-003  6.0551874E-002 0.0  3.1483156E-003  6.1705102E-002 0.0  1.8302435E-003  5.5538884E-002 0.0  1.7930851E-003  5.3114438E-002 0.0  1.8393699E-003  4.8104646E-002 0.0  3.1488117E-003  5.4275117E-002 0.0  1.8100718E-003  4.5691895E-002 0.0  1.8445832E-003  4.0668014E-002 0.0  1.8153671E-003  3.8255655E-002 0.0  3.1582979E-003  4.6854198E-002 0.0  1.8445117E-003  3.3229457E-002 0.0  1.8153757E-003  3.0817490E-002 0.0  3.1636109E-003  3.9423850E-002 0.0  1.8470338E-003  2.5789852E-002 0.0  1.8153881E-003  2.3379324E-002 0.0  1.9123122E-003  1.8280485E-002 0.0  3.1636256E-003  3.1991576E-002 0.0  3.1625483E-003  2.4564554E-002 0.0  8.9763867E-004  1.1453659E-002 0.0  1.1382545E-003  1.2878840E-002 0.0  3.0029608E-003  1.0847988E-001 0.0  3.0670002E-003  1.0115185E-001 0.0  3.6567295E-004  1.0366229E-002 0.0  4.6375950E-003  1.0362761E-002 0.0  3.0639348E-003  9.1219120E-002 0.0  4.6849971E-003  1.0789716E-002 0.0  3.1718960E-003  7.8881290E-002 0.0  3.1710364E-003  6.8966083E-002 0.0  3.1704286E-003  6.4008465E-002 0.0  3.1377373E-003  5.6557314E-002 0.0  3.1673793E-003  4.9137214E-002 0.0  3.1347961E-003  4.1684441E-002 0.0  3.1338997E-003  3.4247335E-002 0.0  3.0449506E-003  2.6751856E-002 0.0  3.0503670E-003  1.9326149E-002 0.0  3.0459815E-003  2.1159550E-002 0.0  2.4436417E-003  1.0704072E-002 0.0  6.9027568E-004  1.2810276E-001 0.0  3.0372738E-003  2.8597872E-002 0.0  3.8022990E-003  1.3706135E-002 0.0  4.0423936E-003  1.2257993E-002 0.0  3.9051794E-003  1.0797578E-002 0.0  3.0469523E-003  3.6036110E-002 0.0  5.3001200E-004  1.2938803E-001 0.0  3.0527682E-003  1.1633997E-001 0.0  3.0466008E-003  4.3471438E-002 0.0  2.8309883E-003  1.1196743E-001 0.0  2.0944529E-003  1.0708442E-002 0.0  3.0398610E-003  5.0904055E-002 0.0  3.0433048E-003  5.8335763E-002 0.0  3.0430294E-003  6.5771298E-002 0.0  3.0428903E-003  7.0728319E-002 0.0  7.3441911E-004  1.2195294E-001 0.0  9.1948594E-004  1.2018738E-002 0.0  3.0399081E-003  8.0645238E-002 0.0  8.3729567E-002 -1.7153267E-002 0.0  5.6250000E-002 -1.7165064E-002 0.0  6.8490068E-002 -2.2790464E-002 0.0  4.3750000E-002 -2.2834936E-002 0.0  6.3750000E-002 -1.7165064E-002 0.0  2.6250000E-002 -2.2834936E-002 0.0  3.1250000E-002 -2.2834936E-002 0.0  3.8474218E-002 -1.7113088E-002 0.0  5.1053013E-002 -2.2807208E-002 0.0  7.3750000E-002 -1.7165064E-002 0.0  7.8750000E-002 -1.7165064E-002 0.0  2.1053013E-002 -1.7192792E-002 0.0  6.2500000E-003 -2.2834936E-002 0.0  1.6250000E-002 -2.2834936E-002 0.0  1.1250000E-002 -2.2940864E-002 0.0  6.1250000E-002 -2.2834936E-002 0.0  4.6250000E-002 -1.7165064E-002 0.0  3.6250000E-002 -2.2834936E-002 0.0  8.1250000E-002 -2.2834936E-002 0.0  3.3946987E-002 -1.7192792E-002 0.0  2.8750000E-002 -1.7165064E-002 0.0  8.4742177E-003 -1.7113088E-002 0.0  1.3946987E-002 -1.7192792E-002 0.0  7.6509932E-002 -2.2790464E-002 0.0  5.6250000E-002 -2.2834936E-002 0.0  5.1446987E-002 -1.7192792E-002 0.0  6.8946987E-002 -1.7192792E-002 0.0  2.1509932E-002 -2.2790464E-002 0.0  8.6012174E-002 -2.2886904E-002 0.0  1.9626839E-003 -1.8561823E-002 0.0  8.7601803E-002 -1.8975328E-002 0.0  8.1246595E-002 -1.7163097E-002 0.0  8.2496027E-002 -1.9221905E-002 0.0  8.4952405E-002 -1.9147555E-002 0.0  8.3674319E-002 -2.1338112E-002 0.0  7.9998770E-002 -1.9205835E-002 0.0  7.7554178E-002 -1.9288928E-002 0.0  7.8750000E-002 -2.1495191E-002 0.0  6.1250000E-002 -1.7165064E-002 0.0  6.2500000E-002 -1.9224199E-002 0.0  6.5000000E-002 -1.9312472E-002 0.0  6.0208333E-002 -1.9068992E-002 0.0  6.3750000E-002 -2.1495191E-002 0.0  6.6448874E-002 -2.1315472E-002 0.0  4.3750000E-002 -1.7165064E-002 0.0  4.5000000E-002 -1.9224199E-002 0.0  4.7500000E-002 -1.9312472E-002 0.0  4.2224218E-002 -1.9263018E-002 0.0  4.6250000E-002 -2.1495191E-002 0.0  4.8887971E-002 -2.1371609E-002 0.0  7.1206678E-002 -2.2827524E-002 0.0  7.0045888E-002 -2.0701711E-002 0.0  7.2500428E-002 -2.0779872E-002 0.0  7.1250000E-002 -1.8504809E-002 0.0  3.8750000E-002 -2.2834936E-002 0.0  3.7386587E-002 -2.0735352E-002 0.0  3.5000000E-002 -2.0669873E-002 0.0  3.6250000E-002 -1.8504809E-002 0.0  3.9981401E-002 -2.0656267E-002 0.0  1.8793322E-002 -2.2827524E-002 0.0  1.7507220E-002 -2.0668638E-002 0.0  1.4741099E-002 -2.0625224E-002 0.0  1.6250000E-002 -1.8504809E-002 0.0  1.8888585E-002 -1.8626785E-002 0.0  3.1282831E-002 -1.7169685E-002 0.0  3.0005472E-002 -1.9224969E-002 0.0  2.7500912E-002 -1.9206673E-002 0.0  2.8750000E-002 -2.1495191E-002 0.0  3.2349374E-002 -1.9067916E-002 0.0  5.8636587E-002 -2.2900415E-002 0.0  5.7337689E-002 -2.0851583E-002 0.0  5.4972948E-002 -2.0806086E-002 0.0  4.1158073E-002 -1.7039288E-002 0.0  8.7500000E-003 -2.2852591E-002 0.0  1.0000000E-002 -2.0669873E-002 0.0  7.3865873E-003 -2.0738294E-002 0.0  4.9742154E-003 -2.0827486E-002 0.0  6.1967177E-003 -1.8541144E-002 0.0  3.7564481E-003 -2.2876155E-002 0.0  3.3863413E-002 -2.2900415E-002 0.0  1.1236868E-002 -1.7055094E-002 0.0  1.2500000E-002 -1.9330127E-002 0.0  2.3717169E-002 -1.7169685E-002 0.0  2.2577315E-002 -1.9259333E-002 0.0  2.5007566E-002 -1.9192595E-002 0.0  2.3750000E-002 -2.1495191E-002 0.0  1.3706850E-002 -2.2951077E-002 0.0  7.3750000E-002 -2.2834936E-002 0.0  7.4835060E-002 -2.0924275E-002 0.0  4.9891066E-002 -1.9218362E-002 0.0  5.3750000E-002 -2.2834936E-002 0.0  5.2587242E-002 -2.0749278E-002 0.0  5.3750000E-002 -1.8504809E-002 0.0  7.6372442E-002 -1.7092718E-002 0.0  5.8898135E-002 -1.7056062E-002 0.0  4.1133487E-002 -2.2898148E-002 0.0  6.6282831E-002 -1.7166742E-002 0.0  4.8764676E-002 -1.7148115E-002 0.0  6.7381608E-002 -1.9157984E-002 0.0  2.6247101E-002 -1.7134544E-002 0.0  1.9848018E-002 -2.0812307E-002 0.0  8.6158941E-002 -1.7017713E-002 0.0  8.7936259E-002 -2.1273071E-002 0.0  2.2961112E-003 -2.1022102E-002 0.0  3.9123696E-003 -1.7038662E-002 0.0  6.5823157E-002 -2.3178605E-002 0.0  8.3750000E-002 -2.3470503E-002 0.0  6.1361122E-002 -2.0772187E-002 0.0  1.8445428E-002 -1.6729128E-002 0.0  5.6141588E-002 -1.9220793E-002 0.0  5.3750000E-002 -1.6529497E-002 0.0  2.8750000E-002 -2.3470503E-002 0.0  4.3808748E-002 -2.0776018E-002 0.0  4.6250000E-002 -2.3560126E-002 0.0  3.1147903E-002 -2.0772144E-002 0.0  3.9993253E-002 -1.8657865E-002 0.0  6.3664631E-002 -2.3501746E-002 0.0  8.1233823E-002 -2.0819196E-002 0.0  2.6251696E-002 -2.0844917E-002 0.0  7.8750000E-002 -2.3470503E-002 0.0  3.6250000E-002 -1.6529497E-002 0.0  4.8323497E-002 -2.3205689E-002 0.0  7.1250000E-002 -1.6529497E-002 0.0  1.6228483E-002 -1.6485346E-002 0.0  1.2439590E-002 -2.1303433E-002 0.0  1.0056122E-002 -1.8613173E-002 0.0  2.3750000E-002 -2.3470503E-002 0.0  7.3645138E-002 -1.9227432E-002 0.0  6.2500000E-003 -1.6529497E-002 0.0  3.8684196E-003 -1.9198243E-002 0.0  1.8301270E-003 -2.3169873E-002 0.0  8.8169873E-002 -1.6830127E-002 0.0  8.8169873E-002 -2.3169873E-002 0.0  1.7803335E-003 -1.6766039E-002 0.0  8.6022772E-002 -2.0832517E-002 0.0  2.0706140E-002 -1.9149269E-002 0.0  5.8070049E-002 -1.9032696E-002 0.0  5.1827884E-002 -1.9063801E-002 0.0  4.2179571E-002 -2.1285678E-002 0.0  3.4356260E-002 -1.9002312E-002 0.0  5.9432219E-002 -2.0953738E-002 0.0  1.4359522E-002 -1.8913238E-002 0.0  7.6763549E-002 -2.0925893E-002 0.0  5.0712336E-002 -2.0867488E-002 0.0  3.3085586E-002 -2.0966753E-002 0.0  6.8227047E-002 -2.0935173E-002 0.0  6.9335662E-002 -1.9043751E-002 0.0  3.8417092E-002 -1.9133476E-002 0.0  2.1768051E-002 -2.0931028E-002 0.0  7.5581625E-002 -1.9022355E-002 0.0  8.4227289E-003 -1.9135114E-002 0.0  8.6250000E-002 -3.7834936E-002 0.0  8.1246903E-002 -3.7380817E-002 0.0  2.6254336E-002 -3.7588186E-002 0.0  3.1253097E-002 -3.7380817E-002 0.0  7.1250000E-002 -3.7617817E-002 0.0  7.6243930E-002 -3.7497323E-002 0.0  6.6256070E-002 -3.7497323E-002 0.0  3.6250000E-002 -3.7465207E-002 0.0  4.1246870E-002 -3.7380832E-002 0.0  6.1250000E-002 -3.7465207E-002 0.0  4.8746870E-002 -3.7380832E-002 0.0  5.6250000E-002 -3.7465207E-002 0.0  5.3743864E-002 -3.7539539E-002 0.0  4.6243343E-002 -3.7525476E-002 0.0  3.8749627E-002 -3.7554755E-002 0.0  3.3750369E-002 -3.7554753E-002 0.0  7.8748909E-002 -3.7558577E-002 0.0  5.8750000E-002 -3.7488402E-002 0.0  2.3750000E-002 -3.7165064E-002 0.0  6.3751012E-002 -3.7493755E-002 0.0  2.8751239E-002 -3.7494834E-002 0.0  7.3738871E-002 -3.7436035E-002 0.0  8.3749484E-002 -3.7535959E-002 0.0  6.8761129E-002 -3.7436035E-002 0.0  4.3748369E-002 -3.7484385E-002 0.0  5.1248456E-002 -3.7486728E-002 0.0  2.1643629E-002 -3.8165794E-002 0.0  8.8356371E-002 -3.6834206E-002 0.0  8.8550470E-002 -3.8555045E-002 0.0  2.1449530E-002 -3.6444955E-002 0.0  6.4444065E-003  1.0948030E-001 0.0  3.8619969E-003  1.2383173E-001 0.0  6.2915860E-003  9.5100994E-002 0.0  6.1931572E-003  8.2933628E-002 0.0  6.1931755E-003  7.1788652E-002 0.0  6.1563422E-003  6.1882006E-002 0.0  6.1563413E-003  5.1975360E-002 0.0  5.6389911E-002  1.7084286E-002 0.0  6.0239551E-003  4.2758642E-002 0.0  8.5699365E-003  1.4672973E-001 0.0  2.5455109E-002  1.5793030E-002 0.0  4.6779544E-003  1.1615520E-001 0.0  1.6264841E-002  1.0464689E-002 0.0  4.2769315E-002  1.7259049E-002 0.0  6.3917722E-003  3.4481998E-002 0.0  1.3747612E-002  1.0446720E-002 0.0  9.2725787E-002 -2.3414916E-002 0.0  2.1465989E-003  1.2943382E-001 0.0  9.2165064E-002 -3.6250000E-002 0.0  6.6272635E-003  1.0337882E-001 0.0  6.2253371E-003  8.9075895E-002 0.0  6.2691991E-002  1.3399461E-002 0.0  6.2673343E-002  1.7566176E-002 0.0  2.4390441E-002  1.5954526E-002 0.0  2.5402417E-002  1.6997877E-002 0.0  6.1563434E-003  2.8447077E-002 0.0  6.0724259E-003  2.0221023E-002 0.0  1.1750000E-002  1.0405975E-002 0.0  1.8273240E-002  1.0460048E-002 0.0  2.8117689E-001  1.1459615E-001 0.0  3.2142531E-002  1.6561948E-002 0.0  8.6289474E-002 -1.2192313E-002 0.0  1.3712840E-002  2.0221367E-001 0.0  2.8096694E-001  3.1558455E-002 0.0  6.2254015E-003  7.7930859E-002 0.0  6.1932185E-003  4.7022038E-002 0.0  6.2278414E-003  5.6928683E-002 0.0  6.1932092E-003  6.6835329E-002 0.0  9.7709653E-003  1.0407199E-002 0.0  2.8216263E-001  2.1434652E-001 0.0  2.8363488E-001 -2.5350641E-002 0.0  1.5109408E-001  3.4791607E-001 0.0  7.5750000E-002 -1.2865416E-002 0.0  4.6706155E-002 -4.2807706E-002 0.0  5.7857143E-002 -4.2272449E-002 0.0  7.0126215E-002 -4.2412500E-002 0.0  8.4166667E-002 -4.2651194E-002 0.0  3.5714286E-002 -4.2272451E-002 0.0  2.6875000E-002 -4.2636724E-002 0.0  2.1303463E-002  1.0419759E-002 0.0  5.9811275E-003  1.6496182E-002 0.0  2.3702496E-002  1.7143937E-002 0.0  2.4444262E-002  1.8465360E-002 0.0  6.6251494E-002  1.5648981E-002 0.0  6.7672309E-002  2.0131520E-002 0.0  8.2998820E-003  1.0426017E-002 0.0  1.9749706E-002  1.0383948E-002 0.0  1.7191637E-001 -1.1889982E-001 0.0  1.7278420E-002  2.6032435E-001 0.0  2.2689977E-002  1.8601744E-002 0.0  2.3748163E-002  2.0384698E-002 0.0  2.4315919E-002  1.3678656E-002 0.0  6.2807687E-002  1.6271920E-003 0.0  2.8295025E-001  2.7463757E-001 0.0  9.2336389E-002 -1.7430072E-002 0.0  9.2529647E-002 -1.3118523E-002 0.0  9.6206211E-002 -1.4620182E-002 0.0  9.6804839E-002 -8.7627417E-003 0.0  1.0467793E-001 -1.5170373E-002 0.0  1.0555930E-001 -1.4691445E-003 0.0  1.1941900E-001 -9.2390918E-003 0.0  1.2060466E-001  8.3248783E-003 0.0  4.8688389E-002  1.7168418E-002 0.0  6.5436991E-003  2.3737925E-002 0.0  6.2759231E-003  9.9336072E-002 0.0  6.2741515E-003  3.8935056E-002 0.0  4.2460708E-003  1.2010107E-001 0.0  5.3674546E-003  1.1258637E-001 0.0  5.5070254E-003  1.3316373E-002 0.0  1.3601293E-001 -1.5368281E-003 0.0  1.3749314E-001  1.8077363E-002 0.0  2.1566388E-002  2.0383490E-002 0.0  2.2755230E-002  2.2426132E-002 0.0  9.2542390E-002  3.4789813E-001 0.0  1.5361191E-001  7.5801390E-003 0.0  1.5430467E-001  2.7515280E-002 0.0  1.3803725E-001  3.8062239E-002 0.0  1.5496638E-001  4.7494199E-002 0.0  1.3833476E-001  5.8060931E-002 0.0  1.5557141E-001  6.7485951E-002 0.0  1.3893157E-001  7.8051908E-002 0.0  1.5621916E-001  8.7478338E-002 0.0  1.3923174E-001  9.8053510E-002 0.0  1.5682356E-001  1.0746986E-001 0.0  1.2351644E-001  8.8383547E-002 0.0  1.3982893E-001  1.1804489E-001 0.0  1.5745858E-001  1.2745993E-001 0.0  1.4048071E-001  1.3803432E-001 0.0  1.5811946E-001  1.4744904E-001 0.0  1.4114591E-001  1.5802327E-001 0.0  1.5878948E-001  1.6743782E-001 0.0  1.4181487E-001  1.7801208E-001 0.0  1.5945906E-001  1.8742661E-001 0.0  1.4248438E-001  1.9800087E-001 0.0  1.6012997E-001  2.0741535E-001 0.0  1.4315420E-001  2.1798965E-001 0.0  1.6079985E-001  2.2740413E-001 0.0  2.1000000E-001  3.4767949E-001 0.0  2.0516901E-002  1.8390750E-002 0.0  1.9338161E-002  2.0301628E-002 0.0  1.8499259E-002  1.8248068E-002 0.0  1.0706763E-001 -1.1567520E-001 0.0  1.1250000E-002 -2.7651207E-002 0.0  6.2807687E-002 -5.8728080E-003 0.0  1.2391047E-001  1.4859505E-001 0.0  1.4382390E-001  2.3797844E-001 0.0  1.7315654E-001  7.6891848E-002 0.0  2.2731185E-002  1.0477342E-002 0.0  1.7578790E-001  1.5681297E-001 0.0  2.2985234E-001 -1.1730889E-001 0.0  6.7500003E-003  1.0433013E-002 0.0  1.2617830E-001  2.2856396E-001 0.0  1.7109908E-001  1.6928660E-002 0.0  1.7039464E-001 -3.0521017E-003 0.0  1.6146953E-001  2.4739291E-001 0.0  5.3592782E-002 -1.1933833E-001 0.0  1.7844551E-001  2.3681860E-001 0.0  1.7139720E-002  2.0158498E-002 0.0  1.6268122E-002  1.8199307E-002 0.0  2.1544823E-003  1.3480499E-001 0.0  1.2684794E-001  2.4855275E-001 0.0  1.7640439E-002 -3.8898364E-002 0.0  1.3493937E-001 -2.0393819E-002 0.0  1.8802906E-001  6.3286651E-003 0.0  1.8733413E-001 -1.3657958E-002 0.0  2.5803078E-002  2.2073809E-002 0.0  2.4041458E-002  2.5334910E-002 0.0  2.7691879E-002  2.4961974E-002 0.0  2.6160219E-002  2.8674492E-002 0.0  3.0345985E-002  2.8332395E-002 0.0  2.8347439E-002  3.4096518E-002 0.0  3.5564968E-002  3.1761487E-002 0.0  3.2267661E-002  4.0799935E-002 0.0  1.7911516E-001  2.5680739E-001 0.0  1.0920233E-001  2.3913827E-001 0.0  2.4565452E-002  1.1710190E-002 0.0  1.9609114E-001  2.4623308E-001 0.0  1.7367726E-002  1.6869307E-002 0.0  1.5608427E-002  1.6539313E-002 0.0  1.0987197E-001  2.5912706E-001 0.0  1.4480750E-002  1.7925024E-002 0.0  1.4037493E-002  1.6381410E-002 0.0  1.4819033E-002  1.5270431E-002 0.0  1.3508245E-002  1.4922671E-002 0.0  1.2695140E-002  1.6038284E-002 0.0  1.2268691E-002  1.4825064E-002 0.0  1.3529014E-002 -7.0718912E-002 0.0  4.2767708E-002  4.0209123E-002 0.0  3.4111654E-002  5.4302382E-002 0.0  5.5376195E-002  5.0290830E-002 0.0  4.6014567E-002  6.9174975E-002 0.0  1.1708526E-002  1.6737202E-001 0.0  2.1515847E-002  1.5471984E-001 0.0  1.7444012E-001  1.1689892E-001 0.0  1.2483900E-001  1.8858639E-001 0.0  1.7712082E-001  1.9680543E-001 0.0  2.8267949E-001  1.5500000E-001 0.0  2.8082532E-001  7.4599344E-002 0.0  2.8384215E-001 -6.5680796E-002 0.0  5.5172470E-003  1.1904580E-002 0.0  2.1689264E-002  2.8736936E-002 0.0  1.4405249E-002  1.4168462E-002 0.0  1.5395344E-002  1.4284888E-002 0.0  1.9676077E-001  2.6622187E-001 0.0  1.4750000E-002  1.0433013E-002 0.0  1.2750000E-002  1.0419804E-002 0.0  1.7208113E-002  1.0438253E-002 0.0  1.0768594E-002  1.0432233E-002 0.0  1.5641120E-002  2.9954497E-001 0.0  1.1499262E-002  1.5694088E-002 0.0  1.1237177E-002  1.4560213E-002 0.0  1.2751758E-001  2.6854153E-001 0.0  2.4958890E-001  3.5139562E-001 0.0  1.1847181E-001  4.7988266E-002 0.0  2.9275827E-002  1.6220903E-002 0.0  1.1909933E-002  1.3809222E-002 0.0  1.0980215E-002  1.3447824E-002 0.0  1.0291531E-002  1.4223161E-002 0.0  1.0064296E-002  1.3302530E-002 0.0  9.3978686E-003  1.3914067E-002 0.0  9.5530277E-003  1.4842239E-002 0.0  2.0498906E-001 -4.2692021E-003 0.0  2.0429163E-001 -2.4257072E-002 0.0  2.0568560E-001  1.5718407E-002 0.0  1.8663300E-001 -3.3647184E-002 0.0  1.1763390E-002  1.6918734E-002 0.0  9.2685763E-003  1.3058366E-002 0.0  2.0359373E-001 -4.4245153E-002 0.0  1.7390247E-002 -4.2726749E-002 0.0  1.7978479E-001  2.7679618E-001 0.0  9.2226355E-002  2.4971258E-001 0.0  9.1556725E-002  2.2972379E-001 0.0  9.2895986E-002  2.6970137E-001 0.0  1.5001711E-002  1.3411275E-002 0.0  1.5874204E-002  1.3475027E-002 0.0  2.3110820E-002  1.5891298E-002 0.0  8.6186620E-003  1.4523722E-002 0.0  1.6119846E-002 -2.7237666E-002 0.0  2.1373675E-001  2.5564756E-001 0.0  2.1306712E-001  2.3565877E-001 0.0  2.1440638E-001  2.7563634E-001 0.0  2.8447281E-003  1.2684440E-001 0.0  4.4329285E-003  1.2922395E-001 0.0  6.8663210E-002 -1.2061544E-002 0.0  2.2264670E-001  5.1206406E-003 0.0  2.2334373E-001  2.5108436E-002 0.0  1.1685175E-002  1.2921120E-002 0.0  1.5487963E-002  1.2737920E-002 0.0  1.6291240E-002  1.2673636E-002 0.0  1.6699693E-002  1.3469935E-002 0.0  1.7100526E-002  1.2790516E-002 0.0  1.7499854E-002  1.3497480E-002 0.0  1.7900148E-002  1.2705844E-002 0.0  1.8299888E-002  1.3501461E-002 0.0  1.8715135E-002  1.2821081E-002 0.0  1.9104252E-002  1.3533818E-002 0.0  1.9540834E-002  1.2744389E-002 0.0  1.9912854E-002  1.3538951E-002 0.0  2.0332216E-002  1.2856380E-002 0.0  1.4722082E-002  1.2654985E-002 0.0  5.8670418E-003 -2.7065901E-002 0.0  1.9492253E-002  1.4224118E-002 0.0  6.3789488E-002 -4.2807702E-002 0.0  6.1395982E-002 -4.5383254E-002 0.0  9.2879877E-002 -2.7449115E-002 0.0  5.3640679E-002 -4.2825597E-002 0.0  6.2290275E-002  5.5920036E-003 0.0  6.5926864E-002  3.6013780E-003 0.0  8.1041667E-002 -1.2089755E-002 0.0  8.3750000E-002 -9.2115287E-003 0.0  3.0727041E-002 -4.2355181E-002 0.0  3.4038283E-002 -4.6179008E-002 0.0  8.8260941E-002 -4.2619594E-002 0.0  9.1971204E-002 -4.2722361E-002 0.0  8.6197866E-002 -4.6635319E-002 0.0  9.1659069E-002 -4.8640512E-002 0.0  8.3635419E-002 -5.2600355E-002 0.0  9.4719596E-002 -5.8589552E-002 0.0  1.0426788E-001 -5.0207045E-002 0.0  8.1869526E-002 -6.7174313E-002 0.0  7.7823292E-002 -4.2406609E-002 0.0  4.0280612E-002 -4.2287792E-002 0.0  4.3952680E-002 -4.5385810E-002 0.0  1.8593502E-001 -5.3635309E-002 0.0  3.7201588E-002  1.7584678E-002 0.0  6.2242978E-003  1.0641766E-001 0.0  7.8906501E-003  1.0822216E-001 0.0  1.0929768E-001 -6.6157880E-002 0.0  5.0248992E-002  3.4880839E-001 0.0  6.4295295E-003  8.6001321E-002 0.0  7.8510236E-003  8.4911079E-002 0.0  6.4122086E-003  8.1031906E-002 0.0  7.8511537E-003  7.9407665E-002 0.0  6.4295809E-003  9.2101855E-002 0.0  7.8914990E-003  9.0869223E-002 0.0  6.3692563E-003  4.5120315E-002 0.0  8.0201767E-003  4.5916373E-002 0.0  6.4179931E-003  5.5026961E-002 0.0  7.6974267E-003  5.3397868E-002 0.0  6.4060043E-003  5.0073638E-002 0.0  6.3692485E-003  6.4933607E-002 0.0  8.9136080E-003  6.5987658E-002 0.0  6.4034472E-003  5.9980284E-002 0.0  8.9397123E-003  6.0932095E-002 0.0  6.4296318E-003  3.1423684E-002 0.0  7.8049288E-003  2.9975611E-002 0.0  6.3629832E-003  2.6545355E-002 0.0  7.6733339E-003  2.4915579E-002 0.0  6.4121568E-003  6.9886930E-002 0.0  9.0346043E-003  7.0965929E-002 0.0  6.4726010E-003  7.4856275E-002 0.0  2.0710615E-002  1.3558317E-002 0.0  2.1098533E-002  1.2873698E-002 0.0  2.3071273E-001  2.4507325E-001 0.0  2.3008606E-001  2.2506429E-001 0.0  8.6041798E-002 -2.7551193E-002 0.0  6.5625000E-002 -3.2611645E-002 0.0  2.1174823E-002 -3.2544689E-002 0.0  2.6250000E-002 -2.7165064E-002 0.0  8.1901585E-002 -3.1985557E-002 0.0  5.9000000E-002 -3.2677219E-002 0.0  7.1250000E-002 -3.1833562E-002 0.0  2.9821429E-002 -2.7125898E-002 0.0  4.1500000E-002 -2.7322781E-002 0.0  7.6000000E-002 -3.2677219E-002 0.0  5.0000000E-002 -2.6555021E-002 0.0  3.6000000E-002 -2.7322781E-002 0.0  4.6845238E-002 -2.7317547E-002 0.0  9.8697982E-003  1.2530285E-002 0.0  9.1462495E-003  1.2301996E-002 0.0  8.5657023E-003  1.2775007E-002 0.0  7.4580744E-002  2.4029810E-001 0.0  7.3911114E-002  2.2030932E-001 0.0  7.3801554E-002  1.5277941E-002 0.0  7.4213359E-002  2.5399518E-002 0.0  2.2125198E-001 -3.4855156E-002 0.0  2.2055482E-001 -5.4842980E-002 0.0  8.2174455E-003 -3.0159779E-002 0.0  8.7811280E-003  1.5554969E-002 0.0  1.2450776E-002  1.3127385E-002 0.0  1.2175993E-002  1.2354151E-002 0.0  1.1538670E-002  1.2222938E-002 0.0  2.3747125E-002  1.0512605E-002 0.0  6.5750260E-002  6.7749849E-002 0.0  5.7060910E-002  8.6056664E-002 0.0  1.9012095E-002  1.2151459E-002 0.0  2.0725166E-002  1.2235821E-002 0.0  2.1451965E-002  1.2236644E-002 0.0  2.1840318E-002  1.2851712E-002 0.0  2.2185417E-002  1.2205295E-002 0.0  2.5990529E-002  1.8599483E-002 0.0  1.6807433E-002  1.2115052E-002 0.0  8.4664676E-003  1.2065087E-002 0.0  7.9210180E-003  1.2490319E-002 0.0  7.8248244E-003  1.1828540E-002 0.0  7.2627452E-003  1.2236488E-002 0.0  7.3180519E-003  1.2859232E-002 0.0  1.5157284E-002  1.2067805E-002 0.0  1.4507881E-002  1.1990544E-002 0.0  5.6935132E-002  2.3088363E-001 0.0  2.8295806E-001  3.1482057E-001 0.0  2.0638219E-001  3.5706099E-002 0.0  2.2404079E-001  4.5096247E-002 0.0  2.2562773E-002  1.2809703E-002 0.0  2.2904313E-002  1.2193247E-002 0.0  2.2234458E-002  1.3470893E-002 0.0  2.3821336E-001 -4.5452876E-002 0.0  2.3751614E-001 -6.5440726E-002 0.0  2.1985756E-001 -7.4830840E-002 0.0  2.4030504E-001  1.4510713E-002 0.0  5.7604762E-002  2.5087241E-001 0.0  3.5216648E-002  8.6537811E-002 0.0  4.8069842E-002  1.0366634E-001 0.0  6.8212131E-002  1.0265640E-001 0.0  5.9769826E-002  1.2012022E-001 0.0  4.2055721E-002  1.2130098E-001 0.0  7.9493892E-002  1.1926428E-001 0.0  7.0903904E-002  1.3933624E-001 0.0  8.9941633E-003  1.1622590E-002 0.0  1.2880940E-002  1.2489572E-002 0.0  5.6265502E-002  2.1089484E-001 0.0  7.3241484E-002  2.0032053E-001 0.0  5.5595872E-002  1.9090605E-001 0.0  2.3297666E-003  1.3084818E-001 0.0  1.2649471E-002  1.1846340E-002 0.0  2.1871003E-002  1.1592062E-002 0.0  7.2571854E-002  1.8033174E-001 0.0  1.3722190E-002 -3.9858134E-002 0.0  2.8295791E-001 -1.0331673E-001 0.0  6.2695514E-002 -1.1405220E-002 0.0  5.7721056E-003  1.0507184E-002 0.0  3.9457642E-002  2.0016803E-002 0.0  1.6897363E-001 -4.3037577E-002 0.0  1.6837354E-001 -6.2869826E-002 0.0  7.2017135E-003  1.1592684E-002 0.0  1.5192614E-001 -5.1546397E-002 0.0  1.4822811E-001 -7.3071927E-002 0.0  1.7816326E-002  1.4203754E-002 0.0  2.2620531E-002  3.8395439E-002 0.0  2.0707938E-001  5.5693945E-002 0.0  2.2473795E-001  6.5084086E-002 0.0  2.4257591E-001  5.4455807E-002 0.0  2.4323462E-001  7.4444993E-002 0.0  2.2557482E-001  8.5067058E-002 0.0  2.4394867E-001  9.4432249E-002 0.0  2.2629138E-001  1.0505423E-001 0.0  2.4445847E-001  1.1442663E-001 0.0  2.2696056E-001  1.2504305E-001 0.0  2.4511976E-001  1.3441573E-001 0.0  2.2767011E-001  1.4503046E-001 0.0  2.4560889E-001  1.5441083E-001 0.0  2.2833468E-001  1.6501944E-001 0.0  2.4626596E-001  1.7440007E-001 0.0  2.0984954E-001  1.3565202E-001 0.0  2.0847375E-001  9.5669633E-002 0.0  2.2892402E-001  1.8503645E-001 0.0  2.4657964E-001  1.9440129E-001 0.0  2.1125384E-001  1.7557904E-001 0.0  2.3960784E-001 -5.4771417E-003 0.0  2.5726635E-001  3.9129878E-003 0.0  1.8535110E-001 -7.3441620E-002 0.0  2.1240465E-001  2.1566662E-001 0.0  2.4772377E-001  2.3450363E-001 0.0  2.4836419E-001  2.5448851E-001 0.0  1.2326771E-002 -4.5367228E-002 0.0  1.8504386E-002 -4.8474782E-002 0.0  1.9001404E-002  1.6607355E-002 0.0  9.4081580E-002  3.1305909E-003 0.0  9.6309224E-002 -2.5667557E-002 0.0  1.8194673E-002  2.2519326E-002 0.0  1.5665920E-002  2.2218558E-002 0.0  5.6250000E-002 -2.7068734E-002 0.0  6.1250000E-002 -2.7165064E-002 0.0  5.3125000E-002 -3.1758526E-002 0.0  3.4000000E-002 -3.2677219E-002 0.0  2.8500000E-002 -3.2677219E-002 0.0  3.8750000E-002 -3.3023743E-002 0.0  4.9000000E-002 -3.2677219E-002 0.0  7.8750000E-002 -2.7165064E-002 0.0  6.7500000E-002 -2.6555021E-002 0.0  7.4000000E-002 -2.6866025E-002 0.0  8.8806312E-002 -3.2372851E-002 0.0  4.3500000E-002 -3.2677219E-002 0.0  1.5674128E-002 -1.0699751E-001 0.0  6.6804932E-003  1.1970728E-002 0.0  2.4583207E-002  1.0719985E-002 0.0  1.5010128E-002  3.3615021E-001 0.0  1.3289309E-002  1.1933529E-002 0.0  2.8792112E-002  2.2036993E-002 0.0  5.5452330E-002  1.7100678E-001 0.0  6.6129054E-003  1.1366130E-002 0.0  2.6434453E-001  1.8394755E-001 0.0  4.3112405E-002  2.1322023E-002 0.0  1.3100624E-002  1.1380257E-002 0.0  1.4894951E-002  1.1463827E-002 0.0  1.5511215E-002  1.1527483E-002 0.0  1.4278968E-002  1.1451373E-002 0.0  8.6876287E-003  1.1084623E-001 0.0  1.1713174E-002  1.0898068E-001 0.0  1.2201280E-002  1.1566347E-001 0.0  1.8671026E-002  1.1016578E-001 0.0  1.7065611E-002  1.0090425E-001 0.0  8.8032203E-002  1.0109676E-001 0.0  1.0256384E-001  1.1882815E-001 0.0  2.3270145E-002  1.2779246E-002 0.0  1.2511358E-002  1.1273636E-002 0.0  2.3712146E-001 -8.4944380E-002 0.0  1.1098785E-002 -5.5028386E-002 0.0  2.1190772E-002 -4.3178043E-002 0.0  1.3222248E-002  1.3218129E-002 0.0  2.6539088E-001  2.4412647E-001 0.0  7.7092791E-003  1.1234949E-002 0.0  1.8941985E-001  4.6303684E-002 0.0  9.0217466E-002  1.8974622E-001 0.0  8.9283301E-002  1.7025325E-001 0.0  7.7677241E-003  1.5174331E-002 0.0  7.9598369E-003  1.6357315E-002 0.0  9.3123561E-003  1.6814020E-002 0.0  7.7732904E-003  1.7824012E-002 0.0  9.6337890E-003  1.8466909E-002 0.0  6.1422897E-002  2.3798838E-002 0.0  5.3863730E-002  2.1786303E-002 0.0  2.2250000E-002 -2.7286263E-002 0.0  3.5334329E-002  2.0838600E-002 0.0  2.5417131E-002  7.0523357E-002 0.0  2.0905045E-002  1.6573403E-002 0.0  1.6719373E-002  2.5083345E-002 0.0  2.3544485E-002  1.2136808E-002 0.0  2.3198138E-002  1.1604555E-002 0.0  9.6942116E-002 -3.0572068E-002 0.0  1.0361714E-001 -2.6901686E-002 0.0  4.0366896E-002  2.4069370E-001 0.0  3.8845945E-002  1.8139565E-001 0.0  1.8118515E-002 -3.2470348E-002 0.0  6.5673720E-002 -2.5107398E-003 0.0  7.2299567E-002  2.0274959E-004 0.0  5.0090946E-002 -4.6474252E-002 0.0  4.4337175E-002 -5.1797677E-002 0.0  6.6486926E-002 -4.6727569E-002 0.0  6.1521142E-002 -5.1477392E-002 0.0  1.2143519E-001 -5.3570513E-002 0.0  2.5367079E-001 -7.5927850E-002 0.0  2.5293885E-001 -9.5112563E-002 0.0  1.4156326E-002  1.2482558E-002 0.0  2.5558040E-001 -1.6040375E-002 0.0  1.8372722E-002  1.3904462E-001 0.0  1.5225662E-002  1.0903138E-002 0.0  1.0566880E-002  1.2667424E-002 0.0  1.0361550E-002  1.2002757E-002 0.0  2.5886526E-001  2.3737912E-002 0.0  1.3556119E-002  2.4488943E-002 0.0  1.4948034E-002  2.8611260E-002 0.0  1.1665671E-002  2.1499116E-002 0.0  1.5846671E-002  1.1009460E-002 0.0  1.6079771E-002  1.1533785E-002 0.0  5.8706854E-003  1.2596109E-001 0.0  6.4781812E-003  1.2281311E-001 0.0  6.6850450E-003  1.1946274E-001 0.0  1.1268268E-002  1.2276040E-001 0.0  1.0983014E-002  1.3014889E-001 0.0  2.2006939E-001 -9.8124149E-002 0.0  5.5154171E-002  3.3028441E-002 0.0  7.6131505E-003  1.4082309E-002 0.0  6.7614456E-003  1.4723298E-002 0.0  2.0092813E-002  1.2174571E-002 0.0  2.0390491E-002  1.1625851E-002 0.0  1.9586704E-002  1.1613348E-002 0.0  1.9996718E-002  1.1097584E-002 0.0  8.4654913E-003  1.0534328E-001 0.0  8.2652532E-003  1.0241626E-001 0.0  9.6458263E-003  9.8835918E-002 0.0  5.8861658E-003 -3.9777981E-002 0.0  1.5963288E-002  1.5202334E-002 0.0  8.4578214E-003  2.2351996E-002 0.0  8.2709004E-003  8.7909202E-002 0.0  1.2249475E-002  8.5724233E-002 0.0  8.4551916E-003  9.3560105E-002 0.0  8.5251019E-003  3.2596253E-002 0.0  8.2309775E-003  3.5736312E-002 0.0  8.9743745E-003  3.9614395E-002 0.0  8.4649148E-003  7.6296468E-002 0.0  1.1236331E-002  7.9915534E-002 0.0  1.9210744E-002  8.1666119E-002 0.0  3.8549797E-002  2.6049370E-001 0.0  5.7927895E-002  2.7070236E-001 0.0  4.1867838E-002  2.8134397E-001 0.0  5.8981177E-002  2.9080826E-001 0.0  4.2496746E-002  3.0140168E-001 0.0  5.9613652E-002  3.1083877E-001 0.0  7.6595826E-002  3.0025751E-001 0.0  7.7636489E-002  3.1933897E-001 0.0  9.4266690E-002  3.0961121E-001 0.0  4.3598564E-002  3.1963831E-001 0.0  2.6164083E-001  6.4193877E-002 0.0  6.5788471E-002 -8.7500000E-003 0.0  7.0182484E-002 -7.6748780E-003 0.0  2.3379350E-002 -5.6606969E-002 0.0  3.0224349E-002 -7.3207819E-002 0.0  1.1793128E-002  9.0960980E-002 0.0  2.3930812E-002  1.2578163E-002 0.0  4.7976315E-003  1.3267242E-001 0.0  6.5174149E-003  1.3797996E-001 0.0  2.1097713E-002  1.1651256E-002 0.0  2.0719794E-002  1.1106132E-002 0.0  2.1416976E-002  1.1183146E-002 0.0  2.2025598E-002  1.1077823E-002 0.0  2.2571388E-002  1.1657370E-002 0.0  2.0349556E-002  1.0721421E-002 0.0  9.7131719E-003  1.1744534E-002 0.0  1.0263191E-002  1.1383868E-002 0.0  1.0807013E-002  1.1542156E-002 0.0  9.4051061E-003  1.1265595E-002 0.0  8.9369877E-003  1.1003553E-002 0.0  1.6391862E-002  1.1053777E-002 0.0  7.0944612E-003  1.0937807E-002 0.0  7.5751682E-003  1.0645341E-002 0.0  7.5931786E-002  5.0848816E-002 0.0  8.5801724E-002  6.6213651E-002 0.0  9.6694305E-002  4.9130029E-002 0.0  8.9095161E-002 -7.9613705E-003 0.0  2.7495404E-001  1.0420773E-002 0.0  8.3745274E-003  1.1358273E-002 0.0  2.6248375E-001  1.0418519E-001 0.0  2.2866109E-002  1.1073866E-002 0.0  2.3470589E-002  1.1060512E-002 0.0  1.8392649E-002  1.2138651E-002 0.0  1.8690099E-002  1.1585119E-002 0.0  1.8147721E-002  1.1543213E-002 0.0  1.7402264E-002  1.2105670E-002 0.0  1.7064710E-002  1.1550870E-002 0.0  1.8460840E-002  1.1054084E-002 0.0  1.7961727E-002  1.0954401E-002 0.0  1.8988299E-002  1.1035001E-002 0.0  1.2021691E-002  1.1736411E-002 0.0  1.1873105E-002  1.1155868E-002 0.0  3.8537680E-002  2.4593622E-002 0.0  7.8531234E-003  1.9983801E-002 0.0  6.7539702E-003  1.3800999E-002 0.0  8.8524120E-002  1.8744563E-002 0.0  2.6341115E-001  1.4422528E-001 0.0  4.5281005E-002  2.7642186E-002 0.0  3.0591690E-003 -2.8731402E-002 0.0  1.2748589E-001 -7.1511564E-002 0.0  1.1433513E-001 -8.4635029E-002 0.0  1.3354278E-001 -8.9124518E-002 0.0  1.5208800E-001 -9.5320259E-002 0.0  1.4013082E-001 -1.0968576E-001 0.0  7.1888609E-002 -5.4320500E-002 0.0  6.6055361E-002 -7.3231809E-002 0.0  7.7355739E-002 -8.6065879E-002 0.0  6.1021588E-002 -8.9033019E-002 0.0  7.1024475E-002 -1.0458555E-001 0.0  9.0826606E-002 -1.0185641E-001 0.0  2.3786675E-002  1.1534177E-002 0.0  2.4058903E-002  1.1000026E-002 0.0  2.0297472E-002  2.4893910E-002 0.0  8.6024995E-003  1.3608144E-002 0.0  1.3434202E-002  7.4478974E-002 0.0  1.8165394E-002  1.5627321E-002 0.0  2.7075588E-001 -8.4926154E-002 0.0  1.0537350E-001  6.4305051E-002 0.0  1.0289198E-001  3.2505244E-002 0.0  1.2293988E-002  3.4131063E-002 0.0  2.6432254E-001  2.0398472E-001 0.0  5.4458621E-003  1.1310635E-002 0.0  2.9455279E-002  1.0486756E-001 0.0  1.5219266E-001 -3.1759105E-002 0.0  1.4306199E-002 -3.0602015E-002 0.0  6.0299453E-003  1.1531706E-002 0.0  6.1696631E-003  1.0954403E-002 0.0  6.0652390E-003  1.2114485E-002 0.0  6.5715783E-003  1.2576687E-002 0.0  2.6178813E-001  4.3849659E-002 0.0  1.5715248E-002  1.0493205E-002 0.0  5.8330495E-003  1.4127647E-002 0.0  9.5665621E-002  8.2213483E-002 0.0  1.6765064E-002  1.0722189E-002 0.0  1.7163928E-002  1.1017531E-002 0.0  1.4079379E-002  1.3182755E-002 0.0  1.0644220E-002  1.0962657E-002 0.0  1.1198080E-002  1.1145559E-002 0.0  1.0125791E-002  1.0840212E-002 0.0  2.3807537E-002  1.4993930E-002 0.0  2.2795854E-002  1.4785134E-002 0.0  2.8233384E-001  1.9440391E-001 0.0  2.3464768E-002  1.4067881E-002 0.0  1.3683530E-002  1.1420599E-002 0.0  1.3485669E-002  1.0937477E-002 0.0  1.8744476E-002  1.0648379E-002 0.0  2.8087020E-001  5.4033556E-002 0.0  2.6215986E-001  8.4475942E-002 0.0  2.8102716E-001  9.4744836E-002 0.0  2.6294870E-001  1.2447299E-001 0.0  2.8151399E-001  1.3479380E-001 0.0  2.6461046E-001  1.6375412E-001 0.0  2.2591904E-002  1.2324333E-001 0.0  2.4723340E-001  2.1442423E-001 0.0  7.6954806E-002  8.4683381E-002 0.0  2.2945857E-001  2.0505996E-001 0.0  1.9010970E-001  6.6295148E-002 0.0  2.1176462E-001  1.9565467E-001 0.0  1.9417933E-001  1.8605281E-001 0.0  1.9348907E-001  1.6618926E-001 0.0  2.6579189E-001  2.6444205E-001 0.0  2.4895697E-001  2.7451131E-001 0.0  1.7248610E-001  5.6898502E-002 0.0  1.9076646E-001  8.6298118E-002 0.0  1.9288246E-002  1.5578397E-002 0.0  2.0912097E-002  1.5096811E-002 0.0  3.5969553E-002  1.4095977E-001 0.0  1.5263053E-001 -1.2440068E-002 0.0  1.7181140E-001  3.6910403E-002 0.0  8.9713085E-002  1.3385684E-001 0.0  1.7380571E-001  9.6898055E-002 0.0  1.9142839E-001  1.0635124E-001 0.0  1.9209071E-001  1.2627416E-001 0.0  2.0916760E-001  1.1566972E-001 0.0  2.3874579E-001 -2.5459259E-002 0.0  2.5469094E-001 -3.6021526E-002 0.0  2.5398630E-001 -5.5995395E-002 0.0  2.7127883E-001 -4.5854705E-002 0.0  1.8872861E-001  2.6315953E-002 0.0  2.2192217E-001 -1.4866198E-002 0.0  1.2240014E-001  1.0851379E-001 0.0  1.6969310E-001 -2.2932332E-002 0.0  2.0236939E-001 -8.4741601E-002 0.0  1.9800507E-001 -1.0345995E-001 0.0  1.8383721E-001 -9.1521743E-002 0.0  2.4181981E-001  3.4459796E-002 0.0  1.2291615E-001  1.2852136E-001 0.0  2.0294361E-001 -6.4289584E-002 0.0  2.7133875E-001 -9.7538136E-003 0.0  2.0779034E-001  7.5684665E-002 0.0  1.2423792E-001  1.6859530E-001 0.0  1.0652382E-001  1.5918312E-001 0.0  1.2550861E-001  2.0857518E-001 0.0  1.7777826E-001  2.1682389E-001 0.0  4.0437770E-002  2.2130559E-001 0.0  2.2313538E-002  2.3204346E-001 0.0  2.3137150E-001  2.6506796E-001 0.0  2.3203835E-001  2.8505761E-001 0.0  2.1507374E-001  2.9562626E-001 0.0  2.3272162E-001  3.0503961E-001 0.0  2.1601482E-001  3.1510887E-001 0.0  1.9814451E-001  3.0611545E-001 0.0  2.3267693E-001  3.2431770E-001 0.0  2.5001540E-001  3.1427639E-001 0.0  1.9974325E-001  3.2921095E-001 0.0  1.8129373E-001  3.1726354E-001 0.0  1.8128359E-001  3.3440825E-001 0.0  1.6229553E-001  3.2955829E-001 0.0  1.6319796E-001  3.0780928E-001 0.0  1.4650245E-001  3.1793358E-001 0.0  1.4578608E-001  2.9801980E-001 0.0  1.2884905E-001  3.0853161E-001 0.0  1.2900990E-001  3.2767262E-001 0.0  1.1185560E-001  3.1883836E-001 0.0  1.1144235E-001  3.3756714E-001 0.0  1.2817812E-001  2.8854490E-001 0.0  1.6275427E-001  2.8745799E-001 0.0  1.4516319E-001  2.7795601E-001 0.0  1.6213008E-001  2.6739628E-001 0.0  1.1054008E-001  2.7911827E-001 0.0  3.9822468E-002  2.0142383E-001 0.0  7.0486559E-002  3.4882287E-001 0.0  2.8314166E-001  3.3490435E-001 0.0  2.8294312E-001  2.9455081E-001 0.0  2.4924712E-001  2.9445527E-001 0.0  1.8043427E-001  2.9694218E-001 0.0  1.9743408E-001  2.8622305E-001 0.0  1.0853269E-001  2.1914948E-001 0.0  1.0716077E-001  1.7925416E-001 0.0  2.5103034E-001 -1.1516495E-001 0.0  2.3131767E-001  3.4528814E-001 0.0  7.1688045E-002  1.6086548E-001 0.0  7.5192624E-002  2.6026042E-001 0.0  1.9542151E-001  2.2624429E-001 0.0  1.4449204E-001  2.5796965E-001 0.0  9.0887093E-002  2.0973501E-001 0.0  7.5859854E-002  2.8023668E-001 0.0  1.9477820E-001  2.0620795E-001 0.0  9.3564156E-002  2.8968340E-001 0.0  1.1120895E-001  2.9905463E-001 0.0  1.0785761E-001  1.9917441E-001 0.0  1.7647094E-001  1.7678748E-001 0.0  1.7508638E-001  1.3685058E-001 0.0  2.1053646E-001  1.5561311E-001 0.0  2.3234269E-002  1.0552857E-002 0.0  1.9280668E-001  1.4623202E-001 0.0  1.2827626E-002  1.4023389E-002 0.0  1.4272805E-002  1.0453090E-002 0.0  1.3247214E-002  1.0443514E-002 0.0  1.1250807E-002  1.0424332E-002 0.0  1.2250000E-002  1.0388752E-002 0.0  1.7750000E-002  1.0433013E-002 0.0  1.9176068E-002  1.0458330E-002 0.0  9.2429923E-003  1.0436940E-002 0.0  8.7547478E-003  1.0446208E-002 0.0  2.1753106E-002  1.0336660E-002 0.0  2.2168420E-002  1.0512693E-002 0.0  6.3010427E-003  1.0464056E-002 0.0  2.6496613E-001  2.2439760E-001 0.0  1.5828393E-002  1.2124706E-002 0.0  1.4017967E-002  1.0945208E-002 0.0  5.8952042E-003  1.5299462E-002 0.0  2.8279737E-001  2.3481893E-001 0.0  7.8729023E-002 -6.9221410E-003 0.0  8.2782903E-002  1.0578323E-003 0.0  3.9095520E-002 -4.7102184E-002 0.0  3.4744183E-002 -5.5045787E-002 0.0  4.4043735E-002 -6.3710156E-002 0.0  5.6350104E-002 -4.7040297E-002 0.0  8.1514381E-002 -4.5531020E-002 0.0  7.6643614E-002 -4.7257695E-002 0.0  2.9127309E-002 -4.8087556E-002 0.0  6.0258456E-002  3.3133631E-001 0.0  2.4519248E-002  1.2294689E-002 0.0  1.5449218E-002  2.8037990E-001 0.0  1.4963221E-002  3.1822112E-001 0.0  1.5056656E-002  1.9806740E-002 0.0  1.3172227E-002  1.9392874E-002 0.0  5.7062848E-003  1.2610150E-002 0.0  1.9621120E-002  9.2318421E-002 0.0  1.1425792E-001 -3.9059937E-002 0.0  1.3000000E-001  3.4812103E-001 0.0  3.4377645E-002  1.7308729E-002 0.0  2.2248317E-002  1.7043466E-002 0.0  2.7860808E-002  1.6168434E-002 0.0  2.8561614E-002  1.7745871E-002 0.0  3.0372137E-002  1.7467175E-002 0.0  3.2113910E-002  1.8867148E-002 0.0  2.4573358E-002  1.1194252E-002 0.0  1.9523099E-002  1.0972980E-002 0.0  1.6339026E-002  1.4267877E-002 0.0  1.7189602E-002  1.4886499E-002 0.0  2.8282173E-001  2.5467084E-001 0.0  1.3830746E-002  6.7605579E-002 0.0  1.9315432E-002  6.0595106E-002 0.0  2.1960608E-002  1.5595106E-002 0.0  5.4439770E-002  1.5150943E-001 0.0  6.2458664E-003  1.1122893E-001 0.0  9.5019447E-002  3.2870835E-001 0.0  1.4605633E-002  1.0951590E-002 0.0  1.5633964E-002 -8.7729528E-002 0.0  3.1285435E-002 -9.4696473E-002 0.0  2.6598815E-001  2.8442008E-001 0.0  2.8232805E-001  1.7451760E-001 0.0  2.6668319E-001  3.2453723E-001 0.0  1.1932012E-002  6.2779853E-002 0.0  1.2617611E-002  5.7996082E-002 0.0  1.6816253E-001 -8.2079433E-002 0.0  1.5238182E-002  1.0365871E-002 0.0  2.6833143E-001  3.4711811E-001 0.0  2.7053077E-001 -1.1852460E-001 0.0  2.6621250E-002  1.5983130E-002 0.0  6.1469959E-003  1.7648541E-002 0.0  1.8993281E-001 -1.1931921E-001 0.0  2.6630584E-001  3.0451006E-001 0.0  3.0114544E-002  3.4742458E-001 0.0  3.2118158E-002  2.2022510E-002 0.0  8.0611338E-003  1.0807535E-002 0.0  1.2975393E-002  1.0863638E-002 0.0  9.5381200E-002 -2.0000000E-002 0.0  1.3022251E-002  1.8357951E-001 0.0  5.3594731E-002 -5.3808839E-002 0.0  3.1229973E-002 -1.1838962E-001 0.0  5.3870514E-003  1.0785266E-002 0.0  6.5616765E-002  9.6078950E-003 0.0  1.3274198E-001 -3.9815137E-002 0.0  1.0479543E-002  1.5257986E-002 0.0  7.8891291E-003  1.3224282E-002 0.0  2.1477725E-002  1.3553341E-002 0.0  1.0726334E-001  9.6144195E-002 0.0  2.4228913E-002  1.0418157E-002 0.0  2.0772518E-002  1.0431096E-002 0.0  1.3068184E-002  1.7544495E-002 0.0  2.2969476E-002  1.3417354E-002 0.0  1.2294331E-001  6.8582563E-002 0.0  1.6896101E-001  3.4870256E-001 0.0  1.0301595E-002  1.0440384E-002 0.0  8.6486452E-002 -1.1892277E-001 0.0  8.3228917E-003  6.8405531E-002 0.0  7.9646047E-003  5.1313306E-002 0.0  1.7646870E-002  4.9580909E-002 0.0  8.1882500E-003  4.8633227E-002 0.0  8.6322248E-003  8.2320674E-002 0.0  7.9745995E-003  2.7651007E-002 0.0  8.2786538E-003  7.3642590E-002 0.0  7.5519130E-003  4.3345607E-002 0.0  8.0384828E-003  6.3408102E-002 0.0  8.7514581E-003  5.5729317E-002 0.0  2.3703546E-002 -3.0276020E-002 0.0  1.0597350E-002  1.6346976E-002 0.0  2.1080581E-001 -1.1843138E-001 0.0  4.4496643E-003 -3.3597372E-002 0.0  1.1395231E-002  1.1645057E-002 0.0  9.7871999E-003  2.0218415E-002 0.0  1.0757706E-001  1.3941811E-001 0.0  1.8676021E-002  1.4198241E-002 0.0  2.0341748E-002  1.4267787E-002 0.0  2.1075489E-002  1.4143004E-002 0.0  2.1870756E-002  1.4380047E-002 0.0  1.3608549E-002  1.3903081E-002 0.0  1.1171917E-002  4.5513907E-002 0.0  2.2456982E-002  1.0866497E-002 0.0  9.5475794E-002 -8.0800426E-002 0.0  1.7108900E-002  1.4065109E-002 0.0  2.9568912E-002  1.9377839E-002 0.0  1.2099764E-001 -1.0254552E-001 0.0  5.8619355E-003 -4.7076698E-002 0.0  6.9034116E-003  1.5858371E-002 0.0  1.6585921E-002 -3.5578804E-002 0.0  9.3120778E-002 -3.9373425E-002 0.0  9.5666570E-002 -3.6868675E-002 0.0  8.9451063E-002 -2.8379340E-002 0.0  8.5532459E-002 -3.1706375E-002 0.0  3.9382285E-002  1.6157982E-001 0.0  9.6556667E-002 -4.2900636E-002 0.0  1.6572677E-002  1.1563526E-002 0.0  5.9504205E-002  1.8309830E-002 0.0  7.1878544E-003  1.0403110E-002 0.0  8.1687493E-003  5.8362623E-002 0.0  6.6144868E-003  1.0889733E-002 0.0  1.7596130E-002  1.1420423E-002 0.0  2.7013399E-002  1.7447700E-002 0.0  2.4527646E-002  1.2936222E-002 0.0  8.7809148E-002  1.5215578E-001 0.0  2.3697087E-002  1.3300443E-002 0.0  2.3812659E-001 -1.0223964E-001 0.0  2.1803264E-001  3.3257126E-001 0.0  1.9196510E-001  3.4905282E-001 0.0  2.7373083E-002  1.9753003E-002 0.0  7.0220742E-002 -1.2256933E-001 0.0  1.3899161E-002  1.1962862E-002 0.0  1.0435330E-001  1.5360946E-002 0.0  1.2563922E-001 -1.1958130E-001 0.0  2.4935569E-001  3.3280593E-001 0.0  1.5399774E-001 -1.1855498E-001 0.0  1.8175193E-002  3.2929546E-002 0.0  1.3507310E-002  1.2510629E-002 0.0  8.2309480E-002 -2.7994918E-002 0.0  1.1511999E-002  1.0768103E-002 0.0  1.0958865E-002  1.2105984E-002 0.0  2.4093049E-002  1.1951197E-002 0.0  1.2445566E-002  1.0798983E-002 0.0  2.4881875E-003  1.3818699E-001 0.0  2.5504099E-002  1.9952961E-002 0.0  1.2127860E-001  2.7237513E-002 0.0  1.2712154E-002  1.0460473E-001 0.0  1.1421216E-002  1.8819209E-002 0.0  2.0376358E-002  2.2201619E-002 0.0  1.1787831E-001 -2.3947785E-002 0.0  2.1104124E-002  1.0828857E-002 0.0  9.2273000E-002 -3.2413150E-002 0.0  6.1148945E-002 -4.2113362E-002 0.0  9.2088675E-002 -2.0668998E-002 0.0  6.2267857E-002 -3.2898409E-002 0.0  6.3750000E-002 -3.0000000E-002 0.0  4.1250000E-002 -3.2834936E-002 0.0  8.3716228E-002 -1.2698719E-002 0.0  8.9082856E-002 -1.2654441E-002 0.0  7.3857143E-002 -1.2972314E-002 0.0  7.1700473E-002 -1.2024117E-002 0.0  6.2139514E-002 -1.3762211E-003 0.0  6.2258335E-002 -8.7056056E-003 0.0  2.6250000E-002 -3.2834936E-002 0.0  6.2014421E-002  8.7899797E-003 0.0  6.2064635E-002  1.0859467E-002 0.0  4.4099206E-002 -2.7531914E-002 0.0  5.3431122E-002 -2.7754655E-002 0.0  3.3261905E-002 -2.7499973E-002 0.0  6.5510377E-002 -1.2578061E-002 0.0  7.1107143E-002 -2.7893516E-002 0.0  1.3772181E-002 -2.7147653E-002 0.0  6.2135864E-002 -3.5371099E-003 0.0  6.4583333E-002 -2.7286681E-002 0.0  2.4113154E-002 -4.2303286E-002 0.0  2.3725674E-002 -3.3131129E-002 0.0  7.3852041E-002 -3.2869232E-002 0.0  4.3705635E-002 -4.2115919E-002 0.0  5.0072963E-002 -4.2017926E-002 0.0  5.1017857E-002 -3.2872231E-002 0.0  6.6580526E-002 -4.2389554E-002 0.0  3.6250000E-002 -3.2834936E-002 0.0  7.3850370E-002 -4.2832807E-002 0.0  6.8375000E-002 -3.2889042E-002 0.0  8.1250000E-002 -4.2165064E-002 0.0  7.6250000E-002 -2.7165064E-002 0.0  5.8541667E-002 -2.7464159E-002 0.0  8.5668975E-003 -2.6975378E-002 0.0  3.0633586E-002  1.6050005E-002 0.0  1.6854058E-001 -1.0111657E-001 0.0  1.0109679E-002  2.4965917E-002 0.0  5.2556907E-002  1.3544123E-001 0.0  7.8463883E-002 -3.0873478E-002 0.0  3.1322917E-002 -3.1247539E-002 0.0  4.6055556E-002 -3.1275487E-002 0.0  5.6605974E-002 -3.0840412E-002 0.0  3.8750000E-002 -2.9259909E-002 0.0  5.3718622E-002  1.7366818E-002 0.0  4.6010416E-002  1.7757299E-002 0.0  3.9624469E-002  1.7027051E-002 0.0  1.0280540E-001 -3.8955376E-002 0.0  6.2752957E-003  2.1790043E-002 0.0  1.0744636E-002  2.8917151E-002 0.0  2.4317645E-002  1.4362477E-002 0.0  9.5448330E-003  1.0831655E-002 0.0  2.8751119E-001 -8.4784736E-002 0.0  4.9131218E-002 -1.0133348E-001 0.0  2.5639803E-002  1.7206475E-001 0.0  8.5163954E-003  1.0809502E-002 0.0  1.5147146E-002  4.0027543E-002 0.0  1.3636346E-001 -5.7903108E-002 0.0  6.0724259E-003  8.4614220E-002 0.0  6.2634105E-003  1.0479896E-001 0.0  6.1929885E-003  1.0208186E-001 0.0  6.0925509E-003  1.0811114E-001 0.0  6.3076393E-003  1.8940460E-002 0.0  6.0987527E-003  9.0752924E-002 0.0  6.7387524E-003  9.8003266E-002 0.0  6.7299985E-003  1.0068253E-001 0.0  6.1856515E-003  6.8431926E-002 0.0  6.4371114E-003  4.1383041E-002 0.0  6.0724259E-003  4.3749306E-002 0.0  6.1160032E-003  2.5109510E-002 0.0  6.1851534E-003  8.7433636E-002 0.0  6.1600076E-003  5.8498028E-002 0.0  6.0658393E-003  5.3614577E-002 0.0  6.2937355E-003  9.6695535E-002 0.0  6.1574946E-003  4.8626832E-002 0.0  6.1128147E-003  6.3469782E-002 0.0  6.0781808E-003  3.0020342E-002 0.0  6.0724259E-003  7.3469244E-002 0.0  6.3371275E-003  4.0000224E-002 0.0  6.5919882E-003  3.7620065E-002 0.0  6.2352717E-003  9.3465605E-002 0.0  6.2325835E-003  7.6195082E-002 0.0  6.2429476E-003  3.6095404E-002 0.0  6.2693012E-003  3.2742119E-002 0.0  6.0977528E-003  7.9538445E-002 0.0  1.1019456E-002  1.0760843E-002 0.0  3.6394828E-003  1.4192157E-001 0.0  1.0946020E-002  5.2070486E-002 0.0  1.2056391E-003  1.3237732E-001 0.0  1.3577325E-002  2.1842245E-001 0.0  2.4260276E-003  1.2839455E-001 0.0  5.4015751E-003  1.1435450E-001 0.0  6.7777165E-003  1.1612849E-001 0.0  4.8893400E-003  1.1767798E-001 0.0  4.4582088E-003  1.1897777E-001 0.0  3.3390115E-003  1.2520980E-001 0.0  4.1732101E-003  1.2164325E-001 0.0  2.6670679E-001 -6.5676980E-002 0.0  4.8753184E-002 -7.9721205E-002 0.0  2.5914644E-002  2.4697848E-001 0.0  6.2421018E-003  1.3230354E-002 0.0  8.0000000E-002  3.3565250E-001 0.0  2.8535898E-001  3.5035898E-001 0.0  2.8535898E-001 -1.2035898E-001 0.0  1.3823318E-002  2.1481246E-002 0.0  1.4427655E-001  3.3327388E-001 0.0  2.8820643E-001 -4.5000000E-002 0.0  7.8872369E-003  1.0375779E-002 0.0  5.3415383E-003  1.0360864E-002 0.0  3.3685208E-002  2.5235078E-002 0.0  6.3402877E-002 -1.3402140E-002 0.0  2.6528162E-002  1.9208583E-001 0.0  1.0527931E-002 -3.4929014E-002 0.0  1.6644381E-002  1.5903047E-002 0.0  2.6653532E-001 -1.0319701E-001 0.0  2.9949765E-002  3.1067834E-001 0.0  2.8413415E-002  3.2694990E-001 0.0  6.9529325E-003  1.6836884E-002 0.0  1.3312135E-002  3.5172162E-001 0.0  9.7446809E-003  1.5763238E-002 0.0  2.9916039E-002  2.9156584E-001 0.0  2.3402468E-002  3.2526108E-002 0.0  1.7538341E-002  1.0780468E-002 0.0  2.4215232E-002  1.1427784E-002 0.0  9.0708114E-004  1.3092611E-001 0.0  2.6730476E-001 -2.6604212E-002 0.0  2.9237532E-002  2.7291509E-001 0.0  1.6307121E-002  1.1992915E-002 0.0  7.4469203E-003  1.1346800E-001 0.0  4.7888173E-002  2.0606622E-002 0.0  1.1145961E-002  1.2673058E-002 0.0  1.3101320E-002  2.4440413E-001 0.0  8.2970081E-003  9.6293968E-002 0.0  4.1399354E-002  3.3552842E-001 0.0  8.4417575E-002  3.5816711E-002 0.0  1.1040661E-001  3.5326952E-001 0.0  6.8400109E-003  1.3199590E-002 0.0  7.2828625E-003  1.3433282E-002 0.0  7.1679243E-003  1.5699554E-001 0.0  5.7545283E-003  1.1012357E-002 0.0  1.3435361E-002 -1.2216813E-001 0.0  2.8725286E-001 -3.7718668E-003 0.0  1.9165962E-002  1.1503713E-002 0.0  1.6791648E-002  1.1181578E-002 0.0  6.0168512E-002 -3.0124436E-002 0.0  6.7455782E-002 -2.9867067E-002 0.0  4.9924968E-002 -3.0030098E-002 0.0  2.7536786E-002 -3.0057557E-002 0.0  3.5000000E-002 -3.0000000E-002 0.0  7.5000000E-002 -3.0000000E-002 0.0  4.2506714E-002 -3.0039144E-002 0.0  2.2667062E-002  1.4024262E-002 0.0  2.4656448E-002  1.0330023E-002 0.0  1.1117253E-001  7.8898997E-002 0.0  2.1652459E-002  1.0756214E-002 0.0  2.7074484E-002  2.1153733E-001 0.0  1.9146616E-002 -2.8802125E-002 0.0  1.7894217E-002  1.1990811E-002 0.0  6.7996210E-002  3.7383540E-002 0.0  2.3864995E-002 -4.6881227E-002 0.0  5.0977055E-002  1.7861972E-002 0.0  2.8939906E-001  1.5000000E-002 0.0  7.1799147E-002 -4.6710214E-002 0.0  2.0238947E-002  1.0324282E-002 0.0  1.6748288E-002  1.0308931E-002 0.0  1.0574056E-001 -9.7102518E-002 0.0  2.0008003E-002  1.6017654E-002 0.0  3.0526668E-002  2.4517790E-002 0.0  7.7756861E-002 -1.1969120E-002 0.0  7.4517913E-002 -9.2495867E-003 0.0  2.2365720E-002  1.1256647E-002 0.0  1.9004177E-002  1.4893620E-002 0.0  1.8237742E-002  1.4797916E-002 0.0  1.9862266E-002  1.4984810E-002 0.0  1.2444593E-002  9.5504384E-002 0.0  1.9998236E-002  1.0718938E-002 0.0  1.3897923E-003 -2.6593598E-002 0.0  1.9938590E-002  1.7274437E-002 0.0  1.8324957E-002  2.7921062E-002 0.0  9.8345145E-003  1.1199553E-002 0.0  5.7642793E-002 -6.2711650E-002 0.0  1.1966134E-002  1.0703536E-002 0.0  1.8178526E-001 -1.0693836E-001 0.0  1.8745902E-002  1.0279285E-002 0.0  1.9573128E-002  1.2027389E-002 0.0  1.0545620E-002  1.7473169E-002 0.0  1.9990251E-002  1.1513298E-002 0.0  6.1719678E-002 -1.3461472E-002 0.0
        </DataArray>
      </Points>
      <Cells>
        <DataArray type="Int32" Name="connectivity" format="ascii">
 952 1174 994 1060 1148 610 949 991 649 649 1161 949 915 989 833 746 926 717 994 1174 912 915 1210 679 697 1120 998 894 1163 967 615 1005 294 967 1053 621 919 1148 1060 446 997 7 894 967 966 961 1217 974 895 1102 1013 926 1082 1029 866 1183 1146 715 957 753 640 1043 909 1096 1195 654 981 1058 611 783 945 932 1035 1115 883 909 1134 640 927 1087 620 1146 1183 1012 859 914 811 979 1072 872 650 1072 979 621 1130 967 718 969 770 632 971 970 838 1070 1016 1016 1017 838 654 1002 908 916 918 618 421 1026 621 633 1146 1012 841 920 851 425 1028 424 743 980 763 828 959 958 1013 1140 895 680 915 679 961 974 721 706 1115 1035 921 922 825 935 936 630 751 921 825 971 984 889 1006 1144 657 932 1044 609 654 1195 1002 828 958 739 443 1007 643 1077 1113 884 954 1022 892 784 945 783 883 1120 1035 926 1029 689 884 1121 1077 787 925 903 7 997 612 294 1005 293 1077 1121 671 1035 1120 697 759 994 961 661 1090 987 669 957 715 717 926 693 833 930 736 960 1177 674 630 941 935 1007 1144 1006 907 939 676 618 979 916 709 1113 1077 871 962 748 611 1173 981 759 961 732 736 930 923 998 1120 856 695 969 718 778 1231 917 828 1003 959 661 987 662 648 1117 919 1022 1176 892 953 1055 905 943 944 836 800 971 889 685 980 743 422 1026 421 632 984 971 736 923 921 981 1072 1058 781 954 892 913 995 832 742 989 915 942 1037 639 833 1068 930 653 1112 1015 982 1025 637 928 1087 927 615 1186 1005 607 1008 395 444 1007 443 1059 1148 887 887 1170 1059 867 1071 933 1073 1157 992 919 1060 648 697 998 698 846 968 845 859 1018 914 1098 1140 660 677 960 674 908 1067 654 991 1073 992 778 917 780 811 914 813 613 1124 1024 920 1219 851 1024 1076 613 963 964 776 733 963 776 643 1007 986 871 1213 962 983 1027 831 746 1082 926 729 921 751 1003 1159 959 734 966 963 843 920 841 704 1152 1020 705 722 704 710 725 706 833 1210 915 663 1098 660 712 726 709 739 958 735 837 943 836 1018 1170 914 968 1214 845 719 729 713 715 727 714 1026 1130 621 933 934 823 718 735 717 743 744 742 886 1231 778 669 715 714 788 925 787 679 719 713 953 1219 627 695 718 717 903 1063 1034 656 1028 425 424 1028 637 283 1160 1124 970 1079 632 685 743 742 983 1212 1027 685 742 683 395 1008 394 986 1009 643 705 723 722 710 728 725 956 1157 1073 945 1114 932 914 1170 887 712 730 726 695 717 693 910 930 870 723 740 722 913 1211 995 965 975 776 922 972 825 679 713 677 665 712 709 669 714 667 796 936 935 745 954 781 772 931 828 748 962 740 728 765 725 948 1097 612 761 958 858 1071 1191 933 879 978 849 732 961 720 691 710 706 730 754 726 1028 1172 982 715 731 727 446 1108 997 719 736 729 1003 1046 642 681 705 704 786 933 823 718 739 735 1004 1197 822 777 940 886 743 745 744 803 1230 988 736 921 729 701 711 707 932 1114 1044 1050 1165 1164 885 1073 991 820 942 890 810 927 859 745 781 744 836 945 784 775 962 881 950 952 759 796 935 794 461 659 460 634 1081 1027 1069 1121 819 723 748 740 1055 1205 905 931 1003 828 620 1126 927 627 1219 976 707 716 708 734 963 724 982 1172 983 1134 1176 1045 916 979 872 944 1128 1052 925 1138 903 639 1175 942 934 1191 1041 1018 1057 647 720 961 721 975 1025 982 990 1156 804 972 1206 628 652 1031 1010 724 963 733 964 965 776 962 999 881 973 1132 703 1020 1080 704 824 1065 940 747 950 759 729 751 750 907 1153 939 735 761 746 671 1121 1069 702 973 703 879 1162 978 727 767 756 957 1156 753 735 958 761 918 1084 618 1042 1172 1095 683 915 680 978 1162 636 875 981 893 769 818 731 938 1169 937 772 828 739 878 1132 973 1015 1151 653 676 939 678 764 954 745 774 826 758 1030 1031 629 636 1105 978 1013 1102 635 1001 1117 648 716 724 720 965 1025 975 855 896 854 853 854 846 740 775 741 769 829 818 786 823 738 1029 1082 822 740 962 775 983 1172 1042 774 864 826 962 1213 999 765 824 777 824 940 777 689 980 686 711 1180 707 1011 1183 661 765 777 766 937 1223 938 825 902 801 754 814 810 767 796 794 991 992 649 764 955 954 751 825 801 751 801 752 707 1180 911 814 927 810 761 820 762 673 957 670 1027 1081 951 767 794 768 731 938 727 829 991 949 858 942 820 787 871 748 783 931 772 1018 1126 1057 609 1129 932 758 946 728 761 858 820 985 1145 929 754 810 755 737 738 730 716 734 724 829 948 818 757 758 728 699 969 696 1058 1072 650 976 1219 920 690 926 689 716 720 708 936 1108 630 724 732 720 738 985 730 826 1030 947 867 933 786 781 869 782 701 707 702 783 932 931 1003 1129 1046 665 709 666 733 747 732 952 994 759 787 903 871 933 1191 934 693 926 690 830 951 950 675 907 676 661 1183 1090 775 880 793 922 1206 972 781 892 869 851 905 840 753 769 731 808 872 809 775 881 880 857 904 791 662 987 665 853 855 854 1075 1193 664 724 733 732 1124 1160 1023 771 830 747 817 887 882 777 886 778 794 797 795 794 935 797 817 882 832 820 890 821 947 1201 946 808 916 872 785 786 738 935 941 797 734 1086 966 760 774 758 627 1142 953 770 772 739 776 975 771 1051 1136 614 851 953 905 814 928 927 825 972 902 822 1197 1029 810 859 811 898 993 896 763 764 745 670 957 669 829 949 948 848 849 847 707 708 702 791 925 788 976 1225 627 742 915 683 700 1016 699 969 1093 770 840 943 837 780 808 807 1136 1221 614 946 1224 728 966 967 964 826 947 946 801 956 802 923 924 922 749 787 748 985 1227 730 813 817 816 921 923 922 691 706 692 869 909 870 896 1133 897 865 867 786 845 847 843 855 898 896 735 746 717 798 971 800 610 1148 1059 905 1205 1128 860 1009 986 830 950 747 637 1028 982 612 1110 948 729 750 713 975 982 831 980 1197 763 747 759 732 841 851 840 849 850 847 882 919 913 850 977 976 773 783 772 698 998 701 707 911 716 813 914 817 727 756 714 857 1001 904 896 897 854 1063 1178 1034 938 1223 727 668 1077 671 684 685 683 780 917 808 792 857 791 728 1224 765 831 1027 830 875 893 877 730 1227 754 994 1217 961 800 889 888 740 741 722 981 1173 893 733 771 747 696 969 695 970 971 798 712 987 737 908 1002 867 984 1151 889 944 945 836 727 1223 767 993 1165 616 891 1076 1024 849 978 850 873 981 875 942 1175 890 999 1000 881 765 766 725 896 1218 1133 720 721 708 885 991 829 797 970 798 860 879 849 1010 1031 864 1080 1089 687 681 704 682 839 840 837 848 860 849 988 1019 803 847 920 843 703 1016 700 781 782 744 686 980 685 963 966 964 694 695 693 1015 1112 1014 771 831 830 761 762 746 1010 1032 652 850 976 920 845 848 847 754 755 726 823 1145 985 751 752 750 1016 1125 699 790 791 788 835 836 784 860 986 879 756 1075 714 1022 1160 625 863 1075 756 659 1013 460 767 768 756 774 988 868 908 1146 1067 958 1222 858 869 1134 909 674 1177 673 769 990 885 699 1125 969 905 1128 943 972 1005 902 937 997 936 1164 1165 900 775 793 741 820 821 762 939 1091 705 733 776 771 882 1148 919 801 802 752 703 1017 1016 668 669 667 1074 1083 804 794 795 768 777 778 766 712 737 730 808 809 807 678 679 677 804 1156 1074 917 918 916 1024 1124 1023 1015 1118 889 869 870 782 872 873 809 659 1140 1013 1052 1220 944 902 956 801 710 757 728 817 832 816 854 968 846 982 983 831 818 938 731 893 894 877 810 811 755 927 1126 859 689 1029 980 890 891 821 882 913 832 826 946 758 848 861 860 667 1075 664 797 798 795 630 1179 941 1033 1149 880 715 753 731 949 1097 948 861 1009 860 1023 1160 1022 796 937 936 684 1080 687 903 1138 1063 719 833 736 1051 1092 924 1001 1008 904 681 939 705 956 1073 802 872 1072 873 909 910 870 823 985 738 955 1022 954 456 1014 455 718 770 739 881 1111 880 941 970 797 771 975 831 688 1088 691 989 1068 833 940 1101 886 743 763 745 723 749 748 1158 1174 952 678 939 681 737 785 738 688 689 686 694 1035 697 688 1185 1088 1002 1071 867 701 702 700 774 868 864 665 987 712 769 885 829 904 925 791 716 911 734 673 1074 957 757 760 758 930 1068 870 1052 1128 619 785 865 786 903 1034 871 905 943 840 698 699 696 986 1006 879 640 1134 1045 899 900 898 864 1030 826 967 1130 964 955 1023 1022 839 841 840 760 988 774 892 1176 1134 941 1079 970 850 978 977 672 673 670 865 908 867 753 990 769 1201 1224 946 713 960 677 868 1010 864 701 998 711 901 912 900 852 853 846 986 1007 1006 662 663 660 682 683 680 804 1154 990 770 773 772 966 1086 894 675 1147 907 657 1061 1006 790 792 791 850 920 847 835 837 836 749 788 787 725 1115 706 763 1004 764 814 929 928 953 1142 1055 773 784 783 1004 1103 764 880 1149 793 692 693 690 817 914 887 744 989 742 760 1019 988 675 676 674 665 666 664 662 665 664 889 1118 888 995 1123 832 808 917 916 664 1193 663 672 675 674 702 703 700 698 701 700 726 1113 709 684 686 685 898 1165 993 950 1094 952 668 670 669 1031 1189 629 965 1130 1026 628 1137 972 1009 1047 643 1024 1103 891 400 1181 1000 676 677 674 830 1027 951 1067 1146 633 694 696 695 710 1088 757 965 1026 1025 691 692 690 955 1024 1023 666 667 664 631 1188 999 942 1104 1037 678 680 679 864 1031 1030 1000 1188 400 844 846 845 722 1152 704 978 1105 977 688 691 690 688 690 689 1020 1089 1080 973 1127 878 988 1149 868 959 1222 958 910 1196 930 1036 1094 951 658 1195 1096 616 1165 1050 919 1117 913 902 1186 956 873 1072 981 661 662 660 951 1094 950 698 700 699 873 875 874 672 674 673 1030 1184 947 890 1076 891 1041 1106 934 662 664 663 923 1196 924 681 682 680 463 1011 462 969 1125 1093 875 877 876 1063 1138 607 678 681 680 855 899 898 796 1223 937 798 800 799 893 1085 894 757 1088 906 644 1218 1168 608 1204 1032 778 780 779 668 671 670 1042 1212 983 1070 1125 1016 723 1091 749 622 661 660 682 684 683 671 672 670 800 888 805 465 633 464 459 635 458 904 1190 925 819 1229 1069 1145 1228 1207 463 1012 1011 924 1196 1136 1017 1216 838 897 968 854 780 807 806 811 813 812 868 1033 1010 462 622 461 714 1075 667 721 973 708 1032 1135 608 844 845 843 616 1168 993 692 694 693 899 901 900 467 654 466 457 655 456 432 1036 431 429 1042 428 441 624 440 433 623 432 281 1038 280 280 639 279 379 658 378 426 656 425 282 613 281 279 1037 278 453 653 452 448 630 447 380 1040 379 278 617 277 440 1048 439 277 1039 276 381 638 380 424 637 423 451 632 450 285 625 284 276 642 275 382 1041 381 286 1045 285 275 1046 274 437 616 436 384 626 383 421 621 420 287 640 286 274 609 273 443 643 442 430 634 429 436 1050 435 442 1047 441 288 1043 287 273 1044 272 420 1053 419 289 614 288 272 645 271 419 646 418 439 644 438 434 1054 433 290 1051 289 271 1052 270 387 620 386 418 1056 417 435 641 434 270 619 269 388 1057 387 417 611 416 292 628 291 269 1055 268 389 647 388 416 1058 415 390 1059 389 415 650 414 267 627 266 391 610 390 295 615 294 392 1060 391 413 618 412 393 648 392 297 649 296 264 636 263 411 651 410 263 1061 262 410 1062 409 262 657 261 7 612 299 396 607 395 409 606 408 397 1063 396 408 1064 407 407 1066 406 399 631 398 406 629 405 404 652 403 402 608 401 901 994 912 813 816 815 1017 1132 1119 967 1163 1053 672 1069 675 1065 1226 940 607 1190 1008 931 1129 1003 694 697 696 648 1141 1001 666 668 667 460 1013 459 924 1136 1051 999 1188 1000 676 678 677 858 1104 942 929 1227 985 458 1021 457 697 698 696 655 1014 456 708 973 702 706 1035 692 671 1069 672 842 843 841 859 1126 1018 466 1067 465 878 1099 853 955 1103 1024 1010 1033 1032 450 1079 449 906 1019 760 749 1091 789 827 995 792 280 1038 639 613 1038 281 639 1037 279 379 1040 658 278 1037 617 617 1039 277 638 1040 380 634 1042 429 623 1036 432 276 1039 642 381 1041 638 441 1047 624 285 1045 625 642 1046 275 624 1048 440 640 1045 286 274 1046 609 433 1054 623 439 1048 644 643 1047 442 287 1043 640 609 1044 273 621 1053 420 614 1043 288 272 1044 645 419 1053 646 435 1050 641 616 1050 436 289 1051 614 645 1052 271 646 1056 418 641 1054 434 270 1052 619 387 1057 620 417 1056 611 619 1055 269 647 1057 388 611 1058 416 389 1059 647 415 1058 650 610 1059 390 391 1060 610 648 1060 392 636 1061 263 651 1062 410 262 1061 657 409 1062 606 396 1063 607 606 1064 408 1064 1066 407 406 1066 629 943 1128 944 679 1210 719 974 1127 721 838 839 837 1005 1137 293 852 878 853 1085 1163 894 997 1108 936 789 790 788 655 1015 1014 684 687 686 632 1079 450 431 1081 430 834 835 784 930 1196 923 1116 1157 615 622 1011 661 979 1200 650 618 1200 979 299 1097 298 951 1081 1036 997 1110 612 832 1123 816 1036 1081 431 430 1081 634 844 852 846 932 1129 931 948 1169 818 412 1084 411 992 1116 649 709 1077 666 987 1182 737 618 1084 412 411 1084 651 873 874 809 984 1203 653 632 1203 984 802 1154 804 687 688 686 1168 1218 993 995 1211 792 620 1087 386 464 1012 463 798 799 795 941 1179 1079 1164 1174 641 265 1105 264 821 822 762 782 989 744 290 1092 1051 628 1092 291 703 1132 1017 705 1091 723 1122 1167 1049 911 1194 734 721 1127 973 691 1088 710 956 1186 1157 386 1087 385 802 804 752 265 1166 1105 624 1049 1048 638 1071 1040 613 1076 1038 606 1065 1064 793 803 741 454 1112 453 939 1153 1091 778 779 766 646 1085 1056 704 1080 682 870 1068 782 465 1067 633 999 1213 631 291 1092 290 845 1214 848 384 1100 626 875 876 874 811 812 755 1042 1095 428 622 659 461 642 1159 1003 635 1021 458 768 863 756 1117 1211 913 652 1189 1031 622 660 659 457 1021 655 283 1124 282 750 960 713 800 805 799 382 1106 1041 626 1106 383 855 1099 899 459 1013 635 944 1220 945 964 1130 965 630 1108 447 1097 1161 298 654 1067 466 861 1167 1122 1111 1135 880 839 842 841 295 1116 615 649 1116 296 814 1227 929 780 806 779 293 1137 292 785 866 865 790 827 792 764 1103 955 623 1094 1036 835 838 837 1110 1169 948 813 815 812 749 789 788 1034 1178 631 385 1100 384 889 1151 1015 1087 1100 385 822 1171 1004 876 1194 1180 807 856 806 773 834 784 467 1096 654 1032 1204 652 925 1190 1138 612 1097 299 1012 1183 1011 428 1095 427 892 1134 869 21 1202 454 455 1202 21 816 819 815 284 1160 283 853 1099 855 734 1194 1086 757 906 760 888 1102 805 468 1096 467 807 1078 856 401 1181 400 842 844 843 393 1141 648 1055 1142 268 267 1142 627 899 974 901 782 1068 989 1019 1020 803 383 1106 382 1145 1207 929 400 1188 399 809 1078 807 827 996 995 1000 1111 881 422 1150 1026 1025 1150 637 894 1086 877 768 1107 863 297 1161 649 378 1208 19 447 1108 446 887 1148 882 692 1035 694 627 1166 266 437 1168 616 644 1168 438 666 1077 668 660 1140 659 625 1176 1022 834 1070 835 19 1208 468 1004 1171 1103 912 1164 900 629 1184 1030 992 1157 1116 264 1105 636 631 1213 1034 397 1178 1063 631 1178 398 448 1179 630 20 1199 426 427 1199 20 899 1099 974 663 1192 1098 857 1117 1001 261 1198 0 0 1198 445 629 1189 405 404 1189 652 651 1101 1062 1047 1122 624 874 1078 809 762 1082 746 687 1185 688 1008 1141 394 650 1200 414 413 1200 618 653 1203 452 451 1203 632 652 1204 403 402 1204 608 682 1080 684 934 1145 823 937 1110 997 296 1116 295 752 1083 750 861 1122 1009 1079 1179 449 653 1151 984 795 1107 768 647 1170 1018 835 1070 838 818 1169 938 1061 1162 1006 805 862 799 856 1155 998 972 1137 1005 805 895 862 453 1112 653 928 1100 1087 444 1144 1007 1037 1104 617 1105 1166 977 822 1082 762 1044 1114 645 990 1154 885 750 1083 960 949 1161 1097 821 1171 822 766 1115 725 804 1083 752 755 1113 726 462 1011 622 815 884 812 1049 1133 1048 806 883 779 857 1211 1117 1084 1187 651 1009 1122 1047 1053 1163 646 893 1173 1085 977 1225 976 900 1165 898 423 1150 422 770 1093 773 1094 1158 952 641 1174 1054 924 1206 922 655 1118 1015 877 1194 876 663 1193 1192 1065 1143 1064 998 1155 711 282 1124 613 637 1150 423 790 1131 827 897 1133 1049 895 1098 862 910 1221 1136 1001 1141 1008 799 1107 795 1066 1184 629 1057 1126 620 633 1012 464 906 1089 1019 1076 1175 1038 878 1127 1099 1006 1162 879 1085 1173 1056 912 1174 1164 993 1218 896 805 1102 895 789 1131 790 866 1182 1090 1074 1177 1083 638 1191 1071 1046 1129 609 614 1221 1043 1071 1195 1040 1043 1221 909 645 1220 1052 890 1175 1076 623 1158 1094 909 1221 910 812 1113 755 606 1226 1065 675 1215 1147 866 1146 865 624 1122 1049 929 1207 928 773 1093 834 779 1115 766 1048 1133 644 1026 1150 1025 1029 1197 980 394 1141 393 880 1135 1033 268 1142 267 1095 1172 656 1019 1089 1020 608 1135 1111 292 1137 628 1027 1212 634 838 1216 839 1033 1135 1032 803 1152 741 1104 1139 617 852 1132 878 918 1187 1084 1021 1118 655 816 1123 819 945 1220 1114 868 1149 1033 1090 1183 866 445 1144 444 897 1167 968 1091 1153 789 617 1139 1039 754 1227 814 1074 1156 957 996 1123 995 1049 1167 897 844 1119 852 876 1109 874 765 1224 824 1014 1202 455 862 1107 799 824 1201 1065 767 1223 796 851 1219 953 1207 1228 626 298 1161 297 842 1119 844 628 1206 1092 1090 1182 987 1002 1195 1071 988 1230 1149 1101 1187 886 1064 1143 1066 792 1211 857 266 1166 265 438 1168 437 741 1152 722 656 1172 1028 1101 1226 1062 625 1160 284 885 1154 1073 891 1171 821 785 1182 866 1020 1152 803 865 1146 908 884 1113 812 874 1109 1078 1005 1186 902 1131 1147 827 1180 1194 911 883 1115 779 398 1178 397 449 1179 448 974 1217 901 1054 1158 623 1119 1132 852 1039 1159 642 636 1162 1061 753 1156 990 789 1153 1131 1118 1209 888 856 1120 806 858 1222 1104 1050 1164 641 1139 1159 1039 1073 1154 802 917 1231 918 1008 1190 904 819 1121 815 1103 1171 891 1144 1198 657 454 1202 1112 1107 1192 863 1078 1155 856 1099 1127 974 608 1181 401 405 1189 404 1056 1173 611 1059 1170 647 1104 1222 1139 646 1163 1085 1038 1175 639 414 1200 413 1069 1215 675 895 1140 1098 452 1203 451 1045 1176 625 403 1204 402 806 1120 883 399 1188 631 815 1121 884 834 1125 1070 848 1214 861 863 1193 1075 824 1224 1201 737 1182 785 940 1226 1101 827 1147 996 1092 1206 924 657 1198 261 426 1199 656 658 1208 378 1021 1209 1118 1041 1191 638 1065 1201 1143 1093 1125 834 1040 1195 658 1034 1213 871 862 1192 1107 627 1225 1166 1100 1207 626 928 1207 1100 1187 1231 886 619 1205 1055 959 1159 1139 763 1197 1004 793 1230 803 634 1212 1042 888 1209 1102 1109 1155 1078 842 1216 1119 719 1210 833 1083 1177 960 635 1209 1021 1157 1186 615 876 1180 1109 626 1228 1106 1062 1226 606 1111 1181 608 1102 1209 635 651 1187 1101 1088 1185 906 1000 1181 1111 901 1217 994 673 1177 1074 1098 1192 862 937 1169 1110 1095 1199 427 996 1229 1123 1123 1229 819 1086 1194 877 656 1199 1095 1112 1202 1014 711 1155 1109 468 1208 1096 839 1216 842 1138 1190 607 1054 1174 1158 1128 1205 619 907 1147 1131 1096 1208 658 1143 1184 1066 1143 1201 947 1114 1220 645 1119 1216 1017 1109 1180 711 906 1185 1089 1131 1153 907 861 1214 1167 947 1184 1143 1136 1196 910 1089 1185 687 445 1198 1144 1133 1218 644 1106 1228 934 1167 1214 968 1192 1193 863 934 1228 1145 1147 1215 996 918 1231 1187 1139 1222 959 1166 1225 977 1149 1230 793 1215 1229 996 1069 1229 1215 1589 1863 1366 1239 1794 1613 1543 1732 1670 1365 1929 1806 1331 1926 1849 1635 1637 1630 1565 1857 1566 1252 1650 1649 1590 1932 1754 1676 1953 1770 1268 1755 1596 1758 1932 1549 1792 1854 1657 1806 1807 1365 1814 1863 1589 1703 1787 1786 1260 1823 1672 1368 1863 1814 1676 1770 1552 1622 1734 1455 1670 1732 1244 1637 1966 1630 1252 1963 1650 1873 1978 1571 1523 1842 1722 1596 1755 1612 1393 1662 1451 1662 1901 1850 1701 1708 1698 1622 1936 1734 1366 1899 1589 1628 1708 1701 1666 1668 1667 1273 1966 1637 1671 1828 1249 1666 2033 1600 1672 1823 1673 1385 1638 1370 1703 1786 1245 1722 1842 1254 1571 1978 1581 1754 1932 1266 1612 1755 1285 40 1756 39 1648 1773 1582 1606 2003 1448 1256 1808 1680 1494 1635 1630 1677 1758 1549 1715 1905 1779 1678 1881 1721 1756 1970 39 1420 1606 1448 255 1658 256 1770 1946 1279 1479 1633 1476 1769 1770 1279 1680 1808 1682 1657 1854 1572 1455 2023 1622 1285 1756 1612 1636 1648 1466 1425 1949 1912 1333 1565 1323 1422 1659 1436 1659 2002 1436 1385 1829 1638 1286 1799 1768 1321 1333 1323 1671 1903 1890 1753 1817 1691 1715 1779 1272 1379 1662 1393 1743 1765 1265 1286 1288 37 1709 1912 1410 1668 1669 1667 1691 1817 1690 1644 1828 1671 1857 1858 1566 1613 1819 1239 1701 1912 1709 1464 1648 1582 1448 2003 1563 1671 1890 1672 1247 1911 1877 1375 1901 1662 1877 1911 1691 1633 2011 1476 1763 1813 1744 1336 1961 1604 1673 1674 1527 1721 1943 1678 1445 1643 1423 1604 2021 1336 1266 1932 1758 1808 1846 1682 1754 1798 1590 1573 1947 1918 1639 1656 1547 1862 1920 1593 1629 1631 1483 1652 1653 1514 1303 1599 1336 1321 1323 1322 1682 1846 1733 1714 1726 1530 1244 1706 426 1775 1848 1282 1547 1656 1580 1703 1838 1787 1678 1895 1881 1321 2022 1568 1855 2003 1921 1469 1636 1466 1648 1994 1773 1457 1639 1547 1957 2004 1467 1492 1673 1527 1794 1826 1613 1372 1638 1375 1541 1732 1543 1301 1599 1303 1651 1851 1237 1393 1414 1392 1495 1635 1494 1289 1292 1291 1744 1950 1763 1292 1419 1293 1391 1415 1385 1644 1671 1522 1327 1334 1330 1369 1391 1385 1425 1912 1700 1721 1728 1719 1430 1431 1402 1339 1363 1341 1593 1886 1862 1661 1837 1270 1299 1614 1365 1643 1984 1423 426 1706 20 1370 1638 1372 1386 1402 1387 1582 1664 1462 1345 1455 1347 1352 1409 1364 1637 1815 1273 1379 1393 1392 1342 1605 1345 1301 2029 1599 1363 1412 1401 1481 1629 1483 1288 1729 1289 1646 1647 1529 1610 2032 1999 1379 1392 1380 1640 1641 1539 1611 1854 1792 1511 1652 1514 1309 1321 1311 1409 1422 1411 1391 1423 1415 1361 1645 1369 1849 1926 1697 1409 1411 1364 1348 1675 1352 1297 1614 1299 1363 1401 1341 1565 1951 1856 1800 2032 1610 1491 1644 1522 1386 1430 1402 1335 1601 1339 1389 1885 1879 1466 1648 1464 1614 1929 1365 1416 1617 1417 37 1288 36 1456 1457 1419 1889 1955 1738 1615 1616 1416 1393 1420 1414 1420 1448 1414 256 1658 1250 1423 1449 1415 1297 2032 1614 1456 1729 1575 1382 1386 1384 1432 1489 1431 1730 2012 1724 1323 1325 1324 1517 1640 1539 1596 2026 1268 1908 1968 1388 1430 1432 1431 1369 1385 1370 1692 1968 1908 1656 1924 1580 1505 1646 1529 1422 1436 1411 1376 1379 1378 1714 1973 1726 1375 1662 1376 1303 1336 1305 1412 1440 1433 1358 1360 1359 1292 1293 1291 1402 1615 1403 432 1910 1897 1412 1433 1401 1523 1722 1573 1342 2019 1605 1455 1803 1347 1570 2033 1666 1292 1729 1456 1818 1821 1513 1860 1957 1467 1564 1795 1790 1403 1416 1407 1436 2002 1562 1372 1375 1374 1552 1840 1676 1292 1456 1419 1692 1908 1438 1689 1955 1889 1253 1699 1695 1403 1615 1416 1333 1951 1565 1434 1491 1435 1651 1676 1554 1440 1655 1541 1457 1547 1485 1728 1839 1719 1535 1715 1714 1382 2017 1386 1335 1339 1338 1376 1662 1379 1617 2024 1417 1299 1365 1301 1288 1289 1261 1616 1618 1617 1574 1639 1457 1417 1434 1421 1286 1872 1288 1629 1782 1631 1250 1939 1859 1265 1931 1743 1706 1958 20 1339 1341 1340 1360 1645 1361 1481 1483 1479 1500 1561 1489 1705 1902 413 1432 1500 1489 1724 2012 1725 1731 1777 1242 1264 1724 1702 1720 1721 1719 1545 1731 1712 1636 1994 1648 1493 1644 1491 1439 1487 1422 36 1288 1261 1334 1335 1330 1243 1924 1656 1361 1369 1367 1295 1395 1297 1710 2006 1837 1720 1943 1721 1409 1675 1439 1264 1730 1724 1852 1878 1364 1663 1726 1234 1454 1551 1452 1352 1364 1353 1491 1522 1492 413 1979 1705 1283 1720 1719 1440 1541 1433 1711 1994 1636 1494 1629 1481 1436 1562 1510 1529 1651 1554 1619 1620 1618 1449 1540 1505 1517 1539 1445 1448 1518 1504 1566 2020 1565 1857 2004 1858 1444 1445 1423 1856 1857 1565 1765 1809 1265 1355 1358 1357 1462 1664 1460 1540 1646 1505 1309 2022 1321 1454 1552 1551 1457 1485 1419 1386 1387 1384 1771 1772 1591 1452 1606 1420 1438 1925 1692 1402 1403 1387 1434 1493 1491 1581 1878 1852 1701 1709 1628 1563 1564 1518 1494 1630 1629 1756 1809 1612 1712 1905 1715 1879 1885 1709 1562 1598 1510 1521 1550 1473 1551 1769 1607 1448 1563 1518 1530 1532 1498 1742 1743 1251 1345 1347 1346 1842 1867 1725 1616 1619 1618 1449 1505 1450 1488 1556 1487 1563 2003 1855 1456 1574 1457 1652 1704 1653 1662 1850 1451 1710 1837 1556 1348 2027 1675 1661 1785 1660 1735 1906 1253 1416 1417 1407 1673 1823 1674 1556 1558 1487 1647 1851 1651 1473 1636 1469 1616 1617 1416 1489 1654 1490 1820 2002 1987 1345 1605 1455 1559 1640 1517 1434 1435 1421 1547 1580 1579 1500 1611 1561 1545 1712 1536 1446 1517 1445 1498 1635 1495 1392 1608 1380 1521 1649 1550 1535 1714 1531 1859 1939 1767 1379 1380 1378 1460 1655 1440 1288 1872 1729 1270 1974 1661 1325 1327 1326 1451 1452 1420 1485 1805 1419 1255 1976 1623 1664 1958 1706 1321 1322 1311 1649 1650 1550 1598 1704 1652 1321 1568 1333 1441 1460 1440 1329 1900 1843 1609 1805 1485 1734 1803 1455 1491 1492 1435 1460 1664 1655 1551 1607 1606 1505 1529 1506 1348 1352 1350 1480 1481 1479 1729 1872 1575 1436 1510 1437 1526 1559 1517 1518 1657 1572 1858 1957 1602 1630 1782 1629 1334 1989 1864 1601 1831 1363 1323 2020 1325 1593 1710 1557 1244 1732 1706 1920 2010 1593 1559 1826 1640 1487 1659 1422 1543 1670 1594 1482 1494 1481 1395 2032 1297 1453 1454 1452 1599 1961 1336 1536 1712 1535 1489 1490 1431 1631 1634 1632 1731 1964 1777 1655 1732 1541 1649 1847 1252 1499 1530 1498 1593 2010 1710 1508 1867 1842 1360 1888 1645 1557 1710 1556 1558 1661 1660 1375 1376 1374 1623 1988 1255 1253 1906 1699 1546 1591 1545 1409 1439 1422 1619 1703 1620 1531 1714 1530 1287 1848 1775 1733 1846 1247 1289 1291 1290 1532 1663 1637 1380 1608 1382 1448 1504 1414 1717 1827 1336 1639 1658 1656 1592 1593 1557 1358 1978 1873 1339 1601 1363 1671 1672 1522 1631 1632 1483 1516 1898 1833 1342 1345 1344 1352 1675 1409 1603 1613 1559 1772 1964 1591 36 1261 35 38 1286 37 1335 2028 1601 1672 1890 1260 1532 1637 1635 1594 1886 1544 1423 1984 1449 1547 1579 1485 1667 1844 1832 1664 1706 1655 1702 1724 1527 1861 1907 1408 1522 1673 1492 34 1253 33 1474 1521 1473 1575 1872 1768 1858 2004 1957 1282 1975 1775 1538 1545 1536 1704 1705 1653 1394 1825 1727 34 1735 1253 1565 2020 1323 1478 1479 1476 1417 2024 1434 1247 1877 1733 1602 1864 1858 1832 1844 1761 1497 1498 1495 1620 1621 1618 1511 1514 1513 1237 1953 1651 1534 1535 1531 1464 1582 1462 1550 1711 1636 1654 1838 1490 1561 1654 1489 1412 1441 1440 1259 1758 1677 1656 1887 1243 1323 1324 1322 1768 1799 1263 1290 1735 1261 1580 1771 1579 1358 1873 1360 1439 1488 1487 1562 1820 1598 1898 1927 1833 1530 1726 1532 1391 1444 1423 1647 1651 1529 1449 1450 1415 1792 2008 1611 1454 1840 1552 1518 1572 1504 1369 1370 1367 1558 1660 1659 1787 1838 1654 1822 1941 1884 1483 1633 1479 1293 1805 1295 1251 1744 1742 1712 1715 1535 1704 1981 1275 1641 1642 1539 1541 1543 1542 1286 1956 1799 1551 1606 1452 1471 1473 1469 1488 1557 1556 1615 1940 1616 1909 1995 1328 1510 1652 1511 1564 1657 1518 1897 1910 1634 1790 1992 1564 1461 1462 1460 1550 1636 1473 1360 1361 1359 1558 1837 1661 1336 1827 1305 1289 1729 1292 1339 1340 1338 1513 2000 1818 1327 1989 1334 1658 1939 1250 1543 1594 1544 1829 1893 1638 1402 2034 1615 1285 1970 1756 1918 1947 1248 1444 1446 1445 1505 1506 1450 1713 1915 1699 1562 2002 1820 1842 2012 1254 1645 2031 1369 1358 1359 1357 1582 1958 1664 1532 1635 1498 1341 2019 1342 1598 1981 1704 1638 1901 1375 1436 1437 1411 1446 1526 1517 1719 1839 1707 1650 1711 1550 1261 1735 35 1675 1868 1439 1529 1554 1506 1393 1451 1420 1539 1643 1445 1327 1330 1329 1561 1824 1654 1762 1766 1262 1570 1832 1569 1244 1917 1670 1526 1603 1559 1234 1983 1663 1538 1546 1545 1591 1731 1545 1552 1769 1551 1772 1811 1269 1770 1953 1830 1431 2034 1402 1886 1936 1544 1639 1939 1658 1598 1652 1510 1414 1665 1392 1534 1536 1535 1654 1824 1787 1568 1833 1333 1715 1922 1714 1540 1941 1822 1283 1719 1718 1499 1531 1530 1492 1527 1524 1497 1499 1498 1430 1555 1432 1674 1702 1527 1419 1805 1293 1510 1511 1437 1640 2007 1641 1480 1482 1481 1365 2029 1301 1412 1831 1441 1417 1421 1418 1334 2028 1335 1482 1495 1494 1684 1693 1681 1451 1453 1452 1552 1770 1769 1352 1353 1350 1558 1659 1487 1441 1461 1460 1355 1978 1358 1450 1829 1415 1478 1480 1479 1555 1723 1432 1453 1585 1454 1305 1827 1307 1249 1903 1671 1731 1905 1712 1310 1816 1308 1293 1295 1294 1641 2007 1793 1403 1407 1406 1341 1342 1340 1513 1821 1571 1681 1693 1584 1541 1542 1433 1347 1348 1346 1471 1474 1473 1507 1829 1450 1882 1975 1282 1463 1464 1462 1532 1726 1663 1893 1980 1586 1325 1989 1327 1432 1723 1500 1345 1346 1344 1325 1326 1324 1743 1931 1251 1618 1937 1617 1668 1907 1669 1601 1972 1831 1716 1812 1438 1259 1943 1942 1427 1919 1849 1543 1544 1542 1540 1822 1646 1441 1831 1486 1546 1771 1591 1769 1945 1607 1380 1382 1381 1767 1768 1263 1289 1290 1261 1694 1841 32 1683 1733 1686 1410 1879 1709 1663 1815 1637 1472 1876 1857 1392 2030 1608 1320 1736 1396 1708 1960 1698 1736 1738 1396 1318 1736 1320 1389 1746 1737 1319 1746 1389 1428 1738 1502 1396 1738 1428 1398 1752 1746 1746 1752 1737 1390 1745 1424 1398 1746 1332 1424 1745 1459 1739 1745 1390 1447 1739 1399 1447 1740 1739 1399 1739 1362 1447 1741 1740 1740 1745 1739 1503 1747 1429 1741 1765 1743 1747 1765 1741 1741 1742 1740 1597 1747 1503 1429 1747 1447 1447 1747 1741 1741 1743 1742 1624 1752 1520 1737 1752 1624 1520 1752 1426 1458 1748 1525 1501 1749 1595 1519 1750 1578 502 1755 501 501 1755 1268 486 1754 1266 498 1753 497 501 1268 500 1627 1708 1628 487 1754 486 491 1757 1267 1268 1764 500 48 1762 47 492 1757 491 496 1247 495 484 1259 483 49 1284 48 486 1266 485 488 1759 487 490 1761 489 491 1267 490 493 1256 492 499 1257 498 484 1758 1259 487 1759 1754 1267 1761 490 44 1251 43 47 1262 46 42 1265 41 1284 1762 48 482 1283 481 1257 1753 498 1256 1757 492 499 1764 1257 1262 1763 46 485 1758 484 47 1762 1262 1266 1758 485 489 1258 488 489 1761 1258 503 1285 502 1625 1679 1627 1258 1759 488 1627 1628 1626 46 1763 45 500 1764 499 1285 1755 502 1626 1737 1624 1625 1627 1626 1625 1626 1624 1623 1625 1624 1596 1612 1597 1623 1624 1520 1596 1597 1503 1578 1623 1520 1525 1751 1750 1525 1750 1519 1519 1578 1520 1595 1596 1503 1459 1748 1458 1458 1525 1519 1502 1749 1501 1519 1520 1426 1501 1595 1503 1501 1503 1429 1458 1519 1426 1428 1502 1501 1424 1459 1458 1424 1458 1426 1429 1447 1399 1426 1752 1398 1428 1501 1429 1597 1765 1747 1424 1426 1398 1428 1429 1399 1396 1428 1399 1390 1424 1398 1390 1398 1332 1362 1739 1390 1396 1399 1362 1688 1691 1690 1362 1390 1332 1320 1396 1362 1688 1690 1689 1332 1746 1319 1320 1362 1332 1688 1689 1687 1320 1332 1319 1686 1688 1687 1687 1692 1685 1318 1320 1319 1388 1736 1318 1319 1389 1317 1686 1687 1685 1316 1388 1318 1318 1319 1317 1849 1919 1331 1683 1686 1685 1316 1318 1317 1683 1685 1684 1744 1810 1742 1369 2031 1391 1605 2023 1455 1275 1902 1704 1560 1592 1557 1826 2007 1640 1316 1317 1315 1683 1684 1681 1682 1733 1683 1382 1384 1383 1575 1767 1574 1748 1766 1525 1405 1883 1576 29 1944 1679 1706 1732 1655 1810 1813 1459 478 1248 477 1525 1766 1751 1672 1673 1522 1315 1410 1313 1314 1316 1315 1665 2030 1392 1682 1683 1681 1580 1772 1771 1334 1864 1602 1651 1953 1676 1785 1987 1660 1749 2001 1595 1825 2014 1727 1723 1854 1500 1312 1716 1438 493 1808 1256 1597 1809 1765 1745 1810 1459 1742 1810 1740 445 1811 0 1767 1939 1574 1556 1837 1558 1363 1831 1412 2001 2026 1595 1768 1872 1286 475 1254 474 1461 1463 1462 1634 1847 1632 427 1232 428 444 1269 445 443 1777 444 440 1272 441 378 1287 379 425 1244 426 379 1774 380 439 1780 440 380 1260 381 423 1271 424 20 1773 427 422 1776 423 421 1241 422 435 1273 436 383 1249 384 420 1778 421 442 1242 443 430 1252 431 441 1779 442 384 1783 385 419 1270 420 385 1274 386 438 1234 439 433 1233 434 386 1784 387 417 1785 418 434 1781 435 387 1245 388 416 1240 417 388 1786 389 415 1788 416 389 1276 390 414 1275 415 390 1789 391 391 1235 392 392 1791 393 411 1239 412 393 1277 394 410 1794 411 394 1790 395 409 1278 410 395 1795 396 408 1793 409 396 1236 397 397 1796 398 406 1238 407 398 1279 399 405 1797 406 404 1280 405 401 1237 402 1376 1378 1377 1843 1909 1329 1347 2027 1348 1572 1854 1723 1744 1813 1810 1336 2021 1717 1850 1901 1586 35 1735 34 1759 1798 1754 1702 1882 1264 1760 1844 1669 1335 1338 1337 479 1707 478 1295 1297 1296 480 1718 479 436 1815 437 473 1264 472 1295 2036 1395 1716 1904 1812 1492 1524 1435 1702 1975 1882 1679 2016 29 1613 1826 1559 494 1808 493 1312 1438 1314 1782 2035 1631 31 1246 30 25 1801 24 26 1281 25 28 1255 27 27 1802 26 1695 1697 1696 1612 1809 1597 1740 1810 1745 1314 1315 1313 1537 1538 1536 1653 1875 1514 1465 1466 1464 1415 1829 1385 471 1282 470 1915 1998 1699 1564 1855 1795 1756 1913 1809 1272 1922 1715 1478 1804 1480 1695 1849 1697 1773 1994 1232 1411 1852 1364 476 1722 475 1680 1682 1681 1595 2026 1596 427 1773 1232 444 1777 1269 1287 1774 379 380 1774 1260 1242 1777 443 423 1776 1271 1272 1779 441 1241 1776 422 440 1780 1272 421 1778 1241 1234 1780 439 442 1779 1242 1249 1783 384 1270 1778 420 385 1783 1274 435 1781 1273 1274 1784 386 1233 1781 434 387 1784 1245 1240 1785 417 1245 1786 388 416 1788 1240 389 1786 1276 1275 1788 415 1276 1789 390 391 1789 1235 1235 1791 392 393 1791 1277 411 1794 1239 1277 1790 394 1278 1794 410 1790 1795 395 409 1793 1278 396 1795 1236 1236 1796 397 398 1796 1279 406 1797 1238 1280 1797 405 1258 1760 1759 1533 1534 1531 1253 1695 1694 1632 1633 1483 474 1730 473 1273 1815 436 1493 1938 1644 1370 1372 1371 1591 1964 1731 1472 1857 1856 1807 2029 1365 1709 1885 1628 1459 1813 1748 1297 1299 1298 1293 1294 1291 255 1887 1658 1526 1818 1603 1247 1846 495 1271 2018 1917 1269 1964 1772 1576 1678 1677 1527 1724 1524 1586 1901 1893 1584 2005 1443 1680 1681 1584 1564 1992 1657 1299 1301 1300 1705 1819 1653 1511 1513 1512 1669 1907 1861 1313 1816 1310 1257 1817 1753 40 1913 1756 1456 1575 1574 1642 1643 1539 1496 1497 1495 1696 1841 1694 1417 1418 1407 1486 1972 1957 1372 1374 1373 1301 1303 1302 1677 1943 1259 1542 1853 1433 1514 2000 1513 1762 1996 1766 1665 1965 1555 1959 1971 1784 1691 1911 1753 1303 1305 1304 1246 1960 1708 1327 1329 1326 1563 1855 1564 33 1694 32 1704 1902 1705 1438 1908 1314 401 1830 1237 1281 1801 25 26 1802 1281 1255 1802 27 1305 1307 1306 1315 1879 1410 1468 1469 1466 1771 1916 1579 1488 1560 1557 1733 1877 1686 1711 1865 1232 1353 1878 1355 494 1846 1808 1504 1665 1414 1858 1864 1566 1693 1843 1584 1475 1476 1474 1832 1930 1569 1579 1609 1485 1697 1700 1698 400 1830 401 1307 1309 1308 1361 1367 1366 428 1865 429 1613 1875 1819 1602 2028 1334 1267 1832 1761 1760 1798 1759 1693 1995 1909 1865 1963 429 1287 1775 1774 1233 1782 1781 1788 1820 1240 1786 1787 1276 1791 1792 1277 1278 1826 1794 1688 1877 1691 1500 1854 1611 1389 1879 1317 1309 1311 1310 1463 1465 1464 1700 1701 1698 1403 1406 1387 1269 1811 445 1405 1576 1549 1576 1895 1678 1470 1471 1469 1237 1851 402 1737 1885 1389 1628 1885 1626 1280 1822 1797 1603 1875 1613 1645 1888 1835 1421 1508 1418 1736 1889 1738 1615 2034 1940 1477 1478 1476 1249 1828 1783 1942 1943 1720 258 1263 259 1442 2033 1570 1351 1874 1668 1718 1719 1707 1820 1981 1598 1386 1967 1430 1676 1840 1554 38 1956 1286 1721 1871 1728 1421 1867 1508 1805 2036 1295 1849 1998 1427 1658 1887 1656 256 1250 257 1538 1610 1546 1619 1838 1703 1560 1734 1592 1427 1998 1915 1476 2011 1474 1506 1507 1450 1840 1914 1554 1650 1865 1711 408 1866 1793 1238 1866 407 432 1897 433 1838 1940 1490 1316 1908 1388 1793 1866 1641 1989 2020 1566 1862 1886 1594 1283 1942 1720 1251 1950 1744 1353 1355 1354 1605 2019 1853 1433 1853 1401 1446 1553 1526 496 1911 1247 1753 1911 497 1534 1537 1536 1669 1861 1760 1723 1965 1572 413 1902 414 1801 1836 24 1630 1966 1782 1589 1899 1404 1499 1533 1531 402 1851 403 431 1910 432 1774 1823 1260 1276 1824 1789 1577 1717 1484 31 1841 1246 1699 1998 1695 1622 1853 1542 1251 1931 43 42 1931 1265 1611 1891 1561 24 1836 23 1717 1804 1484 1260 1890 381 1441 1486 1461 1355 1357 1356 495 1846 494 0 1243 254 404 1892 1280 482 1942 1283 1259 1942 483 1348 1350 1349 44 1950 1251 1763 1950 45 1335 1337 1330 32 1841 31 1254 1730 474 1511 1512 1437 257 1859 258 1380 1381 1378 1486 1957 1860 1884 1997 1238 1689 1968 1687 1482 1496 1495 478 1707 1248 1572 1965 1504 3 1970 503 39 1970 3 383 1903 1249 1548 1589 1404 1280 1991 1822 1623 1976 1625 1544 1622 1542 1312 1314 1313 1465 1468 1466 1679 2025 1627 259 1799 260 1760 1993 1798 260 1956 1 1384 1825 1394 473 1730 1264 0 1811 1243 1537 1800 1538 1585 1840 1454 1245 1971 1703 475 1722 1254 1453 1586 1585 1780 1922 1272 1917 2018 1670 1575 1768 1767 1248 1947 477 1697 1698 1696 1342 1344 1343 41 1913 40 425 1917 1244 1271 1917 424 1291 1713 1290 1817 2001 1749 1394 1881 1383 1471 1475 1474 1442 1570 1569 1295 1296 1294 1775 1823 1774 1787 1824 1276 1938 1948 1828 1533 1806 1534 470 1848 469 1328 1995 1904 407 1866 408 1646 1991 1647 412 1979 413 1853 2023 1605 1766 1996 1751 1538 1800 1610 30 1944 29 1307 2022 1309 1418 1869 1407 1819 1979 1239 1592 1886 1593 1700 1926 1425 1878 1978 1355 1282 1848 470 1583 1680 1584 1524 1867 1435 1693 1909 1843 1279 1946 399 1797 1884 1238 1608 2017 1382 1376 1377 1374 479 1718 1707 1912 1949 1816 1553 1818 1526 1463 1467 1465 1843 2005 1584 1468 1470 1469 1242 1905 1731 1680 2013 1256 1513 1571 1512 1382 1383 1381 430 1963 1252 1631 2035 1634 1684 1995 1693 1583 1584 1443 1534 1806 1537 1496 1515 1497 19 1990 378 1546 1916 1771 1601 2028 1972 419 1974 1270 1785 1974 418 1264 1882 472 2 1982 49 1 1956 38 438 1983 1234 1232 1865 428 1384 1394 1383 1674 1823 1775 1921 2003 1607 1705 1979 1819 1666 1667 1570 1841 1960 1246 1999 2032 1395 469 1990 19 1795 1855 1236 1833 1933 1516 1815 1983 437 23 1982 2 1776 1862 1271 1851 1892 403 1370 1371 1367 1475 1477 1476 1435 1867 1421 1632 1923 1633 1257 2001 1817 1258 1844 1760 1439 1868 1488 1468 1472 1470 481 1985 22 1904 1995 1812 1484 1804 1478 1351 1668 1666 1555 1965 1723 1281 1977 1969 1544 1936 1622 1364 1878 1353 1650 1963 1865 1685 1925 1684 1678 1943 1677 1724 1725 1524 1560 1803 1734 1937 2024 1617 472 1882 471 1695 1696 1694 1663 1983 1815 1297 1298 1296 1574 1939 1639 1528 1587 1509 1410 1816 1313 1800 1929 1614 1686 1877 1688 1772 1924 1811 400 1946 1830 1361 1366 1359 1477 1484 1478 1804 1845 1480 1470 1870 1471 1763 1952 1813 22 1985 480 1748 1952 1766 1497 1834 1499 1317 1879 1315 381 1890 382 1533 1807 1806 1507 1893 1829 1923 2011 1633 1444 1835 1446 1836 1954 1284 1766 1952 1262 1699 1906 1713 1299 1300 1298 403 1892 404 1620 1971 1959 254 1887 255 1588 1727 1587 1263 1859 1767 1626 1885 1737 471 1882 1282 28 2016 1255 1916 1999 1609 1571 1581 1512 1669 1844 1667 1822 1991 1646 1930 2013 1583 1496 1604 1515 1620 1959 1621 1508 1523 1509 1592 1936 1886 1353 1354 1350 1727 1871 1394 1383 1881 1397 1388 1889 1736 1508 1842 1523 1824 1891 1789 1387 1825 1384 1619 1940 1838 1703 1971 1620 1661 1974 1785 1798 1814 1590 1461 1860 1463 1372 1373 1371 1338 1400 1337 1515 1834 1497 1585 1914 1840 1348 1349 1346 1301 1302 1300 1281 1969 1801 1738 1955 1502 1670 2018 1594 1472 1856 1567 1274 1959 1784 1972 2028 1602 1847 1923 1632 1342 1343 1340 1480 1845 1482 1553 1821 1818 1472 1567 1470 1697 1926 1700 1322 1716 1311 1407 1869 1406 1437 1852 1411 1477 1516 1484 1506 1914 1507 1303 1304 1302 1853 2019 1401 1337 1900 1330 1555 2030 1665 1614 2032 1800 1240 1987 1785 1515 1962 1834 1789 1891 1235 1451 1850 1453 1761 1844 1258 433 1897 1233 1674 1975 1702 1876 2004 1857 382 1903 383 1644 1938 1828 1889 1968 1689 1890 1903 382 1861 1993 1760 1642 1997 1884 1507 1980 1893 1725 1867 1524 1647 1892 1851 1579 1916 1609 1577 1827 1717 1499 1834 1533 1822 1884 1797 1446 1835 1553 1725 2012 1842 1828 1948 1783 1523 1573 1528 1847 1910 1252 1782 1966 1781 1381 1894 1378 1521 1923 1649 1508 1509 1418 1305 1306 1304 1488 1868 1560 1707 1839 1248 1279 1945 1769 1610 1999 1916 1802 1988 1977 1830 1946 1770 1657 1992 1792 1944 2025 1679 1325 2020 1989 1569 1930 1583 1821 1873 1571 1265 1913 41 258 1859 1263 1374 1883 1373 1788 1981 1820 1708 2025 1246 1773 1958 1582 1576 1677 1549 1792 1992 1277 1486 1860 1461 1819 1875 1653 1278 2007 1826 1791 2008 1792 1355 1356 1354 1692 1925 1685 1471 1870 1475 1521 2011 1923 1294 1713 1291 1684 1925 1812 1307 1308 1306 1580 1924 1772 414 1902 1275 1312 1313 1310 1406 1825 1387 1641 1997 1642 1509 1869 1418 1253 1694 33 1250 1859 257 1727 2014 1587 1290 1906 1735 1314 1908 1316 424 1917 425 497 1911 496 477 1947 476 1401 2019 1341 1634 1910 1847 1252 1910 431 1482 1845 1496 1821 1888 1873 1516 1577 1484 1779 1905 1242 1408 1935 1861 1463 1860 1467 1309 1310 1308 1233 2035 1782 1330 1900 1329 20 1958 1773 1344 1351 1343 1357 1368 1356 1351 1600 1343 1809 1913 1265 1776 1920 1862 1512 1852 1437 1232 1994 1711 1350 1896 1349 1855 1921 1236 1243 1887 254 1590 1814 1589 1607 2003 1606 1616 1940 1619 1453 1850 1586 1326 1328 1324 1749 2009 1817 1621 1948 1938 1802 1977 1281 1587 1869 1509 1726 1973 1234 1449 1984 1540 1298 1427 1296 1311 1312 1310 1827 1934 1307 1523 1528 1509 1649 1923 1847 1700 1912 1701 1371 1899 1367 1954 1996 1284 1880 2033 1400 1378 1894 1377 1940 2034 1490 1834 1962 1807 1567 1870 1470 1502 2009 1749 1468 1876 1472 1367 1899 1366 1922 1973 1714 1833 1951 1333 1338 1880 1400 1356 1408 1354 1311 1716 1312 1528 1588 1587 1548 1590 1589 1554 1914 1506 43 1931 42 1241 1920 1776 1533 1834 1807 1377 1883 1374 1893 1901 1638 1383 1397 1381 1561 1891 1824 1814 1993 1368 476 1947 1722 1400 1413 1337 1621 1937 1618 1588 1839 1728 1560 1868 1803 1465 1876 1468 1900 2005 1843 1837 2006 1270 1873 1888 1360 1722 1947 1573 1373 1404 1371 1883 1928 1576 399 1946 400 1236 1921 1796 1302 1331 1300 1255 2016 1976 1354 1896 1350 1467 1876 1465 483 1942 482 1813 1952 1748 1622 2023 1853 1270 2006 1778 1609 2036 1805 1721 1881 1871 1667 1832 1570 1675 2027 1868 1496 1845 1604 1933 2022 1934 1581 1852 1512 1359 1863 1357 1340 1880 1338 45 1950 44 1568 2022 1933 1262 1952 1763 1588 1728 1727 1263 1799 259 1610 1916 1546 1373 1405 1404 1690 1955 1689 1346 1874 1344 1474 2011 1521 1400 1442 1413 1757 1930 1267 1357 1863 1368 1660 2002 1659 429 1963 430 1284 1996 1762 1351 1666 1600 1634 2035 1897 1987 2002 1660 1255 1988 1802 1875 2000 1514 1306 1425 1304 1434 2024 1493 1687 1968 1692 1283 1985 481 1413 1900 1337 1569 1583 1443 49 1982 1284 1891 2008 1235 1816 1949 1308 1751 1969 1750 1477 1898 1516 1812 1995 1684 1830 1953 1237 1783 1948 1274 1734 1936 1592 503 1970 1285 1442 1443 1413 1246 1944 30 1642 1941 1643 1537 1929 1800 418 1974 419 1757 2013 1930 1234 1973 1780 1969 1977 1750 1695 1998 1849 1405 1548 1404 1344 1874 1351 1410 1912 1816 1600 2033 1880 1796 1945 1279 1811 1924 1243 1713 1906 1290 1397 1894 1381 1625 1976 1679 1405 1549 1548 1750 1977 1578 1921 1945 1796 1442 1569 1443 1977 1988 1578 1806 1929 1537 1553 1888 1821 1962 2029 1807 1504 1965 1665 437 1983 438 1578 1988 1623 1957 1972 1602 1366 1863 1359 1777 1964 1269 1373 1883 1405 1781 1966 1273 1583 2013 1680 1801 1954 1836 1764 2001 1257 1588 1918 1839 1322 1904 1716 1600 1880 1343 1239 1979 412 1839 1918 1248 1764 2026 2001 378 1990 1287 1256 2013 1757 1812 1925 1438 1698 1960 1696 1627 2025 1708 1871 1881 1394 1268 2026 1764 1835 1888 1553 1241 2010 1920 1349 1874 1346 1324 1904 1322 1475 1898 1477 1343 1880 1340 1818 2000 1603 1267 1930 1832 1784 1971 1245 1611 2008 1891 1404 1899 1371 1408 1896 1354 1868 2027 1803 1329 1909 1326 1804 2021 1845 1444 2031 1835 1493 2024 1937 1568 1933 1833 1696 1960 1841 1775 1975 1674 1490 2034 1431 1892 1991 1280 1430 1967 1555 1856 1951 1567 1870 1898 1475 1275 1981 1788 1368 1993 1935 29 2016 28 1603 2000 1875 1831 1972 1486 1388 1968 1889 1516 1933 1577 1607 1945 1921 1238 1997 1866 1728 1871 1727 1277 1992 1790 1820 1987 1240 1296 1915 1294 1397 1895 1894 1817 2009 1690 1874 2015 1668 1793 2007 1278 1235 2008 1791 1845 2021 1604 1803 2027 1347 1778 2010 1241 1427 1915 1296 1467 2004 1876 1573 1918 1528 1577 1934 1827 1718 1985 1283 1604 1961 1515 1391 2031 1444 1927 1951 1833 1914 1980 1507 1284 1982 1836 1294 1915 1713 1586 1980 1585 1331 1919 1300 1386 2017 1967 1326 1909 1328 1836 1982 23 1328 1904 1324 1300 1919 1298 1884 1941 1642 1254 2012 1730 1799 1956 260 1933 1934 1577 1298 1919 1427 1869 2014 1406 1425 1986 1304 1528 1918 1588 1835 2031 1645 1581 1978 1878 1848 1990 469 1331 1986 1926 1567 1951 1927 480 1985 1718 1934 2022 1307 1304 1986 1302 1621 1938 1937 1937 1938 1493 1567 1927 1870 1287 1990 1848 1408 1907 1896 1356 1935 1408 1377 1928 1883 1948 1959 1274 1780 1973 1922 1647 1991 1892 1862 2018 1271 1864 1989 1566 1302 1986 1331 1894 1928 1377 1443 2005 1413 1368 1935 1356 1961 1962 1515 1548 1932 1590 1549 1932 1548 1870 1927 1898 1866 1997 1641 1798 1993 1814 1907 2015 1896 1896 2015 1349 1895 1928 1894 1717 2021 1804 1308 1949 1306 1400 2033 1442 1999 2036 1609 1406 2014 1825 1801 1969 1954 1954 1969 1751 1306 1949 1425 1594 2018 1862 1621 1959 1948 1897 2035 1233 1585 1980 1914 1587 2014 1869 1926 1986 1425 2006 2010 1778 1599 1962 1961 1976 2016 1679 1349 2015 1874 1941 1984 1643 1540 1984 1941 1690 2009 1955 1751 1996 1954 1955 2009 1502 1246 2025 1944 1967 2030 1555 1710 2010 2006 1413 2005 1900 1668 2015 1907 1599 2029 1962 1576 1928 1895 1935 1993 1861 1967 2017 1608 1608 2030 1967 1395 2036 1999 1881 1895 1397 2186 2314 2185 2077 2314 2186 2216 2317 2215 2081 2317 2216 2146 2341 2306 2125 2328 2323 2306 2341 2127 2165 2322 2164 2322 2332 2164 2306 2337 2146 2138 2152 2141 2153 2325 2154 2040 2155 2133 2155 2411 2133 2323 2328 2126 2272 2407 2343 2273 2407 2272 2147 2307 2042 2135 2152 2138 2338 2343 2132 2086 2150 2149 509 2321 508 2154 2338 2153 509 2444 2321 2149 2151 2086 2138 2139 2137 2135 2138 2137 2041 2337 2306 2042 2433 2147 2148 2428 2339 2133 2135 2134 2281 2364 2319 2281 2406 2364 2140 2148 2143 2135 2137 2136 2138 2140 2139 2297 2363 2318 2297 2403 2363 2148 2339 2143 2236 2360 2256 2256 2362 2236 2272 2343 2338 2140 2143 2139 2258 2361 2309 2258 2400 2361 2218 2367 2289 2289 2369 2218 2226 2370 2270 2270 2371 2226 2182 2328 2125 2285 2359 2311 2285 2398 2359 2133 2152 2135 2188 2374 2301 2301 2377 2188 2194 2376 2260 2287 2356 2316 2287 2395 2356 2260 2380 2194 2040 2133 2131 2228 2379 2254 2254 2381 2228 2142 2148 2140 2373 2416 2184 2279 2355 2313 2279 2392 2355 2190 2383 2264 2264 2418 2190 2366 2413 2214 2321 2444 2129 2283 2416 2373 2205 2385 2268 2268 2388 2205 2129 2444 2128 2230 2387 2262 2262 2389 2230 2303 2413 2366 2133 2411 2152 2337 2439 2148 2291 2354 2315 2291 2390 2354 2128 2345 2129 2174 2390 2291 2262 2352 2312 2262 2387 2352 2143 2147 2144 2141 2142 2140 2291 2419 2174 2207 2391 2277 2211 2392 2279 2279 2393 2211 2158 2323 2126 2254 2351 2310 2254 2379 2351 2182 2344 2124 2277 2420 2207 2142 2337 2148 2200 2394 2275 2135 2136 2134 2145 2146 2142 2221 2395 2287 2287 2397 2221 2086 2330 2150 2133 2134 2131 2178 2396 2293 2223 2398 2285 2275 2421 2200 2285 2401 2223 2270 2348 2314 2270 2370 2348 2196 2399 2295 2143 2144 2139 2251 2400 2258 2258 2404 2251 2124 2436 2182 2256 2347 2317 2256 2360 2347 2321 2324 508 2293 2422 2178 2170 2402 2266 2152 2333 2141 597 2155 2040 2382 2424 2052 2244 2403 2297 2049 2384 2162 2297 2408 2244 2172 2424 2382 2138 2141 2140 2162 2425 2049 2147 2149 2144 2378 2423 2055 2160 2405 2305 2234 2406 2281 2124 2344 2164 2164 2332 2124 2281 2409 2234 2046 2386 2248 2295 2423 2196 2375 2422 2058 2246 2407 2273 2198 2423 2378 2372 2421 2061 2141 2145 2142 2154 2325 2043 2248 2426 2046 2368 2420 2064 2144 2326 2139 2266 2424 2170 599 2157 2038 2365 2419 2067 2180 2422 2375 2126 2335 2158 597 2040 596 72 2043 71 2137 2327 2136 2150 2326 2144 2357 2418 2071 599 2038 598 70 2039 69 2305 2425 2160 2202 2421 2372 2353 2416 2076 601 2065 600 68 2086 67 2271 2273 2272 2358 2412 2168 74 2044 73 2305 2405 2234 73 2154 72 2350 2413 2080 2319 2364 2247 2234 2409 2305 71 2156 70 2209 2420 2368 2130 2331 595 2248 2386 2047 2273 2426 2246 2214 2216 2215 2196 2198 2197 2246 2248 2247 2178 2180 2179 2170 2172 2171 2184 2186 2185 2190 2192 2191 2200 2202 2201 2174 2176 2175 2207 2209 2208 2160 2162 2161 6 2045 148 2214 2215 2121 2160 2161 2091 2184 2185 2117 2170 2171 2094 2085 2165 2164 2200 2201 2103 2123 2168 2167 2178 2179 2100 2207 2208 2106 2174 2175 2108 2196 2197 2097 2190 2191 2112 2246 2247 2088 2266 2402 2244 582 2093 581 551 2238 550 544 2112 543 548 2110 547 512 2158 511 517 2085 516 524 2122 523 528 2120 527 552 2108 551 556 2106 555 555 2219 554 565 2220 564 539 2193 538 541 2227 540 594 2087 593 536 2116 535 584 2092 583 520 2123 519 522 2084 521 514 2125 513 538 2115 537 542 2113 541 553 2173 552 592 2088 591 511 2128 510 532 2118 531 534 2117 533 569 2177 568 586 2091 585 546 2111 545 550 2109 549 559 2210 558 560 2104 559 563 2199 562 549 2229 548 545 2189 544 571 2222 570 535 2183 534 558 2105 557 562 2103 561 564 2102 563 566 2101 565 568 2100 567 570 2099 569 572 2098 571 574 2097 573 575 2195 574 576 2096 575 578 2095 577 580 2094 579 581 2169 580 587 2159 586 588 2090 587 561 2212 560 533 2237 532 537 2187 536 590 2089 589 527 2213 526 529 2217 528 589 2233 588 531 2225 530 567 2231 566 526 2121 525 530 2119 529 540 2114 539 547 2204 546 554 2107 553 543 2203 542 557 2206 556 573 2232 572 591 2249 590 519 2166 518 523 2235 522 516 2163 515 579 2240 578 515 2181 514 521 2224 520 525 2242 524 583 2243 582 577 2250 576 518 2239 517 585 2241 584 593 2245 592 2318 2363 2161 2244 2408 2266 148 2252 147 123 2263 122 134 2076 133 120 2069 119 144 2081 143 116 2067 115 129 2259 128 118 2068 117 121 2267 120 126 2072 125 128 2073 127 132 2075 131 137 2269 136 142 2080 141 96 2056 95 104 2060 103 114 2066 113 127 2253 126 139 2288 138 91 2257 90 105 2274 104 76 2046 75 82 2049 81 119 2261 118 78 2047 77 80 2048 79 84 2050 83 90 2053 89 98 2057 97 100 2058 99 102 2059 101 106 2061 105 110 2063 109 111 2276 110 86 2051 85 88 2052 87 92 2054 91 94 2055 93 108 2062 107 109 2278 108 122 2070 121 124 2071 123 130 2074 129 138 2078 137 140 2079 139 146 2082 145 97 2284 96 136 2077 135 99 2292 98 75 2271 74 112 2064 111 115 2290 114 133 2282 132 103 2286 102 131 2300 130 87 2265 86 93 2294 92 145 2255 144 79 2280 78 141 2302 140 85 2296 84 147 2298 146 81 2304 80 2176 2419 2365 2162 2384 2050 2213 2214 2121 2217 2218 2120 2250 2251 2096 2183 2184 2117 2159 2160 2091 2204 2205 2111 2220 2221 2102 2206 2207 2106 2229 2230 2110 2169 2170 2094 2173 2174 2108 2210 2211 2105 2189 2190 2112 2222 2223 2099 2243 2244 2093 2199 2200 2103 2193 2194 2115 2177 2178 2100 2123 2167 2166 2195 2196 2097 2225 2226 2119 2187 2188 2116 2227 2228 2114 2085 2164 2163 2235 2236 2084 2233 2234 2090 2181 2182 2125 2245 2246 2088 2271 2272 2044 2252 2299 2298 2049 2305 2304 2046 2273 2271 2048 2281 2280 2080 2303 2302 2057 2285 2284 2070 2268 2267 2073 2254 2253 2055 2295 2294 2082 2256 2255 2058 2293 2292 2076 2283 2282 2054 2258 2257 2061 2275 2274 2063 2279 2278 2071 2264 2263 2060 2287 2286 2075 2301 2300 2067 2291 2290 2078 2270 2269 2069 2262 2261 2074 2260 2259 2064 2277 2276 2079 2289 2288 2051 2297 2296 2052 2266 2265 511 2158 2128 2089 2233 589 2087 2245 593 2163 2181 515 2088 2249 591 532 2237 2118 2093 2169 581 528 2217 2120 564 2220 2102 578 2240 2095 2099 2177 569 586 2159 2091 2115 2187 537 2107 2173 553 2090 2159 587 2108 2238 551 2098 2222 571 2096 2195 575 526 2213 2121 2113 2227 541 544 2189 2112 554 2219 2107 2112 2203 543 2110 2204 547 552 2173 2108 584 2241 2092 2109 2229 549 2114 2193 539 2104 2210 559 538 2193 2115 566 2231 2101 2116 2183 535 558 2210 2105 530 2225 2119 560 2212 2104 574 2195 2097 580 2169 2094 2122 2235 523 550 2238 2109 534 2183 2117 546 2204 2111 548 2229 2110 568 2177 2100 2119 2217 529 542 2203 2113 556 2206 2106 2102 2199 563 2105 2206 557 562 2199 2103 570 2222 2099 2120 2213 527 2101 2220 565 2097 2232 573 536 2187 2116 540 2227 2114 2103 2212 561 2106 2219 555 2111 2189 545 2123 2166 519 2084 2224 521 572 2232 2098 2166 2239 518 2100 2231 567 576 2250 2096 522 2235 2084 2118 2225 531 2085 2163 516 524 2242 2122 582 2243 2093 2117 2237 533 588 2233 2090 2094 2240 579 2121 2242 525 590 2249 2089 2092 2243 583 517 2239 2085 520 2224 2123 2095 2250 577 514 2181 2125 2091 2241 585 592 2245 2088 2085 2239 2165 2161 2241 2091 2247 2249 2088 2123 2224 2168 2215 2242 2121 2191 2203 2112 2171 2240 2094 2201 2212 2103 2175 2238 2108 2208 2219 2106 2197 2232 2097 2179 2231 2100 2185 2237 2117 2158 2335 2128 2252 2298 147 2295 2399 2251 2046 2271 75 86 2265 2051 2048 2280 79 2049 2304 81 2057 2284 97 144 2255 2081 90 2257 2053 2069 2261 119 2063 2278 109 2064 2276 111 2061 2274 105 114 2290 2066 2070 2267 121 122 2263 2070 2073 2253 127 2076 2282 133 110 2276 2063 2080 2302 141 2075 2300 131 136 2269 2077 108 2278 2062 2060 2286 103 2058 2292 99 104 2274 2060 118 2261 2068 2054 2257 91 126 2253 2072 120 2267 2069 102 2286 2059 128 2259 2073 138 2288 2078 2055 2294 93 2067 2290 115 2071 2263 123 132 2282 2075 84 2296 2050 2074 2259 129 2078 2269 137 96 2284 2056 98 2292 2057 130 2300 2074 2082 2255 145 92 2294 2054 2079 2288 139 2052 2265 87 140 2302 2079 2051 2296 85 78 2280 2047 146 2298 2082 80 2304 2048 2156 2327 2039 2251 2404 2295 2309 2361 2171 2258 2309 2257 2285 2311 2284 2254 2310 2253 2262 2312 2261 2270 2314 2269 2291 2315 2290 2279 2313 2278 2287 2316 2286 2297 2318 2296 2256 2317 2255 2281 2319 2280 2172 2382 2053 508 2324 507 453 2127 454 447 2042 448 452 2306 453 451 2041 452 448 2307 449 449 2037 450 450 2308 451 2167 2320 2166 2125 2323 513 512 2323 2158 2043 2156 71 2239 2320 2165 2166 2320 2239 2257 2309 2053 2269 2314 2077 2284 2311 2056 2290 2315 2066 2253 2310 2072 2278 2313 2062 2261 2312 2068 2286 2316 2059 2296 2318 2050 2255 2317 2081 2280 2319 2047 2293 2396 2223 2045 2252 148 513 2323 512 2139 2326 2137 2223 2401 2293 2311 2359 2197 2192 2418 2357 2198 2378 2056 2151 2417 2086 74 2271 2044 70 2156 2039 2275 2394 2221 2044 2338 2154 58 2126 59 64 2083 65 55 2129 56 54 2321 55 61 2124 62 63 2322 64 2221 2397 2275 2316 2356 2179 600 2157 599 2180 2375 2059 72 2154 2043 598 2155 597 453 2306 2127 2041 2306 452 2042 2307 448 451 2308 2041 449 2307 2037 2037 2308 450 2277 2391 2211 2211 2393 2277 596 2130 595 2313 2355 2201 2202 2372 2062 2132 2331 2130 2336 2349 2346 2186 2416 2353 2039 2330 69 2147 2339 2307 2315 2354 2208 2209 2368 2066 601 2329 2065 53 2324 54 2268 2385 2230 2230 2389 2268 2299 2412 2358 2312 2352 2175 2264 2383 2205 2176 2365 2068 2340 2433 2042 2205 2388 2264 2149 2150 2144 2044 2154 73 2247 2427 2319 2260 2376 2228 55 2321 2129 64 2322 2083 2216 2413 2350 2228 2381 2260 2310 2351 2191 2086 2417 67 2301 2374 2194 2192 2357 2072 2194 2380 2301 2283 2373 2188 2047 2427 2248 2188 2377 2283 594 2331 2087 54 2324 2321 2335 2345 2128 2289 2367 2226 2226 2371 2289 68 2330 2086 2307 2339 2037 2303 2366 2218 2147 2433 2149 2314 2348 2185 2161 2430 2318 2186 2353 2077 2218 2369 2303 65 2336 6 2299 2358 2236 69 2330 68 2236 2362 2299 2317 2347 2215 2050 2430 2162 2216 2350 2081 2126 2328 59 59 2328 60 2171 2434 2309 595 2331 594 2146 2337 2142 6 2336 2045 2127 2341 2329 602 2329 601 2153 2338 2132 2136 2325 2134 2053 2434 2172 2181 2344 2182 2164 2344 2163 2040 2131 2130 2197 2437 2311 2236 2358 2084 2235 2360 2236 2218 2366 2120 2213 2366 2214 2336 2346 2045 2226 2367 2119 2217 2367 2218 2225 2370 2226 2188 2373 2116 2183 2373 2184 2194 2374 2115 2187 2374 2188 2228 2376 2114 2193 2376 2194 2227 2379 2228 2189 2383 2190 2205 2383 2111 2230 2385 2110 2204 2385 2205 2229 2387 2230 2173 2390 2174 2211 2391 2105 2206 2391 2207 2210 2392 2211 2221 2394 2102 2199 2394 2200 2220 2395 2221 2177 2396 2178 2223 2396 2099 2222 2398 2223 2251 2399 2096 2195 2399 2196 2250 2400 2251 2169 2402 2170 2244 2402 2093 2243 2403 2244 2234 2405 2090 2159 2405 2160 2233 2406 2234 2245 2407 2246 2065 2157 600 2082 2362 2256 2299 2362 2298 2079 2369 2289 2303 2369 2302 2078 2371 2270 2289 2371 2288 2075 2377 2301 2283 2377 2282 2124 2332 62 63 2332 2322 2074 2380 2260 2301 2380 2300 2073 2381 2254 2260 2381 2259 2264 2388 2263 2070 2388 2268 2268 2389 2267 2069 2389 2262 2277 2393 2276 2063 2393 2279 2275 2397 2274 2060 2397 2287 2057 2401 2285 2293 2401 2292 2054 2404 2258 2295 2404 2294 2051 2408 2297 2266 2408 2265 2048 2409 2281 2305 2409 2304 142 2350 2080 2081 2350 143 2045 2412 2252 2077 2353 135 134 2353 2076 2072 2357 125 124 2357 2071 2068 2365 117 116 2365 2067 2066 2368 113 112 2368 2064 2062 2372 107 106 2372 2061 2059 2375 101 100 2375 2058 2056 2378 95 94 2378 2055 2053 2382 89 88 2382 2052 2050 2384 83 82 2384 2049 76 2386 2046 2047 2386 77 447 2340 2042 2134 2153 2131 2128 2444 510 21 2414 602 454 2414 21 58 2335 2126 2056 2437 2198 2215 2347 2242 2185 2348 2237 2191 2351 2203 2175 2352 2238 2208 2354 2219 2201 2355 2212 2179 2356 2231 2224 2358 2168 2197 2359 2232 2171 2361 2240 2161 2363 2241 2247 2364 2249 2179 2440 2316 504 2435 4 2141 2333 2145 2324 2334 507 66 2415 7 7 2415 446 2157 2445 2038 2038 2445 2333 53 2334 2324 2149 2433 2151 2143 2339 2147 2131 2153 2132 2151 2433 2340 2059 2440 2180 2201 2441 2313 2327 2431 2136 62 2332 63 2327 2432 2039 2065 2410 2157 2132 2343 2331 507 2334 506 2131 2132 2130 2062 2441 2202 2129 2345 56 2208 2442 2315 2326 2327 2137 2038 2155 598 57 2335 58 52 2334 53 2343 2407 2087 2156 2431 2327 61 2436 2124 2175 2443 2312 2066 2442 2209 2083 2336 65 2134 2325 2153 2068 2443 2176 2410 2445 2157 2346 2412 2045 2191 2446 2310 2326 2432 2327 2072 2446 2192 2040 2130 596 2328 2436 60 2272 2338 2044 446 2340 447 2329 2341 2065 5 2435 50 52 2342 2334 2145 2410 2146 2331 2343 2087 2039 2432 2330 2340 2415 2151 57 2345 2335 2182 2436 2328 2080 2413 2303 2333 2411 2038 2163 2344 2181 51 2342 52 2076 2416 2283 2334 2342 506 506 2342 505 2168 2346 2167 2346 2349 2167 2071 2418 2264 67 2417 66 2067 2419 2291 143 2350 142 135 2353 134 125 2357 124 2064 2420 2277 117 2365 116 113 2368 112 107 2372 106 101 2375 100 95 2378 94 89 2382 88 83 2384 82 77 2386 76 2242 2347 2122 2237 2348 2118 2061 2421 2275 2203 2351 2113 2347 2360 2122 2238 2352 2109 56 2345 57 2219 2354 2107 2348 2370 2118 2212 2355 2104 2231 2356 2101 2084 2358 2224 2232 2359 2098 2351 2379 2113 2122 2360 2235 2240 2361 2095 2241 2363 2092 2249 2364 2089 2120 2366 2213 2352 2387 2109 2119 2367 2217 2354 2390 2107 2118 2370 2225 2355 2392 2104 2116 2373 2183 2115 2374 2187 2356 2395 2101 2114 2376 2193 2359 2398 2098 2113 2379 2227 2361 2400 2095 2111 2383 2189 2363 2403 2092 2110 2385 2204 2058 2422 2293 2364 2406 2089 2109 2387 2229 2298 2362 2082 2167 2349 2320 2107 2390 2173 2105 2391 2206 2104 2392 2210 2302 2369 2079 2102 2394 2199 2288 2371 2078 2101 2395 2220 2099 2396 2177 2098 2398 2222 2096 2399 2195 2282 2377 2075 2095 2400 2250 2093 2402 2169 2300 2380 2074 2092 2403 2243 2090 2405 2159 2259 2381 2073 2089 2406 2233 2087 2407 2245 2263 2388 2070 2267 2389 2069 2136 2431 2325 2276 2393 2063 2274 2397 2060 2292 2401 2057 2294 2404 2054 2265 2408 2051 2304 2409 2048 2055 2423 2295 2052 2424 2266 2415 2417 2151 2214 2413 2216 504 2429 50 2049 2425 2305 2184 2416 2186 2252 2412 2299 2190 2418 2192 2046 2426 2273 2174 2419 2176 2207 2420 2209 2308 2439 2041 2200 2421 2202 2178 2422 2180 2196 2423 2198 2170 2424 2172 2160 2425 2162 2246 2426 2248 2083 2438 2349 50 2435 504 2043 2431 2156 2248 2427 2247 2162 2430 2161 505 2429 504 2330 2432 2150 2172 2434 2171 2198 2437 2197 2180 2440 2179 2127 2414 454 2202 2441 2201 2209 2442 2208 2176 2443 2175 51 2429 2342 2349 2438 2320 2192 2446 2191 2165 2438 2322 2319 2427 2047 510 2444 509 2318 2430 2050 2309 2434 2053 2311 2437 2056 2316 2440 2059 2313 2441 2062 2315 2442 2066 2312 2443 2068 2310 2446 2072 50 2429 51 2320 2438 2165 60 2436 61 2145 2445 2410 2342 2429 505 2150 2432 2326 2037 2428 2308 2041 2439 2337 2325 2431 2043 2083 2349 2336 2322 2438 2083 2038 2411 2155 602 2414 2329 2329 2414 2127 2339 2428 2037 2333 2445 2145 4 2435 5 2168 2412 2346 2146 2410 2341 2341 2410 2065 446 2415 2340 2428 2439 2308 2152 2411 2333 2148 2439 2428 66 2417 2415 2560 2568 2495 2489 2563 2552 2495 2568 2496 2489 2552 2490 2510 2555 2509 2555 2570 2509 2523 2576 2550 2523 2550 2525 2480 2581 2477 2477 2548 2480 2550 2576 2476 2524 2575 2551 2481 2564 2465 2456 2569 2500 2452 2565 2532 2509 2570 2469 2465 2564 2484 2465 2553 2481 2500 2574 2456 2484 2566 2465 2528 2571 2508 2532 2573 2452 2539 2556 2448 2495 2559 2450 2462 2563 2489 2489 2554 2462 2514 2558 2453 2453 2561 2514 2448 2557 2539 2454 2567 2504 2504 2567 2466 2470 2566 2484 2450 2560 2495 2494 2562 2505 2539 2557 2472 2496 2568 2455 2452 2558 2514 2528 2572 2521 2490 2552 2449 2514 2565 2452 2458 2555 2510 2481 2553 2475 2521 2571 2528 2474 2573 2532 2468 2575 2524 2500 2569 2473 2551 2576 2524 2522 2523 2459 2520 2522 2459 150 2525 149 2487 2545 2543 2457 2482 2478 2513 2546 2531 2531 2546 2529 2470 2535 2534 2459 2525 150 154 2533 153 2457 2478 246 2478 2482 2479 252 2543 251 498 2463 499 2529 2546 490 2486 2487 2451 2491 2492 2463 2492 2493 2463 2511 2515 2466 2486 2489 2487 246 2478 245 2461 2520 152 2521 2522 2520 2478 2479 2447 2479 2481 2480 2536 2544 2493 2522 2524 2523 489 2529 490 2487 2543 2451 2502 2503 2464 2527 2528 2469 2490 2545 2487 152 2520 151 178 2534 177 153 2533 2461 2460 2533 154 177 2534 2497 493 2511 2466 2461 2521 2520 2456 2540 248 2454 2519 496 2463 2544 499 162 2526 161 245 2447 244 247 2540 2457 3 2485 253 161 2453 160 166 2450 165 169 2455 168 248 2540 247 484 2527 485 2467 2511 492 496 2519 497 2457 2540 2483 2501 2502 2464 2516 2517 2471 2483 2484 2482 2495 2496 2493 2518 2538 2537 3 2541 2485 161 2526 2453 164 2542 2501 492 2511 493 497 2519 2491 2512 2515 2511 2464 2526 162 245 2478 2447 151 2459 150 153 2461 152 155 2506 2460 163 2464 162 179 2470 178 181 2465 180 493 2466 494 2457 2483 2482 2523 2525 2459 2508 2533 2460 2493 2544 2463 2467 2513 2512 2518 2537 2471 2491 2494 2492 2496 2536 2493 2534 2535 2499 2530 2532 2531 2450 2542 165 2471 2537 170 151 2520 2459 164 2501 163 163 2501 2464 173 2462 172 485 2527 2469 495 2454 496 497 2491 498 498 2491 2463 170 2537 169 172 2516 171 177 2497 176 186 2477 185 247 2457 246 249 2456 248 251 2473 250 499 2544 500 2485 2486 2451 2537 2538 2455 2506 2507 2460 2489 2490 2487 2492 2495 2493 2501 2542 2505 2502 2504 2503 2518 2539 2538 253 2485 2451 483 2468 484 155 2460 154 176 2497 2449 485 2469 486 2472 2544 2536 2470 2534 178 2474 2506 156 2458 2529 489 2467 2512 2511 2468 2527 484 2497 2498 2449 2507 2508 2460 2517 2518 2471 2499 2500 2498 159 2452 158 251 2543 2473 169 2537 2455 171 2516 2471 2462 2516 172 2458 2530 2529 2530 2531 2529 503 2541 3 2507 2509 2508 2513 2514 2512 156 2506 155 157 2474 156 488 2458 489 491 2467 492 2503 2526 2464 2485 2488 2486 2497 2499 2498 2501 2505 2502 2507 2510 2509 604 2476 603 502 2448 503 2467 2546 2513 2485 2541 2488 490 2546 491 2448 2541 503 165 2542 164 171 2471 170 500 2472 501 2451 2543 252 2479 2480 2447 253 2451 252 500 2544 2472 2491 2519 2494 491 2546 2467 2497 2534 2499 2507 2547 2510 176 2449 175 183 2475 182 2506 2547 2507 2474 2547 2506 2543 2545 2473 2477 2581 2549 2469 2588 2509 2505 2585 2494 2466 2586 2504 2472 2584 2539 2504 2594 2454 2455 2590 2496 2524 2597 2468 2473 2593 2500 2510 2582 2458 2475 2581 2481 2508 2588 2528 2449 2592 2490 2484 2589 2470 2532 2595 2474 185 2549 184 605 2550 604 2480 2548 2447 244 2548 243 2447 2548 244 604 2550 2476 2477 2549 185 481 2551 482 2527 2572 2528 2532 2565 2531 2484 2564 2482 2479 2564 2481 2508 2571 2533 2486 2554 2489 2475 2553 182 249 2569 2456 2466 2567 494 181 2553 2465 2519 2562 2494 173 2563 2462 488 2555 2458 495 2567 2454 2518 2556 2539 2472 2557 501 2514 2561 2512 2453 2558 160 166 2560 2450 2469 2570 486 2499 2574 2500 179 2566 2470 157 2573 2474 2465 2566 180 502 2557 2448 2455 2568 168 2452 2573 158 159 2558 2452 2492 2559 2495 2513 2565 2514 2473 2569 250 483 2575 2468 2461 2571 2521 2449 2552 175 8 2577 605 10 2578 186 243 2578 10 149 2577 8 184 2579 9 9 2579 183 2505 2594 2502 2521 2597 2522 2526 2591 2453 2450 2585 2542 2462 2587 2516 2448 2583 2541 2456 2596 2540 603 2580 22 22 2580 481 2551 2575 482 2574 2596 2456 2572 2597 2521 2453 2591 2561 2562 2594 2505 2556 2583 2448 2554 2587 2462 2559 2585 2450 2481 2581 2480 2536 2590 2584 2584 2590 2538 2524 2576 2523 2549 2579 184 605 2577 2550 2548 2578 243 2482 2564 2479 2552 2563 174 2531 2565 2513 501 2557 502 175 2552 174 182 2553 181 2517 2556 2518 2488 2554 2486 167 2560 166 168 2568 167 2494 2559 2492 2512 2561 2515 2454 2562 2519 2533 2571 2461 2468 2572 2527 167 2568 2560 174 2563 173 180 2566 179 494 2567 495 160 2558 159 486 2570 487 487 2555 488 250 2569 249 2535 2574 2499 158 2573 157 482 2575 483 487 2570 2555 2476 2580 603 2525 2577 149 186 2578 2477 183 2579 2475 2515 2586 2466 2528 2588 2469 2490 2592 2545 2515 2591 2586 2538 2590 2455 2536 2584 2472 2530 2595 2532 2483 2589 2484 2458 2582 2530 2592 2593 2545 2545 2593 2473 2582 2595 2530 2470 2589 2535 2503 2591 2526 2541 2583 2488 2502 2594 2504 2509 2588 2508 2498 2592 2449 2500 2593 2498 2496 2590 2536 2539 2584 2538 2586 2591 2503 2522 2597 2524 2540 2596 2483 2504 2586 2503 2547 2582 2510 2516 2587 2517 2542 2585 2505 2474 2595 2547 2498 2593 2592 2547 2595 2582 2475 2579 2549 2477 2578 2548 2550 2577 2525 2476 2576 2551 2551 2580 2476 481 2580 2551 2517 2587 2583 2583 2587 2488 2483 2596 2589 2589 2596 2535 2549 2581 2475 2535 2596 2574 2561 2591 2515 2494 2585 2559 2454 2594 2562 2488 2587 2554 2517 2583 2556 2468 2597 2572 216 2598 215 188 2616 187 240 2600 239 195 2606 194 198 2608 197 201 2609 200 203 2607 202 205 2604 204 209 2603 208 211 2599 210 193 2605 192 191 2601 190 222 2602 221 216 2620 2598 205 2621 2604 2600 2618 239 2603 2619 208 229 2623 2610 232 2622 2611 230 2623 229 233 2622 232 206 2621 205 217 2620 216 239 2618 238 208 2619 207 219 2614 218 237 2613 236 235 2612 234 227 2615 226 225 2617 224 232 2611 231 229 2610 228 2609 2610 200 2608 2611 197 2607 2615 202 2606 2612 194 2604 2617 204 2599 2614 210 2605 2613 192 193 2612 2605 203 2617 2607 209 2614 2603 191 2613 2601 201 2615 2609 2600 2616 188 240 2616 2600 2602 2619 221 2601 2618 190 211 2620 2599 222 2621 2602 195 2622 2606 198 2623 2608 218 2614 2599 2603 2614 219 228 2610 2609 231 2611 2608 236 2613 2605 224 2617 2604 2601 2613 237 2607 2617 225 234 2612 2606 226 2615 2607 2605 2612 235 2609 2615 227 2599 2620 217 2602 2621 206 238 2618 2601 207 2619 2602 2608 2623 230 2606 2622 233 2616 2624 187 2598 2625 215 2611 2622 196 2610 2623 199 197 2611 196 200 2610 199 204 2617 203 194 2612 193 202 2615 201 210 2614 209 192 2613 191 220 2619 2603 221 2619 220 190 2618 189 189 2618 2600 2598 2620 212 212 2620 211 223 2621 222 2604 2621 223 196 2622 195 199 2623 198 238 2601 237 220 2603 219 228 2609 227 218 2599 217 224 2604 223 226 2607 225 207 2602 206 231 2608 230 234 2606 233 236 2605 235 189 2600 188 241 2616 240 213 2598 212 215 2625 13 11 2624 242 187 2624 11 13 2625 214 241 2627 2616 213 2626 2598 2616 2627 2624 2598 2626 2625 12 2626 213 14 2627 241 214 2626 12 242 2627 14 2625 2626 214 2624 2627 242 3229 3613 3379 3236 3497 3101 2638 3412 2652 3372 3672 3154 3188 3189 2656 3104 3400 2802 2802 3409 3104 3237 3437 2805 3192 3453 3238 2640 3171 3111 3458 3459 3266 3386 3489 3482 3093 3682 3364 3067 3497 3236 3107 3178 2661 3125 3165 3161 185 3513 2692 2690 2864 45 2674 2870 212 2675 2879 193 2914 3514 224 200 2863 2672 2671 3538 197 205 3540 2673 208 3542 2878 191 2868 2675 2676 2868 189 157 3080 2916 2916 2920 159 167 2925 2923 174 3533 3037 2940 3212 3182 3482 3489 2948 2976 3169 3166 3176 3219 2811 3239 3437 3237 3111 3231 2640 3160 3162 2983 3189 3352 2656 3202 3203 2994 3281 3287 3061 3092 3532 2741 2863 3538 3094 3495 3549 3203 3200 3202 2994 2661 3230 3107 263 3345 264 180 3498 181 2931 3425 3093 2785 3198 3119 3153 3682 3093 216 3473 217 2976 3166 2927 3394 3406 3395 28 3558 2641 3410 3494 3405 3125 3161 3123 305 3065 304 3370 3371 2874 2636 3580 3446 2786 3441 2770 2932 3078 2682 2811 3218 3176 2999 3286 3230 2945 3160 2983 3124 3390 3125 3115 3609 2704 3151 3247 2795 3118 3451 2747 2982 3191 3063 2756 2775 2738 3191 3453 3192 3093 3365 2931 3042 3226 3048 3412 3482 2652 3069 3179 2952 3161 3510 3162 2703 3592 3137 3128 3578 2702 3413 3630 3076 2983 3164 2947 3161 3162 3160 3191 3192 3063 2781 2799 2780 3083 3384 2736 2745 3345 3181 3165 3432 3161 3170 3355 3354 3605 3606 2639 3348 3400 3361 3183 3184 2943 3266 3459 3396 2810 3494 3410 2681 3425 2931 2779 2780 2776 3163 3667 3357 2988 3358 3227 2685 3549 3495 3246 3353 3190 3287 3455 3061 2694 3420 2696 131 3583 2648 101 2897 2634 136 3593 2630 109 2900 2633 126 2889 2631 82 2904 2653 117 2906 2632 2748 3478 3172 145 3572 2883 87 3596 2642 122 3594 2662 113 2898 2665 97 2893 2663 105 2895 2664 2795 3248 3151 3081 3388 3383 2756 2776 2775 3088 3420 3026 163 3556 164 227 3555 228 231 3554 232 218 3552 219 237 3553 238 3395 3441 2786 3124 3655 3390 3182 3345 2940 2785 3119 2787 3121 3232 3195 78 3561 79 2940 3431 3212 2775 3024 2738 2983 3683 3164 3000 3248 3002 2779 2781 2780 2969 3140 3082 3216 3626 3392 215 3473 216 3347 3460 2781 2706 3613 3232 3432 3510 3161 55 3609 2629 62 3604 2639 53 3608 2839 3353 3390 3190 2769 3622 3193 2954 3229 2953 2799 2831 2800 3198 3642 3079 2869 3372 3367 3180 3249 2657 3354 3564 3170 2814 2844 2813 2852 3183 2943 2808 2813 2783 3120 3428 3214 2736 3384 2687 2656 3246 3188 2938 3191 2982 3357 3667 3356 3093 3425 2865 3303 3494 3331 2857 3236 3101 3042 3228 3226 3212 3431 3043 2735 3488 3305 3114 3116 3113 3292 3484 3455 2931 3365 3196 3417 3465 3388 3155 3367 3154 3069 3418 3179 3436 3488 352 155 3669 156 3076 3575 3413 2927 3166 2926 3204 3495 3203 2802 3400 3348 3104 3231 3111 3115 3605 3057 2808 2814 2813 2781 3460 2799 3172 3480 2748 264 3345 2745 2940 3345 263 2999 3230 3151 3230 3286 3107 3232 3613 3195 2783 3347 2781 2775 3216 3024 3173 3620 3418 2831 2845 2832 3357 3462 3163 3227 3652 2988 3308 3436 2669 2976 3179 3170 3483 3485 3157 3461 3600 3442 2657 3250 3180 2905 3550 3444 3173 3478 295 3235 3635 3481 3117 3159 3158 295 3620 3173 3379 3613 2706 2747 3486 3118 3204 3493 315 315 3495 3204 3104 3409 3231 3215 3394 3082 3423 3566 3402 2696 3420 3088 2799 2800 2780 2857 2955 2845 3390 3655 3190 3284 3451 3118 2677 3667 3510 3120 3214 2834 2824 2926 2816 3193 3198 2769 2640 3234 3171 3331 3494 2810 2844 2938 2937 3004 3250 3006 2976 3170 3169 2831 3236 2857 2944 3160 2945 2776 3626 2775 2952 3179 2950 2816 3105 2814 3210 3438 2739 3209 3566 2753 65 3398 2705 2635 3477 3079 3244 3361 3054 2939 3191 2938 2824 2927 2926 3057 3253 3116 2953 3229 3042 3181 3462 2745 3192 3502 3063 3194 3575 3076 3455 3484 3270 3128 3506 3127 3192 3694 3502 2831 2857 2845 2699 3505 3492 2739 3678 3210 3136 3220 3137 3061 3430 3281 2831 2832 2800 2854 3122 2856 3307 3488 3436 2753 3490 3209 3122 3123 2944 3131 3454 3110 3162 3163 2983 3360 3640 2846 3002 3248 3180 3151 3248 3000 2845 3360 2846 3140 3215 3082 3197 3251 2794 2844 2939 2938 2938 2982 2977 2956 3052 2955 2711 3399 3315 3067 3347 2937 3081 3383 2882 2926 3106 3105 2949 3187 3186 3119 3198 3079 2763 3489 3046 3183 3185 3184 3238 3499 3192 3041 3423 3402 3245 3361 3244 2856 2944 2910 3166 3167 3106 3048 3172 2992 2846 2949 2848 2669 3618 3308 2852 2943 2854 2848 3186 2850 2850 3183 2852 3433 3507 2823 3492 3505 3219 3209 3438 3210 2780 3130 2776 2950 2976 2927 2926 3166 3106 3185 3188 3184 3332 3397 2975 3450 3698 3075 2857 2956 2955 3105 3643 2814 3121 3362 3232 3173 3418 3069 2845 2846 2832 3046 3465 3417 2667 3242 339 3121 3195 3120 3186 3670 2850 2969 3380 3140 2995 3685 3392 2794 3252 3197 3230 3247 3151 3179 3568 3170 3181 3345 3182 2844 2937 2813 2782 2783 2781 2945 2983 2947 3154 3672 3023 2947 3164 2962 3116 3253 3117 2950 3179 2976 2982 3051 3045 2753 3566 3423 2778 2779 2776 2937 3347 2813 3123 3161 3160 3209 3490 3438 2962 3086 3085 3110 3507 3378 2975 3484 3332 2673 3540 3096 278 3231 279 3305 3487 2735 3217 3565 2796 332 3247 331 3164 3181 3086 2856 3122 2944 3367 3372 3154 2796 3610 3217 318 3451 3414 2992 3069 2952 2807 2808 2783 3361 3400 3054 3226 3227 3048 2944 2945 2910 2815 2816 2814 3481 3635 3189 2949 3186 2848 3155 3368 3367 3418 3620 2683 3052 3104 3053 3221 3242 2667 3241 3243 3240 3396 3459 3241 2814 3643 2844 2956 3054 3052 3266 3396 3083 3235 3481 3187 2686 3612 3141 3202 3466 3204 2640 3231 278 2938 2977 2937 2992 3172 3069 2982 3063 3051 3052 3400 3104 3123 3160 2944 334 3249 333 2817 2824 2816 3043 3389 3212 3252 3404 3049 2784 3065 305 3471 3560 3087 3239 3564 2666 3187 3481 3186 3172 3173 3069 3006 3250 3197 3180 3250 3004 3315 3648 2711 3008 3252 3010 2850 3670 3183 3305 3488 3307 3073 3120 2834 3141 3639 2686 2926 3105 2816 3063 3419 3051 2755 2756 2738 2962 3164 3086 2928 2950 2927 3112 3360 3053 3110 3617 3108 2737 2738 2736 2874 3371 3205 336 3251 335 3052 3053 2955 3185 3189 3188 2982 3045 2977 339 3242 338 2846 3640 2949 2799 3236 2831 3202 3204 3203 2875 3463 2885 2738 3690 2736 2833 3240 2651 3181 3182 3086 3323 3410 3405 2951 2952 2950 3188 3190 3184 2689 3485 3483 3224 3268 2760 3278 3619 2668 3053 3360 2955 3466 3493 3204 3248 3249 3180 2668 3638 3278 2651 3240 1 2953 2992 2952 3245 3349 2643 3167 3168 3106 3383 3388 2658 2854 3697 3122 3042 3048 2992 3050 3193 2989 3104 3111 3053 2833 3241 3240 3113 3608 2629 2919 3662 3530 3530 3658 2919 3527 3659 3031 2667 3359 3221 149 3689 3199 3392 3685 3216 2775 3626 3216 2795 3247 332 331 3247 2661 3169 3692 3166 3172 3478 3173 3170 3564 3169 3163 3683 2983 3580 3591 3137 3330 3627 3100 3031 3555 3527 3036 3498 180 2824 3214 2928 3061 3455 3270 3086 3211 3085 2763 3046 2765 25 3673 26 3079 3557 2635 2657 3249 334 333 3249 2795 3167 3237 3168 3060 3255 3233 3119 3671 2787 3126 3572 2647 3197 3252 3008 3010 3252 3049 3465 3489 3386 2667 3363 3359 149 3199 2858 3188 3246 3190 2769 3198 2785 3108 3617 3028 2794 3251 336 11 3066 187 2709 2736 2687 335 3251 2657 3358 3480 3227 3085 3501 3157 3051 3244 3045 3510 3667 3162 3414 3451 3284 3240 3563 1 246 3681 247 2945 2947 2946 3426 3509 3381 3206 3611 3208 3401 3402 3155 2846 2848 2847 3041 3402 3401 2947 2962 2961 3049 3404 3242 217 3473 2917 2760 3509 3426 2962 3085 3062 3024 3690 2738 2689 3563 3243 2969 3082 2788 3194 3561 2654 3206 3693 3611 2973 3223 2970 3051 3245 3244 2856 2910 2909 3132 3583 2887 2848 2850 2849 2854 2856 2855 3115 3607 3606 2852 2854 2853 2850 2852 2851 3138 3594 2908 3203 3408 2994 2679 2833 2651 3356 3667 2677 3178 3674 2661 3250 3251 3197 3182 3212 3211 2824 2928 2927 3166 3692 3167 2741 3152 3092 3094 3369 2863 2808 2815 2814 3184 3655 2943 3359 3363 3068 2994 3570 3200 2760 3268 2707 3157 3501 3374 2840 2981 2645 3232 3362 72 2813 3347 2783 2987 3623 3529 3239 3692 3564 3363 3393 3068 3054 3491 3244 3270 3484 2975 3124 3697 3655 2 3477 23 3048 3480 3172 3083 3396 3384 3233 3255 3175 2661 3247 3230 3253 3267 3103 3025 3177 2695 3331 3487 3303 3446 3580 3137 3073 3121 3120 3196 3365 3025 70 3379 2706 14 3469 242 12 3470 214 183 3472 9 3088 3509 2696 2955 3360 2845 2779 2782 2781 3167 3239 3237 2748 3480 3358 3454 3507 3110 3125 3699 3124 3083 3679 3266 3057 3116 3115 3111 3171 3112 3195 3650 3120 3068 3393 3261 3237 3238 3168 2928 2951 2950 3123 3699 3125 2794 3404 3252 3113 3117 2840 3124 3699 3697 3289 3654 3178 181 3498 182 2951 2953 2952 3243 3485 2689 2795 3249 3248 3226 3652 3227 2953 3042 2992 3344 3346 3011 2943 3697 2854 3125 3688 3165 2815 2817 2816 3063 3502 3419 70 2706 71 3654 3674 3178 2817 3214 2824 3260 3342 2746 2912 3256 3254 3307 3436 3308 3254 3256 3014 2954 3649 3229 77 3561 78 3175 3255 2941 3259 3338 2793 3133 3380 3156 2874 3205 2877 2912 3254 3020 3054 3400 3052 2877 3463 2875 3259 3342 3260 2643 3361 3245 3405 3415 2958 3014 3256 3013 2657 3251 3250 68 2797 69 3256 3258 3013 3384 3396 2833 3013 3258 3015 2804 3235 3234 2857 3101 2956 3273 3274 3011 3258 3338 3259 2971 3255 3060 3012 3272 3264 67 3222 68 3011 3346 3273 2793 3342 3259 367 3602 3296 3260 3346 3344 3221 3359 3254 3272 3274 3273 3268 3282 2751 3122 3699 3123 3106 3500 3105 2782 2807 2783 3012 3274 3272 3257 3264 2744 3258 3259 3015 3120 3650 3428 2942 3255 2971 3264 3290 3012 2744 3263 3257 3224 3282 3268 2719 3271 2721 2715 3263 2717 3005 3274 3003 3257 3290 3264 3264 3272 3271 2652 3482 2948 2717 3263 2744 2712 3268 2751 2870 2873 2871 2756 2778 2776 2715 3269 3263 2721 3271 2791 2744 3271 2719 3011 3274 3005 3003 3274 3012 3231 3409 279 3259 3260 3015 3264 3271 2744 2713 3269 2715 3269 3279 3070 3263 3269 3070 2750 3279 3269 2959 3279 2821 3070 3279 2959 2821 3279 2761 2822 3282 2990 2964 3277 3276 3099 3277 2965 2974 3270 2975 3271 3272 2791 3016 3275 3102 2990 3282 3224 2964 3276 3275 2965 3277 2964 3275 3276 3102 2762 3282 2822 3016 3280 3275 2933 3280 2820 3277 3278 3276 3272 3273 2791 3275 3280 2933 2820 3280 2819 2842 3280 3016 2819 3280 2842 3018 3285 3283 2720 3281 2722 3283 3288 3018 2960 3286 2999 2934 3288 2966 2843 3286 2960 2966 3288 3283 2825 3288 2934 2742 3287 2725 2725 3287 2723 3018 3288 2881 2967 3286 2843 2997 3290 3257 3017 3289 3178 3012 3290 3001 3292 3329 3072 3001 3290 2998 3291 3329 3292 2792 3291 2729 2792 3329 3291 2729 3291 2727 3314 3340 3312 3149 3340 3314 2749 3293 2733 3316 3320 2809 2771 3319 2752 2809 3335 3318 2809 3318 3316 2749 3328 3293 2827 3319 2771 3312 3340 3316 2733 3293 2731 3318 3335 3319 3317 3319 2827 3293 3341 2792 2792 3341 3329 3334 3338 3019 2777 3320 2830 2827 3326 3317 3319 3335 2752 2809 3320 2777 2734 3294 2754 3294 3338 3334 3317 3326 3309 2774 2801 2771 3262 3325 3298 2958 3324 344 3309 3326 3306 2836 2838 2801 2911 3297 2836 2980 3321 3090 2774 2836 2801 2836 3297 2838 3336 3341 3328 2732 3294 2734 3262 3297 3021 3294 3334 2754 354 2669 353 3019 3338 3258 357 3322 2711 3021 3297 2911 3261 3262 3021 3262 3298 3297 3318 3319 3317 3299 3327 2838 2978 3321 2980 3142 3337 3144 3147 3149 3148 3300 3303 3301 3295 3321 2978 3311 3318 3317 3313 3314 3312 328 2668 327 331 2661 330 333 2795 332 3146 3150 3145 350 3331 349 2957 3295 2978 3144 3146 3145 346 3323 345 349 2810 348 2732 2734 2733 2777 2830 2828 2837 3019 2912 3297 3298 2838 3298 3300 3299 2793 3294 2732 2930 3336 2829 2980 2984 2979 3300 3304 3303 3308 3309 3306 3298 3325 3300 3305 3306 3302 2743 2749 2733 2754 2774 2771 2929 2930 2829 2929 2957 2930 3010 3014 3013 3310 3313 3312 345 2958 344 2735 3331 350 357 2711 356 3006 3197 3008 3144 3337 3147 3311 3317 3309 320 3330 2747 344 3324 343 2886 3322 358 2734 2752 2743 2772 3328 2749 2754 2771 2752 2957 2978 2930 3089 3295 2957 3326 3327 3302 324 2986 323 3298 3299 2838 3068 3261 3021 3144 3147 3146 3300 3301 3299 3302 3327 3299 3301 3305 3302 3305 3307 3306 2734 2743 2733 2754 3334 2774 2829 3328 2772 2838 3327 2801 2828 3333 2929 2837 2912 2911 2837 3334 3019 2979 3336 2930 2980 3090 3047 3010 3049 3014 3072 3329 3071 3144 3145 3143 317 2685 316 335 2657 334 2743 2758 2749 2758 2777 2772 2801 2827 2771 2929 2968 2957 3071 3336 2979 3049 3221 3014 3333 3337 3142 3300 3325 3304 311 2753 310 320 2747 319 321 3330 320 358 3322 357 359 2886 358 2980 3047 2984 3004 3006 3005 3020 3068 3021 3301 3302 3299 3307 3308 3306 3313 3315 3314 2984 3071 2979 3308 3310 3309 3310 3312 3311 326 2796 325 337 2794 336 340 2667 339 351 2735 350 2734 2754 2752 2758 2772 2749 2758 2809 2777 2828 2829 2772 2774 3334 2837 2828 2929 2829 2829 3336 3328 2837 2911 2836 2968 3089 2957 3007 3011 3005 3008 3009 3007 3010 3013 3009 3221 3254 3014 343 3324 2691 3020 3021 2911 3147 3148 3146 3328 3341 3293 3306 3326 3302 349 3331 2810 2968 3141 3089 3013 3015 3009 3142 3143 3141 2730 2793 2732 2758 3335 2809 2777 2828 2772 2827 3327 3326 2929 3333 2968 2978 2979 2930 2968 3333 3142 2984 3072 3071 3310 3311 3309 3312 3316 3311 3142 3144 3143 2743 3335 2758 2968 3142 3141 2984 3332 3072 3089 3296 3295 3316 3318 3311 2731 3293 2792 2912 3020 2911 2978 2980 2979 3019 3258 3256 3049 3242 3221 314 2739 313 2732 2733 2731 2752 3335 2743 2774 2837 2836 3019 3256 2912 3006 3008 3007 3008 3010 3009 343 2691 342 2830 3333 2828 3047 3332 2984 3002 3180 3004 2801 3327 2827 3004 3005 3003 3006 3007 3005 3320 3339 2830 3147 3339 3149 2793 3338 3294 345 3323 2958 2830 3337 3333 3320 3340 3339 3071 3341 3336 3316 3340 3320 2830 3339 3337 3003 3012 3001 2730 2732 2731 3337 3339 3147 2731 2792 2729 3283 3285 3284 3002 3004 3003 3339 3340 3149 3329 3341 3071 2730 2731 2729 3283 3284 3118 3002 3003 3001 3100 3217 3099 3000 3002 3001 3064 3100 3099 2966 3283 3118 3291 3292 2742 2728 2730 2729 2966 3118 3064 2999 3151 3000 2727 3291 2742 3000 3001 2998 3064 3099 2965 2726 2746 2728 2728 2729 2727 2727 2742 2725 2999 3000 2998 3257 3263 3070 2726 2728 2727 2966 3064 2965 3107 3286 2967 2998 3290 2997 2960 2999 2998 2990 3224 2993 2993 2994 2991 3102 3289 3017 2934 2966 2965 2997 3257 3070 2726 2727 2725 3017 3178 3107 3017 3107 2967 2991 3018 2881 2960 2998 2997 2990 2993 2991 3016 3102 3017 2997 3070 2959 2724 2726 2725 2964 3275 2933 2934 2965 2964 3016 3017 2967 2990 2991 2881 2721 2791 2724 2723 3287 3281 2934 2964 2933 2960 2997 2959 2724 2725 2723 2723 3281 2720 2881 3288 2825 2842 3016 2967 2843 2960 2959 2721 2724 2723 2825 2934 2933 2822 2990 2881 2843 2959 2821 2825 2933 2820 2721 2723 2720 2822 2881 2825 2842 2967 2843 2719 2721 2720 2842 2843 2821 2720 2722 2718 2822 2825 2820 2762 2822 2820 2719 2720 2718 2717 2744 2719 2819 2842 2821 3061 3270 2974 2762 2820 2819 2717 2719 2718 2819 2821 2761 3060 3061 2974 2751 3282 2762 2717 2718 2716 2762 2819 2761 2974 2975 2972 2971 3060 2974 2715 2717 2716 2751 2762 2761 2761 3279 2750 2716 2811 2714 2972 2973 2970 2971 2974 2972 2751 2761 2750 2715 2716 2714 3218 3233 3175 2971 2972 2970 2712 2751 2750 2713 2715 2714 2750 3269 2713 3194 3454 3131 3176 3218 3175 2942 2971 2970 2746 3342 2728 2730 3342 2793 2712 2750 2713 2713 2714 2708 3222 3226 2797 2728 3342 2730 2942 2970 2969 3174 3176 3175 3273 3343 2791 2791 3343 2724 2726 3343 2746 2949 3476 3187 2746 3346 3260 2767 3622 2769 2724 3343 2726 2707 3268 2712 2712 2713 2708 3209 3210 3207 2811 3435 3218 2941 3255 2942 2942 2969 2788 3174 3175 2941 3260 3344 3015 3007 3344 3011 3015 3344 3009 2956 3491 3054 2808 3427 2815 3182 3211 3086 2629 3609 3114 3210 3463 3207 3009 3344 3007 3411 3627 3330 3343 3346 2746 3139 3215 3140 3655 3697 2943 2707 2712 2708 3219 3505 2811 3296 3644 367 3254 3359 3020 3201 3202 3200 3222 3652 3226 340 3363 2667 3242 3404 338 3148 3373 3146 3208 3209 3207 3481 3670 3186 36 3385 37 3273 3346 3343 2787 3174 2941 2941 2942 2788 2736 3690 3083 3020 3359 3068 3697 3699 3122 354 3382 2669 2886 3373 3322 3219 3647 3196 3170 3568 3355 3078 3671 3119 2989 3081 2882 68 3222 2797 3550 3562 3444 2945 2946 2910 3261 3393 2691 341 3363 340 280 2802 281 281 3348 282 282 2643 283 277 2640 278 283 3349 284 284 2803 285 275 2804 276 274 3352 275 285 3351 286 286 2655 287 273 2656 274 287 3350 288 271 3353 272 288 2805 289 270 2684 271 290 2666 291 291 3354 292 292 3355 293 267 2677 268 293 2683 294 266 3356 267 265 3357 266 264 2745 265 296 2748 297 262 2940 263 297 3358 298 298 2988 299 3146 3373 3150 3236 3460 3067 3115 3606 3605 2691 3393 342 3324 3403 2691 3100 3486 3330 72 3362 73 3111 3112 3053 2973 3267 3253 3315 3399 3314 3149 3399 3148 3075 3698 3077 2702 3577 3128 3304 3415 3405 3189 3635 3352 2704 3607 3115 3313 3382 3315 2691 3403 3261 3137 3591 2703 355 3382 354 2698 2760 2707 2707 2708 2699 2986 3565 3217 3261 3403 3262 341 3393 3363 3324 3415 3403 3208 3566 3209 2637 3599 3159 2760 3426 3224 338 3404 337 2846 2847 2832 3224 3426 2993 369 2660 368 3392 3464 2995 2779 3433 2782 69 3379 70 3265 3679 3024 2885 3201 3200 3018 3408 3285 2994 3408 2991 3233 3430 3060 322 3411 321 348 3410 347 3491 3497 3045 2876 3475 2873 2947 2961 2946 3085 3157 3062 2962 3062 2961 2800 3130 2780 2666 3437 3239 2802 3348 281 282 3348 2643 2643 3349 283 284 3349 2803 275 3352 2804 2803 3351 285 2656 3352 274 286 3351 2655 2655 3350 287 288 3350 2805 2684 3353 271 2666 3354 291 3354 3355 292 293 3355 2683 267 3356 2677 266 3357 3356 2745 3357 265 2748 3358 297 298 3358 2988 2637 3159 3103 318 3414 317 71 3232 72 364 2806 363 366 2686 365 362 3044 361 365 3375 364 363 3376 362 360 3416 359 3206 3208 3207 3177 3365 2867 279 3409 280 342 3393 341 3391 3392 3130 2958 3415 3324 310 3423 309 3507 3698 2823 2939 3453 3191 3418 3568 3179 3387 3548 2658 3047 3397 3332 3216 3265 3024 3314 3399 3149 3176 3647 3219 2787 2941 2788 2977 3067 2937 3133 3443 3139 2800 3391 3130 2848 2849 2847 67 3424 3222 2850 2851 2849 2834 3214 2817 2852 2853 2851 2854 2855 2853 2856 2909 2855 2684 3390 3353 3605 3641 3057 2815 3427 2818 370 3421 369 3060 3430 3061 2885 3463 3201 3472 3511 2862 3042 3229 3228 3039 3473 215 2716 3435 2811 2722 3435 2718 3028 3377 2755 353 3436 352 261 3431 262 260 2689 259 3245 3419 3349 2763 3504 3489 3378 3507 3433 2739 3438 313 3079 3673 3557 268 3432 269 3262 3403 3325 79 3561 2701 319 3451 318 337 3404 2794 3323 3405 2958 164 3556 2921 2918 3555 227 232 3554 3040 2917 3552 218 238 3553 3033 219 3552 2922 3032 3553 237 3035 3554 231 228 3555 3031 2924 3556 163 3348 3361 2643 3292 3455 2742 3566 3611 3402 307 3401 306 3278 3610 2796 257 2773 256 3196 3492 3219 3432 3676 269 2796 3619 3278 2991 3408 3018 2946 3429 2910 3403 3415 3325 2810 3410 348 321 3411 3330 3090 3474 3047 255 3043 254 364 3375 2806 2686 3375 365 362 3376 3044 2806 3376 363 3223 3253 3058 2932 3671 3078 2654 3575 3194 2737 2755 2738 3205 3206 2877 3233 3666 3430 2630 3593 3134 2642 3596 3135 3187 3656 3235 308 3041 307 3082 3395 2786 3214 3428 2928 317 3414 2685 280 3409 2802 258 3374 257 2637 3103 2790 295 3478 296 2805 3437 289 290 3437 2666 2833 3396 3241 3072 3484 3292 2745 3462 3357 256 3389 255 3325 3415 3304 3118 3486 3064 3301 3487 3305 359 3416 2886 2764 3213 2710 3226 3228 2797 3611 3693 3368 3130 3626 2776 2709 2737 2736 352 3488 351 3285 3695 3284 311 3490 2753 3388 3465 3387 315 3493 314 2753 3423 310 3364 3365 3093 2656 3696 3246 2708 3505 2699 3679 3690 3024 316 3495 315 2970 3223 2969 2818 2834 2817 2658 3388 3387 2811 3505 2714 2679 3384 2833 2973 3253 3223 3094 3538 2671 2878 3542 3371 3430 3666 2722 306 2784 305 66 3424 67 2640 3677 3234 3234 3677 2804 33 2658 34 3092 3153 3093 3058 3253 3057 3289 3638 2668 2796 3565 325 324 3565 2986 2668 3654 3289 3227 3480 3048 3044 3629 3416 2782 3433 2823 3277 3610 3278 3217 3610 3099 2784 3401 3155 3141 3612 3089 3471 3511 2646 3397 3551 2975 17 3615 346 347 3615 17 323 3616 16 16 3616 322 3308 3618 3310 2668 3619 327 326 3619 2796 3573 3578 3127 3407 3600 3441 2936 3073 2834 2788 3082 2786 3278 3638 3276 3102 3638 3289 2661 3674 330 2711 3648 356 3296 3668 3295 328 3654 2668 3087 3560 3088 3162 3667 3163 3078 3477 2650 3244 3491 3045 3466 3678 2739 3051 3419 3245 3382 3618 2669 2951 2954 2953 3148 3614 3373 3110 3550 3131 3349 3419 2803 3081 3622 3417 3131 3561 3194 73 2678 74 3592 3595 3136 294 3620 295 3081 3417 3388 2880 3366 3095 2861 3369 3097 2698 2707 2699 7 3621 66 299 3621 7 3284 3695 3414 289 3437 290 3281 3430 2722 2807 3427 2808 3330 3486 2747 2797 3379 69 3238 3453 3168 3567 3624 3421 2886 3646 3373 3373 3614 3322 38 2638 1 3397 3474 3267 2695 3177 2693 3246 3696 3353 35 2812 36 3158 3601 2981 2755 3377 2756 2735 3487 3331 262 3431 2940 2832 3391 2800 2903 3562 3135 3313 3618 3382 3382 3648 3315 3243 3563 3240 3373 3646 3150 355 3648 3382 3103 3267 2790 3075 3632 3450 1 3563 260 3108 3562 3550 2977 3497 3067 2988 3652 3424 2718 3435 2716 2677 3432 268 3208 3611 3566 273 3696 2656 3353 3696 272 18 3631 360 2885 3200 3098 2669 3436 353 277 3677 2640 2804 3677 276 270 3676 2684 3210 3678 3463 2699 3492 2697 3165 3676 3432 368 3602 367 2963 3429 2946 2993 3570 2994 2910 3429 2909 3023 3066 2826 2805 3598 3237 313 3438 312 2858 3199 2935 361 3631 18 3267 3474 2790 3676 3688 2684 156 3669 3080 2835 3669 155 2747 3451 319 369 3421 2660 2840 3158 2981 3217 3627 2986 3117 3158 2840 0 3665 261 3067 3460 3347 2901 3479 3407 37 3412 38 2742 3455 3287 3174 3647 3176 3164 3683 3181 2867 3365 3364 309 3653 15 2961 2963 2946 3629 3646 3416 3152 3153 3092 3378 3433 2778 3228 3379 2797 2784 3155 3154 3402 3611 3155 3206 3207 2877 2815 2818 2817 3586 3645 3577 3101 3497 3491 2778 3433 2779 254 3665 0 3213 3508 2710 2806 3633 3628 3201 3466 3202 3426 3570 2993 3185 3481 3189 2687 3384 2679 2847 3391 2832 255 3389 3043 3103 3159 3117 2773 3389 256 3050 3198 3193 2996 3634 2768 3377 3378 2778 3438 3490 312 3177 3518 2693 2784 3154 3065 3041 3401 307 2851 2995 2849 32 3383 33 2855 2859 2853 257 3374 2773 2641 3558 3050 15 3653 308 3098 3426 3381 3090 3624 3567 366 3644 2686 2677 3510 3432 3394 3395 3082 2928 3428 2951 3519 3682 3520 2865 3425 2864 2972 3551 2973 3171 3476 3112 296 3478 2748 2866 3681 246 2706 3232 71 3234 3656 3171 73 3362 2678 2649 3525 3425 3088 3560 3381 3114 3609 3115 3127 3578 3128 2973 3551 3267 3121 3468 3362 2975 3551 2972 3137 3592 3136 3050 3642 3198 3117 3253 3103 3472 3473 3039 3101 3491 2956 3391 3464 3392 2818 2936 2834 3500 3643 3105 3211 3501 3085 2787 2788 2786 2684 3688 3390 3073 3468 3121 2787 3671 3174 3207 3463 2877 3425 3524 2864 2692 3513 3420 3420 3513 2644 3332 3484 3072 2739 3493 3466 3047 3474 3397 3390 3688 3125 2648 3583 3132 2662 3594 3138 2883 3572 3126 3064 3486 3100 2701 3561 3131 3303 3487 3301 3602 3668 3296 2798 3213 2764 3062 3434 2961 3235 3656 3234 3557 3673 25 3419 3502 2803 2782 2823 2807 2689 3483 259 3237 3598 3238 3241 3664 3243 2652 2948 2680 351 3488 2735 2806 3628 3376 2936 3074 3073 2885 3098 2876 259 3483 258 3375 3639 3633 2652 2679 2651 3355 3568 2683 3216 3684 3265 3174 3671 3647 3405 3494 3304 2683 3568 3418 3385 3412 37 2647 3573 3127 34 3548 35 2799 3460 3236 312 3490 311 3136 3595 2642 3496 3634 2996 3453 3500 3168 2839 3608 3113 2638 2651 1 2680 2687 2679 2951 3428 2954 2872 2873 2870 3037 3658 3530 3031 3659 3539 3536 3662 2919 2919 3658 3543 2923 3659 3527 2925 3659 2923 2916 3660 2920 3530 3662 3038 3533 3658 3037 314 3493 2739 2936 3075 3074 2690 2865 2864 2675 3366 2879 2863 3369 2672 2674 2872 2870 2868 2869 2675 2676 3372 2868 4 3637 377 2948 3504 2680 3304 3494 3303 3157 3485 3062 2685 3495 316 3090 3567 3474 3039 3511 3472 3423 3653 309 3027 3028 2755 2688 2763 2710 2697 3492 3025 3112 3640 3360 2714 3505 2708 2963 3459 3429 2844 3643 2939 3168 3500 3106 2949 3640 3476 2812 3385 36 2688 2709 2687 3045 3497 2977 3374 3483 3157 2853 3456 2851 2909 3457 2855 360 3631 3416 2869 3367 3366 3408 3549 3285 2862 3511 3087 2803 3502 3351 2696 3509 2698 3025 3492 3196 3074 3468 3073 2849 3464 2847 2756 3377 2778 3399 3614 3148 2655 3499 3350 3075 3077 3076 306 3401 2784 3100 3627 3217 3185 3670 3481 3098 3381 2876 2765 3680 2767 2807 3450 3427 3137 3461 3446 3410 3615 347 322 3616 3411 3083 3690 3679 3375 3633 2806 325 3565 324 3183 3670 3185 3098 3570 3426 2989 3193 3081 2961 3434 2963 258 3483 3374 2914 3515 3514 3080 3449 2916 2804 3635 3235 3084 3108 3028 2658 3548 34 261 3665 3431 3215 3445 2907 2888 3443 3133 3075 3076 3074 2888 3132 2887 3428 3650 2954 3099 3610 3277 3352 3635 2804 3089 3612 3296 3457 3458 3266 2763 2765 2764 371 2789 370 3322 3614 2711 2688 3504 2763 2652 2680 2679 3096 3675 2673 2986 3616 323 346 3615 3323 3429 3458 2909 3027 3213 3084 2698 2699 2697 3077 3454 3194 3310 3618 3313 2701 3131 2905 3079 3477 3078 2666 3564 3354 3498 3552 2917 327 3619 326 2889 3443 2631 2895 3448 2664 74 3413 75 3077 3507 3454 3116 3117 3113 3450 3632 3427 2873 3475 2871 3321 3624 3090 3267 3551 3397 2812 3387 3386 2896 3600 3448 2913 3473 3472 2894 3461 3442 3150 3628 3145 2790 3651 2637 3442 3600 3440 3190 3655 3184 3628 3633 3145 2686 3644 3612 3108 3550 3110 2790 3567 2789 3193 3622 3081 3145 3633 3143 2711 3614 3399 3027 3508 3213 3633 3639 3143 3062 3485 3434 3624 3668 2660 2722 3666 3435 3276 3638 3102 3389 3636 3212 3143 3639 3141 3057 3641 3055 2939 3500 3453 3321 3668 3624 3564 3692 3169 3362 3468 2678 2908 3445 3138 3424 3652 3222 3066 3534 187 3077 3194 3076 3429 3459 3458 2683 3620 294 356 3648 355 3212 3636 3211 3218 3666 3233 2686 3639 3375 2851 3456 2995 2859 3456 2853 3094 3422 3369 2698 3509 2760 2855 3457 2859 329 3654 328 3065 3467 304 3200 3570 3098 3041 3653 3423 3499 3598 3350 2995 3464 2849 3647 3671 2932 242 3469 2759 214 3470 2646 2913 3472 183 3350 3598 2805 2680 2688 2687 3223 3380 2969 3385 3482 3412 3295 3668 3321 329 3674 3654 2766 2798 2764 6 3398 65 3181 3683 3462 3387 3465 3386 3203 3549 3408 2737 3027 2755 2841 3520 3153 3266 3686 3457 3473 3498 2917 2847 3464 3391 330 3674 329 2988 3621 299 3025 3365 3177 182 3498 2913 3220 3569 3137 2638 2652 2651 23 3477 2635 269 3676 270 2823 3450 2807 276 3677 277 3135 3596 2902 3134 3593 2891 38 3412 2638 3416 3631 3044 272 3696 273 2812 3386 3385 3378 3617 3110 3323 3615 3410 3411 3616 2986 3386 3482 3385 3140 3380 3133 3502 3694 3351 367 3644 366 2985 3129 3022 3489 3504 2948 2655 3694 3499 2936 3632 3075 3165 3688 3676 33 3383 2658 3096 3540 2860 2690 3521 3092 2659 3518 3177 3167 3692 3239 2680 3504 2688 3499 3694 3192 3152 3529 2841 35 3548 2812 2909 3458 3457 2765 2767 2766 2660 3602 368 2688 2710 2709 3097 3693 3205 3028 3617 3377 3381 3560 2876 2872 3370 2874 3211 3636 3501 2770 2996 2768 3421 3624 2660 3381 3509 3088 3036 3552 3498 2789 3567 3421 3044 3631 361 3441 3600 3461 2654 3561 77 3074 3630 3468 2646 3511 13 2629 3114 3113 2693 3518 10 2897 3440 2634 2900 2901 2633 2904 3444 2653 2906 2907 2632 2898 2899 2665 2893 2894 2663 3501 3636 2773 3622 3680 3417 2647 3127 3126 3368 3422 3095 2789 3651 2790 3225 3469 3091 3135 3136 2642 3476 3640 3112 3380 3687 3156 3238 3598 3499 2986 3627 3411 2763 2764 2710 3463 3678 3201 3027 3084 3028 3374 3501 2773 3376 3629 3044 3138 3445 3215 2907 3439 3394 3394 3439 2899 3452 3625 2935 3398 3641 2705 2685 3695 3549 2785 2787 2786 3642 3673 3079 2875 2876 2873 3604 3605 2639 31 2882 32 3474 3567 2790 3351 3694 2655 2987 3529 3152 3431 3665 3043 3366 3367 3095 2875 2885 2876 66 3621 3424 2697 3025 2695 3205 3675 3096 3416 3646 2886 260 3563 2689 3205 3693 3206 3406 3447 2901 2899 3447 3406 3392 3626 3130 2767 3680 3622 2682 3078 2650 3369 3422 3097 2841 3153 3152 2939 3643 3500 3022 3023 2826 3476 3656 3187 3055 3398 2628 3424 3621 2988 3046 3680 2765 301 3199 300 3084 3109 3108 2789 3421 370 2765 2766 2764 2678 3413 74 2901 3407 3406 3043 3665 254 2767 2769 2768 308 3653 3041 3414 3695 2685 3132 3156 2892 2884 3126 3056 3139 3443 2890 3468 3630 2678 3059 3506 3128 3449 3669 2915 2709 3508 2737 3679 3686 3266 3521 3532 3092 2812 3548 3387 2882 3559 2989 3448 3600 3407 3434 3485 3243 49 2649 2 3133 3156 3132 2673 3675 3542 3077 3698 3507 2963 3664 3459 2826 3066 11 229 3539 230 186 2692 10 214 2646 13 242 2759 11 201 2672 202 226 2918 227 9 2644 184 198 3538 199 48 3525 49 47 3524 48 251 3529 252 223 2914 224 232 3040 233 247 2670 248 44 2690 45 39 2987 40 243 2659 244 248 3519 249 195 3537 196 43 3521 44 40 3522 41 244 3517 245 184 3513 185 204 3540 205 235 3541 236 220 3536 221 192 2675 193 207 3542 208 217 2917 218 238 3033 239 210 3544 211 241 2915 14 172 3030 173 152 2740 153 179 3036 180 250 2841 251 156 3080 157 160 2920 161 164 2921 165 168 2923 169 41 2741 42 46 2864 47 245 2866 246 213 2870 12 13 3039 215 175 3037 176 10 3518 243 249 3520 250 151 3547 152 42 3532 43 171 3546 172 176 3530 177 239 3523 240 211 2674 212 188 2676 189 236 3032 237 219 2922 220 233 3516 234 222 3543 223 194 2879 195 230 3035 231 225 3514 226 202 3512 203 228 3031 229 199 2863 200 203 2860 204 196 2671 197 206 2673 207 234 3034 235 221 2919 222 209 2878 210 190 2868 191 173 3533 174 178 3545 179 154 2835 155 158 2916 159 177 3038 178 150 2858 151 162 2924 163 170 3029 171 166 2925 167 187 3534 188 182 2913 183 240 3535 241 165 3526 166 153 3531 154 169 3527 170 161 3528 162 3435 3666 3218 3076 3630 3074 3128 3687 3059 3216 3685 3684 3368 3693 3422 3087 3511 3471 75 3575 76 2773 3636 3389 2759 3469 2985 3155 3611 3368 3470 3475 3471 23 2635 24 30 3559 31 26 2700 27 27 3558 28 29 2641 30 24 3557 25 3496 3569 3220 3046 3489 3465 2767 2768 2766 3427 3632 2818 3377 3617 3378 50 2645 5 3171 3656 3476 2641 3050 2989 2880 3094 2671 2878 3371 3370 2690 3092 2865 2659 3177 2867 2861 3096 2860 3225 3669 2835 3080 3669 3449 3461 3569 3441 3137 3569 3461 2710 3508 2709 2989 3559 2641 3364 3681 2866 148 2628 6 2996 3569 3496 3243 3664 3434 2871 3470 12 3091 3469 14 9 3472 2862 3577 3645 3128 3134 3645 2630 304 3467 303 135 3593 136 100 2897 101 108 2900 109 127 2631 128 81 2904 82 143 2647 144 92 3591 93 116 2906 117 119 3590 120 89 3595 90 146 2883 147 84 3589 85 124 3597 125 111 3588 112 138 3586 139 76 2654 77 132 2648 133 103 3585 104 130 3583 131 140 2702 141 95 3581 96 86 3596 87 121 3594 122 114 2665 115 94 2636 95 141 3578 142 79 2701 80 129 2887 130 106 2664 107 102 2634 103 133 3576 134 137 2630 138 98 2663 99 110 2633 111 125 2889 126 83 2653 84 90 3592 91 118 2632 119 91 2703 92 144 3572 145 99 3587 100 134 2891 135 107 3584 108 128 3571 129 80 3582 81 142 3573 143 93 3580 94 115 3579 116 120 2908 121 88 2642 89 147 3574 148 85 2902 86 123 2662 124 112 2898 113 96 2893 97 139 3577 140 104 2895 105 2876 3560 3475 3135 3562 3220 2769 2785 2770 2818 3632 2936 300 3689 8 3023 3672 3066 2907 3394 3215 3407 3441 3395 3201 3678 3466 2696 2698 2697 2650 3477 2 2931 3196 2932 3131 3550 2905 60 3606 59 64 2705 63 52 2839 51 51 3603 50 55 2629 54 61 2639 60 57 3609 56 59 3607 58 63 3604 62 54 3608 53 58 2704 57 3434 3664 2963 3417 3680 3046 3462 3683 3163 2737 3508 3027 3139 3140 3133 2874 2877 2875 2769 2770 2768 3371 3675 3205 3109 3562 3108 2903 3135 2902 2662 3138 2890 2648 3132 2892 2892 3134 2891 252 3623 253 2883 3126 2884 2692 3420 2694 3026 3420 2644 2649 3425 2681 2867 3364 2866 2899 3406 3394 3091 3669 3225 3097 3205 3096 3109 3691 3496 2839 3113 2840 2884 3055 2628 3407 3479 3448 3066 3672 3534 3059 3687 3380 377 3601 376 3649 3650 3195 3109 3496 3220 2882 3383 32 302 3452 301 3229 3649 3613 2785 2786 2770 3056 3506 3058 3065 3154 3023 3 3700 39 253 3700 3 2759 2826 11 2870 2871 12 13 3511 3039 2915 3091 14 3612 3644 3296 9 2862 2644 2692 2693 10 3496 3691 2798 3220 3562 3109 3628 3629 3376 3150 3629 3628 3542 3675 3371 2757 3601 3158 2672 3369 2861 2869 3366 2675 2935 3225 2740 2674 3370 2872 2879 3366 2880 2868 3372 2869 2649 2650 2 3034 3556 3541 3516 3556 3034 3029 3555 3546 2920 3553 3528 3545 3552 3036 3527 3555 3029 3526 3554 2925 8 3689 149 2660 3668 3602 3445 3590 2632 2908 3590 3445 2897 3587 3442 2906 3579 3439 3442 3587 2663 3439 3579 2665 2859 3684 3456 3199 3452 2935 3059 3380 3223 3265 3686 3679 2915 3669 3091 3138 3215 3139 3457 3686 2859 3459 3664 3241 2900 3584 3479 3479 3584 2664 2859 3686 3684 3475 3560 3471 2954 3650 3649 2985 3625 3129 2862 3087 3026 2630 3645 3586 3058 3506 3059 3150 3646 3629 2981 3637 5 2823 3698 3450 3059 3223 3058 3196 3647 2932 3549 3695 3285 2768 3634 2766 3199 3689 300 2678 3630 3413 3213 3691 3084 376 2757 375 3520 3682 3153 2920 3660 3553 3554 3659 2925 3456 3685 2995 3406 3407 3395 2740 3547 2935 2674 3544 3370 2880 3537 2879 2671 3537 2880 2867 3517 2659 3152 3522 2987 2861 3512 2672 2741 3522 3152 2866 3517 2867 3370 3544 2878 2935 3547 2858 3225 3531 2740 2860 3512 2861 2835 3531 3225 2872 2874 2873 3367 3368 3095 3613 3649 3195 3441 3569 2996 372 3651 371 3529 3623 252 303 3129 302 3056 3057 3055 3225 3625 3469 2985 3022 2826 2694 2695 2693 2681 2682 2650 3604 3641 3605 2888 3133 3132 3022 3065 3023 2705 3641 3604 3444 3562 2903 2931 2932 2682 2696 2697 2695 2913 3498 3473 2874 2875 2873 3470 3471 2646 3078 3119 3079 3413 3575 75 2798 3634 3496 2645 2981 5 2628 3398 6 3084 3691 3109 3087 3088 3026 2694 2696 2695 2681 2931 2682 3095 3422 3094 2766 3634 2798 2861 3097 3096 2880 3095 3094 3092 3093 2865 2759 2985 2826 2692 2694 2693 2862 3026 2644 2871 3475 3470 3515 3658 3533 2649 2681 2650 3448 3479 2664 2897 3442 3440 2631 3443 2888 2906 3439 2907 2899 3439 2665 2894 3442 2663 2890 3443 2889 2907 3445 2632 2896 3448 2895 2628 3574 2884 2645 3603 2840 2900 3479 2901 377 3637 3601 2896 3585 2634 3447 3588 2633 2889 3597 2890 3446 3581 2636 2903 3589 2653 2902 3589 2903 2890 3597 2662 2898 3588 3447 2892 3576 2648 2895 3585 2896 2893 3581 3446 2891 3576 2892 2888 3571 2631 2904 3582 2905 2887 3571 2888 2905 3582 2701 2884 3574 2883 3055 3641 3398 5 3637 4 3134 3687 3645 2905 3444 2904 2634 3440 2896 2901 3447 2633 2653 3444 2903 2898 3447 2899 2893 3446 2894 2840 3603 2839 3469 3625 2985 3558 3642 3050 39 3700 2987 2798 3691 3213 3684 3686 3265 3158 3159 2757 3126 3506 3056 3115 3116 3114 31 3559 2882 3684 3685 3456 3129 3625 3452 3135 3220 3136 375 3503 374 3127 3506 3126 3056 3058 3057 2700 3642 3558 3138 3139 2890 2892 3156 3134 2884 3056 3055 3129 3467 3022 2644 3513 184 3524 3525 48 2670 3519 248 2659 3517 244 44 3521 2690 2987 3522 40 41 3522 2741 2841 3529 251 2864 3524 47 243 3518 2659 245 3517 2866 43 3532 3521 3519 3520 249 152 3547 2740 172 3546 3030 250 3520 2841 2741 3532 42 3037 3530 176 3033 3523 239 211 3544 2674 236 3541 3032 2922 3536 220 3040 3516 233 223 3543 2914 2879 3537 195 230 3539 3035 2672 3512 202 226 3514 2918 199 3538 2863 3031 3539 229 196 3537 2671 2860 3540 204 3034 3541 235 221 3536 2919 2673 3542 207 2878 3544 210 203 3512 2860 234 3516 3034 2919 3543 222 241 3535 2915 3030 3533 173 179 3545 3036 177 3530 3038 2923 3527 169 3029 3546 171 2740 3531 153 2921 3526 165 2858 3547 151 2920 3528 161 3523 3535 240 188 3534 2676 166 3526 2925 162 3528 2924 154 3531 2835 3038 3545 178 170 3527 3029 49 3525 2649 3556 3661 3541 3555 3657 3546 3516 3663 3556 3526 3663 3554 3553 3661 3528 3545 3662 3552 26 3673 2700 3422 3693 3097 371 3651 2789 3440 3600 2896 3446 3461 2894 2700 3558 27 2641 3559 30 2635 3557 24 3534 3672 2676 374 3599 373 3022 3467 3065 76 3575 2654 2935 3625 3225 247 3681 2670 3515 3533 3030 2915 3535 3449 3449 3535 3523 2676 3672 3372 373 2637 372 2670 3682 3519 2636 3581 95 2702 3578 141 2887 3583 130 2634 3585 103 2648 3576 133 2630 3586 138 2633 3588 111 125 3597 2889 2653 3589 84 90 3595 3592 2632 3590 119 2703 3591 92 2647 3572 144 100 3587 2897 2891 3593 135 108 3584 2900 2631 3571 128 81 3582 2904 143 3573 2647 93 3591 3580 116 3579 2906 120 3590 2908 91 3592 2703 2642 3595 89 2883 3574 147 2663 3587 99 85 3589 2902 134 3576 2891 2664 3584 107 129 3571 2887 2701 3582 80 142 3578 3573 94 3580 2636 2662 3597 124 112 3588 2898 2665 3579 115 2908 3594 121 2902 3596 86 139 3586 3577 96 3581 2893 140 3577 2702 104 3585 2895 148 3574 2628 2839 3603 51 2639 3606 60 3606 3607 59 2705 3604 63 2629 3608 54 2704 3609 57 58 3607 2704 50 3603 2645 301 3452 3199 3601 3637 2981 2700 3673 3642 3156 3687 3134 2987 3700 3623 2914 3658 3515 3030 3657 3515 3523 3660 3449 3515 3657 3514 3449 3660 2916 3645 3687 3128 3556 3663 2921 2918 3657 3555 3554 3663 3040 3553 3660 3033 3552 3662 2922 3032 3661 3553 3035 3659 3554 2924 3661 3556 3425 3525 3524 376 3601 2757 3623 3700 253 303 3467 3129 3159 3503 2757 3681 3682 2670 3129 3452 302 3546 3657 3030 3033 3660 3523 2922 3662 3536 3541 3661 3032 3543 3658 2914 3040 3663 3516 3514 3657 2918 3539 3659 3035 2921 3663 3526 3528 3661 2924 3038 3662 3545 3364 3682 3681 2757 3503 375 2637 3651 372 3503 3599 374 373 3599 2637 3159 3599 3503 28 2641 29 45 2864 46 53 2839 52 56 3609 55 62 2639 61 65 2705 64 82 2653 83 87 2642 88 97 2663 98 101 2634 102 105 2664 106 109 2633 110 113 2665 114 117 2632 118 122 2662 123 126 2631 127 131 2648 132 136 2630 137 145 2883 146 149 2858 150 157 2916 158 159 2920 160 167 2923 168 174 3037 175 185 2692 186 189 2868 190 191 2675 192 193 2879 194 197 3538 198 200 2672 201 205 2673 206 208 2878 209 212 2870 213 224 3514 225 2770 3441 2996 3229 3379 3228 23 2 24 23 25 24 26 25 27 26 28 27 29 28 30 29 31 30 32 31 33 32 34 33 35 34 36 35 37 36 38 37 1 38 39 3 40 39 41 40 42 41 43 42 44 43 45 44 46 45 47 46 48 47 49 48 2 49 4 5 5 50 50 51 51 52 52 53 53 54 54 55 55 56 56 57 57 58 58 59 59 60 60 61 61 62 62 63 63 64 64 65 65 6 66 7 67 66 68 67 69 68 70 69 71 70 72 71 73 72 74 73 75 74 76 75 77 76 78 77 79 78 80 79 81 80 82 81 83 82 84 83 85 84 86 85 87 86 88 87 89 88 90 89 91 90 92 91 93 92 94 93 95 94 96 95 97 96 98 97 99 98 100 99 101 100 102 101 103 102 104 103 105 104 106 105 107 106 108 107 109 108 110 109 111 110 112 111 113 112 114 113 115 114 116 115 117 116 118 117 119 118 120 119 121 120 122 121 123 122 124 123 125 124 126 125 127 126 128 127 129 128 130 129 131 130 132 131 133 132 134 133 135 134 136 135 137 136 138 137 139 138 140 139 141 140 142 141 143 142 144 143 145 144 146 145 147 146 148 147 6 148 149 8 150 149 151 150 152 151 153 152 154 153 155 154 156 155 157 156 158 157 159 158 160 159 161 160 162 161 163 162 164 163 165 164 166 165 167 166 168 167 169 168 170 169 171 170 172 171 173 172 174 173 175 174 176 175 177 176 178 177 179 178 180 179 181 180 182 181 183 182 9 183 184 9 185 184 186 185 10 186 187 11 188 187 189 188 190 189 191 190 192 191 193 192 194 193 195 194 196 195 197 196 198 197 199 198 200 199 201 200 202 201 203 202 204 203 205 204 206 205 207 206 208 207 209 208 210 209 211 210 212 211 213 212 12 213 214 12 13 214 215 13 216 215 217 216 218 217 219 218 220 219 221 220 222 221 223 222 224 223 225 224 226 225 227 226 228 227 229 228 230 229 231 230 232 231 233 232 234 233 235 234 236 235 237 236 238 237 239 238 240 239 241 240 14 241 242 14 11 242 243 10 244 243 245 244 246 245 247 246 248 247 249 248 250 249 251 250 252 251 253 252 3 253 0 254 254 255 255 256 256 257 257 258 258 259 259 260 260 1 261 0 262 261 263 262 264 263 265 264 266 265 267 266 268 267 269 268 270 269 271 270 272 271 273 272 274 273 275 274 276 275 277 276 278 277 279 278 280 279 281 280 282 281 283 282 284 283 285 284 286 285 287 286 288 287 289 288 290 289 291 290 292 291 293 292 294 293 295 294 296 295 297 296 298 297 299 298 7 299 8 300 300 301 301 302 302 303 303 304 304 305 305 306 306 307 307 308 308 15 15 309 309 310 310 311 311 312 312 313 313 314 314 315 315 316 316 317 317 318 318 319 319 320 320 321 321 322 322 16 16 323 323 324 324 325 325 326 326 327 327 328 328 329 329 330 330 331 331 332 332 333 333 334 334 335 335 336 336 337 337 338 338 339 339 340 340 341 341 342 342 343 343 344 344 345 345 346 346 17 17 347 347 348 348 349 349 350 350 351 351 352 352 353 353 354 354 355 355 356 356 357 357 358 358 359 359 360 360 18 18 361 361 362 362 363 363 364 364 365 365 366 366 367 367 368 368 369 369 370 370 371 371 372 372 373 373 374 374 375 375 376 376 377 377 4 378 19 379 378 380 379 381 380 382 381 383 382 384 383 385 384 386 385 387 386 388 387 389 388 390 389 391 390 392 391 393 392 394 393 395 394 396 395 397 396 398 397 399 398 400 399 401 400 402 401 403 402 404 403 405 404 406 405 407 406 408 407 409 408 410 409 411 410 412 411 413 412 414 413 415 414 416 415 417 416 418 417 419 418 420 419 421 420 422 421 423 422 424 423 425 424 426 425 20 426 427 20 428 427 429 428 430 429 431 430 432 431 433 432 434 433 435 434 436 435 437 436 438 437 439 438 440 439 441 440 442 441 443 442 444 443 445 444 0 445 446 7 447 446 448 447 449 448 450 449 451 450 452 451 453 452 454 453 21 454 21 455 455 456 456 457 457 458 458 459 459 460 460 461 461 462 462 463 463 464 464 465 465 466 466 467 467 468 468 19 19 469 469 470 470 471 471 472 472 473 473 474 474 475 475 476 476 477 477 478 478 479 479 480 480 22 481 22 482 481 483 482 484 483 485 484 486 485 487 486 488 487 489 488 490 489 491 490 492 491 493 492 494 493 495 494 496 495 497 496 498 497 499 498 500 499 501 500 502 501 503 502 3 503 4 504 504 505 505 506 506 507 507 508 508 509 509 510 510 511 511 512 512 513 513 514 514 515 515 516 516 517 517 518 518 519 519 520 520 521 521 522 522 523 523 524 524 525 525 526 526 527 527 528 528 529 529 530 530 531 531 532 532 533 533 534 534 535 535 536 536 537 537 538 538 539 539 540 540 541 541 542 542 543 543 544 544 545 545 546 546 547 547 548 548 549 549 550 550 551 551 552 552 553 553 554 554 555 555 556 556 557 557 558 558 559 559 560 560 561 561 562 562 563 563 564 564 565 565 566 566 567 567 568 568 569 569 570 570 571 571 572 572 573 573 574 574 575 575 576 576 577 577 578 578 579 579 580 580 581 581 582 582 583 583 584 584 585 585 586 586 587 587 588 588 589 589 590 590 591 591 592 592 593 593 594 594 595 595 596 596 597 597 598 598 599 599 600 600 601 601 602 602 21 22 603 603 604 604 605 605 8
        </DataArray>
        <DataArray type="Int32" Name="offsets" format="ascii">
 3 6 9 12 15 18 21 24 27 30 33 36 39 42 45 48 51 54 57 60 63 66 69 72 75 78 81 84 87 90 93 96 99 102 105 108 111 114 117 120 123 126 129 132 135 138 141 144 147 150 153 156 159 162 165 168 171 174 177 180 183 186 189 192 195 198 201 204 207 210 213 216 219 222 225 228 231 234 237 240 243 246 249 252 255 258 261 264 267 270 273 276 279 282 285 288 291 294 297 300 303 306 309 312 315 318 321 324 327 330 333 336 339 342 345 348 351 354 357 360 363 366 369 372 375 378 381 384 387 390 393 396 399 402 405 408 411 414 417 420 423 426 429 432 435 438 441 444 447 450 453 456 459 462 465 468 471 474 477 480 483 486 489 492 495 498 501 504 507 510 513 516 519 522 525 528 531 534 537 540 543 546 549 552 555 558 561 564 567 570 573 576 579 582 585 588 591 594 597 600 603 606 609 612 615 618 621 624 627 630 633 636 639 642 645 648 651 654 657 660 663 666 669 672 675 678 681 684 687 690 693 696 699 702 705 708 711 714 717 720 723 726 729 732 735 738 741 744 747 750 753 756 759 762 765 768 771 774 777 780 783 786 789 792 795 798 801 804 807 810 813 816 819 822 825 828 831 834 837 840 843 846 849 852 855 858 861 864 867 870 873 876 879 882 885 888 891 894 897 900 903 906 909 912 915 918 921 924 927 930 933 936 939 942 945 948 951 954 957 960 963 966 969 972 975 978 981 984 987 990 993 996 999 1002 1005 1008 1011 1014 1017 1020 1023 1026 1029 1032 1035 1038 1041 1044 1047 1050 1053 1056 1059 1062 1065 1068 1071 1074 1077 1080 1083 1086 1089 1092 1095 1098 1101 1104 1107 1110 1113 1116 1119 1122 1125 1128 1131 1134 1137 1140 1143 1146 1149 1152 1155 1158 1161 1164 1167 1170 1173 1176 1179 1182 1185 1188 1191 1194 1197 1200 1203 1206 1209 1212 1215 1218 1221 1224 1227 1230 1233 1236 1239 1242 1245 1248 1251 1254 1257 1260 1263 1266 1269 1272 1275 1278 1281 1284 1287 1290 1293 1296 1299 1302 1305 1308 1311 1314 1317 1320 1323 1326 1329 1332 1335 1338 1341 1344 1347 1350 1353 1356 1359 1362 1365 1368 1371 1374 1377 1380 1383 1386 1389 1392 1395 1398 1401 1404 1407 1410 1413 1416 1419 1422 1425 1428 1431 1434 1437 1440 1443 1446 1449 1452 1455 1458 1461 1464 1467 1470 1473 1476 1479 1482 1485 1488 1491 1494 1497 1500 1503 1506 1509 1512 1515 1518 1521 1524 1527 1530 1533 1536 1539 1542 1545 1548 1551 1554 1557 1560 1563 1566 1569 1572 1575 1578 1581 1584 1587 1590 1593 1596 1599 1602 1605 1608 1611 1614 1617 1620 1623 1626 1629 1632 1635 1638 1641 1644 1647 1650 1653 1656 1659 1662 1665 1668 1671 1674 1677 1680 1683 1686 1689 1692 1695 1698 1701 1704 1707 1710 1713 1716 1719 1722 1725 1728 1731 1734 1737 1740 1743 1746 1749 1752 1755 1758 1761 1764 1767 1770 1773 1776 1779 1782 1785 1788 1791 1794 1797 1800 1803 1806 1809 1812 1815 1818 1821 1824 1827 1830 1833 1836 1839 1842 1845 1848 1851 1854 1857 1860 1863 1866 1869 1872 1875 1878 1881 1884 1887 1890 1893 1896 1899 1902 1905 1908 1911 1914 1917 1920 1923 1926 1929 1932 1935 1938 1941 1944 1947 1950 1953 1956 1959 1962 1965 1968 1971 1974 1977 1980 1983 1986 1989 1992 1995 1998 2001 2004 2007 2010 2013 2016 2019 2022 2025 2028 2031 2034 2037 2040 2043 2046 2049 2052 2055 2058 2061 2064 2067 2070 2073 2076 2079 2082 2085 2088 2091 2094 2097 2100 2103 2106 2109 2112 2115 2118 2121 2124 2127 2130 2133 2136 2139 2142 2145 2148 2151 2154 2157 2160 2163 2166 2169 2172 2175 2178 2181 2184 2187 2190 2193 2196 2199 2202 2205 2208 2211 2214 2217 2220 2223 2226 2229 2232 2235 2238 2241 2244 2247 2250 2253 2256 2259 2262 2265 2268 2271 2274 2277 2280 2283 2286 2289 2292 2295 2298 2301 2304 2307 2310 2313 2316 2319 2322 2325 2328 2331 2334 2337 2340 2343 2346 2349 2352 2355 2358 2361 2364 2367 2370 2373 2376 2379 2382 2385 2388 2391 2394 2397 2400 2403 2406 2409 2412 2415 2418 2421 2424 2427 2430 2433 2436 2439 2442 2445 2448 2451 2454 2457 2460 2463 2466 2469 2472 2475 2478 2481 2484 2487 2490 2493 2496 2499 2502 2505 2508 2511 2514 2517 2520 2523 2526 2529 2532 2535 2538 2541 2544 2547 2550 2553 2556 2559 2562 2565 2568 2571 2574 2577 2580 2583 2586 2589 2592 2595 2598 2601 2604 2607 2610 2613 2616 2619 2622 2625 2628 2631 2634 2637 2640 2643 2646 2649 2652 2655 2658 2661 2664 2667 2670 2673 2676 2679 2682 2685 2688 2691 2694 2697 2700 2703 2706 2709 2712 2715 2718 2721 2724 2727 2730 2733 2736 2739 2742 2745 2748 2751 2754 2757 2760 2763 2766 2769 2772 2775 2778 2781 2784 2787 2790 2793 2796 2799 2802 2805 2808 2811 2814 2817 2820 2823 2826 2829 2832 2835 2838 2841 2844 2847 2850 2853 2856 2859 2862 2865 2868 2871 2874 2877 2880 2883 2886 2889 2892 2895 2898 2901 2904 2907 2910 2913 2916 2919 2922 2925 2928 2931 2934 2937 2940 2943 2946 2949 2952 2955 2958 2961 2964 2967 2970 2973 2976 2979 2982 2985 2988 2991 2994 2997 3000 3003 3006 3009 3012 3015 3018 3021 3024 3027 3030 3033 3036 3039 3042 3045 3048 3051 3054 3057 3060 3063 3066 3069 3072 3075 3078 3081 3084 3087 3090 3093 3096 3099 3102 3105 3108 3111 3114 3117 3120 3123 3126 3129 3132 3135 3138 3141 3144 3147 3150 3153 3156 3159 3162 3165 3168 3171 3174 3177 3180 3183 3186 3189 3192 3195 3198 3201 3204 3207 3210 3213 3216 3219 3222 3225 3228 3231 3234 3237 3240 3243 3246 3249 3252 3255 3258 3261 3264 3267 3270 3273 3276 3279 3282 3285 3288 3291 3294 3297 3300 3303 3306 3309 3312 3315 3318 3321 3324 3327 3330 3333 3336 3339 3342 3345 3348 3351 3354 3357 3360 3363 3366 3369 3372 3375 3378 3381 3384 3387 3390 3393 3396 3399 3402 3405 3408 3411 3414 3417 3420 3423 3426 3429 3432 3435 3438 3441 3444 3447 3450 3453 3456 3459 3462 3465 3468 3471 3474 3477 3480 3483 3486 3489 3492 3495 3498 3501 3504 3507 3510 3513 3516 3519 3522 3525 3528 3531 3534 3537 3540 3543 3546 3549 3552 3555 3558 3561 3564 3567 3570 3573 3576 3579 3582 3585 3588 3591 3594 3597 3600 3603 3606 3609 3612 3615 3618 3621 3624 3627 3630 3633 3636 3639 3642 3645 3648 3651 3654 3657 3660 3663 3666 3669 3672 3675 3678 3681 3684 3687 3690 3693 3696 3699 3702 3705 3708 3711 3714 3717 3720 3723 3726 3729 3732 3735 3738 3741 3744 3747 3750 3753 3756 3759 3762 3765 3768 3771 3774 3777 3780 3783 3786 3789 3792 3795 3798 3801 3804 3807 3810 3813 3816 3819 3822 3825 3828 3831 3834 3837 3840 3843 3846 3849 3852 3855 3858 3861 3864 3867 3870 3873 3876 3879 3882 3885 3888 3891 3894 3897 3900 3903 3906 3909 3912 3915 3918 3921 3924 3927 3930 3933 3936 3939 3942 3945 3948 3951 3954 3957 3960 3963 3966 3969 3972 3975 3978 3981 3984 3987 3990 3993 3996 3999 4002 4005 4008 4011 4014 4017 4020 4023 4026 4029 4032 4035 4038 4041 4044 4047 4050 4053 4056 4059 4062 4065 4068 4071 4074 4077 4080 4083 4086 4089 4092 4095 4098 4101 4104 4107 4110 4113 4116 4119 4122 4125 4128 4131 4134 4137 4140 4143 4146 4149 4152 4155 4158 4161 4164 4167 4170 4173 4176 4179 4182 4185 4188 4191 4194 4197 4200 4203 4206 4209 4212 4215 4218 4221 4224 4227 4230 4233 4236 4239 4242 4245 4248 4251 4254 4257 4260 4263 4266 4269 4272 4275 4278 4281 4284 4287 4290 4293 4296 4299 4302 4305 4308 4311 4314 4317 4320 4323 4326 4329 4332 4335 4338 4341 4344 4347 4350 4353 4356 4359 4362 4365 4368 4371 4374 4377 4380 4383 4386 4389 4392 4395 4398 4401 4404 4407 4410 4413 4416 4419 4422 4425 4428 4431 4434 4437 4440 4443 4446 4449 4452 4455 4458 4461 4464 4467 4470 4473 4476 4479 4482 4485 4488 4491 4494 4497 4500 4503 4506 4509 4512 4515 4518 4521 4524 4527 4530 4533 4536 4539 4542 4545 4548 4551 4554 4557 4560 4563 4566 4569 4572 4575 4578 4581 4584 4587 4590 4593 4596 4599 4602 4605 4608 4611 4614 4617 4620 4623 4626 4629 4632 4635 4638 4641 4644 4647 4650 4653 4656 4659 4662 4665 4668 4671 4674 4677 4680 4683 4686 4689 4692 4695 4698 4701 4704 4707 4710 4713 4716 4719 4722 4725 4728 4731 4734 4737 4740 4743 4746 4749 4752 4755 4758 4761 4764 4767 4770 4773 4776 4779 4782 4785 4788 4791 4794 4797 4800 4803 4806 4809 4812 4815 4818 4821 4824 4827 4830 4833 4836 4839 4842 4845 4848 4851 4854 4857 4860 4863 4866 4869 4872 4875 4878 4881 4884 4887 4890 4893 4896 4899 4902 4905 4908 4911 4914 4917 4920 4923 4926 4929 4932 4935 4938 4941 4944 4947 4950 4953 4956 4959 4962 4965 4968 4971 4974 4977 4980 4983 4986 4989 4992 4995 4998 5001 5004 5007 5010 5013 5016 5019 5022 5025 5028 5031 5034 5037 5040 5043 5046 5049 5052 5055 5058 5061 5064 5067 5070 5073 5076 5079 5082 5085 5088 5091 5094 5097 5100 5103 5106 5109 5112 5115 5118 5121 5124 5127 5130 5133 5136 5139 5142 5145 5148 5151 5154 5157 5160 5163 5166 5169 5172 5175 5178 5181 5184 5187 5190 5193 5196 5199 5202 5205 5208 5211 5214 5217 5220 5223 5226 5229 5232 5235 5238 5241 5244 5247 5250 5253 5256 5259 5262 5265 5268 5271 5274 5277 5280 5283 5286 5289 5292 5295 5298 5301 5304 5307 5310 5313 5316 5319 5322 5325 5328 5331 5334 5337 5340 5343 5346 5349 5352 5355 5358 5361 5364 5367 5370 5373 5376 5379 5382 5385 5388 5391 5394 5397 5400 5403 5406 5409 5412 5415 5418 5421 5424 5427 5430 5433 5436 5439 5442 5445 5448 5451 5454 5457 5460 5463 5466 5469 5472 5475 5478 5481 5484 5487 5490 5493 5496 5499 5502 5505 5508 5511 5514 5517 5520 5523 5526 5529 5532 5535 5538 5541 5544 5547 5550 5553 5556 5559 5562 5565 5568 5571 5574 5577 5580 5583 5586 5589 5592 5595 5598 5601 5604 5607 5610 5613 5616 5619 5622 5625 5628 5631 5634 5637 5640 5643 5646 5649 5652 5655 5658 5661 5664 5667 5670 5673 5676 5679 5682 5685 5688 5691 5694 5697 5700 5703 5706 5709 5712 5715 5718 5721 5724 5727 5730 5733 5736 5739 5742 5745 5748 5751 5754 5757 5760 5763 5766 5769 5772 5775 5778 5781 5784 5787 5790 5793 5796 5799 5802 5805 5808 5811 5814 5817 5820 5823 5826 5829 5832 5835 5838 5841 5844 5847 5850 5853 5856 5859 5862 5865 5868 5871 5874 5877 5880 5883 5886 5889 5892 5895 5898 5901 5904 5907 5910 5913 5916 5919 5922 5925 5928 5931 5934 5937 5940 5943 5946 5949 5952 5955 5958 5961 5964 5967 5970 5973 5976 5979 5982 5985 5988 5991 5994 5997 6000 6003 6006 6009 6012 6015 6018 6021 6024 6027 6030 6033 6036 6039 6042 6045 6048 6051 6054 6057 6060 6063 6066 6069 6072 6075 6078 6081 6084 6087 6090 6093 6096 6099 6102 6105 6108 6111 6114 6117 6120 6123 6126 6129 6132 6135 6138 6141 6144 6147 6150 6153 6156 6159 6162 6165 6168 6171 6174 6177 6180 6183 6186 6189 6192 6195 6198 6201 6204 6207 6210 6213 6216 6219 6222 6225 6228 6231 6234 6237 6240 6243 6246 6249 6252 6255 6258 6261 6264 6267 6270 6273 6276 6279 6282 6285 6288 6291 6294 6297 6300 6303 6306 6309 6312 6315 6318 6321 6324 6327 6330 6333 6336 6339 6342 6345 6348 6351 6354 6357 6360 6363 6366 6369 6372 6375 6378 6381 6384 6387 6390 6393 6396 6399 6402 6405 6408 6411 6414 6417 6420 6423 6426 6429 6432 6435 6438 6441 6444 6447 6450 6453 6456 6459 6462 6465 6468 6471 6474 6477 6480 6483 6486 6489 6492 6495 6498 6501 6504 6507 6510 6513 6516 6519 6522 6525 6528 6531 6534 6537 6540 6543 6546 6549 6552 6555 6558 6561 6564 6567 6570 6573 6576 6579 6582 6585 6588 6591 6594 6597 6600 6603 6606 6609 6612 6615 6618 6621 6624 6627 6630 6633 6636 6639 6642 6645 6648 6651 6654 6657 6660 6663 6666 6669 6672 6675 6678 6681 6684 6687 6690 6693 6696 6699 6702 6705 6708 6711 6714 6717 6720 6723 6726 6729 6732 6735 6738 6741 6744 6747 6750 6753 6756 6759 6762 6765 6768 6771 6774 6777 6780 6783 6786 6789 6792 6795 6798 6801 6804 6807 6810 6813 6816 6819 6822 6825 6828 6831 6834 6837 6840 6843 6846 6849 6852 6855 6858 6861 6864 6867 6870 6873 6876 6879 6882 6885 6888 6891 6894 6897 6900 6903 6906 6909 6912 6915 6918 6921 6924 6927 6930 6933 6936 6939 6942 6945 6948 6951 6954 6957 6960 6963 6966 6969 6972 6975 6978 6981 6984 6987 6990 6993 6996 6999 7002 7005 7008 7011 7014 7017 7020 7023 7026 7029 7032 7035 7038 7041 7044 7047 7050 7053 7056 7059 7062 7065 7068 7071 7074 7077 7080 7083 7086 7089 7092 7095 7098 7101 7104 7107 7110 7113 7116 7119 7122 7125 7128 7131 7134 7137 7140 7143 7146 7149 7152 7155 7158 7161 7164 7167 7170 7173 7176 7179 7182 7185 7188 7191 7194 7197 7200 7203 7206 7209 7212 7215 7218 7221 7224 7227 7230 7233 7236 7239 7242 7245 7248 7251 7254 7257 7260 7263 7266 7269 7272 7275 7278 7281 7284 7287 7290 7293 7296 7299 7302 7305 7308 7311 7314 7317 7320 7323 7326 7329 7332 7335 7338 7341 7344 7347 7350 7353 7356 7359 7362 7365 7368 7371 7374 7377 7380 7383 7386 7389 7392 7395 7398 7401 7404 7407 7410 7413 7416 7419 7422 7425 7428 7431 7434 7437 7440 7443 7446 7449 7452 7455 7458 7461 7464 7467 7470 7473 7476 7479 7482 7485 7488 7491 7494 7497 7500 7503 7506 7509 7512 7515 7518 7521 7524 7527 7530 7533 7536 7539 7542 7545 7548 7551 7554 7557 7560 7563 7566 7569 7572 7575 7578 7581 7584 7587 7590 7593 7596 7599 7602 7605 7608 7611 7614 7617 7620 7623 7626 7629 7632 7635 7638 7641 7644 7647 7650 7653 7656 7659 7662 7665 7668 7671 7674 7677 7680 7683 7686 7689 7692 7695 7698 7701 7704 7707 7710 7713 7716 7719 7722 7725 7728 7731 7734 7737 7740 7743 7746 7749 7752 7755 7758 7761 7764 7767 7770 7773 7776 7779 7782 7785 7788 7791 7794 7797 7800 7803 7806 7809 7812 7815 7818 7821 7824 7827 7830 7833 7836 7839 7842 7845 7848 7851 7854 7857 7860 7863 7866 7869 7872 7875 7878 7881 7884 7887 7890 7893 7896 7899 7902 7905 7908 7911 7914 7917 7920 7923 7926 7929 7932 7935 7938 7941 7944 7947 7950 7953 7956 7959 7962 7965 7968 7971 7974 7977 7980 7983 7986 7989 7992 7995 7998 8001 8004 8007 8010 8013 8016 8019 8022 8025 8028 8031 8034 8037 8040 8043 8046 8049 8052 8055 8058 8061 8064 8067 8070 8073 8076 8079 8082 8085 8088 8091 8094 8097 8100 8103 8106 8109 8112 8115 8118 8121 8124 8127 8130 8133 8136 8139 8142 8145 8148 8151 8154 8157 8160 8163 8166 8169 8172 8175 8178 8181 8184 8187 8190 8193 8196 8199 8202 8205 8208 8211 8214 8217 8220 8223 8226 8229 8232 8235 8238 8241 8244 8247 8250 8253 8256 8259 8262 8265 8268 8271 8274 8277 8280 8283 8286 8289 8292 8295 8298 8301 8304 8307 8310 8313 8316 8319 8322 8325 8328 8331 8334 8337 8340 8343 8346 8349 8352 8355 8358 8361 8364 8367 8370 8373 8376 8379 8382 8385 8388 8391 8394 8397 8400 8403 8406 8409 8412 8415 8418 8421 8424 8427 8430 8433 8436 8439 8442 8445 8448 8451 8454 8457 8460 8463 8466 8469 8472 8475 8478 8481 8484 8487 8490 8493 8496 8499 8502 8505 8508 8511 8514 8517 8520 8523 8526 8529 8532 8535 8538 8541 8544 8547 8550 8553 8556 8559 8562 8565 8568 8571 8574 8577 8580 8583 8586 8589 8592 8595 8598 8601 8604 8607 8610 8613 8616 8619 8622 8625 8628 8631 8634 8637 8640 8643 8646 8649 8652 8655 8658 8661 8664 8667 8670 8673 8676 8679 8682 8685 8688 8691 8694 8697 8700 8703 8706 8709 8712 8715 8718 8721 8724 8727 8730 8733 8736 8739 8742 8745 8748 8751 8754 8757 8760 8763 8766 8769 8772 8775 8778 8781 8784 8787 8790 8793 8796 8799 8802 8805 8808 8811 8814 8817 8820 8823 8826 8829 8832 8835 8838 8841 8844 8847 8850 8853 8856 8859 8862 8865 8868 8871 8874 8877 8880 8883 8886 8889 8892 8895 8898 8901 8904 8907 8910 8913 8916 8919 8922 8925 8928 8931 8934 8937 8940 8943 8946 8949 8952 8955 8958 8961 8964 8967 8970 8973 8976 8979 8982 8985 8988 8991 8994 8997 9000 9003 9006 9009 9012 9015 9018 9021 9024 9027 9030 9033 9036 9039 9042 9045 9048 9051 9054 9057 9060 9063 9066 9069 9072 9075 9078 9081 9084 9087 9090 9093 9096 9099 9102 9105 9108 9111 9114 9117 9120 9123 9126 9129 9132 9135 9138 9141 9144 9147 9150 9153 9156 9159 9162 9165 9168 9171 9174 9177 9180 9183 9186 9189 9192 9195 9198 9201 9204 9207 9210 9213 9216 9219 9222 9225 9228 9231 9234 9237 9240 9243 9246 9249 9252 9255 9258 9261 9264 9267 9270 9273 9276 9279 9282 9285 9288 9291 9294 9297 9300 9303 9306 9309 9312 9315 9318 9321 9324 9327 9330 9333 9336 9339 9342 9345 9348 9351 9354 9357 9360 9363 9366 9369 9372 9375 9378 9381 9384 9387 9390 9393 9396 9399 9402 9405 9408 9411 9414 9417 9420 9423 9426 9429 9432 9435 9438 9441 9444 9447 9450 9453 9456 9459 9462 9465 9468 9471 9474 9477 9480 9483 9486 9489 9492 9495 9498 9501 9504 9507 9510 9513 9516 9519 9522 9525 9528 9531 9534 9537 9540 9543 9546 9549 9552 9555 9558 9561 9564 9567 9570 9573 9576 9579 9582 9585 9588 9591 9594 9597 9600 9603 9606 9609 9612 9615 9618 9621 9624 9627 9630 9633 9636 9639 9642 9645 9648 9651 9654 9657 9660 9663 9666 9669 9672 9675 9678 9681 9684 9687 9690 9693 9696 9699 9702 9705 9708 9711 9714 9717 9720 9723 9726 9729 9732 9735 9738 9741 9744 9747 9750 9753 9756 9759 9762 9765 9768 9771 9774 9777 9780 9783 9786 9789 9792 9795 9798 9801 9804 9807 9810 9813 9816 9819 9822 9825 9828 9831 9834 9837 9840 9843 9846 9849 9852 9855 9858 9861 9864 9867 9870 9873 9876 9879 9882 9885 9888 9891 9894 9897 9900 9903 9906 9909 9912 9915 9918 9921 9924 9927 9930 9933 9936 9939 9942 9945 9948 9951 9954 9957 9960 9963 9966 9969 9972 9975 9978 9981 9984 9987 9990 9993 9996 9999 10002 10005 10008 10011 10014 10017 10020 10023 10026 10029 10032 10035 10038 10041 10044 10047 10050 10053 10056 10059 10062 10065 10068 10071 10074 10077 10080 10083 10086 10089 10092 10095 10098 10101 10104 10107 10110 10113 10116 10119 10122 10125 10128 10131 10134 10137 10140 10143 10146 10149 10152 10155 10158 10161 10164 10167 10170 10173 10176 10179 10182 10185 10188 10191 10194 10197 10200 10203 10206 10209 10212 10215 10218 10221 10224 10227 10230 10233 10236 10239 10242 10245 10248 10251 10254 10257 10260 10263 10266 10269 10272 10275 10278 10281 10284 10287 10290 10293 10296 10299 10302 10305 10308 10311 10314 10317 10320 10323 10326 10329 10332 10335 10338 10341 10344 10347 10350 10353 10356 10359 10362 10365 10368 10371 10374 10377 10380 10383 10386 10389 10392 10395 10398 10401 10404 10407 10410 10413 10416 10419 10422 10425 10428 10431 10434 10437 10440 10443 10446 10449 10452 10455 10458 10461 10464 10467 10470 10473 10476 10479 10482 10485 10488 10491 10494 10497 10500 10503 10506 10509 10512 10515 10518 10521 10524 10527 10530 10533 10536 10539 10542 10545 10548 10551 10554 10557 10560 10563 10566 10569 10572 10575 10578 10581 10584 10587 10590 10593 10596 10599 10602 10605 10608 10611 10614 10617 10620 10623 10626 10629 10632 10635 10638 10641 10644 10647 10650 10653 10656 10659 10662 10665 10668 10671 10674 10677 10680 10683 10686 10689 10692 10695 10698 10701 10704 10707 10710 10713 10716 10719 10722 10725 10728 10731 10734 10737 10740 10743 10746 10749 10752 10755 10758 10761 10764 10767 10770 10773 10776 10779 10782 10785 10788 10791 10794 10797 10800 10803 10806 10809 10812 10815 10818 10821 10824 10827 10830 10833 10836 10839 10842 10845 10848 10851 10854 10857 10860 10863 10866 10869 10872 10875 10878 10881 10884 10887 10890 10893 10896 10899 10902 10905 10908 10911 10914 10917 10920 10923 10926 10929 10932 10935 10938 10941 10944 10947 10950 10953 10956 10959 10962 10965 10968 10971 10974 10977 10980 10983 10986 10989 10992 10995 10998 11001 11004 11007 11010 11013 11016 11019 11022 11025 11028 11031 11034 11037 11040 11043 11046 11049 11052 11055 11058 11061 11064 11067 11070 11073 11076 11079 11082 11085 11088 11091 11094 11097 11100 11103 11106 11109 11112 11115 11118 11121 11124 11127 11130 11133 11136 11139 11142 11145 11148 11151 11154 11157 11160 11163 11166 11169 11172 11175 11178 11181 11184 11187 11190 11193 11196 11199 11202 11205 11208 11211 11214 11217 11220 11223 11226 11229 11232 11235 11238 11241 11244 11247 11250 11253 11256 11259 11262 11265 11268 11271 11274 11277 11280 11283 11286 11289 11292 11295 11298 11301 11304 11307 11310 11313 11316 11319 11322 11325 11328 11331 11334 11337 11340 11343 11346 11349 11352 11355 11358 11361 11364 11367 11370 11373 11376 11379 11382 11385 11388 11391 11394 11397 11400 11403 11406 11409 11412 11415 11418 11421 11424 11427 11430 11433 11436 11439 11442 11445 11448 11451 11454 11457 11460 11463 11466 11469 11472 11475 11478 11481 11484 11487 11490 11493 11496 11499 11502 11505 11508 11511 11514 11517 11520 11523 11526 11529 11532 11535 11538 11541 11544 11547 11550 11553 11556 11559 11562 11565 11568 11571 11574 11577 11580 11583 11586 11589 11592 11595 11598 11601 11604 11607 11610 11613 11616 11619 11622 11625 11628 11631 11634 11637 11640 11643 11646 11649 11652 11655 11658 11661 11664 11667 11670 11673 11676 11679 11682 11685 11688 11691 11694 11697 11700 11703 11706 11709 11712 11715 11718 11721 11724 11727 11730 11733 11736 11739 11742 11745 11748 11751 11754 11757 11760 11763 11766 11769 11772 11775 11778 11781 11784 11787 11790 11793 11796 11799 11802 11805 11808 11811 11814 11817 11820 11823 11826 11829 11832 11835 11838 11841 11844 11847 11850 11853 11856 11859 11862 11865 11868 11871 11874 11877 11880 11883 11886 11889 11892 11895 11898 11901 11904 11907 11910 11913 11916 11919 11922 11925 11928 11931 11934 11937 11940 11943 11946 11949 11952 11955 11958 11961 11964 11967 11970 11973 11976 11979 11982 11985 11988 11991 11994 11997 12000 12003 12006 12009 12012 12015 12018 12021 12024 12027 12030 12033 12036 12039 12042 12045 12048 12051 12054 12057 12060 12063 12066 12069 12072 12075 12078 12081 12084 12087 12090 12093 12096 12099 12102 12105 12108 12111 12114 12117 12120 12123 12126 12129 12132 12135 12138 12141 12144 12147 12150 12153 12156 12159 12162 12165 12168 12171 12174 12177 12180 12183 12186 12189 12192 12195 12198 12201 12204 12207 12210 12213 12216 12219 12222 12225 12228 12231 12234 12237 12240 12243 12246 12249 12252 12255 12258 12261 12264 12267 12270 12273 12276 12279 12282 12285 12288 12291 12294 12297 12300 12303 12306 12309 12312 12315 12318 12321 12324 12327 12330 12333 12336 12339 12342 12345 12348 12351 12354 12357 12360 12363 12366 12369 12372 12375 12378 12381 12384 12387 12390 12393 12396 12399 12402 12405 12408 12411 12414 12417 12420 12423 12426 12429 12432 12435 12438 12441 12444 12447 12450 12453 12456 12459 12462 12465 12468 12471 12474 12477 12480 12483 12486 12489 12492 12495 12498 12501 12504 12507 12510 12513 12516 12519 12522 12525 12528 12531 12534 12537 12540 12543 12546 12549 12552 12555 12558 12561 12564 12567 12570 12573 12576 12579 12582 12585 12588 12591 12594 12597 12600 12603 12606 12609 12612 12615 12618 12621 12624 12627 12630 12633 12636 12639 12642 12645 12648 12651 12654 12657 12660 12663 12666 12669 12672 12675 12678 12681 12684 12687 12690 12693 12696 12699 12702 12705 12708 12711 12714 12717 12720 12723 12726 12729 12732 12735 12738 12741 12744 12747 12750 12753 12756 12759 12762 12765 12768 12771 12774 12777 12780 12783 12786 12789 12792 12795 12798 12801 12804 12807 12810 12813 12816 12819 12822 12825 12828 12831 12834 12837 12840 12843 12846 12849 12852 12855 12858 12861 12864 12867 12870 12873 12876 12879 12882 12885 12888 12891 12894 12897 12900 12903 12906 12909 12912 12915 12918 12921 12924 12927 12930 12933 12936 12939 12942 12945 12948 12951 12954 12957 12960 12963 12966 12969 12972 12975 12978 12981 12984 12987 12990 12993 12996 12999 13002 13005 13008 13011 13014 13017 13020 13023 13026 13029 13032 13035 13038 13041 13044 13047 13050 13053 13056 13059 13062 13065 13068 13071 13074 13077 13080 13083 13086 13089 13092 13095 13098 13101 13104 13107 13110 13113 13116 13119 13122 13125 13128 13131 13134 13137 13140 13143 13146 13149 13152 13155 13158 13161 13164 13167 13170 13173 13176 13179 13182 13185 13188 13191 13194 13197 13200 13203 13206 13209 13212 13215 13218 13221 13224 13227 13230 13233 13236 13239 13242 13245 13248 13251 13254 13257 13260 13263 13266 13269 13272 13275 13278 13281 13284 13287 13290 13293 13296 13299 13302 13305 13308 13311 13314 13317 13320 13323 13326 13329 13332 13335 13338 13341 13344 13347 13350 13353 13356 13359 13362 13365 13368 13371 13374 13377 13380 13383 13386 13389 13392 13395 13398 13401 13404 13407 13410 13413 13416 13419 13422 13425 13428 13431 13434 13437 13440 13443 13446 13449 13452 13455 13458 13461 13464 13467 13470 13473 13476 13479 13482 13485 13488 13491 13494 13497 13500 13503 13506 13509 13512 13515 13518 13521 13524 13527 13530 13533 13536 13539 13542 13545 13548 13551 13554 13557 13560 13563 13566 13569 13572 13575 13578 13581 13584 13587 13590 13593 13596 13599 13602 13605 13608 13611 13614 13617 13620 13623 13626 13629 13632 13635 13638 13641 13644 13647 13650 13653 13656 13659 13662 13665 13668 13671 13674 13677 13680 13683 13686 13689 13692 13695 13698 13701 13704 13707 13710 13713 13716 13719 13722 13725 13728 13731 13734 13737 13740 13743 13746 13749 13752 13755 13758 13761 13764 13767 13770 13773 13776 13779 13782 13785 13788 13791 13794 13797 13800 13803 13806 13809 13812 13815 13818 13821 13824 13827 13830 13833 13836 13839 13842 13845 13848 13851 13854 13857 13860 13863 13866 13869 13872 13875 13878 13881 13884 13887 13890 13893 13896 13899 13902 13905 13908 13911 13914 13917 13920 13923 13926 13929 13932 13935 13938 13941 13944 13947 13950 13953 13956 13959 13962 13965 13968 13971 13974 13977 13980 13983 13986 13989 13992 13995 13998 14001 14004 14007 14010 14013 14016 14019 14022 14025 14028 14031 14034 14037 14040 14043 14046 14049 14052 14055 14058 14061 14064 14067 14070 14073 14076 14079 14082 14085 14088 14091 14094 14097 14100 14103 14106 14109 14112 14115 14118 14121 14124 14127 14130 14133 14136 14139 14142 14145 14148 14151 14154 14157 14160 14163 14166 14169 14172 14175 14178 14181 14184 14187 14190 14193 14196 14199 14202 14205 14208 14211 14214 14217 14220 14223 14226 14229 14232 14235 14238 14241 14244 14247 14250 14253 14256 14259 14262 14265 14268 14271 14274 14277 14280 14283 14286 14289 14292 14295 14298 14301 14304 14307 14310 14313 14316 14319 14322 14325 14328 14331 14334 14337 14340 14343 14346 14349 14352 14355 14358 14361 14364 14367 14370 14373 14376 14379 14382 14385 14388 14391 14394 14397 14400 14403 14406 14409 14412 14415 14418 14421 14424 14427 14430 14433 14436 14439 14442 14445 14448 14451 14454 14457 14460 14463 14466 14469 14472 14475 14478 14481 14484 14487 14490 14493 14496 14499 14502 14505 14508 14511 14514 14517 14520 14523 14526 14529 14532 14535 14538 14541 14544 14547 14550 14553 14556 14559 14562 14565 14568 14571 14574 14577 14580 14583 14586 14589 14592 14595 14598 14601 14604 14607 14610 14613 14616 14619 14622 14625 14628 14631 14634 14637 14640 14643 14646 14649 14652 14655 14658 14661 14664 14667 14670 14673 14676 14679 14682 14685 14688 14691 14694 14697 14700 14703 14706 14709 14712 14715 14718 14721 14724 14727 14730 14733 14736 14739 14742 14745 14748 14751 14754 14757 14760 14763 14766 14769 14772 14775 14778 14781 14784 14787 14790 14793 14796 14799 14802 14805 14808 14811 14814 14817 14820 14823 14826 14829 14832 14835 14838 14841 14844 14847 14850 14853 14856 14859 14862 14865 14868 14871 14874 14877 14880 14883 14886 14889 14892 14895 14898 14901 14904 14907 14910 14913 14916 14919 14922 14925 14928 14931 14934 14937 14940 14943 14946 14949 14952 14955 14958 14961 14964 14967 14970 14973 14976 14979 14982 14985 14988 14991 14994 14997 15000 15003 15006 15009 15012 15015 15018 15021 15024 15027 15030 15033 15036 15039 15042 15045 15048 15051 15054 15057 15060 15063 15066 15069 15072 15075 15078 15081 15084 15087 15090 15093 15096 15099 15102 15105 15108 15111 15114 15117 15120 15123 15126 15129 15132 15135 15138 15141 15144 15147 15150 15153 15156 15159 15162 15165 15168 15171 15174 15177 15180 15183 15186 15189 15192 15195 15198 15201 15204 15207 15210 15213 15216 15219 15222 15225 15228 15231 15234 15237 15240 15243 15246 15249 15252 15255 15258 15261 15264 15267 15270 15273 15276 15279 15282 15285 15288 15291 15294 15297 15300 15303 15306 15309 15312 15315 15318 15321 15324 15327 15330 15333 15336 15339 15342 15345 15348 15351 15354 15357 15360 15363 15366 15369 15372 15375 15378 15381 15384 15387 15390 15393 15396 15399 15402 15405 15408 15411 15414 15417 15420 15423 15426 15429 15432 15435 15438 15441 15444 15447 15450 15453 15456 15459 15462 15465 15468 15471 15474 15477 15480 15483 15486 15489 15492 15495 15498 15501 15504 15507 15510 15513 15516 15519 15522 15525 15528 15531 15534 15537 15540 15543 15546 15549 15552 15555 15558 15561 15564 15567 15570 15573 15576 15579 15582 15585 15588 15591 15594 15597 15600 15603 15606 15609 15612 15615 15618 15621 15624 15627 15630 15633 15636 15639 15642 15645 15648 15651 15654 15657 15660 15663 15666 15669 15672 15675 15678 15681 15684 15687 15690 15693 15696 15699 15702 15705 15708 15711 15714 15717 15720 15723 15726 15729 15732 15735 15738 15741 15744 15747 15750 15753 15756 15759 15762 15765 15768 15771 15774 15777 15780 15783 15786 15789 15792 15795 15798 15801 15804 15807 15810 15813 15816 15819 15822 15825 15828 15831 15834 15837 15840 15843 15846 15849 15852 15855 15858 15861 15864 15867 15870 15873 15876 15879 15882 15885 15888 15891 15894 15897 15900 15903 15906 15909 15912 15915 15918 15921 15924 15927 15930 15933 15936 15939 15942 15945 15948 15951 15954 15957 15960 15963 15966 15969 15972 15975 15978 15981 15984 15987 15990 15993 15996 15999 16002 16005 16008 16011 16014 16017 16020 16023 16026 16029 16032 16035 16038 16041 16044 16047 16050 16053 16056 16059 16062 16065 16068 16071 16074 16077 16080 16083 16086 16089 16092 16095 16098 16101 16104 16107 16110 16113 16116 16119 16122 16125 16128 16131 16134 16137 16140 16143 16146 16149 16152 16155 16158 16161 16164 16167 16170 16173 16176 16179 16182 16185 16188 16191 16194 16197 16200 16203 16206 16209 16212 16215 16218 16221 16224 16227 16230 16233 16236 16239 16242 16245 16248 16251 16254 16257 16260 16263 16266 16269 16272 16275 16278 16281 16284 16287 16290 16293 16296 16299 16302 16305 16308 16311 16314 16317 16320 16323 16326 16329 16332 16335 16338 16341 16344 16347 16350 16353 16356 16359 16362 16365 16368 16371 16374 16377 16380 16383 16386 16389 16392 16395 16398 16401 16404 16407 16410 16413 16416 16419 16422 16425 16428 16431 16434 16437 16440 16443 16446 16449 16452 16455 16458 16461 16464 16467 16470 16473 16476 16479 16482 16485 16488 16491 16494 16497 16500 16503 16506 16509 16512 16515 16518 16521 16524 16527 16530 16533 16536 16539 16542 16545 16548 16551 16554 16557 16560 16563 16566 16569 16572 16575 16578 16581 16584 16587 16590 16593 16596 16599 16602 16605 16608 16611 16614 16617 16620 16623 16626 16629 16632 16635 16638 16641 16644 16647 16650 16653 16656 16659 16662 16665 16668 16671 16674 16677 16680 16683 16686 16689 16692 16695 16698 16701 16704 16707 16710 16713 16716 16719 16722 16725 16728 16731 16734 16737 16740 16743 16746 16749 16752 16755 16758 16761 16764 16767 16770 16773 16776 16779 16782 16785 16788 16791 16794 16797 16800 16803 16806 16809 16812 16815 16818 16821 16824 16827 16830 16833 16836 16839 16842 16845 16848 16851 16854 16857 16860 16863 16866 16869 16872 16875 16878 16881 16884 16887 16890 16893 16896 16899 16902 16905 16908 16911 16914 16917 16920 16923 16926 16929 16932 16935 16938 16941 16944 16947 16950 16953 16956 16959 16962 16965 16968 16971 16974 16977 16980 16983 16986 16989 16992 16995 16998 17001 17004 17007 17010 17013 17016 17019 17022 17025 17028 17031 17034 17037 17040 17043 17046 17049 17052 17055 17058 17061 17064 17067 17070 17073 17076 17079 17082 17085 17088 17091 17094 17097 17100 17103 17106 17109 17112 17115 17118 17121 17124 17127 17130 17133 17136 17139 17142 17145 17148 17151 17154 17157 17160 17163 17166 17169 17172 17175 17178 17181 17184 17187 17190 17193 17196 17199 17202 17205 17208 17211 17214 17217 17220 17223 17226 17229 17232 17235 17238 17241 17244 17247 17250 17253 17256 17259 17262 17265 17268 17271 17274 17277 17280 17283 17286 17289 17292 17295 17298 17301 17304 17307 17310 17313 17316 17319 17322 17325 17328 17331 17334 17337 17340 17343 17346 17349 17352 17355 17358 17361 17364 17367 17370 17373 17376 17379 17382 17385 17388 17391 17394 17397 17400 17403 17406 17409 17412 17415 17418 17421 17424 17427 17430 17433 17436 17439 17442 17445 17448 17451 17454 17457 17460 17463 17466 17469 17472 17475 17478 17481 17484 17487 17490 17493 17496 17499 17502 17505 17508 17511 17514 17517 17520 17523 17526 17529 17532 17535 17538 17541 17544 17547 17550 17553 17556 17559 17562 17565 17568 17571 17574 17577 17580 17583 17586 17589 17592 17595 17598 17601 17604 17607 17610 17613 17616 17619 17622 17625 17628 17631 17634 17637 17640 17643 17646 17649 17652 17655 17658 17661 17664 17667 17670 17673 17676 17679 17682 17685 17688 17691 17694 17697 17700 17703 17706 17709 17712 17715 17718 17721 17724 17727 17730 17733 17736 17739 17742 17745 17748 17751 17754 17757 17760 17763 17766 17769 17772 17775 17778 17781 17784 17787 17790 17793 17796 17799 17802 17805 17808 17811 17814 17817 17820 17823 17826 17829 17832 17835 17838 17841 17844 17847 17850 17853 17856 17859 17862 17865 17868 17871 17874 17877 17880 17883 17886 17889 17892 17895 17898 17901 17904 17907 17910 17913 17916 17919 17922 17925 17928 17931 17934 17937 17940 17943 17946 17949 17952 17955 17958 17961 17964 17967 17970 17973 17976 17979 17982 17985 17988 17991 17994 17997 18000 18003 18006 18009 18012 18015 18018 18021 18024 18027 18030 18033 18036 18039 18042 18045 18048 18051 18054 18057 18060 18063 18066 18069 18072 18075 18078 18081 18084 18087 18090 18093 18096 18099 18102 18105 18108 18111 18114 18117 18120 18123 18126 18129 18132 18135 18138 18141 18144 18147 18150 18153 18156 18159 18162 18165 18168 18171 18174 18177 18180 18183 18186 18189 18192 18195 18198 18201 18204 18207 18210 18213 18216 18219 18222 18225 18228 18231 18234 18237 18240 18243 18246 18249 18252 18255 18258 18261 18264 18267 18270 18273 18276 18279 18282 18285 18288 18291 18294 18297 18300 18303 18306 18309 18312 18315 18318 18321 18324 18327 18330 18333 18336 18339 18342 18345 18348 18351 18354 18357 18360 18363 18366 18369 18372 18375 18378 18381 18384 18387 18390 18393 18396 18399 18402 18405 18408 18411 18414 18417 18420 18423 18426 18429 18432 18435 18438 18441 18444 18447 18450 18453 18456 18459 18462 18465 18468 18471 18474 18477 18480 18483 18486 18489 18492 18495 18498 18501 18504 18507 18510 18513 18516 18519 18522 18525 18528 18531 18534 18537 18540 18543 18546 18549 18552 18555 18558 18561 18564 18567 18570 18573 18576 18579 18582 18585 18588 18591 18594 18597 18600 18603 18606 18609 18612 18615 18618 18621 18624 18627 18630 18633 18636 18639 18642 18645 18648 18651 18654 18657 18660 18663 18666 18669 18672 18675 18678 18681 18684 18687 18690 18693 18696 18699 18702 18705 18708 18711 18714 18717 18720 18723 18726 18729 18732 18735 18738 18741 18744 18747 18750 18753 18756 18759 18762 18765 18768 18771 18774 18777 18780 18783 18786 18789 18792 18795 18798 18801 18804 18807 18810 18813 18816 18819 18822 18825 18828 18831 18834 18837 18840 18843 18846 18849 18852 18855 18858 18861 18864 18867 18870 18873 18876 18879 18882 18885 18888 18891 18894 18897 18900 18903 18906 18909 18912 18915 18918 18921 18924 18927 18930 18933 18936 18939 18942 18945 18948 18951 18954 18957 18960 18963 18966 18969 18972 18975 18978 18981 18984 18987 18990 18993 18996 18999 19002 19005 19008 19011 19014 19017 19020 19023 19026 19029 19032 19035 19038 19041 19044 19047 19050 19053 19056 19059 19062 19065 19068 19071 19074 19077 19080 19083 19086 19089 19092 19095 19098 19101 19104 19107 19110 19113 19116 19119 19122 19125 19128 19131 19134 19137 19140 19143 19146 19149 19152 19155 19158 19161 19164 19167 19170 19173 19176 19179 19182 19185 19188 19191 19194 19197 19200 19203 19206 19209 19212 19215 19218 19221 19224 19227 19230 19233 19236 19239 19242 19245 19248 19251 19254 19257 19260 19263 19266 19269 19272 19275 19278 19281 19284 19287 19290 19293 19296 19299 19302 19305 19308 19311 19314 19317 19320 19323 19326 19329 19332 19335 19338 19341 19344 19347 19350 19353 19356 19359 19362 19365 19368 19371 19374 19377 19380 19383 19386 19389 19392 19395 19398 19401 19404 19407 19410 19413 19416 19419 19422 19425 19428 19431 19434 19437 19440 19443 19446 19449 19452 19455 19458 19461 19464 19467 19470 19473 19476 19479 19482 19485 19488 19491 19494 19497 19500 19503 19506 19509 19512 19515 19518 19521 19524 19527 19530 19533 19536 19539 19542 19545 19548 19551 19554 19557 19560 19563 19566 19569 19572 19575 19578 19581 19584 19587 19590 19593 19596 19599 19602 19605 19608 19611 19614 19617 19620 19623 19626 19629 19632 19635 19638 19641 19644 19647 19650 19653 19656 19659 19662 19665 19668 19671 19674 19677 19680 19683 19686 19689 19692 19695 19698 19701 19704 19707 19710 19713 19716 19719 19722 19725 19728 19731 19734 19737 19740 19743 19746 19749 19752 19755 19758 19761 19764 19767 19770 19773 19776 19779 19782 19785 19788 19791 19794 19797 19800 19803 19806 19809 19812 19815 19818 19821 19824 19827 19830 19833 19836 19839 19842 19845 19848 19851 19854 19857 19860 19863 19866 19869 19872 19875 19878 19881 19884 19887 19890 19893 19896 19899 19902 19905 19908 19911 19914 19917 19920 19923 19926 19929 19932 19935 19938 19941 19944 19947 19950 19953 19956 19959 19962 19965 19968 19971 19974 19977 19980 19983 19986 19989 19992 19995 19998 20001 20004 20007 20010 20013 20016 20019 20022 20025 20028 20031 20034 20037 20040 20043 20046 20049 20052 20055 20058 20061 20064 20067 20070 20073 20076 20079 20082 20085 20088 20091 20094 20097 20100 20103 20106 20109 20112 20115 20118 20121 20124 20127 20130 20133 20136 20139 20142 20145 20148 20151 20154 20157 20160 20163 20166 20169 20172 20175 20178 20181 20184 20187 20190 20193 20196 20199 20202 20205 20208 20211 20214 20217 20220 20223 20226 20229 20232 20235 20238 20241 20244 20247 20250 20253 20256 20259 20262 20265 20268 20271 20274 20277 20280 20283 20286 20289 20292 20295 20298 20301 20304 20307 20310 20313 20316 20319 20322 20325 20328 20331 20334 20337 20340 20343 20346 20349 20352 20355 20358 20361 20364 20367 20370 20373 20376 20379 20382 20385 20388 20391 20394 20397 20400 20403 20406 20409 20412 20415 20418 20421 20424 20427 20430 20433 20436 20439 20442 20445 20448 20451 20454 20457 20460 20463 20466 20469 20472 20475 20478 20481 20484 20487 20490 20493 20496 20499 20502 20505 20508 20511 20514 20517 20520 20523 20526 20529 20532 20535 20538 20541 20544 20547 20550 20553 20556 20559 20562 20565 20568 20571 20574 20577 20580 20583 20586 20589 20592 20595 20598 20601 20604 20607 20610 20613 20616 20619 20622 20625 20628 20631 20634 20637 20640 20643 20646 20649 20652 20655 20658 20661 20664 20667 20670 20673 20676 20679 20682 20685 20688 20691 20694 20697 20700 20703 20706 20709 20712 20715 20718 20721 20724 20727 20730 20733 20736 20739 20742 20745 20748 20751 20754 20757 20760 20763 20766 20769 20772 20775 20778 20781 20784 20787 20790 20793 20796 20799 20802 20805 20808 20811 20814 20817 20820 20823 20826 20829 20832 20835 20838 20841 20844 20847 20850 20853 20856 20859 20862 20865 20868 20871 20874 20877 20880 20883 20886 20889 20892 20895 20898 20901 20904 20907 20910 20913 20916 20919 20922 20925 20928 20931 20934 20937 20940 20943 20946 20949 20952 20955 20958 20961 20964 20967 20970 20973 20976 20979 20982 20985 20988 20991 20994 20997 21000 21003 21006 21009 21012 21015 21018 21021 21024 21027 21030 21033 21036 21039 21042 21045 21048 21051 21054 21057 21060 21063 21066 21069 21072 21075 21078 21081 21084 21087 21090 21093 21096 21099 21102 21105 21108 21111 21114 21117 21120 21123 21126 21129 21132 21135 21138 21141 21144 21147 21150 21153 21156 21159 21162 21165 21168 21171 21174 21177 21180 21183 21186 21189 21192 21195 21198 21201 21204 21207 21210 21213 21216 21219 21222 21225 21228 21231 21234 21237 21240 21243 21246 21249 21252 21255 21258 21261 21264 21267 21270 21273 21276 21279 21282 21285 21288 21291 21294 21297 21300 21303 21306 21309 21312 21315 21318 21321 21324 21327 21330 21333 21336 21339 21342 21345 21348 21351 21354 21357 21360 21363 21366 21369 21372 21375 21378 21381 21384 21387 21390 21393 21396 21399 21402 21405 21408 21411 21414 21417 21420 21423 21426 21429 21432 21435 21438 21441 21444 21447 21450 21453 21456 21459 21462 21465 21468 21471 21474 21477 21480 21483 21486 21489 21492 21495 21498 21501 21504 21507 21510 21513 21516 21519 21522 21525 21528 21531 21534 21537 21540 21543 21546 21549 21552 21555 21557 21559 21561 21563 21565 21567 21569 21571 21573 21575 21577 21579 21581 21583 21585 21587 21589 21591 21593 21595 21597 21599 21601 21603 21605 21607 21609 21611 21613 21615 21617 21619 21621 21623 21625 21627 21629 21631 21633 21635 21637 21639 21641 21643 21645 21647 21649 21651 21653 21655 21657 21659 21661 21663 21665 21667 21669 21671 21673 21675 21677 21679 21681 21683 21685 21687 21689 21691 21693 21695 21697 21699 21701 21703 21705 21707 21709 21711 21713 21715 21717 21719 21721 21723 21725 21727 21729 21731 21733 21735 21737 21739 21741 21743 21745 21747 21749 21751 21753 21755 21757 21759 21761 21763 21765 21767 21769 21771 21773 21775 21777 21779 21781 21783 21785 21787 21789 21791 21793 21795 21797 21799 21801 21803 21805 21807 21809 21811 21813 21815 21817 21819 21821 21823 21825 21827 21829 21831 21833 21835 21837 21839 21841 21843 21845 21847 21849 21851 21853 21855 21857 21859 21861 21863 21865 21867 21869 21871 21873 21875 21877 21879 21881 21883 21885 21887 21889 21891 21893 21895 21897 21899 21901 21903 21905 21907 21909 21911 21913 21915 21917 21919 21921 21923 21925 21927 21929 21931 21933 21935 21937 21939 21941 21943 21945 21947 21949 21951 21953 21955 21957 21959 21961 21963 21965 21967 21969 21971 21973 21975 21977 21979 21981 21983 21985 21987 21989 21991 21993 21995 21997 21999 22001 22003 22005 22007 22009 22011 22013 22015 22017 22019 22021 22023 22025 22027 22029 22031 22033 22035 22037 22039 22041 22043 22045 22047 22049 22051 22053 22055 22057 22059 22061 22063 22065 22067 22069 22071 22073 22075 22077 22079 22081 22083 22085 22087 22089 22091 22093 22095 22097 22099 22101 22103 22105 22107 22109 22111 22113 22115 22117 22119 22121 22123 22125 22127 22129 22131 22133 22135 22137 22139 22141 22143 22145 22147 22149 22151 22153 22155 22157 22159 22161 22163 22165 22167 22169 22171 22173 22175 22177 22179 22181 22183 22185 22187 22189 22191 22193 22195 22197 22199 22201 22203 22205 22207 22209 22211 22213 22215 22217 22219 22221 22223 22225 22227 22229 22231 22233 22235 22237 22239 22241 22243 22245 22247 22249 22251 22253 22255 22257 22259 22261 22263 22265 22267 22269 22271 22273 22275 22277 22279 22281 22283 22285 22287 22289 22291 22293 22295 22297 22299 22301 22303 22305 22307 22309 22311 22313 22315 22317 22319 22321 22323 22325 22327 22329 22331 22333 22335 22337 22339 22341 22343 22345 22347 22349 22351 22353 22355 22357 22359 22361 22363 22365 22367 22369 22371 22373 22375 22377 22379 22381 22383 22385 22387 22389 22391 22393 22395 22397 22399 22401 22403 22405 22407 22409 22411 22413 22415 22417 22419 22421 22423 22425 22427 22429 22431 22433 22435 22437 22439 22441 22443 22445 22447 22449 22451 22453 22455 22457 22459 22461 22463 22465 22467 22469 22471 22473 22475 22477 22479 22481 22483 22485 22487 22489 22491 22493 22495 22497 22499 22501 22503 22505 22507 22509 22511 22513 22515 22517 22519 22521 22523 22525 22527 22529 22531 22533 22535 22537 22539 22541 22543 22545 22547 22549 22551 22553 22555 22557 22559 22561 22563 22565 22567 22569 22571 22573 22575 22577 22579 22581 22583 22585 22587 22589 22591 22593 22595 22597 22599 22601 22603 22605 22607 22609 22611 22613 22615 22617 22619 22621 22623 22625 22627 22629 22631 22633 22635 22637 22639 22641 22643 22645 22647 22649 22651 22653 22655 22657 22659 22661 22663 22665 22667 22669 22671 22673 22675 22677 22679 22681 22683 22685 22687 22689 22691 22693 22695 22697 22699 22701 22703 22705 22707 22709 22711 22713 22715 22717 22719 22721 22723 22725 22727 22729 22731 22733 22735 22737 22739 22741 22743 22745 22747 22749 22751 22753 22755 22757 22759 22761 22763 22765 22767 22769 22771 22773 22775
        </DataArray>
        <DataArray type="Int32" Name="types" FORMAT="ascii">
 5 5 5 5 5 5 5 5 5 5 5 5 5 5 5 5 5 5 5 5 5 5 5 5 5 5 5 5 5 5 5 5 5 5 5 5 5 5 5 5 5 5 5 5 5 5 5 5 5 5 5 5 5 5 5 5 5 5 5 5 5 5 5 5 5 5 5 5 5 5 5 5 5 5 5 5 5 5 5 5 5 5 5 5 5 5 5 5 5 5 5 5 5 5 5 5 5 5 5 5 5 5 5 5 5 5 5 5 5 5 5 5 5 5 5 5 5 5 5 5 5 5 5 5 5 5 5 5 5 5 5 5 5 5 5 5 5 5 5 5 5 5 5 5 5 5 5 5 5 5 5 5 5 5 5 5 5 5 5 5 5 5 5 5 5 5 5 5 5 5 5 5 5 5 5 5 5 5 5 5 5 5 5 5 5 5 5 5 5 5 5 5 5 5 5 5 5 5 5 5 5 5 5 5 5 5 5 5 5 5 5 5 5 5 5 5 5 5 5 5 5 5 5 5 5 5 5 5 5 5 5 5 5 5 5 5 5 5 5 5 5 5 5 5 5 5 5 5 5 5 5 5 5 5 5 5 5 5 5 5 5 5 5 5 5 5 5 5 5 5 5 5 5 5 5 5 5 5 5 5 5 5 5 5 5 5 5 5 5 5 5 5 5 5 5 5 5 5 5 5 5 5 5 5 5 5 5 5 5 5 5 5 5 5 5 5 5 5 5 5 5 5 5 5 5 5 5 5 5 5 5 5 5 5 5 5 5 5 5 5 5 5 5 5 5 5 5 5 5 5 5 5 5 5 5 5 5 5 5 5 5 5 5 5 5 5 5 5 5 5 5 5 5 5 5 5 5 5 5 5 5 5 5 5 5 5 5 5 5 5 5 5 5 5 5 5 5 5 5 5 5 5 5 5 5 5 5 5 5 5 5 5 5 5 5 5 5 5 5 5 5 5 5 5 5 5 5 5 5 5 5 5 5 5 5 5 5 5 5 5 5 5 5 5 5 5 5 5 5 5 5 5 5 5 5 5 5 5 5 5 5 5 5 5 5 5 5 5 5 5 5 5 5 5 5 5 5 5 5 5 5 5 5 5 5 5 5 5 5 5 5 5 5 5 5 5 5 5 5 5 5 5 5 5 5 5 5 5 5 5 5 5 5 5 5 5 5 5 5 5 5 5 5 5 5 5 5 5 5 5 5 5 5 5 5 5 5 5 5 5 5 5 5 5 5 5 5 5 5 5 5 5 5 5 5 5 5 5 5 5 5 5 5 5 5 5 5 5 5 5 5 5 5 5 5 5 5 5 5 5 5 5 5 5 5 5 5 5 5 5 5 5 5 5 5 5 5 5 5 5 5 5 5 5 5 5 5 5 5 5 5 5 5 5 5 5 5 5 5 5 5 5 5 5 5 5 5 5 5 5 5 5 5 5 5 5 5 5 5 5 5 5 5 5 5 5 5 5 5 5 5 5 5 5 5 5 5 5 5 5 5 5 5 5 5 5 5 5 5 5 5 5 5 5 5 5 5 5 5 5 5 5 5 5 5 5 5 5 5 5 5 5 5 5 5 5 5 5 5 5 5 5 5 5 5 5 5 5 5 5 5 5 5 5 5 5 5 5 5 5 5 5 5 5 5 5 5 5 5 5 5 5 5 5 5 5 5 5 5 5 5 5 5 5 5 5 5 5 5 5 5 5 5 5 5 5 5 5 5 5 5 5 5 5 5 5 5 5 5 5 5 5 5 5 5 5 5 5 5 5 5 5 5 5 5 5 5 5 5 5 5 5 5 5 5 5 5 5 5 5 5 5 5 5 5 5 5 5 5 5 5 5 5 5 5 5 5 5 5 5 5 5 5 5 5 5 5 5 5 5 5 5 5 5 5 5 5 5 5 5 5 5 5 5 5 5 5 5 5 5 5 5 5 5 5 5 5 5 5 5 5 5 5 5 5 5 5 5 5 5 5 5 5 5 5 5 5 5 5 5 5 5 5 5 5 5 5 5 5 5 5 5 5 5 5 5 5 5 5 5 5 5 5 5 5 5 5 5 5 5 5 5 5 5 5 5 5 5 5 5 5 5 5 5 5 5 5 5 5 5 5 5 5 5 5 5 5 5 5 5 5 5 5 5 5 5 5 5 5 5 5 5 5 5 5 5 5 5 5 5 5 5 5 5 5 5 5 5 5 5 5 5 5 5 5 5 5 5 5 5 5 5 5 5 5 5 5 5 5 5 5 5 5 5 5 5 5 5 5 5 5 5 5 5 5 5 5 5 5 5 5 5 5 5 5 5 5 5 5 5 5 5 5 5 5 5 5 5 5 5 5 5 5 5 5 5 5 5 5 5 5 5 5 5 5 5 5 5 5 5 5 5 5 5 5 5 5 5 5 5 5 5 5 5 5 5 5 5 5 5 5 5 5 5 5 5 5 5 5 5 5 5 5 5 5 5 5 5 5 5 5 5 5 5 5 5 5 5 5 5 5 5 5 5 5 5 5 5 5 5 5 5 5 5 5 5 5 5 5 5 5 5 5 5 5 5 5 5 5 5 5 5 5 5 5 5 5 5 5 5 5 5 5 5 5 5 5 5 5 5 5 5 5 5 5 5 5 5 5 5 5 5 5 5 5 5 5 5 5 5 5 5 5 5 5 5 5 5 5 5 5 5 5 5 5 5 5 5 5 5 5 5 5 5 5 5 5 5 5 5 5 5 5 5 5 5 5 5 5 5 5 5 5 5 5 5 5 5 5 5 5 5 5 5 5 5 5 5 5 5 5 5 5 5 5 5 5 5 5 5 5 5 5 5 5 5 5 5 5 5 5 5 5 5 5 5 5 5 5 5 5 5 5 5 5 5 5 5 5 5 5 5 5 5 5 5 5 5 5 5 5 5 5 5 5 5 5 5 5 5 5 5 5 5 5 5 5 5 5 5 5 5 5 5 5 5 5 5 5 5 5 5 5 5 5 5 5 5 5 5 5 5 5 5 5 5 5 5 5 5 5 5 5 5 5 5 5 5 5 5 5 5 5 5 5 5 5 5 5 5 5 5 5 5 5 5 5 5 5 5 5 5 5 5 5 5 5 5 5 5 5 5 5 5 5 5 5 5 5 5 5 5 5 5 5 5 5 5 5 5 5 5 5 5 5 5 5 5 5 5 5 5 5 5 5 5 5 5 5 5 5 5 5 5 5 5 5 5 5 5 5 5 5 5 5 5 5 5 5 5 5 5 5 5 5 5 5 5 5 5 5 5 5 5 5 5 5 5 5 5 5 5 5 5 5 5 5 5 5 5 5 5 5 5 5 5 5 5 5 5 5 5 5 5 5 5 5 5 5 5 5 5 5 5 5 5 5 5 5 5 5 5 5 5 5 5 5 5 5 5 5 5 5 5 5 5 5 5 5 5 5 5 5 5 5 5 5 5 5 5 5 5 5 5 5 5 5 5 5 5 5 5 5 5 5 5 5 5 5 5 5 5 5 5 5 5 5 5 5 5 5 5 5 5 5 5 5 5 5 5 5 5 5 5 5 5 5 5 5 5 5 5 5 5 5 5 5 5 5 5 5 5 5 5 5 5 5 5 5 5 5 5 5 5 5 5 5 5 5 5 5 5 5 5 5 5 5 5 5 5 5 5 5 5 5 5 5 5 5 5 5 5 5 5 5 5 5 5 5 5 5 5 5 5 5 5 5 5 5 5 5 5 5 5 5 5 5 5 5 5 5 5 5 5 5 5 5 5 5 5 5 5 5 5 5 5 5 5 5 5 5 5 5 5 5 5 5 5 5 5 5 5 5 5 5 5 5 5 5 5 5 5 5 5 5 5 5 5 5 5 5 5 5 5 5 5 5 5 5 5 5 5 5 5 5 5 5 5 5 5 5 5 5 5 5 5 5 5 5 5 5 5 5 5 5 5 5 5 5 5 5 5 5 5 5 5 5 5 5 5 5 5 5 5 5 5 5 5 5 5 5 5 5 5 5 5 5 5 5 5 5 5 5 5 5 5 5 5 5 5 5 5 5 5 5 5 5 5 5 5 5 5 5 5 5 5 5 5 5 5 5 5 5 5 5 5 5 5 5 5 5 5 5 5 5 5 5 5 5 5 5 5 5 5 5 5 5 5 5 5 5 5 5 5 5 5 5 5 5 5 5 5 5 5 5 5 5 5 5 5 5 5 5 5 5 5 5 5 5 5 5 5 5 5 5 5 5 5 5 5 5 5 5 5 5 5 5 5 5 5 5 5 5 5 5 5 5 5 5 5 5 5 5 5 5 5 5 5 5 5 5 5 5 5 5 5 5 5 5 5 5 5 5 5 5 5 5 5 5 5 5 5 5 5 5 5 5 5 5 5 5 5 5 5 5 5 5 5 5 5 5 5 5 5 5 5 5 5 5 5 5 5 5 5 5 5 5 5 5 5 5 5 5 5 5 5 5 5 5 5 5 5 5 5 5 5 5 5 5 5 5 5 5 5 5 5 5 5 5 5 5 5 5 5 5 5 5 5 5 5 5 5 5 5 5 5 5 5 5 5 5 5 5 5 5 5 5 5 5 5 5 5 5 5 5 5 5 5 5 5 5 5 5 5 5 5 5 5 5 5 5 5 5 5 5 5 5 5 5 5 5 5 5 5 5 5 5 5 5 5 5 5 5 5 5 5 5 5 5 5 5 5 5 5 5 5 5 5 5 5 5 5 5 5 5 5 5 5 5 5 5 5 5 5 5 5 5 5 5 5 5 5 5 5 5 5 5 5 5 5 5 5 5 5 5 5 5 5 5 5 5 5 5 5 5 5 5 5 5 5 5 5 5 5 5 5 5 5 5 5 5 5 5 5 5 5 5 5 5 5 5 5 5 5 5 5 5 5 5 5 5 5 5 5 5 5 5 5 5 5 5 5 5 5 5 5 5 5 5 5 5 5 5 5 5 5 5 5 5 5 5 5 5 5 5 5 5 5 5 5 5 5 5 5 5 5 5 5 5 5 5 5 5 5 5 5 5 5 5 5 5 5 5 5 5 5 5 5 5 5 5 5 5 5 5 5 5 5 5 5 5 5 5 5 5 5 5 5 5 5 5 5 5 5 5 5 5 5 5 5 5 5 5 5 5 5 5 5 5 5 5 5 5 5 5 5 5 5 5 5 5 5 5 5 5 5 5 5 5 5 5 5 5 5 5 5 5 5 5 5 5 5 5 5 5 5 5 5 5 5 5 5 5 5 5 5 5 5 5 5 5 5 5 5 5 5 5 5 5 5 5 5 5 5 5 5 5 5 5 5 5 5 5 5 5 5 5 5 5 5 5 5 5 5 5 5 5 5 5 5 5 5 5 5 5 5 5 5 5 5 5 5 5 5 5 5 5 5 5 5 5 5 5 5 5 5 5 5 5 5 5 5 5 5 5 5 5 5 5 5 5 5 5 5 5 5 5 5 5 5 5 5 5 5 5 5 5 5 5 5 5 5 5 5 5 5 5 5 5 5 5 5 5 5 5 5 5 5 5 5 5 5 5 5 5 5 5 5 5 5 5 5 5 5 5 5 5 5 5 5 5 5 5 5 5 5 5 5 5 5 5 5 5 5 5 5 5 5 5 5 5 5 5 5 5 5 5 5 5 5 5 5 5 5 5 5 5 5 5 5 5 5 5 5 5 5 5 5 5 5 5 5 5 5 5 5 5 5 5 5 5 5 5 5 5 5 5 5 5 5 5 5 5 5 5 5 5 5 5 5 5 5 5 5 5 5 5 5 5 5 5 5 5 5 5 5 5 5 5 5 5 5 5 5 5 5 5 5 5 5 5 5 5 5 5 5 5 5 5 5 5 5 5 5 5 5 5 5 5 5 5 5 5 5 5 5 5 5 5 5 5 5 5 5 5 5 5 5 5 5 5 5 5 5 5 5 5 5 5 5 5 5 5 5 5 5 5 5 5 5 5 5 5 5 5 5 5 5 5 5 5 5 5 5 5 5 5 5 5 5 5 5 5 5 5 5 5 5 5 5 5 5 5 5 5 5 5 5 5 5 5 5 5 5 5 5 5 5 5 5 5 5 5 5 5 5 5 5 5 5 5 5 5 5 5 5 5 5 5 5 5 5 5 5 5 5 5 5 5 5 5 5 5 5 5 5 5 5 5 5 5 5 5 5 5 5 5 5 5 5 5 5 5 5 5 5 5 5 5 5 5 5 5 5 5 5 5 5 5 5 5 5 5 5 5 5 5 5 5 5 5 5 5 5 5 5 5 5 5 5 5 5 5 5 5 5 5 5 5 5 5 5 5 5 5 5 5 5 5 5 5 5 5 5 5 5 5 5 5 5 5 5 5 5 5 5 5 5 5 5 5 5 5 5 5 5 5 5 5 5 5 5 5 5 5 5 5 5 5 5 5 5 5 5 5 5 5 5 5 5 5 5 5 5 5 5 5 5 5 5 5 5 5 5 5 5 5 5 5 5 5 5 5 5 5 5 5 5 5 5 5 5 5 5 5 5 5 5 5 5 5 5 5 5 5 5 5 5 5 5 5 5 5 5 5 5 5 5 5 5 5 5 5 5 5 5 5 5 5 5 5 5 5 5 5 5 5 5 5 5 5 5 5 5 5 5 5 5 5 5 5 5 5 5 5 5 5 5 5 5 5 5 5 5 5 5 5 5 5 5 5 5 5 5 5 5 5 5 5 5 5 5 5 5 5 5 5 5 5 5 5 5 5 5 5 5 5 5 5 5 5 5 5 5 5 5 5 5 5 5 5 5 5 5 5 5 5 5 5 5 5 5 5 5 5 5 5 5 5 5 5 5 5 5 5 5 5 5 5 5 5 5 5 5 5 5 5 5 5 5 5 5 5 5 5 5 5 5 5 5 5 5 5 5 5 5 5 5 5 5 5 5 5 5 5 5 5 5 5 5 5 5 5 5 5 5 5 5 5 5 5 5 5 5 5 5 5 5 5 5 5 5 5 5 5 5 5 5 5 5 5 5 5 5 5 5 5 5 5 5 5 5 5 5 5 5 5 5 5 5 5 5 5 5 5 5 5 5 5 5 5 5 5 5 5 5 5 5 5 5 5 5 5 5 5 5 5 5 5 5 5 5 5 5 5 5 5 5 5 5 5 5 5 5 5 5 5 5 5 5 5 5 5 5 5 5 5 5 5 5 5 5 5 5 5 5 5 5 5 5 5 5 5 5 5 5 5 5 5 5 5 5 5 5 5 5 5 5 5 5 5 5 5 5 5 5 5 5 5 5 5 5 5 5 5 5 5 5 5 5 5 5 5 5 5 5 5 5 5 5 5 5 5 5 5 5 5 5 5 5 5 5 5 5 5 5 5 5 5 5 5 5 5 5 5 5 5 5 5 5 5 5 5 5 5 5 5 5 5 5 5 5 5 5 5 5 5 5 5 5 5 5 5 5 5 5 5 5 5 5 5 5 5 5 5 5 5 5 5 5 5 5 5 5 5 5 5 5 5 5 5 5 5 5 5 5 5 5 5 5 5 5 5 5 5 5 5 5 5 5 5 5 5 5 5 5 5 5 5 5 5 5 5 5 5 5 5 5 5 5 5 5 5 5 5 5 5 5 5 5 5 5 5 5 5 5 5 5 5 5 5 5 5 5 5 5 5 5 5 5 5 5 5 5 5 5 5 5 5 5 5 5 5 5 5 5 5 5 5 5 5 5 5 5 5 5 5 5 5 5 5 5 5 5 5 5 5 5 5 5 5 5 5 5 5 5 5 5 5 5 5 5 5 5 5 5 5 5 5 5 5 5 5 5 5 5 5 5 5 5 5 5 5 5 5 5 5 5 5 5 5 5 5 5 5 5 5 5 5 5 5 5 5 5 5 5 5 5 5 5 5 5 5 5 5 5 5 5 5 5 5 5 5 5 5 5 5 5 5 5 5 5 5 5 5 5 5 5 5 5 5 5 5 5 5 5 5 5 5 5 5 5 5 5 5 5 5 5 5 5 5 5 5 5 5 5 5 5 5 5 5 5 5 5 5 5 5 5 5 5 5 5 5 5 5 5 5 5 5 5 5 5 5 5 5 5 5 5 5 5 5 5 5 5 5 5 5 5 5 5 5 5 5 5 5 5 5 5 5 5 5 5 5 5 5 5 5 5 5 5 5 5 5 5 5 5 5 5 5 5 5 5 5 5 5 5 5 5 5 5 5 5 5 5 5 5 5 5 5 5 5 5 5 5 5 5 5 5 5 5 5 5 5 5 5 5 5 5 5 5 5 5 5 5 5 5 5 5 5 5 5 5 5 5 5 5 5 5 5 5 5 5 5 5 5 5 5 5 5 5 5 5 5 5 5 5 5 5 5 5 5 5 5 5 5 5 5 5 5 5 5 5 5 5 5 5 5 5 5 5 5 5 5 5 5 5 5 5 5 5 5 5 5 5 5 5 5 5 5 5 5 5 5 5 5 5 5 5 5 5 5 5 5 5 5 5 5 5 5 5 5 5 5 5 5 5 5 5 5 5 5 5 5 5 5 5 5 5 5 5 5 5 5 5 5 5 5 5 5 5 5 5 5 5 5 5 5 5 5 5 5 5 5 5 5 5 5 5 5 5 5 5 5 5 5 5 5 5 5 5 5 5 5 5 5 5 5 5 5 5 5 5 5 5 5 5 5 5 5 5 5 5 5 5 5 5 5 5 5 5 5 5 5 5 5 5 5 5 5 5 5 5 5 5 5 5 5 5 5 5 5 5 5 5 5 5 5 5 5 5 5 5 5 5 5 5 5 5 5 5 5 5 5 5 5 5 5 5 5 5 5 5 5 5 5 5 5 5 5 5 5 5 5 5 5 5 5 5 5 5 5 5 5 5 5 5 5 5 5 5 5 5 5 5 5 5 5 5 5 5 5 5 5 5 5 5 5 5 5 5 5 5 5 5 5 5 5 5 5 5 5 5 5 5 5 5 5 5 5 5 5 5 5 5 5 5 5 5 5 5 5 5 5 5 5 5 5 5 5 5 5 5 5 5 5 5 5 5 5 5 5 5 5 5 5 5 5 5 5 5 5 5 5 5 5 5 5 5 5 5 5 5 5 5 5 5 5 5 5 5 5 5 5 5 5 5 5 5 5 5 5 5 5 5 5 5 5 5 5 5 5 5 5 5 5 5 5 5 5 5 5 5 5 5 5 5 5 5 5 5 5 5 5 5 5 5 5 5 5 5 5 5 5 5 5 5 5 5 5 5 5 5 5 5 5 5 5 5 5 5 5 5 5 5 5 5 5 5 5 5 5 5 5 5 5 5 5 5 5 5 5 5 5 5 5 5 5 5 5 5 5 5 5 5 5 5 5 5 5 5 5 5 5 5 5 5 5 5 5 5 5 5 5 5 5 5 5 5 5 5 5 5 5 5 5 5 5 5 5 5 5 5 5 5 5 5 5 5 5 5 5 5 5 5 5 5 5 5 5 5 5 5 5 5 5 5 5 5 5 5 5 5 5 5 5 5 5 5 5 5 5 5 5 5 5 5 5 5 5 5 5 5 5 5 5 5 5 5 5 5 5 5 5 5 5 5 5 5 5 5 5 5 5 5 5 5 5 5 5 5 5 5 5 5 5 5 5 5 5 5 5 5 5 5 5 5 5 5 5 5 5 5 5 5 5 5 5 5 5 5 5 5 5 5 5 5 5 5 5 5 5 5 5 5 5 5 5 5 5 5 5 5 5 5 5 5 5 5 5 5 5 5 5 5 5 5 5 5 5 5 5 5 5 5 5 5 5 5 5 5 5 5 5 5 5 5 5 5 5 5 5 5 5 5 5 5 5 5 5 5 5 5 5 5 5 5 5 5 5 5 5 5 5 5 5 5 5 5 5 5 5 5 5 5 5 5 5 5 5 5 5 5 5 5 5 5 5 5 5 5 5 5 5 5 5 5 5 5 5 5 5 5 5 5 5 5 5 5 5 5 5 5 5 5 5 5 5 5 5 5 5 5 5 5 5 5 5 5 5 5 5 5 5 5 5 5 5 5 5 5 5 5 5 5 5 5 5 5 5 5 5 5 5 5 5 5 5 5 5 5 5 5 5 5 5 5 5 5 5 5 5 5 5 5 5 5 5 5 5 5 5 5 5 5 5 5 5 5 5 5 5 5 5 5 5 5 5 5 5 5 5 5 5 5 5 5 5 5 5 5 5 5 5 5 5 5 5 5 5 5 5 5 5 5 5 5 5 5 5 5 5 5 5 5 5 5 5 5 5 5 5 5 5 5 5 5 5 5 5 5 5 5 5 5 5 5 5 5 5 5 5 5 5 5 5 5 5 5 5 5 5 5 5 5 5 5 5 5 5 5 5 5 5 5 5 5 5 5 5 5 5 5 5 5 5 5 5 5 5 5 5 5 5 5 5 5 5 5 5 5 5 5 5 5 5 5 5 5 5 5 5 5 5 5 5 5 5 5 5 5 5 5 5 5 5 5 5 5 5 5 5 5 5 5 5 5 5 5 5 5 5 5 5 5 5 5 5 5 5 5 5 5 5 5 5 5 5 5 5 5 5 5 5 5 5 5 5 5 5 5 5 5 5 5 5 5 5 5 5 5 5 5 5 5 5 5 5 5 5 5 5 5 5 5 5 5 5 5 5 5 5 5 5 5 5 5 5 5 5 5 5 5 5 5 5 5 5 5 5 5 5 5 5 5 5 5 5 5 5 5 5 5 5 5 5 5 5 5 5 5 5 5 5 5 5 5 5 5 5 5 5 5 5 5 5 5 5 5 5 5 5 5 5 5 5 5 5 5 5 5 5 5 5 5 5 5 5 5 5 5 5 5 5 5 5 5 5 5 5 5 5 5 5 5 5 5 5 5 5 5 5 5 5 5 5 5 5 5 5 5 5 5 5 5 5 5 5 5 5 5 5 5 5 5 5 5 5 5 5 5 5 5 5 5 5 5 5 5 5 5 5 5 5 5 5 5 5 5 5 5 5 5 5 5 5 5 5 5 5 5 5 5 5 5 5 5 5 5 5 5 5 5 5 5 5 5 5 5 5 5 5 5 5 5 5 5 5 5 5 5 5 5 5 5 5 5 5 5 5 5 5 5 5 5 5 5 5 5 5 5 5 5 5 5 5 5 5 5 5 5 5 5 5 5 5 5 5 5 5 5 5 5 5 5 5 5 5 5 5 5 5 5 5 5 5 5 5 5 5 5 5 5 5 5 5 5 5 5 5 5 5 5 5 5 5 5 5 5 5 5 5 5 5 5 5 5 5 5 5 5 5 5 5 5 5 5 5 5 5 5 5 5 5 5 5 5 5 5 5 5 5 5 5 5 5 5 5 5 5 5 5 5 5 5 5 5 5 5 5 5 5 5 5 5 5 5 5 5 5 5 5 5 5 5 5 5 5 5 5 5 5 5 5 5 5 5 5 5 5 5 5 5 5 5 5 5 5 5 5 5 5 5 5 5 5 5 5 5 5 5 5 5 5 5 5 5 5 5 5 5 5 5 5 5 5 5 5 5 5 5 5 5 5 5 5 5 5 5 5 5 5 5 5 5 5 5 5 5 5 5 5 5 5 5 5 5 5 5 5 5 5 5 5 5 5 5 5 5 5 5 5 5 5 5 5 5 5 5 5 5 5 5 5 5 5 5 5 5 5 5 5 5 5 5 5 5 5 5 5 5 5 5 5 5 5 5 5 5 5 5 5 5 5 5 5 5 5 5 5 5 5 5 5 5 5 5 5 5 5 5 5 5 5 5 5 5 5 5 5 5 5 5 5 5 5 5 5 5 5 5 5 5 5 5 5 5 5 5 5 5 5 5 5 5 5 5 5 5 5 5 5 5 5 5 5 5 5 5 5 5 5 5 5 5 5 5 5 5 5 5 5 5 5 5 5 5 5 5 5 5 5 5 5 5 5 5 5 5 5 5 5 5 5 5 5 5 5 5 5 5 5 5 5 5 5 5 5 5 5 5 5 5 5 5 5 5 5 5 5 5 5 5 5 5 5 5 5 5 5 5 5 5 5 5 5 5 5 5 5 5 5 5 5 5 5 5 5 5 5 5 5 5 5 5 5 5 5 5 5 5 5 5 5 5 5 5 5 5 5 5 5 5 5 5 5 5 5 5 5 5 5 5 5 5 5 5 5 5 5 5 5 5 5 5 5 5 5 5 5 5 5 5 5 5 5 5 5 5 5 5 5 5 5 5 5 5 5 5 5 5 5 5 5 5 5 5 5 5 5 5 5 5 5 5 5 5 5 5 5 5 5 5 5 5 5 5 5 5 5 5 5 5 5 5 5 5 5 5 5 5 5 5 5 5 5 5 5 5 5 5 5 5 5 5 5 5 5 5 5 5 5 5 5 5 5 5 5 5 5 5 5 5 5 5 5 5 5 5 5 5 5 5 5 5 5 5 5 5 5 5 5 5 5 5 5 5 5 5 5 5 5 5 5 5 5 5 5 5 5 5 5 5 5 5 5 5 5 5 5 5 5 5 5 5 5 5 5 5 5 5 5 5 5 5 5 5 5 5 5 5 5 5 5 5 5 5 5 5 5 5 5 5 5 5 5 5 5 5 5 5 5 5 5 5 5 5 5 5 5 5 5 5 5 5 5 5 5 5 5 5 5 5 5 5 5 5 5 5 5 5 5 5 5 5 5 5 5 5 5 5 5 5 5 5 5 5 5 5 5 5 5 5 5 5 5 5 5 5 5 5 5 5 5 5 5 5 5 5 5 5 5 5 5 5 5 5 5 5 5 5 5 5 5 5 5 5 5 5 5 5 5 5 5 5 5 5 5 5 5 5 5 5 5 5 5 5 5 5 5 5 5 5 5 5 5 5 5 5 5 5 5 5 5 5 5 5 5 5 5 5 5 5 5 5 5 5 5 5 5 5 5 5 5 5 5 5 5 5 5 5 5 5 5 5 5 5 5 5 5 5 5 5 5 5 5 5 5 5 5 5 5 5 5 5 5 5 5 5 5 5 5 5 5 5 5 5 5 5 5 5 5 5 5 5 5 5 5 5 5 5 5 5 5 5 5 5 5 5 5 5 5 5 5 5 5 5 5 5 5 5 5 5 5 5 5 5 5 5 5 5 5 5 5 5 5 5 5 5 5 5 5 5 5 5 5 5 5 5 5 5 5 5 5 5 5 5 5 5 5 5 5 5 5 5 5 5 5 5 5 5 5 5 5 5 5 5 5 5 5 5 5 5 5 5 5 5 5 5 5 5 5 5 5 5 5 5 5 5 5 5 5 5 5 5 5 5 5 5 5 5 5 5 5 5 5 5 5 5 5 5 5 5 5 5 5 5 5 5 5 5 5 5 5 5 5 5 5 5 5 5 5 5 5 5 5 5 5 5 5 5 5 5 5 5 5 5 5 5 5 5 5 5 5 5 5 5 5 5 5 5 5 5 5 5 5 5 5 5 5 5 5 5 5 5 5 5 5 5 5 5 5 5 5 5 5 5 5 5 5 5 5 5 5 5 5 5 5 5 5 5 5 5 5 5 5 5 5 5 5 5 5 5 5 5 5 5 5 5 5 5 5 5 5 5 5 5 5 5 5 5 5 5 5 5 5 5 5 5 5 5 5 5 5 5 5 5 5 5 5 5 5 5 5 5 5 5 5 5 5 5 5 5 5 5 5 5 5 5 5 5 5 5 5 5 5 5 5 5 5 5 5 5 5 5 5 5 5 5 5 5 5 5 5 5 5 5 5 5 5 5 5 5 5 5 5 5 5 5 5 5 5 5 5 5 5 5 5 5 5 5 5 5 5 5 5 5 5 5 5 5 5 5 5 5 5 5 5 5 5 5 5 5 5 5 5 5 5 5 5 5 5 5 5 5 5 5 5 5 5 5 5 5 5 5 5 5 5 5 5 5 5 5 5 5 5 5 5 5 5 5 5 5 5 5 5 5 5 5 5 5 5 5 5 5 5 5 5 5 5 5 5 5 5 5 5 5 5 5 5 5 5 5 5 5 5 5 5 5 5 5 5 5 5 5 5 5 5 5 5 5 5 5 5 5 5 5 5 5 5 5 5 5 5 5 5 5 5 5 5 5 5 5 5 5 5 5 5 5 5 5 5 5 5 5 5 5 5 5 5 5 5 5 5 5 5 5 5 5 5 5 5 5 5 5 5 5 5 5 5 5 5 5 5 5 5 5 5 5 5 5 5 5 5 5 5 5 5 5 5 5 5 5 5 5 5 5 5 5 5 5 5 5 5 5 5 5 5 5 5 5 5 5 5 5 5 5 5 5 5 5 5 5 5 5 5 5 5 5 5 5 5 5 5 5 5 5 5 5 5 5 5 5 5 5 5 5 5 5 5 5 5 5 5 5 5 5 5 5 5 5 5 5 5 5 5 5 5 5 5 5 5 5 5 5 5 5 5 5 5 5 5 5 5 5 5 5 5 5 5 5 5 5 5 5 5 5 5 5 5 5 5 5 5 5 5 5 5 5 5 5 5 5 5 5 5 5 5 5 5 5 5 5 5 5 5 5 5 5 5 5 5 5 5 5 5 5 5 5 5 5 5 5 5 5 5 5 5 5 5 5 5 5 5 5 5 5 5 5 5 5 5 5 5 5 5 5 5 5 5 5 5 5 5 5 5 5 5 5 5 5 5 5 5 5 5 5 5 5 5 5 5 5 5 5 5 5 5 5 5 5 5 5 5 5 5 5 5 5 5 5 5 5 5 5 5 5 5 5 5 5 5 5 5 5 5 5 5 5 5 5 5 5 5 5 5 5 5 5 5 5 5 5 5 5 5 5 5 5 5 5 5 5 5 5 5 5 5 5 5 5 5 5 5 5 5 5 5 5 5 5 5 5 5 5 5 5 5 5 5 5 5 5 5 5 5 5 5 5 5 5 5 5 5 5 5 5 5 5 5 5 5 5 5 5 5 5 5 5 5 5 5 5 5 5 5 5 5 5 5 5 5 5 5 5 5 5 5 5 5 5 5 5 5 5 5 5 5 5 5 5 5 5 5 5 5 5 5 5 5 5 5 5 5 5 5 5 5 5 5 5 5 5 5 5 5 5 5 5 5 5 5 5 5 5 5 5 5 5 5 5 5 5 5 5 5 5 5 5 5 5 5 5 5 5 5 5 5 5 5 5 5 5 5 5 5 5 5 5 5 5 5 5 5 5 5 5 5 5 5 5 5 5 5 5 5 5 5 5 5 5 5 5 5 5 5 5 5 5 5 5 5 5 5 5 5 5 5 5 5 5 5 5 5 5 5 5 5 5 5 5 5 5 5 5 5 5 5 5 5 5 5 5 5 5 5 5 5 5 5 5 5 5 5 5 5 5 5 5 5 5 5 5 5 5 5 5 5 5 5 5 5 5 5 5 5 5 5 5 5 5 5 5 5 5 5 5 5 5 5 5 5 5 5 5 5 5 5 5 5 5 5 5 5 5 5 5 5 5 5 5 5 5 5 5 5 5 5 5 5 5 5 5 5 5 5 5 5 5 5 5 5 5 5 5 5 5 5 5 5 5 5 5 5 5 5 5 5 5 5 5 5 5 5 5 5 5 5 5 5 5 5 5 5 5 5 5 5 5 5 5 5 5 5 5 5 5 5 5 5 5 5 5 5 5 5 5 5 5 5 5 5 5 5 5 5 5 5 5 5 5 5 5 5 5 5 5 5 5 5 5 5 5 5 5 5 5 5 5 5 5 5 5 5 5 5 5 5 5 5 5 5 5 5 5 5 5 5 5 5 5 5 5 5 5 5 5 5 5 5 5 5 5 5 5 5 5 5 5 5 5 5 5 5 5 5 5 5 5 5 5 5 5 5 5 5 5 5 5 5 5 5 5 5 5 5 5 5 5 5 5 5 5 5 5 5 5 5 5 5 5 5 5 5 5 5 5 5 5 5 5 5 5 5 5 5 5 5 5 5 5 5 5 5 5 5 5 5 5 5 5 5 5 5 5 5 5 5 5 5 5 5 5 5 5 5 5 5 5 5 5 5 5 5 5 5 5 5 5 5 5 5 5 5 5 5 5 5 5 5 5 5 5 5 5 5 5 5 5 5 5 5 5 5 5 5 5 5 5 5 5 5 5 5 5 5 5 5 5 5 5 5 5 5 5 5 5 5 5 5 5 5 5 5 5 5 5 5 5 5 5 5 5 5 5 5 5 5 5 5 5 5 5 5 5 5 5 5 5 5 5 5 5 5 5 5 5 5 5 5 5 5 5 5 5 5 5 5 5 5 5 5 5 5 5 5 3 3 3 3 3 3 3 3 3 3 3 3 3 3 3 3 3 3 3 3 3 3 3 3 3 3 3 3 3 3 3 3 3 3 3 3 3 3 3 3 3 3 3 3 3 3 3 3 3 3 3 3 3 3 3 3 3 3 3 3 3 3 3 3 3 3 3 3 3 3 3 3 3 3 3 3 3 3 3 3 3 3 3 3 3 3 3 3 3 3 3 3 3 3 3 3 3 3 3 3 3 3 3 3 3 3 3 3 3 3 3 3 3 3 3 3 3 3 3 3 3 3 3 3 3 3 3 3 3 3 3 3 3 3 3 3 3 3 3 3 3 3 3 3 3 3 3 3 3 3 3 3 3 3 3 3 3 3 3 3 3 3 3 3 3 3 3 3 3 3 3 3 3 3 3 3 3 3 3 3 3 3 3 3 3 3 3 3 3 3 3 3 3 3 3 3 3 3 3 3 3 3 3 3 3 3 3 3 3 3 3 3 3 3 3 3 3 3 3 3 3 3 3 3 3 3 3 3 3 3 3 3 3 3 3 3 3 3 3 3 3 3 3 3 3 3 3 3 3 3 3 3 3 3 3 3 3 3 3 3 3 3 3 3 3 3 3 3 3 3 3 3 3 3 3 3 3 3 3 3 3 3 3 3 3 3 3 3 3 3 3 3 3 3 3 3 3 3 3 3 3 3 3 3 3 3 3 3 3 3 3 3 3 3 3 3 3 3 3 3 3 3 3 3 3 3 3 3 3 3 3 3 3 3 3 3 3 3 3 3 3 3 3 3 3 3 3 3 3 3 3 3 3 3 3 3 3 3 3 3 3 3 3 3 3 3 3 3 3 3 3 3 3 3 3 3 3 3 3 3 3 3 3 3 3 3 3 3 3 3 3 3 3 3 3 3 3 3 3 3 3 3 3 3 3 3 3 3 3 3 3 3 3 3 3 3 3 3 3 3 3 3 3 3 3 3 3 3 3 3 3 3 3 3 3 3 3 3 3 3 3 3 3 3 3 3 3 3 3 3 3 3 3 3 3 3 3 3 3 3 3 3 3 3 3 3 3 3 3 3 3 3 3 3 3 3 3 3 3 3 3 3 3 3 3 3 3 3 3 3 3 3 3 3 3 3 3 3 3 3 3 3 3 3 3 3 3 3 3 3 3 3 3 3 3 3 3 3 3 3 3 3 3 3 3 3 3 3 3 3 3 3 3 3 3 3 3 3 3 3 3 3 3 3 3 3 3 3 3 3 3 3 3 3 3 3 3 3 3 3 3 3 3 3 3 3 3 3 3 3 3 3 3 3 3 3 3 3 3 3 3 3 3 3 3 3 3 3 3 3 3 3 3 3 3 3 3 3 3 3 3 3 3 3 3 3 3 3 3 3
        </DataArray>
      </Cells>
    </Piece>
  </UnstructuredGrid>
</VTKFile>
