<?xml version="1.0"?>
<VTKFile type="UnstructuredGrid" version="0.1" byte_order="LittleEndian">
  <UnstructuredGrid>
    <Piece NumberOfPoints="3740" NumberOfCells="7875">
      <PointData>
        <DataArray type="Float64" Name="potential re" NumberOfComponents="1" format="ascii">
 -2.8022730E-006 -1.1182508E-006  1.4746185E-005  6.4247076E-005 -6.7652095E-008  1.2981156E-007 -7.5014579E-010  2.6086095E-008  8.0018730E-005  6.1586307E-005  8.0753179E-005  1.0353971E-004  1.0293726E-004  7.8754002E-005  2.1280615E-026  4.7953137E-027  4.7953137E-027  2.0894004E-026 -9.7329703E-011 -1.3626604E-006  4.4843624E-011 -1.6993895E-008  1.2357055E-005  1.0066478E-005  8.0206993E-006  6.2045359E-006  4.5888106E-006  3.2115868E-006  2.0432793E-006  1.1107496E-006  3.5352036E-007 -2.2719273E-007 -6.5421495E-007 -9.0734814E-007 -1.0490754E-006 -1.1251893E-006 -1.1562681E-006 -1.1525242E-006  5.5391064E-005  4.7636509E-005  4.0883969E-005  3.5080699E-005  3.0149320E-005  2.6078745E-005  2.2732931E-005  2.0020561E-005  1.7933808E-005  1.6370584E-005  1.5353799E-005 -7.2591562E-008 -7.9496618E-008 -8.8240339E-008 -9.8904261E-008 -1.1129185E-007 -1.2553275E-007 -1.4111677E-007 -1.5756198E-007 -1.7056154E-007 -1.8136882E-007 -1.8757347E-007 -1.9065952E-007 -1.9211125E-007 -1.9110289E-007 -1.8701726E-007 -1.8143740E-007 -1.7255016E-007 -1.6451654E-007 -1.5559669E-007 -1.4576766E-007 -1.3550284E-007 -1.2000641E-007 -1.1012038E-007 -1.0080651E-007 -8.7492237E-008 -7.7869333E-008 -6.6435421E-008 -5.3950238E-008 -4.5181675E-008 -3.9248061E-008 -2.6129194E-008 -2.0807241E-008 -1.1108377E-008 -3.6121631E-009  3.8329219E-009  1.1203146E-008  1.5684001E-008  2.3988489E-008  2.9574482E-008  3.5331490E-008  3.8233765E-008  4.3442366E-008  4.7948754E-008  5.3191229E-008  5.3915101E-008  5.9108605E-008  6.1504373E-008  6.4829625E-008  6.5803088E-008  6.9895406E-008  7.1489313E-008  7.3700237E-008  7.3764323E-008  7.6344719E-008  7.7624210E-008  7.9450284E-008  7.7860067E-008  8.0423813E-008  8.1453288E-008  8.0056104E-008  8.3014170E-008  8.0105244E-008  8.1350923E-008  8.2236808E-008  8.2403895E-008  8.2667706E-008  8.0568922E-008  8.3025461E-008  8.2578555E-008  7.9661249E-008  8.1651907E-008  7.8732016E-008  7.9252586E-008  7.9041140E-008  7.8111513E-008  7.7985958E-008  7.6405953E-008  7.6871875E-008  7.6622170E-008  7.4643161E-008  7.5363166E-008  7.3734286E-008  7.2243978E-008  7.2533270E-008  7.1449297E-008  7.1141072E-008  6.9279742E-008  6.9862008E-008  6.9144899E-008  6.7137893E-008  6.7675464E-008  6.7268362E-008  6.6588874E-008  6.6433210E-008  6.7030971E-008  6.6357171E-008  6.9554671E-008  7.6866117E-008  9.3638808E-008  5.4770117E-008  1.6636407E-008  2.9268977E-009  5.8896628E-006  1.2034333E-005  1.8093542E-005  2.4250516E-005  3.0534825E-005  3.6784022E-005  4.3064704E-005  4.9416919E-005  5.5420757E-005  6.1088630E-005  6.6328304E-005  7.1238723E-005  7.5766973E-005  7.9895640E-005  8.3634957E-005  8.7146983E-005  9.0339596E-005  9.3249111E-005  9.5907563E-005  9.8310373E-005  1.0042268E-004  1.0226513E-004  1.0380992E-004  1.0497176E-004  1.0575977E-004  1.0604991E-004  1.0582210E-004  1.0514479E-004  1.0388133E-004  1.0207497E-004  9.9685349E-005  9.6711373E-005  9.3216505E-005  8.9104567E-005  8.4763042E-005  7.5027482E-005  7.0275825E-005  6.5807497E-005  9.3630063E-005  1.0425367E-004  1.1281065E-004  1.2003792E-004  1.2628485E-004  1.3184378E-004  1.3663562E-004  1.4090426E-004  1.4454696E-004  1.4768366E-004  1.5032905E-004  1.5252709E-004  1.5420706E-004  1.5544786E-004  1.5625932E-004  1.5654628E-004  1.5634235E-004  1.5559345E-004  1.5428978E-004  1.5241817E-004  1.4984248E-004  1.4657739E-004  1.4256693E-004  1.3759020E-004  1.3151795E-004  1.2402692E-004  1.1491155E-004  1.0602722E-004  1.1440350E-004  1.2358355E-004  1.3079202E-004  1.3675376E-004  1.4158848E-004  1.4558080E-004  1.4868507E-004  1.5105138E-004  1.5276979E-004  1.5386715E-004  1.5443398E-004  1.5446896E-004  1.5394335E-004  1.5297673E-004  1.5160168E-004  1.4978743E-004  1.4748658E-004  1.4476862E-004  1.4161752E-004  1.3795790E-004  1.3377711E-004  1.2901751E-004  1.2355725E-004  1.1742387E-004  1.1027596E-004  1.0187517E-004  9.1438854E-005  8.2757789E-005  6.3770368E-005  6.5767202E-005  6.7557723E-005  6.9020700E-005  7.0117212E-005  7.0841357E-005  7.1118846E-005  7.0865869E-005  7.0099307E-005  6.8777916E-005  6.6863340E-005 -2.6118075E-006 -2.4318774E-006 -2.2537506E-006 -2.0689994E-006 -1.8724557E-006 -1.6557487E-006 -1.4083068E-006 -2.8161898E-006 -2.7686866E-006 -2.6745513E-006 -2.5458907E-006 -2.3937253E-006 -2.2284565E-006 -2.0543542E-006 -1.8807717E-006 -1.7095666E-006 -1.5458719E-006 -1.3899696E-006 -1.2452441E-006 -1.1121756E-006 -9.9114968E-007 -8.8174906E-007 -7.8389223E-007 -6.9707895E-007 -6.2013861E-007 -5.5285638E-007 -4.9400679E-007 -4.4239258E-007 -3.9772228E-007 -3.5879208E-007 -3.2485432E-007 -2.9541100E-007 -2.6951662E-007 -2.4672400E-007 -2.2656463E-007 -2.0843396E-007 -1.9212181E-007 -1.7723481E-007 -1.6339789E-007 -1.5050571E-007 -1.3830522E-007 -1.2648441E-007 -1.1497355E-007 -1.0358725E-007 -9.2097792E-008 -8.0261325E-008 -7.6101334E-008 -9.6621779E-008 -1.2102576E-007  2.3904306E-008  4.5035232E-007 -3.1595565E-008 -1.1869537E-007 -2.5852986E-007 -3.8083067E-007  1.1769044E-026  8.8806618E-027  7.2756146E-027  6.2985473E-027  5.7147743E-027  5.0835190E-027  4.8836375E-027  4.5010698E-027  4.2692280E-027  4.0529077E-027  3.8684918E-027  3.6904249E-027  3.5519746E-027  3.3668595E-027  3.2319775E-027  3.2655427E-027  3.2597390E-027  3.2326528E-027  3.2401793E-027  3.2718464E-027  3.1809883E-027  3.1859202E-027  3.3007018E-027  3.3130407E-027  3.3140981E-027  3.3150669E-027  3.3162581E-027  3.3168001E-027  3.3186720E-027  3.3183838E-027  3.3184230E-027  3.3174131E-027  3.3177266E-027  3.3178060E-027  3.3185843E-027  3.3187627E-027  3.3181470E-027  3.2417488E-027 -9.8133330E-010 -2.8511554E-012 -1.4468354E-010  1.1218603E-009 -4.3615779E-010 -2.7490451E-010 -1.6497270E-009 -6.1709743E-009  3.5183069E-009  1.8489749E-009  8.3890459E-009  3.5074317E-009 -1.8957221E-010 -2.5084836E-011 -5.6720282E-010 -6.7523420E-010 -2.2235977E-009  3.3179279E-027  3.5591522E-027  3.7057012E-027  3.8742734E-027  4.0366956E-027  4.2601373E-027  4.5286712E-027  4.8485084E-027  5.0955004E-027  5.6310713E-027  6.3639900E-027  7.3685085E-027  8.9335667E-027  1.1965663E-026 -7.7136801E-009 -1.5200930E-008 -2.2575402E-008 -3.0007737E-008 -3.7128497E-008 -4.4578341E-008 -5.1885737E-008 -5.9667593E-008 -6.7610630E-008 -7.5680734E-008 -8.3768187E-008 -9.2259349E-008 -1.0096388E-007 -1.0997673E-007 -1.2049457E-007 -1.3095865E-007 -1.4163398E-007 -1.5467121E-007 -1.6779935E-007 -1.8215164E-007 -1.9813404E-007 -2.1672583E-007 -2.3964521E-007 -2.6084336E-007 -2.8729942E-007 -3.1798774E-007 -3.5347905E-007 -3.9331719E-007 -4.3991670E-007 -4.9133392E-007 -5.5056709E-007 -6.1711651E-007 -6.9228346E-007 -7.7631651E-007 -8.7038289E-007 -9.7206435E-007 -1.0796800E-006 -1.1993415E-006 -1.3232243E-006 -1.4492193E-006 -1.5745466E-006 -1.6975640E-006 -1.8112825E-006 -1.9068665E-006 -1.9695922E-006 -1.9924852E-006 -1.9654414E-006 -1.8628899E-006 -1.6644130E-006 -1.9804724E-006 -2.4643032E-006 -2.8267770E-006 -3.0905922E-006 -3.2798241E-006 -3.4080749E-006 -3.4888449E-006 -3.5356226E-006 -3.5557785E-006 -3.5559744E-006 -3.5416055E-006 -3.5170261E-006 -3.4845176E-006 -3.4431423E-006 -3.3918668E-006 -3.3275912E-006 -3.2447223E-006 -3.1358364E-006 -2.9914220E-006 -5.4777540E-008 -4.2412828E-008 -3.1458869E-008 -2.2148974E-008 -1.4780396E-008 -9.2362148E-009 -5.2995557E-009 -2.7359696E-009 -1.0975851E-009  6.6059145E-011  4.6380370E-011  4.8928230E-011  7.7288876E-011  3.4662005E-010  2.3740454E-010  4.1420794E-010 -1.1058101E-010 -6.7521997E-011 -9.7167850E-011 -8.7837132E-011 -2.2440018E-010  1.3966418E-010  3.0761062E-010 -6.4603317E-010 -4.1769377E-012  3.3266235E-010  8.4034767E-011 -6.2377732E-011 -1.2165892E-009 -4.9179449E-009 -2.4298977E-009 -7.3564932E-009 -1.3902481E-008 -1.7487624E-008  2.5197871E-008  2.9447615E-006  5.8877995E-006  8.8248166E-006  1.1762946E-005  1.4644518E-005  1.7572530E-005  2.0365611E-005  2.3150238E-005  2.5871548E-005  2.8514962E-005  3.1079711E-005  3.3566995E-005  3.5975290E-005  3.8339952E-005  4.0660804E-005  4.2999209E-005  4.5363294E-005  4.7783908E-005  5.0287313E-005  5.2882438E-005  5.5576365E-005  5.8395542E-005  6.1306239E-005  2.2603176E-010 -5.1335032E-010 -2.2218826E-010 -1.2341849E-010 -1.3218701E-010 -1.7497415E-010 -1.7260115E-010 -1.7853772E-010 -1.7306260E-010 -1.5635072E-010 -1.6532106E-010 -2.0446960E-010 -1.5701145E-010 -1.2345654E-010 -2.1437022E-010 -1.7835897E-010 -1.7047281E-010 -1.8422295E-010 -1.7705185E-010 -1.5838231E-010 -1.2125389E-010 -4.0155051E-011 -1.0008065E-010 -2.0077224E-010 -1.7388434E-010 -1.2976913E-010 -9.0416890E-011 -3.4811312E-011 -6.5811541E-011 -1.3826357E-010 -1.0930728E-010 -1.0038605E-010 -8.5093754E-011 -6.5380798E-011 -6.3256903E-011 -8.1717075E-011  4.3417578E-012 -2.6094785E-011 -5.1941532E-011  4.9783495E-012  9.4730887E-012  8.6984888E-012  1.6929761E-011  8.4956754E-011  3.2420674E-011  1.2920884E-010  1.3595060E-010  1.4846741E-010  2.0842252E-010  1.4248159E-010  2.1929825E-010  2.7499510E-010  2.9376435E-010  3.6278646E-010  2.5573213E-010  3.5002029E-010  4.6322576E-010  4.5207796E-010  5.6479993E-010  4.2874639E-010  5.0157381E-010  6.9182150E-010  7.1148958E-010  7.5987576E-010  8.9103886E-010  6.6693036E-010  7.4801668E-010  1.1613901E-009  1.1526490E-009  1.1264285E-009  1.2816319E-009  1.4666042E-009  1.6018466E-009  1.1378599E-009  1.0989999E-009  1.6651893E-009  1.7660493E-009  1.8047604E-009  1.7148035E-009  1.8862660E-009  1.9611888E-009  2.0778427E-009  1.6148298E-009  1.4978792E-009  2.3969710E-009  2.0921858E-009  1.8711027E-009  1.9203643E-009  1.9942976E-009  1.8638664E-009  1.5964492E-009  1.3785696E-009  1.2250846E-009  4.0824003E-010  2.3748294E-010  1.6495997E-010  1.0940809E-010  8.3413443E-011  2.0769017E-011 -2.4540826E-008  4.1678110E-009  6.3991882E-008 -8.2390116E-007 -3.1164578E-007 -4.7775386E-007 -1.0428805E-006 -2.0001468E-007 -1.7796891E-006 -7.0644388E-008 -3.9621666E-007 -2.0488008E-007 -1.2778716E-007 -3.6478235E-006 -6.3580228E-007 -1.2506918E-006 -1.6695954E-006 -1.5572864E-007 -2.3663571E-006 -2.6217229E-008 -3.6693117E-006 -3.4764390E-006 -2.9190944E-007 -9.9431928E-008 -2.2452453E-006 -1.6232053E-007 -6.5357118E-007 -3.6784553E-008 -3.9496415E-007 -1.3996975E-008 -2.4410459E-008 -3.2879492E-006 -5.8845475E-009 -2.7797775E-006 -2.6030539E-006 -5.5851952E-008 -4.9968953E-007 -2.4152050E-007 -3.7006503E-006 -8.1374802E-007 -3.3404475E-006 -3.5702629E-006 -1.3212545E-006 -2.0684893E-006 -1.8673319E-007 -2.7260888E-007 -1.0252782E-007 -1.4371233E-006 -9.9748256E-007 -5.4721429E-007 -5.6026720E-009 -2.9611102E-008 -2.9243569E-009 -2.3936781E-006 -2.9902524E-006 -2.3151860E-008 -1.7292281E-008 -4.5149393E-008 -6.5982364E-008 -8.8357961E-008 -6.1297389E-008 -9.6596572E-008 -1.3948006E-007 -1.5204769E-007 -1.1157300E-007 -1.6196740E-007 -1.1782096E-007 -1.6667540E-007 -2.2492197E-007 -2.2828722E-007 -1.6392345E-007 -2.1000876E-007 -3.0909680E-007 -2.9707480E-007 -2.1156038E-007 -2.8580636E-007 -2.0091669E-007 -2.6963469E-007 -3.7870563E-007 -3.5876830E-007 -2.6002035E-007 -3.4592811E-007 -2.5991811E-007 -3.4603180E-007 -4.5704926E-007 -4.9121778E-007 -3.6674979E-007 -5.0938642E-007 -6.6958042E-007 -7.0891012E-007 -5.8050439E-007 -8.0978616E-007 -7.1283613E-007 -9.8436221E-007 -1.1383214E-006 -1.3705638E-006 -1.2395764E-006 -1.6646338E-006 -1.8427144E-006 -2.1691978E-006 -2.0229781E-006 -4.9843855E-007 -4.9361441E-007 -8.9546797E-007 -2.3406994E-006 -2.6876594E-006 -1.9954437E-007 -8.4076032E-007 -1.9869115E-006 -1.7426636E-007 -1.6202269E-007 -8.2731697E-008 -8.8970689E-008 -2.8233265E-006 -5.3763124E-007 -6.8091819E-007 -1.6148051E-007 -3.1466372E-006 -3.0444092E-006 -5.8459999E-007 -5.6845852E-007 -3.1987012E-006 -1.0241787E-006 -2.2270775E-007 -6.4929754E-008 -9.7315348E-007 -1.4263051E-007 -1.9409345E-007 -7.5091774E-008 -3.4696659E-006 -3.4447515E-006 -2.8765096E-006 -5.5645662E-007 -1.5142622E-007 -1.5039582E-007 -1.5610383E-007 -6.9725756E-007 -6.2657561E-007 -6.5758760E-007 -2.0861965E-007 -2.2436419E-007 -2.0004216E-007 -2.2587728E-007 -4.4763763E-007 -3.6556897E-006 -5.8785056E-007 -5.4923088E-007 -1.3614767E-007 -1.2972229E-007 -1.2027582E-007 -9.1138017E-008 -2.3095593E-007 -2.6290812E-007 -5.9459531E-008 -8.2171781E-007 -8.9983525E-007 -3.6760756E-006 -7.9894550E-007 -4.8396482E-007 -3.9756440E-007 -2.4755749E-007 -2.6108227E-007 -1.1018958E-006 -1.1929914E-006 -4.9920388E-008 -4.3086807E-008 -8.3330856E-008 -8.3204234E-007 -3.5487301E-006 -8.6232435E-007 -1.0066143E-006 -8.4373958E-007 -6.6361462E-007 -3.3110487E-006 -1.2000473E-006 -1.3461434E-006 -1.3063460E-006 -1.4886660E-006 -2.1418680E-007 -1.8980805E-007 -1.0454014E-006 -1.2104785E-006 -1.2200327E-007 -1.2085781E-007 -5.4222017E-007 -5.1926908E-007 -5.0019520E-007 -4.8379135E-007 -4.7869093E-007 -4.5781133E-007 -7.0822076E-007 -3.8638457E-008 -3.1567740E-008 -4.6029817E-008 -2.9243366E-008 -2.2822414E-008 -2.5528796E-008 -1.7155617E-008 -1.2109105E-007 -1.1014003E-007 -6.9096918E-007 -1.0969882E-007 -1.9816576E-008 -1.4343787E-006 -1.6504225E-006 -1.6369369E-006 -1.8327816E-006 -2.5320919E-007 -2.9226553E-007 -2.9193512E-007 -3.2847190E-007 -2.1522413E-007 -3.1722940E-007 -3.5845903E-007 -3.5159807E-007 -7.2463761E-008 -3.3688664E-007 -4.4167058E-007 -3.6979684E-007 -3.2187700E-007 -1.4282704E-007 -1.0850052E-006 -1.3448712E-007 -8.9738822E-007 -4.4035230E-007 -7.5147200E-007 -8.3161266E-008 -3.6839781E-006 -3.4929143E-006 -3.8870280E-007 -1.6638856E-007 -1.1852230E-006 -1.4077434E-006 -1.4374096E-006 -1.6566821E-006 -1.6806712E-006 -1.9234237E-006 -1.9045818E-006 -2.1913753E-006 -2.2390207E-006 -2.5151955E-006 -2.5828945E-006 -2.8995193E-006 -2.9536779E-006 -2.7720047E-006 -3.0612290E-006 -2.9491803E-006 -2.6755775E-006 -2.1277831E-006 -2.6725327E-006 -3.0490909E-006 -3.2676443E-006 -3.3644784E-006 -1.6153133E-006 -4.3316156E-007 -5.2609061E-007 -2.6442691E-007 -3.1901112E-006 -3.2798578E-006 -3.0427385E-008 -5.1406867E-008 -8.1011402E-007 -9.1188094E-008 -9.1842415E-008 -8.5785454E-008 -7.8352129E-007 -2.0851152E-007 -1.8506431E-007 -5.4475101E-007 -1.7291412E-006 -1.9581418E-006 -2.0432496E-006 -2.1976479E-006 -2.2814563E-006 -2.4539153E-006 -2.7892680E-006 -3.0719235E-006 -6.7510191E-007 -6.0434281E-007 -3.5794969E-007 -1.2280474E-006 -2.7412314E-007 -9.2371654E-008 -1.2454581E-006 -3.0902990E-007 -1.2372306E-008 -1.0421258E-008 -4.1237378E-007 -3.5084435E-007 -2.3872089E-007 -2.2882821E-006 -2.5747511E-006 -2.2844957E-008 -3.5067593E-006 -3.4075820E-006 -3.5725141E-006 -3.4716287E-006 -3.6559038E-006 -3.5852171E-006 -1.2968169E-007 -4.8094330E-007 -4.2247403E-007 -1.8859653E-006 -6.9869877E-007 -3.8552366E-007 -5.9425086E-008 -2.0628854E-007 -1.8317657E-007 -2.5787637E-006 -3.7058703E-006 -3.9998455E-007 -3.0655904E-007 -2.0069637E-007 -1.5164829E-006 -1.4686299E-006 -1.3443623E-006 -3.3868406E-007 -2.4222999E-006 -1.4138793E-007 -1.4974244E-007 -1.5551989E-007 -1.6806355E-007 -4.8222026E-007 -4.1742737E-007 -2.1242807E-007 -1.7205953E-007 -1.8350162E-007 -1.6474277E-007 -9.1271794E-007 -1.0797910E-006 -1.0546287E-007 -1.1242046E-007 -3.6904093E-008 -4.6179567E-008 -5.5394689E-008 -6.3182448E-008 -3.9892826E-007 -1.1188917E-006 -2.8192233E-008 -4.9079389E-007 -1.6595199E-006 -1.4758979E-006 -1.2691221E-006 -9.7673397E-007 -9.0877166E-007 -7.3952778E-008 -8.8031691E-008 -3.7618934E-006 -3.7034626E-006 -3.7741553E-006 -2.0686893E-006 -2.4756679E-007 -2.8849177E-007 -1.1720978E-007 -1.1812344E-007 -6.0031449E-007 -6.8980436E-007 -1.6052090E-007 -3.4229978E-006 -6.0159475E-007 -3.1708073E-006 -3.0219003E-006 -3.0427329E-006 -2.8873216E-006 -2.6824700E-006 -3.1877615E-006 -9.1053692E-007 -2.1237569E-008 -1.5881579E-008 -1.4635181E-007 -2.5835820E-006 -3.3359309E-006 -3.3144458E-006 -2.4149983E-006 -2.5672320E-006 -2.8289819E-006 -1.5245485E-006 -2.7166143E-007 -2.0068323E-006 -3.1235884E-006 -3.2408346E-006 -1.0305166E-008 -1.7688624E-007 -3.2474047E-006 -1.1953858E-007 -7.7417917E-007 -1.8280406E-007 -9.6854003E-008 -9.5497137E-008 -1.0650320E-007 -3.6228949E-006 -3.6781376E-006 -4.2393955E-007 -3.9364441E-007 -5.7404706E-008 -1.5785943E-006 -5.1346475E-007 -4.7450607E-007 -3.5781892E-007 -5.8123817E-008 -8.2224009E-007 -2.8300905E-007 -1.3958045E-007 -3.1167540E-006 -3.2429117E-006 -3.1272822E-007 -3.3444520E-006 -7.1042443E-007 -3.1278621E-008 -3.0225012E-008 -1.2067523E-008 -1.9913209E-009 -5.3596774E-009 -1.5683571E-006 -1.9609445E-006 -2.4323163E-007 -6.9782845E-007 -5.9271350E-007 -4.0393670E-009 -2.7970252E-007 -3.1645418E-007 -3.4158625E-007 -2.9238266E-006 -2.5859773E-006 -3.5380643E-006 -2.5616864E-006 -3.1866685E-007 -8.1619393E-007 -6.9881032E-007 -6.0172550E-007 -7.0369959E-007 -4.4697395E-007 -1.0127314E-006 -3.6086698E-006 -5.6228601E-007 -4.4522299E-007 -7.1894209E-007 -3.9491158E-008 -7.0732285E-008 -3.0275148E-006 -2.2110989E-007 -1.1771695E-006 -2.6551710E-007 -9.1928749E-007 -3.4167171E-006 -3.5272353E-006 -3.4774033E-006 -3.6808998E-006 -1.8899206E-007 -1.4905091E-006 -2.2304789E-006 -3.6960931E-006 -1.8675196E-006 -1.9113981E-006 -1.6916777E-007 -1.6360884E-006 -2.2111890E-007 -2.3893140E-007 -2.9099769E-006 -8.9804909E-007 -3.4716038E-007 -7.5755098E-007 -9.7338246E-007 -6.9153225E-007 -2.8206266E-008 -1.7460489E-007 -2.9913972E-007 -1.4173694E-006 -6.9427164E-008 -1.7502407E-006 -1.0435155E-007 -1.2635255E-007 -7.6736208E-008 -3.9710957E-007 -2.2390926E-007 -1.8422431E-006 -2.0988997E-008 -4.6792693E-007 -3.4805652E-006 -3.6894561E-007 -1.3030988E-007 -1.1039677E-006 -2.2719112E-006 -2.7107718E-006 -1.3721246E-007 -6.7274121E-007 -5.8191970E-007 -8.8419553E-008 -5.0308832E-007 -1.7505355E-007 -1.0003020E-006 -3.7612308E-006 -2.5639083E-006 -1.7325484E-008 -8.2264177E-008 -3.8696026E-008 -3.1873279E-006 -1.1627730E-007 -1.0963288E-006 -1.3494858E-008 -3.0293983E-007 -5.7383101E-007 -2.6108683E-006 -8.5168438E-008 -3.6612117E-008 -4.7433256E-008 -2.0505733E-006 -6.4107409E-008 -5.5713526E-007 -2.9527742E-009 -2.5206070E-007 -1.2432109E-006 -1.1224978E-006 -1.1593531E-007 -3.8370761E-007 -6.9477359E-009 -2.2940944E-006 -1.3233016E-006 -2.8226698E-007 -3.4162665E-006 -3.8094349E-007 -3.5705557E-007 -1.1934726E-006 -2.1540791E-007 -3.0052887E-006 -1.6339543E-006 -9.5289986E-007 -2.7832165E-006 -4.5077572E-007 -2.3764964E-006 -3.5327517E-006 -2.3153783E-007 -6.1658355E-007 -1.8380385E-007 -1.5229583E-007 -4.2799119E-007 -6.5823260E-007 -2.6410447E-008 -2.5336387E-007 -2.0311545E-006 -8.7274464E-007 -3.1131629E-006 -1.5058872E-007 -5.8451856E-008 -3.9165106E-007 -2.9719179E-007 -7.4429689E-007 -2.4602362E-006 -7.8281859E-009 -6.0935638E-007 -4.4566746E-007 -1.0073907E-007 -1.7997010E-006 -1.0661467E-007 -1.1663540E-007 -3.7611681E-006 -7.3878616E-007 -3.2040272E-007 -9.4223524E-008 -2.9606515E-006 -2.3998498E-006 -3.7271952E-006 -3.6764068E-006 -2.4108740E-006 -3.3409430E-006 -3.6078156E-006 -6.4970723E-008 -2.5994564E-007 -3.2146434E-007 -2.8863227E-006 -2.0758611E-006 -3.7697131E-006 -4.4763937E-007 -2.6432054E-007 -1.5441781E-007 -3.1994148E-007 -2.7662720E-008 -2.2794631E-006 -4.1521277E-007 -1.1507583E-007 -6.1507505E-008 -8.1030616E-007 -5.7668884E-007 -1.2584828E-007 -1.2020455E-006 -3.8125155E-007 -5.3756310E-007 -3.8888915E-007 -8.3432105E-008 -4.5000591E-008 -6.2238094E-008 -2.5583626E-006 -4.1041142E-008 -1.7017420E-007 -2.7954587E-007 -2.9797046E-006 -2.1040100E-006 -1.2625522E-006 -9.9455605E-007 -1.2648490E-009 -8.5851578E-009 -4.5126496E-007 -1.7735008E-006 -1.6023246E-007 -1.4477338E-007 -1.0745027E-008 -8.5038337E-009 -1.7922642E-007 -4.2963146E-007 -3.2976338E-006 -5.1212494E-007 -3.1653531E-006 -3.4796708E-007 -1.9993585E-006 -3.5150085E-006 -3.5815424E-006 -2.2400449E-006 -1.3668290E-006 -1.9955167E-007 -6.0660482E-007 -5.4491437E-008 -1.0451271E-006 -2.4043201E-006 -9.9117310E-007 -2.0502626E-007 -1.1923776E-007 -3.5417334E-007 -7.3361454E-007 -1.3408851E-006 -1.8915195E-006 -3.2877768E-006 -3.3740072E-006  2.1923590E-008  1.2598351E-008 -3.8462776E-008 -2.0221751E-007 -4.7222959E-007 -9.3296229E-007 -1.3587016E-006 -3.1912055E-006 -2.6767126E-006 -1.1095277E-006  2.7442607E-008 -3.2460455E-007  3.3438709E-005  5.0336302E-007  1.5489373E-008 -2.1910841E-006  2.4100405E-005 -2.7787619E-006 -1.4904577E-006  1.3025018E-007  2.9813898E-006  2.7258242E-005  4.0478148E-005  1.9260297E-005  8.2693570E-006  8.5433995E-009 -1.5033175E-006  1.5584026E-005 -1.8278002E-006  5.4144452E-008  3.3060528E-005  1.3236777E-005  2.3637501E-005  4.5157308E-005 -2.9852642E-006 -1.1741816E-006 -1.3579952E-006 -3.3109186E-006 -3.3761159E-006  1.9320138E-008 -7.4846554E-007  3.1455733E-008  2.2591044E-008 -3.4883765E-007  1.6845184E-008 -1.2884707E-007  6.5991504E-006  1.9410994E-008  3.4554128E-006  1.2853504E-005  5.0697616E-005 -1.4924877E-006  2.6400482E-009 -1.5637201E-006 -1.8680699E-006 -1.8304212E-006 -2.1144198E-006 -2.1439220E-006 -2.3294715E-006 -2.3056151E-006 -2.4943892E-006 -2.4330190E-006 -2.5998807E-006 -2.4975936E-006 -2.5968566E-006 -2.4723113E-006 -2.5211051E-006 -2.3368713E-006 -2.2745002E-006 -2.0349978E-006 -1.8337742E-006 -1.5169693E-006 -1.0894275E-006 -6.9942562E-007  7.4879070E-008  5.2868922E-007  1.6497657E-006  2.4908472E-006  1.1007126E-006  3.4810552E-006  2.0285456E-006  4.7113438E-006  3.2397086E-006  6.3008277E-006  4.7359518E-006  8.1479983E-006  8.7263495E-007  2.7423201E-006  2.1233184E-006  3.9521236E-006  3.5304035E-006  5.2188459E-006  4.6714485E-006  5.7569409E-006  6.6477815E-006  5.7577674E-006 -2.3207694E-006  6.6413816E-006  6.8356066E-007  3.9423732E-006  4.8006190E-006 -2.1631893E-006  6.8578953E-006  6.0093523E-006  4.3458426E-006  5.2746119E-006  3.7743008E-006  4.3533068E-006  6.2118501E-006  5.4056021E-006  3.8323539E-006  4.6639944E-006  3.2726683E-006  3.7765606E-006  5.4384529E-006  4.6874830E-006  7.3674777E-006  3.2697605E-006  3.9695883E-006  5.4844947E-006  4.4136362E-006  6.2022521E-006  5.1499849E-006  3.7615881E-006  4.2353867E-006  3.1026790E-006  3.4819346E-006  1.0385722E-005  3.0162705E-006  2.6915054E-006 -2.6965575E-006  4.7263269E-006  3.8223960E-006  7.1908190E-006  2.7053264E-006  3.0404481E-006  4.0893065E-006  3.2290423E-006  4.2767362E-006  3.3506342E-006  2.5654157E-006  2.6003755E-006  3.3552354E-006  2.5753525E-006  1.9638636E-006  1.9491244E-006  2.4851108E-006  1.8091625E-006  2.3297093E-006  1.6907650E-006  2.2085913E-006  1.3132983E-006  1.2193613E-006  8.4068784E-006  2.2146679E-006  8.9795204E-006  1.8919218E-006  1.4393546E-006  1.4438093E-006  2.0570643E-006 -2.6164968E-006  1.2560782E-005  3.0109953E-006  5.8138938E-006  1.5122730E-005  8.1609119E-006  2.5180834E-006  9.1050621E-007  8.7248805E-007  5.4367746E-006  5.5769105E-006  1.0719692E-006  7.6429397E-007  7.3879257E-006  2.1182851E-006  1.8283505E-007  1.6791862E-006  1.8998662E-006  9.2630517E-006  1.0744193E-006  1.5300136E-006  6.1544666E-007  5.0352554E-007  6.2919845E-007 -2.3502453E-006  1.0030978E-006  4.2709554E-007  1.1387729E-006  1.1938900E-006  8.2600230E-006 -1.7971836E-006  5.5980435E-006 -2.3468563E-006  1.8044120E-005  2.0911111E-005  9.6925453E-007  7.0265860E-007  7.1228334E-007  1.4666419E-006  3.3590450E-007  2.7725974E-007  7.4289743E-007  1.2825171E-006  5.7195123E-006  1.4922397E-006  9.1008908E-007  1.3302245E-006  1.1075932E-005  1.2557173E-005  1.5465784E-006  9.7426004E-007  1.2564755E-006  1.8135781E-005  7.0455117E-007  9.7855605E-007  1.1975799E-006  1.3115505E-006  9.1671325E-007  1.1929402E-006  8.1170758E-007  2.4842669E-006 -2.1737746E-006 -2.3651396E-006  8.1406369E-006  1.1165725E-005  4.6984528E-007  8.4785226E-007  7.9198371E-008  4.5647273E-007 -2.7498513E-007  1.2003704E-007 -5.4923761E-007  8.6032980E-007 -1.6736073E-007 -8.3282880E-007 -4.4018853E-007 -1.0525406E-006  2.5943771E-007 -1.4400834E-006 -1.5701385E-006 -1.2611848E-006 -1.8014907E-006 -1.4493130E-006 -1.9119873E-006 -2.2254076E-006 -2.2870105E-006 -2.5508643E-006 -2.5776321E-006 -2.5494737E-006 -1.6322079E-006 -2.5094366E-006  1.6455577E-006  6.2663966E-007  8.9701350E-007  5.0119889E-007  4.8846731E-007  2.1520664E-007  1.7285142E-007  2.4712710E-007 -2.8088983E-006 -2.7991773E-006 -2.5984627E-006 -2.7870130E-006 -2.9618179E-006 -2.9220935E-006  4.8030801E-007  2.4663352E-005  2.1821985E-005  2.7789350E-005  7.8556785E-007  7.3292881E-007  8.9812672E-007  1.3239476E-006  4.8887918E-007  7.3412768E-007  5.6500660E-007  9.8250618E-007  1.6959573E-006  1.3314431E-006  6.4861432E-007 -2.6168955E-006 -1.0929179E-006  7.1069144E-007  5.0705851E-007  5.9211157E-006  3.7480670E-006 -1.9086912E-006  1.2425083E-007  5.0914856E-007  2.0891913E-007  8.5272536E-006  9.4659397E-007  1.2450405E-007  8.0730493E-007  4.9975927E-007 -3.0765965E-006 -3.0099249E-006 -3.1371919E-006 -2.8818996E-006 -2.9434478E-006 -3.0593899E-006 -2.9714599E-006 -2.8717063E-006 -2.8747235E-006  4.7697444E-007  5.5997826E-007  5.4269727E-007  1.0461142E-006  1.6558096E-007  5.9940198E-007 -2.9662284E-006 -2.8495406E-006 -2.5310431E-006  7.2475166E-006  7.3881256E-006 -1.8545840E-006  5.7096567E-007  4.8429561E-007  1.5412239E-006  6.2782619E-007  9.5290198E-007  1.2029289E-007  3.5945954E-007 -1.0683695E-007  4.2701966E-007  1.1907600E-006  3.1277133E-007  1.7611931E-007  4.3133699E-007  2.3566119E-007  1.4621017E-006  2.1709211E-006 -5.8635899E-008 -6.3614448E-009  1.4910199E-005  1.2516538E-005  2.1553760E-006  5.9164219E-007  5.0662967E-007 -2.1976031E-006 -1.9789666E-006  5.2496397E-006 -1.3543596E-006  4.4928684E-006 -2.6541582E-006 -2.6889106E-006  2.5233991E-006 -6.3444478E-007  1.7003422E-005  1.3273352E-005  1.0859811E-006  1.4931551E-006  1.0850775E-006  1.2411177E-006  6.5272773E-006  9.6117979E-006 -2.9241524E-006  6.3673591E-007 -2.3281846E-007 -2.2451140E-007  3.1707872E-005  3.6885959E-005  3.1320327E-005 -1.0474321E-008 -2.4614952E-006  7.9317268E-006  3.3745843E-006  2.7200914E-006  6.3882389E-007 -2.3933986E-006  3.0135917E-006  6.6989015E-007  3.9146756E-007  1.5132402E-006 -2.6107192E-006 -2.7761921E-006  2.8719004E-007  4.0637239E-005  5.1491065E-008 -2.7050454E-006  6.5337771E-007  4.5551262E-007  4.1219964E-007  2.9703033E-007  3.1004231E-007  1.8241816E-007  1.8458275E-007  1.5512928E-006  2.5645071E-006  1.9671991E-006  1.1830833E-006  6.0974804E-007  1.6342275E-008 -4.0895271E-007 -2.8223962E-006 -3.0350930E-006 -2.8453408E-006 -2.5902115E-006 -2.2355203E-006 -2.9140664E-006 -2.9986841E-006 -1.2904414E-006 -3.2123378E-006  2.3663455E-006 -2.3804411E-006  2.5916391E-007  4.9907156E-008  2.9044236E-007  6.8335780E-007  1.5293030E-007  2.5644387E-006  3.5891388E-007  1.6830022E-007 -9.3261595E-007 -2.3067945E-006 -2.2898566E-006  2.4698714E-007  3.2503407E-007  8.7547981E-008  3.2079157E-007  9.0216440E-008 -2.5598668E-006  3.5213167E-007 -2.3721454E-006  3.5168903E-007 -3.4461263E-007 -7.4915937E-007  1.9385492E-006 -3.3005570E-006 -2.7110453E-007  1.0730311E-006  9.7534975E-006  1.2637707E-005  8.6883475E-006  1.1439789E-005 -6.7652152E-007  6.5730673E-008  5.4797736E-008  9.5773815E-008  6.5394090E-008  2.4927148E-006  3.9426730E-007  6.8842375E-006  4.7593346E-006  9.9266315E-007  2.0497523E-005  1.5521371E-005  2.2436806E-005  1.7432397E-005  1.1227369E-005  1.3403352E-005  1.9394282E-005  1.5268724E-005  2.1681067E-005  1.7284283E-005  2.4253489E-005  2.9376279E-005  9.9074498E-006  1.0662936E-005 -1.2127458E-006 -1.9078734E-006 -1.5846506E-006 -2.0120945E-006 -1.6168341E-006 -1.9854779E-006 -1.7880387E-006 -1.2228018E-006  6.9381234E-008  1.7287685E-007 -2.7622429E-007 -4.2458959E-007 -7.8902556E-007  8.5860903E-007 -8.9746177E-007 -3.8098101E-007 -3.3932944E-007 -1.8447373E-006 -3.0692399E-006 -2.0722554E-006 -3.1557857E-006 -3.1777360E-006  3.9017841E-006 -1.8618734E-006  1.4244997E-006  2.3226966E-006  4.2543506E-006  3.2017472E-006  2.4886782E-007  6.6556227E-007  1.3660721E-007  2.2619870E-007 -3.2206148E-006  1.6180369E-006  1.9749405E-006 -1.9212031E-006  8.3520109E-008 -3.0590609E-006 -3.0508136E-007  2.4698532E-005  1.5105308E-006 -1.4354168E-006  1.0274523E-005  1.8418347E-006  1.5513942E-005  1.3068962E-005  1.6236025E-005  2.1634994E-005  1.9857755E-005  2.5632395E-005  1.8421942E-005  1.1781887E-005  3.8169170E-006  2.4216665E-005  1.1048621E-005  2.8081284E-005  6.7071805E-006  9.1318374E-006  3.5054487E-006  3.8121704E-005  1.3902367E-005  4.7911365E-005  4.5953464E-005  2.5471302E-005  1.0125478E-005  1.6886365E-005  1.3460792E-005  2.1547821E-005  1.4066817E-005  1.7798074E-005  4.2440633E-005  2.8116931E-005  1.1680887E-005 -2.0130768E-006 -1.7863410E-006  2.9053885E-007  1.7675315E-007 -2.7870085E-006 -2.8526519E-006 -1.3079794E-006  6.7517437E-009  2.6090219E-008 -1.3726143E-006 -3.1030727E-006 -1.3281107E-006 -3.2600764E-006 -3.3553310E-006 -3.3457423E-006 -3.0915430E-006  1.7831875E-008  1.9335250E-008 -1.0279070E-006  3.5957236E-008  1.7194323E-007 -8.5105676E-007  2.8302833E-008  2.1614354E-008  2.0350888E-008  1.9972648E-007 -3.0026713E-007 -3.7993654E-007  2.5004747E-008  1.6680529E-009 -1.4822821E-007  1.2002595E-005 -1.5949840E-006 -2.7887064E-006  8.7234873E-006  4.7418626E-006  2.1289897E-006 -2.0414237E-006 -2.4844568E-006 -2.8303934E-006 -2.7430519E-006  2.9231869E-005  3.6060913E-005  1.4986722E-005 -2.8444301E-006  6.8851318E-006  1.4296091E-005  8.4698502E-006 -3.4045672E-006 -3.5316462E-007  3.1113983E-005  1.1926846E-006 -1.7094487E-007 -3.7155783E-007  1.8274371E-006  1.7417014E-007  4.2299469E-008  1.7090482E-007  1.4792243E-006 -1.3860486E-008 -1.5990688E-006  9.4602792E-008  1.7449857E-006 -4.4399671E-008  2.2923967E-006  1.7079431E-005 -3.5348718E-007 -2.7683670E-006  1.8562304E-006  1.0994838E-005 -5.2164950E-007  3.1825127E-007  1.2276375E-006  7.2961596E-007 -7.8609340E-007  3.0468301E-007  9.7463123E-006  1.5878433E-005 -2.3473553E-006  3.1056929E-005 -2.6599355E-006  7.6169149E-009 -2.2449372E-006  1.5899251E-006 -6.2414316E-008  2.1840358E-006  2.1339883E-006  4.2866631E-007  2.0679675E-007  6.0490978E-007  1.1429038E-006  1.9868364E-006 -2.0220430E-006  1.1295008E-006  9.8302727E-006 -6.6649847E-007  5.9980017E-006  2.9487827E-006 -2.3382399E-006 -2.5218275E-007  3.2424683E-007  1.8057481E-006  9.1842380E-007 -7.0196297E-007  2.3340918E-006 -1.7324833E-006  2.7042643E-006  6.2455073E-006  3.3733443E-007  5.6247724E-007  2.7168797E-005  3.2414677E-006  1.1562348E-006  7.1338737E-006  3.0725795E-006  3.1318154E-008  4.3181467E-006  8.8232834E-008  5.7527403E-007  1.3007481E-007 -2.5282303E-006  2.2558795E-006  1.3514924E-005  9.6771895E-009  1.5906911E-007 -1.1440247E-007  1.7030862E-006  3.2698500E-006  3.9665634E-006  6.3817371E-006 -3.2072300E-006 -9.3700236E-007  4.8945133E-006  7.9192524E-006  1.9704948E-006 -7.0375838E-007  1.4861735E-009  5.0830892E-006 -3.1490367E-006 -1.7851604E-006  8.4041166E-006  6.7319129E-006  7.5753596E-006 -3.0473713E-006  3.6085724E-005 -1.1458801E-006  4.0223964E-005  9.9526433E-007 -2.2393408E-006 -2.7294479E-006 -1.3357916E-006  7.4131244E-007 -2.3995291E-006 -8.8155038E-007  2.0891290E-007 -3.2554176E-006 -2.2733336E-006 -2.7279784E-006  9.2275271E-006 -2.1147996E-006 -3.6291676E-007  4.0176888E-006 -2.7829817E-006  1.9882899E-005  2.9396303E-005  1.0144710E-005 -7.3113449E-007 -1.0457398E-006  8.0424503E-006  9.1321959E-007  2.7686186E-007  1.7475321E-007 -2.2189792E-006  4.7680371E-007  4.2133758E-007  6.1297591E-006  5.5754492E-006  6.0516980E-007  1.7708425E-007 -6.1633119E-008  3.2320046E-007  9.6755583E-008 -1.1772690E-006  2.1605800E-005  2.9161801E-007  1.4003628E-005  1.4612120E-007  9.9120281E-006  1.9276154E-005 -1.3596898E-006  1.7412585E-006 -8.6165269E-007  1.0307855E-007 -1.1575582E-006 -2.4583705E-006 -2.6203393E-006 -2.6898094E-006 -2.9878702E-006  8.2017997E-007 -3.2117795E-006  1.2188896E-006  1.1479302E-005  7.6661100E-006  5.5123350E-005  1.0510736E-007  2.4963805E-006 -3.2722628E-006 -1.2666572E-006  4.2218071E-008  1.8140042E-006  5.5338894E-006  3.1706166E-006 -5.8910574E-007  1.3174086E-006 -4.6597831E-007  1.3128928E-005 -3.4338097E-006  7.5759776E-007  1.5984773E-006 -2.1563648E-006 -5.3535945E-007  3.7301915E-006  3.4032212E-006  3.2791746E-010  9.0326762E-008  1.6580178E-007  9.7260118E-006 -1.4716327E-006  7.8090698E-006  1.1380732E-005 -9.3118594E-009 -2.1635933E-006 -2.6760116E-006  8.3458510E-007  3.5531242E-005  3.2393072E-008  4.5318553E-007  1.2219585E-006  1.0338193E-005 -8.0863960E-007 -7.1206395E-008  1.3722217E-007  2.4678207E-005 -9.0266698E-007 -1.9344511E-006  1.7717697E-007  2.2242811E-005  1.2290442E-006  7.0024777E-006  2.1026603E-006  1.4617385E-006 -7.9186848E-007  3.1228126E-006  2.4081453E-006 -2.1440287E-006 -3.8760703E-007  2.2911467E-006  3.5039096E-007 -7.3986833E-008  3.8492872E-005  2.6876924E-006  3.5004510E-006 -2.6111529E-006  1.2184405E-006  2.0978503E-006 -2.7022848E-006  9.3583523E-006  6.4562957E-007 -3.0718803E-006 -2.5780454E-006 -1.7161061E-008 -1.9072895E-009 -9.1108797E-008 -6.4990698E-009 -6.1622853E-009 -3.8097783E-008 -1.1707732E-007 -1.4828292E-007 -6.5045846E-009 -2.1058992E-008 -3.0447355E-008 -2.9932475E-008 -2.4128894E-008 -1.8894845E-008 -1.9317617E-008 -1.4552296E-008 -2.1939945E-008 -3.1403433E-008 -2.4859936E-008 -4.3271254E-008 -5.6182310E-008 -3.4337548E-008 -1.5618342E-008 -4.5336763E-008 -7.8520647E-008 -3.0188920E-008 -4.9960121E-008 -4.7340136E-008 -2.7574971E-008 -3.5121671E-008 -4.0638416E-008 -3.9795728E-008 -2.6346317E-008 -3.3774859E-008 -5.3020860E-008 -4.5757863E-008 -5.1951646E-008 -4.9010839E-008 -5.1240985E-008 -5.4797728E-008 -1.2988987E-007 -5.5317745E-008 -5.2389272E-008 -5.1518125E-008 -5.4085661E-008 -4.5425424E-008 -4.2949498E-008 -3.3873790E-010 -2.0054656E-007 -2.1934476E-007 -1.1162689E-007 -3.5340102E-008 -9.2118896E-008 -2.2408143E-008 -1.9742964E-008 -1.9214297E-008 -1.2573584E-008 -2.3102286E-008 -2.1122830E-008 -2.8527459E-008 -1.7820698E-008 -1.4497973E-008 -2.6381481E-008 -1.6912931E-008 -3.5513444E-008 -1.7565478E-008 -4.4653100E-008 -3.3422974E-008 -6.3200741E-008 -4.3930735E-008 -7.9171644E-008 -3.5596560E-008 -9.7205801E-008 -1.1859159E-007 -1.4955536E-007 -1.5897318E-007 -1.8259913E-007 -1.7497650E-007 -1.9457905E-007 -2.1393458E-007 -2.1483330E-007 -2.0679942E-007 -2.2141869E-007 -6.9360362E-008 -1.6778585E-008 -1.7954277E-007 -4.9292660E-008 -4.0307776E-008 -2.8026803E-008 -1.8168974E-008 -9.2035784E-010 -1.3177968E-007 -8.2138574E-008 -7.3430778E-008 -4.3073401E-008 -3.6570979E-008 -4.5248198E-008 -2.0258123E-008 -1.6691152E-008 -2.9005672E-008 -1.3549448E-008 -2.2718536E-008 -4.1013171E-008 -3.3808372E-008 -1.0999456E-008 -5.4368386E-009 -5.3417002E-008 -4.5839075E-008 -1.8973547E-008 -2.6359598E-008 -5.2443544E-008 -1.0158818E-008 -6.8536299E-009 -2.2269974E-009 -1.8907233E-009 -7.4379982E-009 -1.4030700E-008 -3.6754359E-009 -6.2807360E-008 -1.0375342E-007 -7.5727490E-008 -8.5980411E-009 -3.1869157E-008 -2.0233506E-008 -3.3349438E-008 -2.2163512E-008 -5.5009576E-008 -6.4082186E-008 -7.2449601E-008 -1.2095719E-007 -2.9275489E-008 -8.4649664E-008 -1.4894965E-007 -1.9527505E-008 -3.4187702E-008 -3.3843339E-008 -3.4556874E-008 -3.2800534E-008 -3.3901105E-008 -2.2209329E-007 -1.6281132E-007 -1.6857544E-007 -1.5324968E-007 -8.0566992E-008 -2.0459061E-008 -3.6133279E-008 -5.4241789E-008 -1.1583003E-007 -1.1758915E-007 -1.7261911E-007 -4.7819109E-008 -1.1912699E-007 -1.2088975E-007 -1.8755115E-007 -3.0574769E-008 -5.5016626E-008 -5.4843001E-008 -5.9422601E-008 -1.4408599E-007 -1.4483620E-007 -1.4181325E-007 -1.4624969E-007 -9.1006163E-008 -1.3395276E-008 -4.0649628E-008 -4.2011094E-008 -3.3610603E-008 -2.2028237E-008 -3.9014942E-008 -4.0666478E-008 -4.0277161E-008 -1.1392193E-007 -1.2800347E-007 -1.2607556E-007 -1.3027754E-007 -8.4682804E-008 -3.6470716E-008 -7.0621320E-008 -7.1993972E-008 -5.3727927E-008 -5.6412844E-008 -7.4501203E-008 -3.2993271E-008 -6.7753799E-008 -2.3000785E-008 -5.0084897E-008 -5.1506555E-008 -4.9103691E-008 -4.0535286E-008 -3.9804151E-008 -3.0441913E-008 -5.9789545E-008 -7.3018627E-008 -1.0119794E-007 -1.0380016E-007 -7.2061822E-008 -3.1875413E-008 -5.8910072E-008 -5.8055971E-008 -4.4652369E-008 -4.6656613E-008 -1.1182978E-008 -3.6302011E-008 -3.5750308E-008 -3.0753135E-008 -2.6251567E-008 -4.5365253E-008 -4.5848858E-008 -4.5096970E-008 -8.3010936E-008 -8.7917467E-008 -4.1946456E-008 -7.7679561E-008 -7.5547189E-008 -1.8586457E-007 -1.6230794E-007 -1.6566779E-007 -9.6001758E-008 -6.5958834E-008 -9.0576888E-008 -8.8487116E-008 -6.4837702E-008 -9.2999167E-008 -5.3619476E-008 -8.4293009E-008 -8.1710503E-008 -4.6437548E-008 -7.8717459E-008 -4.5826149E-008 -1.8439798E-008 -1.4143938E-008 -3.5790725E-008 -6.8197627E-008 -1.9633342E-008 -4.6792023E-008 -1.2405969E-007 -1.3645039E-007 -8.7045728E-008 -9.3469062E-008 -1.1429658E-007 -1.1714869E-007 -7.8664519E-008 -1.3358526E-007 -1.0633104E-007 -4.8583482E-008 -9.1289680E-008 -9.1678891E-008 -4.8657261E-008 -1.0373829E-007 -5.1065747E-008 -3.8430917E-008 -9.4869925E-008 -3.3575257E-008 -6.5646156E-008 -3.7623096E-008 -7.2807024E-008 -4.3307792E-008 -9.7985525E-008 -1.9928252E-007 -4.6670204E-008 -1.2246590E-008 -2.5549064E-008 -2.8215861E-008 -4.8187772E-008 -1.1406570E-007 -1.0824848E-007 -1.1855487E-007 -2.2802708E-008 -1.1987225E-008 -3.8879280E-008 -7.9578558E-008 -6.5247373E-008 -5.5367938E-008 -4.7721549E-008 -2.5573827E-008 -5.4801784E-008 -5.0405490E-008 -1.0674625E-007 -5.3568315E-008 -1.1483613E-007 -2.3226671E-008 -1.6246003E-007 -1.5539400E-007 -1.5465250E-007 -3.9180579E-008 -2.9505654E-008 -4.5015716E-008 -2.1509325E-007 -1.6788850E-007 -5.0221570E-008 -2.2739592E-008 -4.3200193E-008 -2.2084738E-007 -2.0990738E-007 -1.3743809E-007 -2.1916604E-007 -1.8272399E-008 -1.8776500E-008 -4.6069312E-008 -3.5770408E-008 -5.7306653E-008 -6.1168552E-008 -1.1162714E-007 -1.1815909E-007 -3.8810079E-008 -9.5342671E-008 -4.4940962E-008 -1.0896006E-007 -2.2608262E-009 -3.1130764E-008 -4.9401030E-009 -5.5864399E-008 -3.6498991E-008 -1.6598309E-007 -8.9754778E-008 -6.6465991E-009 -2.1038282E-008 -2.0028565E-010 -3.5431380E-008 -8.8829940E-010 -5.0414681E-008 -6.3636594E-008 -4.6321243E-008 -2.6678939E-008 -1.5944521E-008 -5.0835723E-008 -3.4228362E-008 -9.8498174E-008 -3.0400668E-008 -1.0597616E-008 -2.8916498E-008 -2.3928880E-008 -3.9619620E-008 -1.6062950E-007 -1.5490845E-007 -1.7447734E-007 -3.8528627E-008 -7.8555200E-008 -6.1221402E-008 -4.7831234E-008 -3.8101667E-008 -1.7298922E-007 -1.6681867E-007 -9.8477383E-008 -5.1527192E-008 -6.8896435E-008 -1.1819120E-007 -9.4385919E-008 -7.5842716E-008 -1.0544360E-007 -1.0819228E-007 -1.0747925E-007 -3.1343401E-008 -2.3564524E-008 -1.9770955E-008 -9.3922049E-009 -3.7728697E-008 -1.9651998E-007 -3.3803070E-008 -1.5440294E-008 -1.4319481E-008 -2.8550978E-008 -3.5862267E-008  1.0175664E-009 -2.0391757E-008 -1.5613784E-007 -2.9835200E-008 -5.4564105E-009 -3.7633606E-008  5.0833719E-009 -4.9846070E-008 -7.2540945E-008 -1.7697228E-008 -3.1667423E-008 -3.4652613E-008 -1.6120585E-007 -9.6679661E-008 -9.8091958E-008 -4.3163578E-008 -1.6705954E-007 -1.3594953E-007 -1.4292664E-007 -8.2952650E-008 -5.8769691E-008 -3.7234908E-008 -7.6038726E-008 -9.0283747E-008 -5.1710622E-008 -6.4481112E-008 -7.2134903E-008 -1.1654418E-007 -1.9851866E-007  3.2088722E-008 -9.4424344E-009 -7.7784713E-008 -3.9118895E-010 -8.0139411E-010 -6.0993129E-008 -9.2284214E-008 -3.2035902E-009 -5.9651905E-008 -1.7608892E-007 -1.6278802E-007 -1.0720131E-007 -8.7942791E-008 -7.8551182E-008 -6.2140719E-008 -5.6106604E-008 -3.4308249E-008 -5.0955481E-008 -4.1232640E-008 -4.4636151E-008 -5.9673733E-008 -9.8852458E-008 -1.8321029E-007 -6.3391712E-008 -6.8231092E-008 -3.2748636E-008 -4.1055748E-008 -4.0869569E-008 -5.7827291E-008 -3.5458655E-008 -8.1927167E-008 -9.0149918E-008 -3.2877338E-008 -1.0121166E-007 -9.3763147E-008 -3.4215339E-008 -1.7471203E-007 -1.6103848E-007 -1.1496821E-007 -9.1219669E-008 -9.3237326E-008 -6.2439415E-008 -5.3058596E-008 -1.0904155E-007 -5.1046377E-008 -1.0597683E-007 -1.1999764E-007 -4.6741059E-008 -1.0765657E-008 -1.0196743E-007 -1.7398651E-007 -9.2705749E-008 -1.2449351E-007 -7.4139187E-008 -9.4960165E-008 -1.4348076E-007 -3.5922400E-008 -3.1672995E-008  7.1367915E-005  6.8908973E-005  9.6979511E-005  8.1729033E-005  7.5340829E-005  5.6007340E-005  6.4724598E-005  5.0529340E-005  8.9012082E-005  7.7117376E-005  7.5042866E-005  3.0149431E-005  1.3429619E-005  3.5322967E-005  2.4481620E-005  9.6101087E-005  5.8725901E-005  7.2269432E-005  8.8447314E-005  4.5994601E-005  3.9915528E-005  1.2229977E-005  2.0194076E-005  9.3126559E-005  9.3297992E-005  6.4154267E-005  7.7410014E-005  4.6540649E-005  8.2088608E-005  3.1923835E-006  7.1306762E-005  7.3386109E-005  7.7375010E-005  7.4660686E-005  8.1400079E-005  7.9548662E-005  8.1586577E-005  8.7111128E-005  7.3568077E-005  8.2203553E-005  8.3655327E-005  8.0145201E-005  9.1544246E-005  9.1430356E-005  5.6179457E-005  6.6674264E-005  6.9652679E-005  6.3894093E-005  7.8283471E-005  8.0389522E-005  9.6426621E-005  8.9125859E-005  8.8787483E-005  8.1634783E-005  7.5644042E-005  6.4712149E-005  6.1382458E-005  5.3924444E-005  6.7524912E-005  4.0859293E-005  3.3102416E-005  2.7812006E-005  2.6205706E-005  3.0669348E-005  4.2912036E-005  4.8983642E-005  4.5405925E-005  5.5513000E-005  5.1472099E-005  9.5101384E-005  8.5426308E-005  8.3368977E-005  5.2974972E-005  1.8883732E-005  1.8903279E-005  1.3966991E-005  9.4622605E-006  1.0034531E-005  8.0578624E-006  6.9098844E-005  1.6083764E-005  2.1505512E-005  3.3625424E-005  3.8156174E-005  4.1715999E-005  4.6942432E-005  2.9960158E-005  9.5237047E-005  8.8195757E-005  7.1625347E-005  9.1427061E-005  8.1039616E-005  7.2206160E-005  7.6059961E-005  7.1065490E-005  7.8940599E-005  7.6598551E-005  6.1213418E-005  8.3720198E-005  3.6744335E-005  3.7791445E-005  6.8859470E-005  7.5614167E-005  4.4067456E-006  5.5828806E-006  9.8604915E-005  8.6932514E-005  8.7670932E-005  2.5490149E-005  7.7501655E-005  6.3622888E-005  6.2927151E-005  7.2396387E-005  8.7826433E-005  5.6458935E-005  5.8787663E-005  9.9637593E-005  8.2789968E-005  4.9132580E-005  9.3233169E-005  4.5773828E-005  8.8288823E-005  7.5535782E-005  2.1984103E-005  2.4527614E-005  1.6366281E-005  5.3270186E-005  8.3365725E-005  8.5492071E-006  6.5842053E-006  3.9672762E-006  6.6529690E-005  7.9379131E-005  2.4792260E-006  7.7221464E-005  3.4887535E-005  7.8354912E-005  7.2827208E-005  7.2877259E-005  5.3726165E-005  8.7297471E-005  2.3938200E-005  8.6990245E-005  7.9852347E-005  6.0001221E-005  9.0118172E-005  8.3510919E-005  5.9071081E-005  4.1656339E-005  8.1927075E-005  1.4254195E-005  1.2500855E-004  1.4022821E-004  1.1335339E-004  1.2800481E-004  1.5684672E-004  1.5033444E-004  1.6049927E-004  1.3912308E-004  1.4754325E-004  1.6183007E-004  1.5636154E-004  1.6105813E-004  1.5999676E-004  1.5397739E-004  1.4369856E-004  1.3399869E-004  1.4581592E-004  1.6170590E-004  1.0353957E-004  1.6144470E-004  1.2128012E-004  1.5396160E-004  1.3341281E-004  1.5895160E-004  1.5103237E-004  1.5843187E-004  9.2689851E-005  1.1470237E-004  1.1356159E-004  9.0517784E-005  1.9416637E-007  2.1158423E-007  2.3993348E-007  2.7624925E-007  2.9285874E-007  3.0217163E-007  2.7986373E-007  1.1441526E-005  2.8043391E-007  3.6895602E-007  2.0163668E-007 -6.5989568E-007  9.8935725E-008  2.9698714E-006 -3.9204884E-007 -7.9907651E-007  7.2094139E-005  9.4212529E-005  2.5271888E-007  2.7661714E-007  2.2567186E-007 -4.4341421E-008  1.8069542E-005  1.6497789E-005 -1.1933916E-007 -1.1595028E-006 -2.6518086E-007  5.3072124E-007  5.9569006E-005  9.6703996E-007  3.1040666E-007  2.9605684E-007  2.9319113E-007  1.6959742E-007  1.9790490E-007 -1.9293335E-007 -1.7096600E-006  9.0007643E-007  7.7149259E-008  6.5316141E-005  1.3737231E-004  1.4614979E-004  1.4130932E-004  1.1615359E-004  1.2374692E-004  1.0056819E-004 -1.4352886E-007 -2.5854551E-008  1.9976820E-005  1.7507803E-005 -1.2195005E-006 -9.3130962E-007 -1.5098691E-007  3.0979711E-006  1.9823942E-007 -1.0321674E-006 -7.2526963E-007 -8.2944317E-007 -5.2886284E-007 -6.5556279E-007 -3.3982271E-007 -1.9749124E-007 -1.7691021E-008  2.0346556E-007 -4.5052825E-007  2.8415045E-005  7.0068983E-008  7.2245601E-008  3.5016641E-007  7.0774865E-007  6.3073384E-005  5.6499653E-005  5.5262805E-005  4.7952548E-005  4.7463109E-005  3.5641654E-005  3.2929178E-005  2.5188721E-005  5.9660485E-006 -2.3058396E-006  2.0328140E-007  1.7956179E-007  2.4860157E-007  2.3074718E-007 -1.2377856E-007  2.2835241E-005  1.7963125E-005  1.5991041E-005  1.2986718E-005  1.3681553E-005  1.0239860E-005  1.0278112E-005  7.9551544E-006  7.7345257E-006  6.1420277E-006  5.8394322E-006  4.7309007E-006  7.0361484E-006  4.4266861E-006  3.6410473E-006  3.4015217E-006  2.8084494E-006  2.6330940E-006  2.1681275E-006  1.9676176E-006  1.6597121E-006  1.5010201E-006  1.2711365E-006  1.1435337E-006  9.6980627E-007  5.8106536E-008  7.6446758E-007  1.3260667E-006  7.6944442E-008  1.0075541E-005  3.1042125E-005  4.1655133E-005  8.6723095E-007  6.1023602E-006  2.2747711E-006 -1.9268716E-006  1.1420878E-006  1.7149870E-006 -1.1324464E-007  1.1457469E-005  1.3241916E-005  7.3410665E-007  9.7289474E-006  7.9468150E-007  6.8717083E-005  1.3990437E-007  2.6833510E-005  9.5179270E-006  1.0381479E-005  6.5107387E-007  7.4528718E-007  5.9914119E-007  1.1190155E-006  1.9362444E-006 -6.6598518E-007 -5.1604668E-007  6.2710374E-007 -7.1034219E-007 -5.4090344E-007 -3.8154146E-007 -4.0800067E-007 -2.6887434E-007 -2.9922847E-007 -1.7304986E-007 -2.2392579E-007 -1.0044469E-007 -4.1218954E-007  2.2207399E-005 -1.1594089E-006 -6.7837915E-007  5.5393237E-007  6.1426769E-007  4.0056472E-006  3.7537255E-006  1.3576173E-006  3.2467232E-007  7.5736236E-007  7.0576701E-007 -1.0451016E-007  4.6957393E-007 -8.4120981E-007 -4.7675547E-007 -3.2058692E-007 -2.2681110E-007 -1.4264595E-006 -2.0235413E-006  2.4576293E-007 -8.2862987E-007  3.2953436E-008  1.3145098E-005 -2.5262940E-006  7.5105833E-006  7.7911189E-006  6.8578824E-006  1.0599272E-005  4.2568958E-008  7.5493549E-006  6.3791028E-005  4.4284225E-007 -1.4312703E-007 -2.2424728E-007  2.2067254E-006  3.2575071E-006  2.4384836E-006  3.9486015E-006 -7.8851049E-007  4.7388671E-005  4.7309304E-007  6.2539879E-007  3.5134682E-007  4.5051926E-007  4.8136209E-007  6.4986492E-007 -4.8006585E-008  6.2167944E-005  5.3635027E-006  4.8700186E-006 -9.4625504E-007 -9.8477038E-007 -1.6531480E-007 -2.1958467E-007 -2.7231768E-007 -2.5280334E-007 -2.1375869E-007 -3.0324926E-007 -2.3629457E-007 -2.0590492E-007 -1.8464439E-007 -1.7951859E-007 -1.8932492E-007 -1.6979900E-007 -1.6097850E-007  1.5443007E-005  1.4334667E-004  1.3328613E-004  7.8670790E-005  1.4243228E-004  2.3095528E-005  2.9796421E-005  6.2138776E-005  5.5591671E-005  1.1231033E-004  1.0567900E-004  1.0331235E-004  9.0718988E-005  9.8605642E-005  8.1498841E-005  8.8613028E-005  6.2032010E-005  5.6526259E-005  6.2304688E-005  1.3124388E-004  1.3154023E-004  1.2426785E-004  9.9625950E-006  1.2423824E-006  2.8187425E-006  4.0363195E-005  2.6480008E-007  4.2423913E-007  2.5685827E-007  2.9909699E-007  5.3175208E-007  2.2286198E-007  3.3615269E-007  6.1618060E-007  3.2190291E-007  5.8078660E-007  5.1980355E-008 -6.6016288E-008  1.2451028E-007  2.9091819E-007  5.2599008E-007  3.1030085E-007  3.2654325E-007  5.8992732E-007  3.4210859E-007  5.7494579E-007  3.3888535E-007  6.0050736E-007  2.2290878E-007  3.6198072E-007 -1.3128089E-007 -2.4859403E-008  4.4872466E-007  5.8843442E-007  3.7380795E-007  9.4354328E-005  1.4094956E-004  7.7238685E-005  1.1896534E-004  1.4408089E-004  9.5186100E-005  1.1336910E-004  8.5107457E-005  1.0019978E-004  1.3313625E-004  1.0577245E-004  9.2064761E-005  1.0643788E-004  4.0119284E-007  4.8567180E-007  3.5611252E-007  6.4578661E-007  2.5716784E-005  1.8937632E-005  5.5940571E-006  5.1623082E-006 -1.0960110E-006 -1.1429284E-006 -8.6757697E-007 -7.4893011E-007  2.4438326E-005 -1.7526234E-007 -1.5852560E-007 -1.9405181E-007  1.3093032E-005  1.3400561E-005 -1.2524692E-006 -1.3154056E-006  1.6081248E-007  3.5693684E-007  4.8489705E-007  7.8760529E-007  9.5924269E-007  1.5829525E-006  1.6864352E-006  2.5660040E-006  2.3959755E-006  1.6361771E-006  2.4652335E-006  3.8068552E-006  3.8243917E-006  2.1305985E-006  1.5073466E-006  4.5299739E-007  3.5620816E-008  6.0039614E-006  4.2638165E-006  8.5824743E-007  4.3064661E-007  3.1883945E-007  4.4935877E-008 -8.4474162E-007 -1.1850075E-006 -1.3600274E-006 -1.5014228E-006 -1.5483578E-006  5.4938433E-006 -2.3120425E-006  4.8941627E-006 -8.0731862E-007 -7.0348231E-007 -6.5149648E-007 -6.1326584E-007 -9.1610325E-007  3.7973168E-006  3.3344810E-006  4.3313038E-006  3.6957239E-006 -1.7873265E-007  5.2055532E-006  5.9524404E-006  8.5444861E-007  3.7617816E-006  6.3831133E-007 -2.1801441E-007 -6.4946456E-007 -5.6944528E-007 -5.3579824E-007 -4.9878781E-007 -4.6619688E-007 -4.3659964E-007 -4.6376662E-007 -4.0614482E-007 -5.9381166E-007 -1.1881349E-006 -3.2477061E-007  1.0909672E-006  5.0264671E-005  2.7603114E-007  3.7936796E-007  5.5611667E-005 -9.0451317E-008  1.4352230E-005  1.2912403E-005  4.0864515E-008  1.9255593E-005  1.6967136E-005  5.0917254E-006  3.6267302E-006  2.8541545E-006  2.4251589E-006  3.0093581E-006  2.0147372E-006  2.4582668E-006  1.6510616E-006  1.9818837E-006  1.3303325E-006  1.5795867E-006  1.0628962E-006  1.2483746E-006  8.3896608E-007  2.1916196E-006  3.4314430E-006  9.7960523E-007  6.5999644E-007  1.3551661E-006  3.9377961E-006  2.5509053E-006  8.4224346E-006  8.1618615E-007  3.4071147E-007  2.9740571E-006  2.5043862E-006  3.9256247E-007  2.9689308E-007  4.1838999E-005  5.8708125E-005 -1.9630351E-007 -2.1350513E-007 -5.4350433E-008  3.7280638E-005 -1.6920585E-006 -1.7409685E-006 -1.5762079E-006 -1.7709330E-006 -1.5943782E-006  6.8911083E-005  6.7861701E-006  1.1275687E-004  1.1633358E-004  1.3442535E-004  1.1430082E-004  1.2508761E-004  1.3613151E-004  6.5985644E-005  1.0589415E-004  1.0066161E-004  1.3014643E-004 -2.1499311E-007 -2.3259303E-007  7.2295874E-006 -1.9768603E-006 -1.9757110E-006 -1.7969969E-007  6.0866891E-007  1.0407529E-006  4.9392662E-007  1.9066445E-006  1.0589854E-006  1.3378326E-006  4.5568988E-006  2.0974445E-007  2.2696015E-007  2.6126212E-006  2.9969609E-005 -1.6538297E-007  7.8594146E-005 -3.8416267E-007 -3.5826477E-007 -3.6696006E-007 -3.3001414E-007 -3.1847049E-007 -2.9611495E-007  1.4842362E-006 -1.3362057E-006  2.2846696E-007  6.9857732E-006  6.7870432E-007  1.4042042E-005  1.0143460E-005 -2.8451740E-007 -1.6187621E-006  2.2043141E-006  1.8407554E-005  1.2722667E-005  1.1498830E-004  1.3781386E-004 -3.0336707E-007 -2.7478951E-007  2.2625544E-007  3.9104473E-007 -8.4041263E-007 -9.5745293E-007  7.3476149E-005  5.7956896E-005 -1.2598185E-006 -1.1147465E-006 -1.2184539E-006 -1.0214050E-006 -2.1403799E-006  6.1621930E-005 -3.2569145E-007  3.8438561E-005  3.9415432E-005  1.2577667E-004  1.0260954E-004  1.2613251E-004  1.1107709E-004 -1.0751811E-007  3.6251212E-005  2.0092057E-006  1.4754410E-006  2.8820896E-007  2.2927378E-007  2.7569148E-007 -5.9124905E-007 -4.4197417E-007  6.1060318E-006 -4.9385058E-007 -4.2923728E-007  2.7128355E-006 -2.1616729E-006  5.7614747E-006 -6.7364618E-007  2.2987805E-006 -2.3250377E-007  1.5981133E-007  2.0827912E-007  1.2589108E-007 -1.3174706E-006  2.8489542E-006 -1.8703745E-007  8.1815332E-008  7.2133131E-007  3.2468293E-007  9.5039907E-007  2.0362055E-005  6.1294669E-007  9.7317480E-007  4.4089104E-007  5.1956381E-007  6.4208018E-007  1.1284384E-006  1.2012882E-006  3.9737678E-007  6.5704704E-007  1.3504099E-007  2.3459984E-007  1.6980675E-007 -1.4323302E-006 -1.5304636E-006  1.6985257E-006  5.1592243E-005  5.2379844E-005  5.7011903E-005  4.1712732E-005 -6.1553450E-007 -5.4383723E-007  3.6164139E-006 -7.3833482E-007 -7.5218230E-007 -9.9026794E-007 -5.4432512E-007  5.1446198E-005  1.3969648E-006  9.5415735E-007  1.1980609E-006 -9.2538480E-007  1.1646278E-007 -1.4002783E-006 -2.3031591E-007  5.1428761E-007  2.3065527E-007  7.8654633E-007  9.4957749E-007  8.4287937E-006  2.5756309E-005  2.5634853E-005  1.6875228E-005  1.0611950E-005  8.3695654E-006 -1.6234558E-007 -1.4599672E-007 -1.4473207E-007 -1.3301522E-007 -1.3201944E-007 -1.2076231E-007 -1.5317901E-007 -1.3340981E-007 -1.4331997E-007 -1.2019237E-007 -1.0946403E-007 -1.3203929E-007  9.7555601E-005  5.8723615E-005  3.8536814E-005  3.6500992E-005  2.1425708E-005  2.1227157E-005 -1.4829560E-006  9.6050964E-006  6.0820091E-006  6.1638054E-007  1.0064046E-006  8.2330905E-006 -1.8293622E-006 -1.8891987E-006 -1.9966535E-006 -8.7919045E-007  1.0329878E-006 -5.2610650E-007 -4.8521207E-007 -4.3416532E-007 -3.3600873E-007 -3.7161806E-007  3.9049388E-007 -9.7010172E-008  2.0018281E-005  3.4151614E-006  2.6946316E-006  2.0795516E-006  7.2396675E-007  1.0670441E-006  1.5446048E-006  3.0877853E-006  7.9572374E-007  4.3440180E-005 -1.0358091E-007 -1.4081302E-007  4.1202120E-006  1.9240904E-006 -1.1979744E-007  8.7687880E-006 -1.6513062E-007 -1.3381919E-007 -1.4202808E-007 -1.4121362E-007 -1.4165773E-007  5.9808919E-005  1.1373061E-006  1.0798492E-006 -2.6870595E-007 -1.5935807E-006  6.1725917E-007  3.2367420E-007  2.1738328E-006  2.0420171E-006  2.5576885E-006 -1.1266479E-007 -2.1322803E-007 -2.5286122E-007 -3.7762320E-007  4.3569626E-007 -4.4628042E-007  2.1308812E-007 -1.6360327E-007  1.1776139E-006  1.8174809E-005  8.6828037E-007  1.4339554E-006  6.3850354E-007  9.7492061E-007 -2.7375392E-008  8.2148231E-008  6.4456859E-008  2.5675495E-007  2.3458650E-007  3.4401085E-006 -3.3780647E-007  4.2858844E-007  6.1601232E-007  5.1102252E-007  7.6290475E-007  5.7318952E-006  1.0557629E-006  1.3911154E-006  1.7871769E-006  1.7054193E-007  2.2103969E-007  7.6801703E-006  4.6233856E-006  1.5660650E-006  8.1867326E-007 -1.4883039E-007 -1.4747479E-007  1.8424405E-006  1.8627358E-005  9.5082052E-006  9.5317389E-006  4.8006550E-006  3.6825122E-006  2.9124987E-006  2.7556468E-006  4.0039224E-006  2.6682277E-006  2.4418639E-006  1.5125149E-006  8.3020432E-006  5.6410898E-006  5.2436631E-006  1.4349125E-005  5.2259179E-006  3.7447847E-006  6.5056409E-006  3.2742000E-006  6.7003421E-006  1.6546746E-006  4.2158757E-006  1.0740591E-006  1.7417478E-007  1.2039971E-007  5.6781835E-008  1.0210755E-007  6.7758214E-008  1.3611300E-007  1.8139239E-007  2.3632807E-007  1.5038622E-007  1.2707538E-007  2.0282308E-008  5.2927098E-008  8.8068435E-008  1.0401383E-007  1.5831585E-007  3.3977251E-007  3.4756142E-007  5.4774296E-007  8.0147386E-007  4.5511906E-008  2.3468362E-008  4.7956031E-007  8.2459825E-007  5.2481571E-008  1.0422722E-006  3.3753873E-007  3.9823070E-007  3.1505104E-007  3.4178547E-007  2.5176920E-007  1.7582702E-006  2.9266118E-006 -5.4264713E-007  1.7292445E-006  1.3030700E-006  2.2903764E-006 -1.9545581E-007 -3.5476872E-007 -9.3439042E-007 -1.0399360E-006 -1.0799278E-006 -2.9031916E-007 -1.2883419E-006 -1.5579802E-006 -1.7632928E-007 -1.8726766E-006 -1.3676575E-007 -2.4265972E-006 -2.1738768E-006 -1.0171829E-007 -1.2490222E-007 -2.6079810E-006  2.9832086E-007  9.8912558E-007 -2.0905203E-006 -1.7182054E-006  1.2661075E-007  5.2844617E-005  4.0784106E-005  1.1129379E-004  8.0647166E-005  7.1603003E-005  1.2663603E-004  1.1225958E-004  1.1442959E-004  8.8965043E-005 -2.5143622E-007  1.2552214E-007  4.3628589E-007  3.8108572E-007  3.6928221E-006  2.4666674E-005  7.3958435E-008 -1.7937961E-007  4.6317476E-005  7.6211928E-008  3.8305221E-007 -2.1225213E-006  8.2019586E-006  9.4692179E-008  2.4688511E-007 -7.4920422E-007 -1.7921107E-006  1.4478392E-005  2.1090788E-005  6.3017899E-007 -6.6085360E-007 -2.3757065E-006  2.6767191E-007 -3.4493868E-007  1.7508440E-007 -6.6919319E-007  3.1534291E-007  1.0270608E-005  2.3566266E-008  3.7326594E-007 -7.8986019E-007  2.2156793E-006  2.4590146E-006  2.3617031E-008  6.3042424E-005  1.0297132E-004  7.2177664E-006 -4.0897034E-007 -2.5024566E-006 -8.6585098E-008 -1.3324492E-007 -2.0924015E-007  7.7623067E-008  2.2808006E-005  2.9722525E-005  2.2091691E-006 -5.6786772E-007  6.1124848E-007  4.8192761E-007  3.1926160E-007  7.0441750E-008 -2.8775766E-007  9.9959847E-006  4.1466122E-007  7.4301481E-007  6.1040158E-007  1.1275749E-006  5.0663853E-007  6.7503857E-007  7.2413446E-007  1.8172806E-007  6.2735115E-007  1.1659177E-006  5.0818205E-007  5.4336536E-007  9.5035168E-007  1.2351196E-004  1.2858805E-004  1.2833592E-004  1.5919100E-006 -1.3940189E-006  1.4273585E-005 -1.5444578E-007 -1.7127038E-006 -2.7015713E-007  2.7060732E-005  2.6872073E-007 -5.1166966E-007 -8.8011835E-007  6.3939798E-008  1.0071137E-007  1.7317544E-006 -1.0136133E-006 -3.5575556E-007  3.7282277E-005 -2.8114170E-007 -1.4124994E-006 -3.8457031E-007  1.4507542E-005  1.9071373E-005  1.4772075E-007 -1.1031954E-007  6.1835573E-005  9.0019920E-005  8.1421157E-005  8.8646431E-005  1.0862714E-004 -1.4514298E-007  8.6301313E-008  3.6554064E-007  7.7019706E-005 -1.2821312E-007 -1.8429956E-007  1.3833399E-005  6.6073955E-007 -5.9833339E-007  7.6035808E-007  2.6970180E-007  9.5986964E-008  2.2711385E-007 -1.8052403E-006 -2.0640649E-007  4.4782491E-006 -2.5179649E-007  1.7483318E-006 -1.2454336E-007 -2.4371369E-007 -1.3032332E-007  6.1253164E-008 -1.0122007E-006  1.2538074E-006  8.1339359E-006  5.5219660E-007 -1.4899790E-007 -3.5063967E-007 -3.0301194E-007  1.2976834E-007  6.3492714E-006 -1.9924608E-006  4.3748828E-006  1.0315025E-004  3.8239822E-007  5.1534447E-007 -8.5715067E-007 -1.1946462E-006 -4.7540194E-009 -4.0806128E-007  1.5771926E-006  3.0911613E-007  1.3749810E-006  3.9842018E-005 -1.2043091E-007  1.1390874E-005  8.8951779E-005 -4.3087960E-007 -2.3276493E-006  1.4698223E-004  6.8603880E-005  1.2790496E-004  1.4174415E-004  6.2066890E-005  5.8481447E-005  6.5698044E-005  6.3099948E-005  3.1912269E-005  4.7565460E-005  1.1090289E-004  1.9799836E-005  1.8548370E-005  1.0443707E-004  1.1433983E-004  8.7094044E-005  6.1689696E-005  7.8497222E-005  9.9523510E-005  3.7870549E-005  3.5796829E-005  9.2466055E-005  8.9077437E-005  1.3763076E-004  1.3699585E-004  1.4367936E-004  1.3886944E-004  1.4397880E-004  1.1853555E-004  1.3550818E-004  1.4212207E-004  1.2542456E-004  1.1009408E-004  1.1593908E-004  2.2679508E-005  7.0321572E-005  1.3371109E-007 -3.1192263E-007 -5.8986188E-007  6.8701936E-006  9.2762742E-006 -1.6327992E-007  1.6255763E-005  1.2135807E-004  1.2566716E-004  1.3185860E-004  1.0559929E-004  9.4892369E-006  4.6907110E-006  1.7028629E-006  6.3967603E-005  1.6530776E-006  1.5242044E-008  4.1960068E-007  2.2327076E-005  8.2160149E-007  3.8436065E-007 -3.8538981E-007 -9.9265270E-008  7.9639837E-008  3.3315766E-008  2.5320658E-005  2.7640905E-007  1.9140549E-007  2.2317207E-007  1.7209521E-007  2.1975282E-007  2.7318462E-007 -3.1910356E-008  2.2754062E-007  1.6360889E-007  1.8142780E-007  2.5994734E-007  2.8323115E-007  2.6223294E-007  2.3035114E-007  2.6204527E-007  2.4465277E-007  2.7756828E-007  2.4153671E-007  1.9339582E-007  3.0271799E-007 -1.0480373E-007  2.5122989E-007  6.1838494E-008  2.0579108E-007  1.3694062E-007  2.6904782E-007  6.6327087E-008  8.3600008E-008  1.1978277E-007 -2.2078329E-006  1.5377764E-006  4.5722041E-005  1.5101412E-006 -3.9606829E-007 -1.1050761E-006  8.4178864E-009  1.5307967E-007  1.7561628E-007 -1.6078917E-007 -1.4113792E-006  1.4695840E-007  5.9755405E-007 -8.0727172E-008  1.9970899E-007 -1.2596565E-006  6.2407231E-005  1.3841865E-006 -1.1062957E-007  3.5712814E-005  8.0698081E-007  8.3038145E-007  1.1483871E-006 -3.9651957E-008  3.1928984E-006 -1.0889764E-007 -4.4447663E-007  1.2585918E-007  9.6285094E-009  4.9540410E-006  4.0850851E-007  1.8807314E-006 -2.1930856E-006  6.6618020E-006  8.2009991E-007  3.1123588E-007  1.0177342E-007  9.6261001E-007 -1.4054138E-007 -6.5093908E-008 -3.4263429E-007  5.0657091E-008 -5.0069281E-007 -6.9073730E-007  2.5574077E-006  7.0485206E-007 -3.7629517E-007 -1.3257078E-006  1.2914483E-004  1.2306255E-004  1.0046895E-004  1.1507637E-004  7.9744316E-005 -2.6605735E-006 -1.0732721E-006  7.8428394E-005 -1.2175289E-007  7.4572416E-006  5.0682596E-007  1.4157010E-007 -1.5719460E-007  5.6544286E-007  1.2304640E-006  1.2239770E-004 -8.0488440E-007  2.1119869E-005  1.4167504E-008 -8.1351883E-007 -2.2655947E-007  6.2909986E-005  5.7056069E-005  5.6843577E-008  3.5060086E-006 -2.4654378E-007  8.0417162E-005 -3.4093262E-007  7.3610807E-006  4.5185501E-006 -1.5170385E-007 -9.9687969E-008  6.0844332E-005
        </DataArray>
        <DataArray type="Float64" Name="potential im" NumberOfComponents="1" format="ascii">
 -3.8569829E-006 -5.3156702E-006 -1.6388157E-005 -2.5174182E-005  2.1760083E-008 -1.2640988E-007 -6.5978212E-011  3.3964791E-009 -8.3872396E-006 -9.1443146E-006 -6.5995889E-006 -6.7756742E-006 -7.3373981E-006 -7.8116122E-006 -2.5550867E-026 -5.7575558E-027 -5.7575601E-027 -2.5086677E-026 -4.0181215E-011 -8.5691662E-006  2.9881102E-012 -5.0855977E-009 -1.6981328E-005 -1.7300606E-005 -1.7320109E-005 -1.7088274E-005 -1.6622094E-005 -1.5974034E-005 -1.5169614E-005 -1.4204092E-005 -1.3094048E-005 -1.1875582E-005 -1.0545624E-005 -9.3419786E-006 -8.3262442E-006 -7.4443682E-006 -6.6642433E-006 -5.9628407E-006 -2.6958916E-005 -2.7687898E-005 -2.7684880E-005 -2.7146787E-005 -2.6233467E-005 -2.5040990E-005 -2.3726264E-005 -2.2359035E-005 -2.0920048E-005 -1.9459571E-005 -1.7936815E-005  5.9064913E-009 -1.1381257E-008 -3.0739997E-008 -5.1540579E-008 -7.5008002E-008 -1.0094931E-007 -1.3085291E-007 -1.6501287E-007 -1.9996557E-007 -2.3064612E-007 -2.6044424E-007 -2.8767605E-007 -3.1234769E-007 -3.3380822E-007 -3.5304266E-007 -3.6747972E-007 -3.8342580E-007 -3.9584127E-007 -4.0500943E-007 -4.1247050E-007 -4.1603379E-007 -4.2318480E-007 -4.2598061E-007 -4.2952098E-007 -4.3094516E-007 -4.3035832E-007 -4.3004006E-007 -4.2733761E-007 -4.2447714E-007 -4.1973679E-007 -4.1924055E-007 -4.1246206E-007 -4.0879521E-007 -4.0464384E-007 -3.9966239E-007 -3.9450565E-007 -3.8728556E-007 -3.8259441E-007 -3.7763956E-007 -3.7221913E-007 -3.6486228E-007 -3.5972073E-007 -3.5449251E-007 -3.4862027E-007 -3.4097668E-007 -3.3528877E-007 -3.2964518E-007 -3.2365735E-007 -3.1611563E-007 -3.1003560E-007 -3.0383272E-007 -2.9744315E-007 -2.9009128E-007 -2.8420027E-007 -2.7844472E-007 -2.7282082E-007 -2.6653109E-007 -2.6149407E-007 -2.5621461E-007 -2.5028630E-007 -2.4560488E-007 -2.3965455E-007 -2.3478952E-007 -2.3009949E-007 -2.2510146E-007 -2.2039308E-007 -2.1517778E-007 -2.1040786E-007 -2.0618327E-007 -2.0203892E-007 -1.9815987E-007 -1.9361623E-007 -1.8966229E-007 -1.8587931E-007 -1.8218346E-007 -1.7850379E-007 -1.7431065E-007 -1.7058040E-007 -1.6697616E-007 -1.6312023E-007 -1.5965778E-007 -1.5638254E-007 -1.5263729E-007 -1.4949256E-007 -1.4711264E-007 -1.4438401E-007 -1.4154130E-007 -1.3904255E-007 -1.3661026E-007 -1.3407761E-007 -1.3143127E-007 -1.2873604E-007 -1.2719623E-007 -1.2624823E-007 -1.2529826E-007 -1.2508148E-007 -1.2684051E-007 -1.3081215E-007 -1.3352302E-007 -1.0034625E-007 -6.2922964E-008 -2.8575164E-008 -1.3915090E-006 -2.7520288E-006 -4.1290003E-006 -5.4994909E-006 -6.8569403E-006 -8.2130511E-006 -9.5486625E-006 -1.0846312E-005 -1.2122825E-005 -1.3359965E-005 -1.4542593E-005 -1.5638685E-005 -1.6657579E-005 -1.7575649E-005 -1.8357885E-005 -1.8991559E-005 -1.9488958E-005 -1.9796645E-005 -1.9915514E-005 -1.9832231E-005 -1.9534872E-005 -1.9053066E-005 -1.8387704E-005 -1.7579931E-005 -1.6675510E-005 -1.5758207E-005 -1.4802624E-005 -1.3899725E-005 -1.3029647E-005 -1.2207953E-005 -1.1442600E-005 -1.0732928E-005 -1.0078032E-005 -9.4736132E-006 -8.9063861E-006 -8.6129273E-006 -8.8170716E-006 -8.9968958E-006 -7.3078431E-006 -7.9859781E-006 -8.6117718E-006 -9.1794236E-006 -9.6981943E-006 -1.0156799E-005 -1.0547037E-005 -1.0872225E-005 -1.1118717E-005 -1.1290561E-005 -1.1385542E-005 -1.1410165E-005 -1.1357141E-005 -1.1238586E-005 -1.1068770E-005 -1.0839788E-005 -1.0564967E-005 -1.0257490E-005 -9.9227595E-006 -9.5769133E-006 -9.2151160E-006 -8.8475878E-006 -8.4867294E-006 -8.1259989E-006 -7.7694471E-006 -7.4230378E-006 -7.0945581E-006 -7.0563546E-006 -7.7185094E-006 -8.1203562E-006 -8.5467643E-006 -8.9858721E-006 -9.4503799E-006 -9.9196713E-006 -1.0400039E-005 -1.0887536E-005 -1.1368518E-005 -1.1835132E-005 -1.2277642E-005 -1.2681903E-005 -1.3019033E-005 -1.3300040E-005 -1.3502147E-005 -1.3608335E-005 -1.3610581E-005 -1.3519668E-005 -1.3330710E-005 -1.3035204E-005 -1.2646841E-005 -1.2168264E-005 -1.1609977E-005 -1.0969151E-005 -1.0252065E-005 -9.4976786E-006 -8.6830917E-006 -7.1877279E-006 -9.7832277E-006 -1.0488453E-005 -1.1266441E-005 -1.2133415E-005 -1.3103876E-005 -1.4188919E-005 -1.5413187E-005 -1.6820768E-005 -1.8437215E-005 -2.0312462E-005 -2.2505629E-005 -4.0689316E-006 -4.2678653E-006 -4.4547425E-006 -4.6381368E-006 -4.8155596E-006 -4.9879837E-006 -5.1552005E-006 -3.2791562E-006 -2.7602513E-006 -2.3010605E-006 -1.8995432E-006 -1.5530909E-006 -1.2576137E-006 -1.0101142E-006 -8.0409338E-007 -6.3495405E-007 -4.9728019E-007 -3.8919274E-007 -3.0416286E-007 -2.3891350E-007 -1.8923364E-007 -1.5284126E-007 -1.2737470E-007 -1.0904550E-007 -9.6895878E-008 -9.0042198E-008 -8.5580083E-008 -8.3395306E-008 -8.2898401E-008 -8.2323793E-008 -8.2129553E-008 -8.1720845E-008 -8.0458615E-008 -7.8611504E-008 -7.6227736E-008 -7.2253401E-008 -6.7908524E-008 -6.2400643E-008 -5.6002725E-008 -4.8950624E-008 -4.1076225E-008 -3.2314450E-008 -2.2773523E-008 -1.2928103E-008 -1.9923646E-009  9.5525699E-009 -1.0508838E-008 -1.5919381E-008 -3.7636441E-008 -1.4046201E-008 -5.3888910E-008  2.2164885E-009  9.0943787E-009  1.8995895E-008  2.7471572E-008 -1.4130656E-026 -1.0662690E-026 -8.7355679E-027 -7.5624384E-027 -6.8615233E-027 -6.1035978E-027 -5.8636072E-027 -5.4042567E-027 -5.1259080E-027 -4.8661801E-027 -4.6447550E-027 -4.4310011E-027 -4.2647277E-027 -4.0424667E-027 -3.8805187E-027 -3.9208192E-027 -3.9138480E-027 -3.8813295E-027 -3.8903663E-027 -3.9283879E-027 -3.8192978E-027 -3.8252194E-027 -3.9630335E-027 -3.9778454E-027 -3.9791179E-027 -3.9802812E-027 -3.9817114E-027 -3.9823622E-027 -3.9846067E-027 -3.9842637E-027 -3.9843107E-027 -3.9830982E-027 -3.9834746E-027 -3.9835700E-027 -3.9845044E-027 -3.9847186E-027 -3.9839793E-027 -3.8922508E-027  2.5735908E-010  7.3248075E-013  3.8642442E-011 -3.1045343E-010  1.2436302E-010  8.0970969E-011  5.1112305E-010  2.0362592E-009 -1.2583076E-009 -7.3345319E-010 -3.6904310E-009 -1.8199583E-009  1.2955372E-010 -1.3064523E-011 -2.8961280E-010 -1.7894949E-010 -1.8181311E-010 -3.9837163E-027 -4.2733456E-027 -4.4493017E-027 -4.6517003E-027 -4.8467147E-027 -5.1149931E-027 -5.4374121E-027 -5.8214290E-027 -6.1179834E-027 -6.7610191E-027 -7.6410131E-027 -8.8471022E-027 -1.0726211E-026 -1.4366740E-026 -8.0971258E-008 -1.6212160E-007 -2.4332645E-007 -3.2446787E-007 -4.0596797E-007 -4.8716583E-007 -5.6876201E-007 -6.4999701E-007 -7.3096821E-007 -8.1179867E-007 -8.9297076E-007 -9.7424761E-007 -1.0546858E-006 -1.1355378E-006 -1.2153160E-006 -1.2948427E-006 -1.3751243E-006 -1.4538762E-006 -1.5330611E-006 -1.6111340E-006 -1.6894076E-006 -1.7668842E-006 -1.8437424E-006 -1.9215983E-006 -1.9986721E-006 -2.0768481E-006 -2.1542410E-006 -2.2342153E-006 -2.3152031E-006 -2.3997061E-006 -2.4878928E-006 -2.5817117E-006 -2.6825173E-006 -2.7927583E-006 -2.9134418E-006 -3.0485246E-006 -3.2014690E-006 -3.3744590E-006 -3.5717805E-006 -3.7994122E-006 -4.0607827E-006 -4.3592210E-006 -4.7013512E-006 -5.0904518E-006 -5.5337580E-006 -6.0314381E-006 -6.5860986E-006 -7.1984172E-006 -7.8643705E-006 -7.8709232E-006 -7.2007339E-006 -6.5732643E-006 -5.9978397E-006 -5.4789694E-006 -5.0136797E-006 -4.6054078E-006 -4.2521838E-006 -3.9533905E-006 -3.7066468E-006 -3.5096518E-006 -3.3619559E-006 -3.2612076E-006 -3.2073665E-006 -3.1998579E-006 -3.2381609E-006 -3.3232610E-006 -3.4560485E-006 -3.6351313E-006  3.1459909E-008  3.6996049E-008  3.8456635E-008  3.6992014E-008  3.3228800E-008  2.7936479E-008  2.1634114E-008  1.4704883E-008  7.4267756E-009 -1.4513525E-011 -3.3222152E-012  3.9072203E-012  1.2766594E-011  8.5198119E-011  1.7788910E-010  4.3809666E-010  1.0770642E-010  1.8076293E-010 -7.3059673E-011  2.4813561E-010  3.3712525E-010 -7.5546838E-010 -6.9864290E-010  7.6120591E-010 -9.2999763E-012 -3.9823645E-010 -1.2293396E-010  1.3381164E-011  1.0887145E-009  4.1188497E-009  1.4915354E-009  4.1683658E-009  5.4257148E-009  2.3057398E-009 -5.5520647E-009 -1.7508840E-006 -3.5019257E-006 -5.2648498E-006 -7.0491475E-006 -8.8497678E-006 -1.0677423E-005 -1.2558901E-005 -1.4449155E-005 -1.6361587E-005 -1.8273457E-005 -2.0159433E-005 -2.1994876E-005 -2.3748736E-005 -2.5380117E-005 -2.6867914E-005 -2.8153326E-005 -2.9215184E-005 -3.0006457E-005 -3.0470141E-005 -3.0551320E-005 -3.0180001E-005 -2.9233681E-005 -2.7598940E-005 -3.3655045E-011  1.0252996E-009  6.8391204E-010  7.9285361E-010  7.3055460E-010  1.0476837E-009  1.0716484E-009  1.1418413E-009  1.0774426E-009  1.0077938E-009  1.1142007E-009  1.2856015E-009  8.7587692E-010  8.9275707E-010  1.3549395E-009  1.3194330E-009  1.3255690E-009  1.3425622E-009  1.2980600E-009  1.4064656E-009  1.1500360E-009  5.7963864E-010  1.0500633E-009  1.6000905E-009  1.4588204E-009  1.5067282E-009  1.3467420E-009  7.1395580E-010  1.0601221E-009  1.5861072E-009  1.6531153E-009  1.7611061E-009  1.6737772E-009  1.6049915E-009  1.8635437E-009  1.3625663E-009  8.6568451E-010  1.6755510E-009  1.9881678E-009  1.7997939E-009  1.8883157E-009  2.3868860E-009  2.4779556E-009  2.2884222E-009  1.6343065E-009  1.5961913E-009  2.2533164E-009  2.2517009E-009  2.5587802E-009  1.7915430E-009  1.8010445E-009  2.7416841E-009  2.4857609E-009  2.4069265E-009  1.7478552E-009  1.9396690E-009  2.9357752E-009  2.6588885E-009  2.7064301E-009  2.0206218E-009  2.0463725E-009  2.9403845E-009  2.5674243E-009  2.6102142E-009  2.9049991E-009  2.1496895E-009  2.1493044E-009  3.2938844E-009  2.8666727E-009  2.6332023E-009  2.8468608E-009  3.0930407E-009  3.2074611E-009  2.2083041E-009  1.8957063E-009  2.8158486E-009  2.7681171E-009  2.6595536E-009  2.4118731E-009  2.5232448E-009  2.4597480E-009  2.4558117E-009  1.7221828E-009  1.6674455E-009  2.3654074E-009  1.8928112E-009  1.6009109E-009  1.5726846E-009  1.5134685E-009  1.3009606E-009  9.5129994E-010  8.4692854E-010  2.4982877E-010  4.8559292E-011  1.5987591E-011 -3.6110996E-012  7.7886235E-012  2.1754529E-012  7.1004061E-012 -2.8566148E-009  5.1664380E-010  8.0608234E-009 -2.0953525E-006 -1.2568507E-006 -1.6388718E-006  2.5296479E-008 -9.5742763E-007 -2.9880368E-006  3.2662772E-008  4.6266124E-008 -6.1780074E-009  6.7888964E-010 -2.8490947E-006  6.6119686E-008 -2.3723719E-006 -2.6734388E-007 -6.5114485E-007 -4.1501600E-006  6.2302622E-009 -4.0146324E-006 -2.4762208E-006  1.2224913E-008 -4.5646438E-007 -7.2521816E-007 -8.3816613E-009 -1.8423945E-006  4.2218991E-008 -1.4200315E-006  3.1597826E-008 -1.9773302E-008 -5.5146247E-006  9.5379849E-009 -1.7520268E-006 -5.5254917E-006 -2.4251446E-007  6.1810417E-008  4.4228551E-009 -3.3285515E-006  6.4743752E-008 -2.5576732E-006 -2.6006466E-006 -7.7859884E-008 -3.4993142E-006 -7.9096870E-007 -1.0372145E-006  1.5903615E-008 -2.7082729E-006 -2.2394265E-006 -1.7565154E-006  1.8673729E-008 -5.4592813E-008  7.5238945E-009 -6.8477708E-006 -2.7402268E-006 -1.0563356E-007  1.1898533E-008  2.1670525E-008 -2.0117715E-009  1.4769556E-008  3.7512389E-008  3.9636604E-008 -8.1385430E-009  1.9202025E-008  5.9297561E-008  4.6861396E-008  8.0153607E-008  7.5880024E-008  1.5162580E-008  5.4443953E-008  1.0410018E-007  1.0765912E-007  8.3497980E-010  6.6356195E-008  1.4591519E-007  1.2959405E-007  1.9470494E-007  1.9903415E-007  8.3336122E-008  1.7804206E-007  2.6880314E-007  2.7459542E-007  3.3896021E-007  3.7933105E-007  2.4996590E-007  3.6903000E-007  4.8314510E-007  5.3552427E-007  3.5431237E-007  5.4362758E-007  6.8370740E-007  7.1543107E-007  8.0236082E-007  8.5208245E-007  6.5720790E-007  7.9567405E-007  9.2829775E-007  8.4712518E-007  5.7400650E-007  5.7596419E-007  7.6413348E-007 -1.5748987E-008 -1.1037396E-007  2.4924713E-007  1.2203756E-007  6.9711116E-008 -5.5209104E-008  4.9274820E-008  1.5106105E-007 -7.4252239E-008  1.6924976E-007  7.4866331E-008  8.7659210E-008 -4.4367938E-007  7.0175115E-007  7.6316836E-007  1.8921189E-007 -6.2020411E-007 -2.2678013E-007 -2.6307986E-007 -3.5945821E-007 -1.2039572E-006 -1.5004331E-007 -1.4336798E-007  7.4190219E-008 -4.0091706E-007  1.5522164E-007 -1.6914253E-007  8.0454555E-008 -1.4488356E-006 -2.0710494E-006 -1.1336410E-006  6.3427768E-007  1.5808275E-007 -9.4151940E-008 -1.6250557E-007  6.4360317E-007 -5.4053397E-007 -4.5428627E-007  2.8855168E-007  3.3096572E-007  2.6307745E-007  2.8059168E-007  5.9200899E-007 -2.4180597E-006 -6.3662194E-007 -4.6051049E-007  1.4434503E-007  1.2222146E-007  1.1872415E-007  9.4186645E-008 -2.4826841E-007 -2.3385893E-007  6.6189534E-008 -1.5925837E-007 -5.5130854E-007 -1.9337323E-006 -3.4959607E-007  5.0235794E-007  4.8017685E-007  3.5458496E-007  2.8557122E-007 -6.0853115E-007 -4.2247933E-007  6.2715342E-008  5.6532520E-008  8.0250206E-008  7.6171208E-007 -3.0620972E-006  6.1049617E-007  7.2458318E-007 -7.2904983E-007 -7.5978103E-007 -2.8485946E-006 -9.1759626E-007 -8.3484129E-007 -2.7350346E-007 -6.1487880E-007  2.0712607E-007  2.0009860E-007  5.3681971E-007  6.4135105E-007 -1.0119376E-007 -1.5474979E-007 -7.2879171E-007 -5.5699289E-007 -3.2546847E-007 -4.1481358E-007 -6.4237290E-007 -4.9566477E-007 -6.4827997E-007  5.3481932E-008  4.7677800E-008  5.5740925E-008  4.5361903E-008  3.9692396E-008  4.0071399E-008  3.1887174E-008  9.1725460E-008  9.3271851E-008 -3.6967833E-007  1.1064559E-007  3.0956234E-008 -1.1052100E-007 -4.5811489E-007 -1.0221322E-006 -9.0215893E-007 -3.5034386E-007 -3.4299224E-007 -2.2033019E-007 -3.2885929E-007 -3.5756488E-007 -1.9564629E-007 -3.0196698E-007 -4.6329712E-007  6.7495543E-008 -1.6108658E-007  3.7716091E-007  3.7085388E-007  4.3795494E-007 -2.2954303E-007 -1.0963602E-006  8.5542096E-008 -9.6710344E-007 -3.0072612E-007  4.8230311E-007  5.9951083E-008 -3.4450137E-006 -4.0956950E-006 -4.2944056E-007  2.0368871E-007  8.1022252E-007  7.1846986E-007  4.9775831E-007  5.5210606E-007  7.6743648E-007  5.4112096E-007  3.1111001E-007  2.4776800E-007  4.2958611E-007  7.5971690E-008  2.1700441E-007 -2.8912413E-007 -1.7080061E-007 -3.9870073E-007 -7.9437671E-007 -9.3232009E-007 -6.3919621E-007  1.9717432E-009  2.5492371E-007 -2.0407984E-007 -7.0124261E-007 -8.1456094E-007  1.1971953E-008 -7.2331490E-007  3.6769919E-007 -4.7133521E-007 -1.3628618E-006 -1.2841345E-006  3.8967628E-008  5.5543134E-008 -1.1378908E-006 -9.4673914E-008 -5.8481754E-008 -1.3690245E-007 -9.2673437E-007  1.4244454E-007  1.4426277E-007 -9.2493935E-007 -1.5072120E-006 -1.4132162E-006 -8.2479779E-007 -1.3714689E-006 -8.1244271E-007 -1.4082950E-006  1.8034327E-007 -1.5098541E-006 -1.0144869E-006 -1.0914607E-006 -6.0764121E-007  1.0364969E-007 -1.2491034E-007  7.5445678E-008 -1.3412526E-006 -6.3922102E-007  2.3182341E-008  2.3608331E-008  2.6720353E-007  2.6612295E-007  1.4157266E-007 -1.9983275E-006 -2.1711782E-006  2.7542907E-008 -1.4250535E-006 -1.2537533E-006 -1.5121013E-006 -1.0312079E-006 -1.7824848E-006 -1.3719188E-006  5.4543931E-008 -1.0020425E-006 -8.8679272E-007  1.2924302E-008 -4.2568129E-008 -6.4194821E-008 -8.0801505E-008  7.6760444E-008  9.4991936E-008 -4.8669635E-007 -2.0154067E-006 -5.8908352E-007 -5.0045893E-007  2.4397340E-007 -1.6514140E-006 -1.1898173E-006 -1.7757284E-006 -7.8974034E-007 -1.5484165E-007  1.1966169E-007  7.3507128E-008  1.1026766E-007  5.0721088E-008 -8.2646232E-007  5.9782466E-007 -4.9177220E-007 -4.5575719E-007 -3.4145476E-007  1.4624564E-007  4.2363762E-007  3.0260146E-007 -2.0558374E-007 -2.9209478E-007  4.8199057E-008  4.7512548E-008  5.5447473E-008  6.7649562E-008 -1.3704349E-008 -1.4036171E-006  4.2176234E-008  2.2515843E-007  3.0451545E-007  2.2618073E-007  3.8478795E-007 -8.5674051E-007 -1.2713285E-006  4.7821578E-008  3.5991860E-008 -2.9134748E-006 -3.8982414E-006 -2.5919427E-006 -3.0626069E-007  2.1018594E-007  1.9549409E-007  6.4152205E-008  1.0087776E-007  4.8677247E-007  3.4484140E-007  1.4534520E-007 -9.6610716E-007 -8.8220685E-007 -1.9435772E-006 -2.7821184E-006 -3.6410575E-006 -2.0121445E-006 -2.9252648E-006 -6.8747776E-007  8.8380651E-007  3.8207843E-008  3.2537020E-008  3.6326275E-008  3.6139126E-007 -6.7471467E-007 -3.7844426E-006 -5.1781948E-007 -9.0945800E-007 -1.2193410E-006 -2.1441389E-006  4.1009016E-007 -2.1365351E-006 -4.9562289E-006 -5.2358933E-006  2.6068215E-008 -2.4490974E-007 -1.9841110E-006 -2.8839907E-008 -5.2881093E-007  2.3802009E-007  9.5820030E-008  5.0141818E-008  3.6171122E-008 -2.1105819E-006 -1.7387602E-006 -3.9795568E-007 -2.0794940E-007  4.0448700E-008  4.3390928E-007 -1.2438849E-006 -1.4428372E-006 -9.5551716E-007 -1.1187892E-007  2.8961991E-007  3.6093885E-007  5.8210084E-009 -2.2223609E-006 -2.7206791E-006 -1.1485115E-006 -1.8847082E-006 -1.3275513E-006 -4.8567383E-009 -1.4910018E-008  1.3940554E-008  6.6264841E-009  1.4817563E-008  9.1031261E-007  7.6025802E-007 -6.2538366E-007 -2.0146662E-007 -8.3269920E-008  8.2964439E-009  1.1387279E-007  1.0572269E-007  1.6095566E-007 -4.5289588E-006 -4.5049352E-006 -4.5767283E-006 -6.1546486E-006  4.8531350E-007 -1.3849200E-006 -1.5525693E-006 -1.4857451E-006 -1.1370822E-006 -1.2036031E-006  4.2353644E-007 -4.4298185E-006  6.7086006E-008  4.7940471E-008  6.7125504E-008 -1.7425991E-007 -3.1474266E-007 -6.0639986E-006 -2.0092389E-009 -4.2316440E-009  5.5154276E-009  5.7072567E-008 -2.5026295E-006 -2.5035625E-006 -1.8336970E-006 -3.0455005E-006 -5.6894911E-009 -9.5444005E-008 -3.7422725E-006 -3.6627164E-006 -3.6613568E-007 -3.2543267E-006 -7.2371953E-007 -2.7784136E-006 -8.3706228E-007 -9.9420173E-007 -2.2179889E-006 -2.1822438E-006 -1.3088627E-006 -2.0158054E-006 -1.6047287E-006 -1.9548283E-006 -3.4769175E-008  1.8959104E-007 -4.3412847E-008  8.5990293E-007 -1.7639680E-007 -2.0850812E-006  6.5511250E-008  1.1706286E-007  5.9813192E-008  1.6257112E-007 -3.3611219E-008 -3.6812470E-007  3.7130141E-008  1.3054325E-007 -4.9589568E-006  5.2762610E-007  1.3099040E-007 -2.3053870E-006 -2.7165517E-006 -1.4721565E-006 -5.8613360E-007  1.6901270E-007  5.7525418E-008 -2.8022859E-008 -2.2186402E-007 -7.8543219E-009  8.4358390E-007 -3.4591687E-006 -6.8846283E-006 -5.1686464E-008  2.4197125E-008  3.5527588E-008 -3.8588908E-007 -5.2330389E-007 -1.7873611E-006  2.0559079E-008  2.7259804E-007  2.1568737E-007 -1.3869687E-006 -3.8479314E-007  4.8242632E-008  4.0157758E-008 -3.2850096E-007  4.7435574E-008 -1.3545389E-006  1.1472990E-008 -1.3786514E-007  1.7773535E-007 -2.3395359E-008  5.1152436E-009 -7.8159876E-007  1.5397310E-008  5.3318640E-007  3.0160410E-007 -8.1381300E-008 -1.8251038E-006 -2.6131995E-007  2.9395510E-008  9.0887058E-007 -5.8788604E-007 -1.0531855E-007  5.3298739E-008  2.3019777E-007 -3.5668145E-006 -2.2768328E-007  5.5245096E-007 -1.9089057E-006  7.9711858E-008 -1.3201392E-006  5.0203684E-008 -9.4761559E-009 -1.0452784E-006  2.1180413E-007  2.2935099E-008 -1.1598621E-006 -6.2913069E-007 -1.6080715E-006 -2.9656517E-006 -3.1574082E-007 -4.8146961E-008 -1.3432514E-007 -7.6482865E-007 -8.1598012E-007 -5.2038883E-006  2.0727787E-008 -2.2159474E-007 -1.4422943E-007  8.9290215E-008  5.7454658E-008  1.0574585E-007  3.5167323E-008 -3.2796791E-006  2.0130560E-007  1.6012667E-008  1.2817995E-008 -1.7543767E-006 -2.9866339E-006 -2.5172096E-006 -2.2242469E-006 -1.1169563E-006 -1.2420648E-006 -2.7605323E-006  5.8187376E-008 -6.8475427E-007  3.4605961E-007 -6.0099484E-006 -2.5987495E-006 -2.8196639E-006  1.5670877E-007  7.5037956E-008  1.2600826E-007 -1.4537587E-006  3.9552955E-008 -3.0641869E-007 -1.6379319E-006 -6.0207441E-008 -2.4437690E-008 -1.5830260E-006  1.7758733E-007  3.3470640E-008 -1.8247771E-006 -1.5392365E-006 -1.9166315E-006 -1.0549569E-006 -2.4037888E-007  4.5798021E-008  4.9909679E-008 -9.3118060E-007 -1.1135213E-007  9.2211137E-008  4.1480786E-007 -3.2271311E-006 -7.5061793E-006 -2.7022100E-006 -1.2183275E-006  5.5653280E-009  2.5289170E-008 -1.7979779E-006 -1.2465332E-007  3.1694519E-008 -4.0854888E-007 -5.1434157E-008  1.5401788E-008  2.1097994E-007 -5.8410789E-007 -5.3345066E-006 -1.1308132E-006 -8.2441374E-007 -9.0622858E-008  6.4112838E-007 -1.1624583E-006 -2.0651242E-006 -2.8987090E-007  1.2360632E-007  4.5758596E-008  3.3134589E-007  6.3599667E-008 -8.1994300E-007 -7.9801212E-007 -1.8124789E-006 -2.7086600E-007 -3.6946615E-007 -1.4644359E-007 -5.8545591E-007 -1.3753155E-006 -8.1771458E-006 -5.1942470E-006 -4.1350434E-006 -1.3474033E-006 -1.8174881E-006 -2.2887555E-006 -2.7501033E-006 -3.3947590E-006 -4.3290093E-006 -6.0077662E-006 -3.9732581E-006 -4.4343355E-006 -8.1574280E-006 -9.8408512E-007 -1.4684175E-005 -2.8935546E-005 -6.7152823E-007 -5.9905998E-007 -4.9014970E-006 -2.7758712E-005 -6.6986679E-006 -1.0194873E-005 -2.6702781E-007 -1.7804692E-005 -2.3920365E-005 -3.2287973E-005 -1.5774971E-005 -6.2740505E-006 -3.3276862E-007 -7.9820864E-006 -2.2905587E-005 -5.3163002E-006 -1.5818887E-007 -3.0122770E-005 -9.8805784E-006 -1.9934429E-005 -3.2754061E-005 -4.1340557E-006 -5.2535693E-006 -6.9634269E-006 -3.9786760E-006 -4.6193258E-006 -7.8938524E-007 -3.8760428E-006 -1.1731710E-006 -1.5373220E-006 -3.1014484E-006 -2.0435262E-006 -2.5479565E-006 -1.8737039E-005 -1.0388555E-007 -2.6505523E-006 -1.9634547E-005 -3.0982576E-005 -6.2185705E-006 -1.3839475E-007 -7.0339379E-006 -7.5989398E-006 -8.4752230E-006 -8.0583127E-006 -7.2308766E-006 -7.6621788E-006 -8.5204216E-006 -8.0311707E-006 -9.0712953E-006 -8.5650093E-006 -9.7471646E-006 -9.3978141E-006 -1.0609582E-005 -1.0183030E-005 -1.1622356E-005 -1.1391439E-005 -1.2885169E-005 -1.2767960E-005 -1.4369314E-005 -1.4372742E-005 -1.6055395E-005 -1.6392787E-005 -1.8160435E-005 -1.8412949E-005 -2.0506663E-005 -2.0007541E-005 -2.2601646E-005 -2.1983005E-005 -2.4551266E-005 -2.3777019E-005 -2.6308313E-005 -2.5297923E-005 -2.7737254E-005 -1.6371252E-005 -1.8443186E-005 -1.6598076E-005 -1.8512706E-005 -1.7146415E-005 -1.8656318E-005 -1.7283320E-005 -1.9944073E-005 -1.8853796E-005 -1.7284895E-005 -1.1844643E-005 -2.6566290E-005 -1.5030564E-005 -1.5781161E-005 -1.5719963E-005 -1.0947931E-005 -1.7262498E-005 -1.5880556E-005 -1.4508547E-005 -1.4591942E-005 -1.3376753E-005 -1.3192257E-005 -1.4618990E-005 -1.3340988E-005 -1.2009769E-005 -1.2097219E-005 -1.0913679E-005 -1.0749330E-005 -1.2093809E-005 -1.0903512E-005 -1.4677247E-005 -9.6470328E-006 -9.7568001E-006 -1.0941764E-005 -9.5346865E-006 -1.0837665E-005 -9.5478566E-006 -8.3904207E-006 -8.3515519E-006 -7.3503210E-006 -7.2981288E-006 -2.8836407E-005 -1.3224403E-005 -8.5591035E-006 -8.6762727E-006 -8.2608452E-006 -7.1797138E-006 -1.0879790E-005 -6.2545231E-006 -6.1721257E-006 -6.9875097E-006 -5.9700381E-006 -6.6945740E-006 -5.6895332E-006 -5.0939260E-006 -4.7963224E-006 -5.3198260E-006 -4.4641027E-006 -3.9959249E-006 -3.7182885E-006 -4.0804778E-006 -3.3154828E-006 -3.6395329E-006 -2.9426936E-006 -5.4355089E-006 -2.6847873E-006 -2.3736416E-006 -2.7151162E-005 -2.2809410E-005 -2.7496994E-005 -5.3742516E-006 -3.2804299E-006 -3.5133387E-006 -3.1004323E-006 -7.7642335E-006 -3.0006967E-005 -4.3787515E-006 -2.5306423E-005 -3.0874894E-005 -1.7339204E-005 -1.2217416E-005 -2.1327608E-006 -1.9107691E-006 -7.8697385E-006 -7.3554474E-006 -2.0310596E-006 -1.6229149E-006 -1.2178377E-005 -8.4513311E-006 -1.9587312E-005 -7.5308518E-006 -1.2046616E-005 -1.8794929E-005 -2.9765462E-006 -4.7389914E-006 -1.5415516E-006 -1.2594832E-006 -1.3122397E-006 -6.8424887E-006 -3.0637349E-006 -1.0224176E-006 -7.3359231E-006 -4.5745441E-006 -2.6056145E-005 -1.4517488E-005 -2.3996728E-005 -1.0082467E-005 -3.1930353E-005 -3.2510571E-005 -2.3722440E-006 -1.9876581E-006 -2.1349122E-006 -1.1103324E-005 -9.7615517E-007 -7.8109312E-007 -6.4739766E-006 -6.7072847E-006 -2.3369627E-005 -8.2016040E-006 -1.0947317E-005 -1.1875329E-005 -1.8776227E-005 -2.0492233E-005 -5.2219311E-006 -4.5486611E-006 -5.1247285E-006 -3.1265275E-005 -2.6160395E-006 -4.0943030E-006 -4.1779105E-006 -3.5469202E-006 -3.1273606E-006 -3.5766389E-006 -3.1492564E-006 -1.0716009E-005 -6.5123418E-006 -6.1234976E-006 -2.4555384E-005 -2.6356819E-005 -1.0874792E-005 -1.1741899E-005 -1.0806778E-005 -1.1674541E-005 -1.0741609E-005 -1.1651630E-005 -1.0742441E-005 -1.2554599E-005 -1.1689677E-005 -1.0725026E-005 -1.1761301E-005 -1.0797114E-005 -1.2736583E-005 -9.7439713E-006 -9.8730004E-006 -1.0874899E-005 -9.7589943E-006 -1.1004195E-005 -1.0030473E-005 -8.8553117E-006 -9.0946312E-006 -7.9984856E-006 -8.2215430E-006 -7.7203643E-006 -1.1195171E-005 -6.4324789E-006 -1.2698192E-005 -7.1696298E-006 -7.9353776E-006 -1.8030470E-006 -1.6696687E-006 -7.7230370E-007 -6.0254569E-007 -9.1656276E-007 -7.1639945E-006 -7.4173133E-006 -8.4653992E-006 -7.6879006E-006 -6.6703150E-006 -6.9656677E-006 -1.8986932E-006 -3.3299360E-005 -3.2580048E-005 -3.3542183E-005 -2.5498636E-006 -3.6304849E-006 -3.6710548E-006 -4.1472444E-006 -1.0034716E-006 -1.3374783E-006 -5.8352963E-006 -6.0042062E-006 -6.8307423E-006 -6.0423971E-006 -5.2914983E-006 -8.7112047E-006 -1.2252104E-005 -4.4408648E-006 -2.2639172E-006 -2.2651290E-005 -2.1913735E-005 -8.8687456E-006 -6.0509477E-007 -9.1263569E-007 -5.8281850E-007 -2.3017127E-005 -4.9827145E-006 -4.3206429E-007 -1.3027506E-006 -3.1929662E-006 -5.9744636E-006 -6.3209734E-006 -5.6690955E-006 -7.2426615E-006 -6.6366826E-006 -5.7399800E-006 -6.0706797E-006 -6.9247667E-006 -6.3900107E-006 -3.9266433E-006 -3.5614417E-006 -1.0091914E-005 -1.0187868E-005 -9.2062460E-006 -9.2481696E-006 -5.5730671E-006 -5.9055274E-006 -5.7218086E-006 -8.7446886E-006 -7.9083727E-006 -8.7022745E-006 -2.7385216E-006 -2.7650914E-006 -5.7132653E-006 -3.2104469E-006 -2.5225189E-006 -6.9634060E-006 -7.7194441E-006 -6.2323666E-006 -4.3014349E-006 -8.7099522E-006 -1.6210541E-006 -5.6050086E-006 -2.2732368E-006 -1.9451946E-006 -1.5035697E-005 -1.5014253E-005 -1.2809903E-005 -1.4685457E-005 -2.0135441E-005 -1.8132839E-005 -7.0281445E-006 -2.2397841E-006 -8.2100345E-007 -5.8697652E-006 -6.2188422E-006 -6.4300632E-006 -1.2395257E-005 -2.0719217E-005 -5.9802987E-006 -5.3120777E-006 -7.7384622E-006 -9.8973984E-006 -2.2026133E-005 -2.2307678E-005 -3.5976694E-006 -4.0518563E-006 -1.7749711E-006 -1.7857130E-006 -9.1641624E-006 -1.0544832E-005 -5.1838052E-006 -8.5025117E-006 -7.4383209E-006 -8.3366486E-006 -3.3836204E-005 -3.3761212E-005 -3.3142015E-005 -5.0617522E-006 -1.0082790E-005 -1.5731255E-005 -1.4150708E-005 -1.4423027E-005 -4.8112096E-006 -9.5617654E-006 -1.1796027E-005 -2.7266439E-006 -2.4296323E-006 -3.1547980E-006 -6.7269427E-006 -6.7658238E-006 -1.6989983E-006 -3.2777527E-005 -4.0232305E-006 -8.2470912E-006 -1.7222168E-006 -1.4162561E-006 -1.2512478E-006 -1.1735430E-006 -1.2935041E-006 -1.0803556E-006 -9.8800666E-007 -1.0154155E-005 -1.9648020E-005 -2.0842134E-005 -1.8797508E-005 -1.9609134E-005 -1.7610806E-005 -1.8343298E-005 -6.9265374E-006 -6.1607813E-006 -6.7125813E-006 -7.3886471E-006 -8.4771189E-006 -6.4224720E-006 -6.3998193E-006 -9.5897962E-006 -5.3334558E-006 -5.2538419E-006 -5.5059595E-006 -3.8498500E-006 -3.3574401E-006 -3.5136874E-006 -4.0113155E-006 -7.5020452E-007 -6.5069064E-006 -3.1503898E-006 -2.7793054E-006 -9.7977251E-006 -7.8339181E-006 -7.7139334E-006 -2.7341565E-006 -5.1909615E-006 -4.5722337E-006 -1.5259971E-006 -1.0017851E-005 -5.0346435E-006 -1.9765715E-006 -4.8671764E-006 -6.4319878E-006 -5.5558256E-006 -5.4008848E-006 -4.2361173E-006 -4.7562236E-006 -1.0003967E-005 -2.8188776E-006 -1.6285393E-005 -1.6747272E-005 -1.4607312E-005 -1.4959891E-005 -8.2058557E-006 -5.8195072E-007 -4.5052346E-007 -4.5259703E-007 -3.1137719E-007 -9.3304564E-006 -2.7834133E-006 -6.6552045E-006 -5.3318358E-006 -1.6852008E-005 -2.4390432E-005 -2.4743234E-005 -2.6473948E-005 -2.6883184E-005 -2.4589119E-005 -2.6929149E-005 -2.8773825E-005 -2.8771717E-005 -3.0448639E-005 -3.0291360E-005 -3.1866260E-005 -3.1439279E-005 -2.6450570E-005 -2.2575289E-005 -1.1651900E-005 -1.1447419E-005 -1.3125788E-005 -1.3133171E-005 -1.4794693E-005 -1.0014007E-005 -1.4976873E-005 -1.6811896E-005 -2.5073821E-007 -1.1770045E-006 -4.3861480E-006 -3.8612703E-006 -9.0251738E-006 -9.5221905E-007 -1.6093389E-005 -1.8957758E-005 -6.7537654E-006 -8.4615986E-006 -5.2503597E-006 -8.9590658E-006 -5.3142438E-006 -4.8419716E-006 -2.0654721E-005 -1.1258758E-005 -1.2584859E-006 -2.3958546E-006 -3.8199450E-006 -3.6604632E-006 -4.3954122E-007 -2.2075021E-006 -3.6820750E-007 -5.4007222E-007 -5.0822417E-006 -2.4165949E-006 -2.5050212E-006 -6.8728328E-006 -1.9880862E-007 -4.7299910E-006 -9.1610257E-006 -2.8425126E-005 -9.5106992E-006 -9.0162432E-006 -2.8706428E-005 -2.1852343E-005 -3.0920814E-005 -2.9530407E-005 -2.9715501E-005 -3.1046856E-005 -2.9215238E-005 -3.0056395E-005 -2.7079241E-005 -2.8003294E-005 -2.4201767E-005 -3.2534110E-005 -2.4661637E-005 -3.3362996E-005 -2.1258953E-005 -2.1495393E-005 -2.3065753E-005 -3.1468750E-005 -1.1569227E-005 -3.2202574E-005 -3.0640617E-005 -2.1930762E-005 -8.1975656E-006 -1.3734447E-005 -1.4288008E-005 -1.7873873E-005 -2.1277749E-005 -2.4816387E-005 -3.2791308E-005 -3.1847745E-005 -2.2830619E-005 -5.6359813E-006 -5.9090835E-006 -2.4102351E-006 -2.3858065E-006 -5.5750628E-006 -4.8308862E-006 -8.9469489E-006 -2.3402235E-007 -2.0252519E-007 -6.4757491E-006 -4.0280601E-006 -5.5680553E-006 -3.9611421E-006 -3.9789326E-006 -4.8840296E-006 -5.8897327E-006 -6.9751131E-007 -8.8011056E-007 -4.6147592E-006 -1.0817372E-006 -1.2905023E-006 -4.0792308E-006 -1.2619621E-006 -1.6313929E-006 -1.4394957E-006 -1.7019997E-006 -2.9627328E-006 -3.2821254E-006 -1.7333119E-006 -1.9066472E-006 -2.6682401E-006 -1.2364685E-005 -5.5367462E-006 -7.2836544E-006 -1.8811948E-005 -1.8315480E-005 -9.7919444E-006 -1.0223750E-005 -7.2352757E-006 -7.5462055E-006 -8.2851714E-006 -2.5762006E-005 -3.1927769E-005 -2.7921042E-005 -4.2622068E-006 -2.2715885E-005 -2.6032885E-005 -1.0899643E-005 -4.3192846E-006 -1.7797076E-005 -3.2770358E-005 -5.5439676E-006 -3.9880028E-006 -4.9086901E-006 -6.3308834E-006 -3.0466920E-006 -3.3021201E-007 -1.3917330E-006 -2.5037870E-006 -3.6592561E-006 -1.2554656E-005 -7.4527920E-007 -4.7572293E-006 -2.1616185E-006 -1.2953325E-005 -1.8814199E-005 -1.3427019E-005 -7.9840359E-006 -5.8048016E-006 -1.8603819E-005 -6.0931917E-006 -1.4124490E-006 -1.5536648E-006 -3.1906633E-006 -1.3304202E-005 -6.2444373E-007 -2.0861625E-005 -1.6475078E-005 -9.3240220E-006 -2.7417938E-005 -7.0667429E-006 -8.4408759E-008 -1.1607654E-005 -4.0073289E-006 -2.3793838E-006 -7.7013981E-006 -1.1266430E-005 -1.9554171E-006 -2.0152675E-006 -1.3647504E-005 -1.3785274E-005 -1.4219426E-005 -5.1102961E-006 -1.2442333E-005 -1.3272118E-005 -7.4393912E-006 -9.5668857E-006 -1.5188296E-005 -7.4973387E-006 -2.8470652E-006 -7.7428967E-007 -8.9965268E-006 -1.7010904E-006 -1.1829453E-005 -3.1221604E-006 -6.4950510E-006 -7.3233311E-006 -1.3301374E-005 -4.6433478E-006 -1.2639762E-005 -3.0097342E-005 -8.7033524E-006 -2.1413716E-005 -1.5956597E-005 -4.0941225E-006 -1.1863628E-007 -6.2868320E-006 -3.1098146E-006 -2.0513800E-005 -8.2791237E-006 -4.5411262E-006 -6.5084659E-006 -2.9683386E-005 -4.3147262E-007 -1.4766003E-006 -2.4328741E-006 -4.4724051E-006 -4.9042187E-006 -5.2126241E-006 -1.2157118E-005 -5.5358833E-006 -1.1923486E-005 -7.9076863E-006 -1.8839299E-005 -4.5742469E-006 -3.6739328E-006 -5.0091017E-007 -2.0457891E-005 -4.5374047E-006 -9.3404706E-006 -1.3445351E-005 -2.5278439E-005 -2.0568346E-005 -6.0353994E-006 -3.0295042E-005 -1.6950847E-005 -3.0067938E-005 -3.6406647E-006 -9.5589262E-006 -6.3384511E-006 -7.4687728E-006 -1.0800908E-006 -1.0780982E-005 -6.7755796E-006 -2.1310432E-006 -4.5495965E-006 -8.1250720E-006 -4.7757768E-006 -2.4890792E-005 -1.3318645E-005 -1.2771629E-005 -5.6428118E-006 -7.7218883E-006 -2.0934893E-005 -2.8497275E-005 -9.5874383E-006 -1.3573668E-005 -1.3644949E-005 -1.1921333E-005 -9.1791330E-006 -1.0492701E-006 -8.8051911E-007 -5.3566301E-006 -1.5554464E-006 -3.5276042E-006 -4.4720438E-006 -5.1671207E-006 -1.5452169E-005 -2.1845713E-006 -2.0381723E-006 -4.9757006E-007 -8.3642247E-007 -1.5953036E-005 -2.5824169E-005 -1.3852992E-005 -2.4367895E-005 -2.4700250E-006 -2.0024728E-005 -3.1539579E-005 -5.6326566E-006 -1.3381302E-005 -9.3414737E-006 -9.3339421E-007 -1.4438351E-005 -9.6731161E-006 -8.9936092E-006 -6.8541753E-006 -4.5792251E-006 -2.4775787E-006 -5.3923785E-006 -2.7490254E-006 -2.8087204E-005 -2.0171417E-005 -2.8809016E-005 -1.0320742E-006 -1.3690411E-005 -4.6185321E-006 -4.7144343E-006 -2.0248458E-007 -1.7906527E-005 -1.9909671E-005 -8.2015465E-006 -3.4263678E-006 -3.9823747E-006 -4.4554670E-006 -1.8042619E-005 -3.9802629E-006 -3.9432300E-006 -1.1448085E-006 -1.2859485E-005 -5.0207091E-006 -1.9323357E-005 -1.6167302E-005 -6.4604059E-008 -2.7905791E-006 -1.7586276E-006 -1.2284974E-005 -8.9662746E-006 -2.1970703E-005 -2.1125775E-005 -3.1236287E-006 -1.0654326E-005 -7.1230339E-006 -5.2736792E-006 -3.3374601E-005 -5.7505994E-006 -2.3991483E-006 -1.3361577E-005 -2.0231253E-005 -6.0424081E-006 -3.3863441E-006 -1.5371211E-006 -3.2599440E-005 -6.3145258E-006 -9.0873857E-006 -3.9635265E-007 -2.2989280E-005 -2.0870102E-006 -1.3142291E-005 -1.6753229E-005 -2.9769040E-006 -7.7233734E-006 -1.2391277E-005 -1.5890709E-005 -1.0345932E-005 -1.4908971E-005 -1.0983938E-005 -1.0848736E-006 -1.6136630E-005 -3.3538787E-005 -9.9789924E-006 -1.4846903E-005 -9.2844032E-006 -2.8810001E-006 -5.8213945E-006 -7.6967133E-006 -1.7083509E-005 -1.8165154E-006 -5.9486605E-006 -7.3896214E-006  3.4089433E-008  9.2037084E-009 -1.9024272E-008  1.4903468E-008  2.5349440E-008  3.4975832E-008 -3.2029650E-008 -3.4462366E-008 -9.5732609E-008 -1.0073400E-007 -1.2513420E-007 -2.9666336E-009 -1.1249408E-007 -4.2884682E-009 -4.1569496E-009 -9.2874969E-008 -4.7440303E-009 -1.1105120E-007 -4.7019975E-009 -1.4364434E-007 -1.5820992E-007 -1.6056122E-009 -8.8123862E-008  2.1116130E-009 -1.6362504E-007 -3.6217850E-009  8.1092806E-009  3.0672043E-008 -3.7349194E-009 -2.8678506E-009  1.7943953E-010 -1.2732701E-009  3.1903482E-008  3.4312087E-008  1.3537504E-008  4.2418820E-009  8.9647045E-009  5.2182822E-009  1.8326544E-008  1.4895571E-008 -2.0563521E-007  2.4033975E-008  2.6496033E-008  3.0123244E-008  2.1125720E-008  3.5559076E-008  3.5698388E-008  7.8916086E-009 -7.5402484E-008 -1.3097988E-007 -1.7962138E-007 -1.4324450E-007 -1.7220396E-007 -4.2244041E-009 -5.2565572E-009 -3.9850297E-009 -8.6133128E-008 -4.7551818E-009 -4.9574021E-009 -3.7720692E-009 -1.0916989E-007 -8.5266028E-008 -4.5225870E-009 -9.5526983E-008 -1.3489038E-007 -9.9754873E-008 -1.5598881E-007 -3.6025500E-009 -1.6583217E-007  1.1411313E-009 -1.7861682E-007 -1.2792782E-007 -1.8909060E-007 -1.9567985E-007 -1.9712044E-007 -1.9741538E-007 -1.9159413E-007 -1.8705154E-007 -1.8255791E-007 -1.5528863E-007 -1.0355351E-007 -1.6680656E-007 -1.2128651E-007  4.9934870E-009  2.5651025E-008 -5.5697490E-008  1.1324352E-008 -2.7511277E-009 -1.2105975E-007 -3.9584272E-008  1.0518096E-008 -3.4443293E-008  1.9779157E-008  1.6694047E-008  3.2580259E-008  3.0413878E-008  3.5866977E-008  2.8567769E-008  2.7520855E-008  2.9787223E-008  2.7401216E-008  3.0627658E-008  2.7295501E-008  3.0764117E-008  2.8142612E-008  2.1972543E-008  2.0833090E-008  2.6412975E-008  3.2241711E-008  3.3936167E-008  2.3613103E-008  2.9363183E-008  2.1273044E-008  1.4829895E-008  1.6278914E-008  1.9785207E-008  2.4533020E-008  1.1085899E-008  1.5829512E-008 -2.7962117E-008 -1.4980693E-009 -7.9087574E-008 -4.7866006E-008 -1.4280236E-008 -2.3014630E-008  2.9353538E-008  4.1301139E-008  4.3191321E-008  4.4594553E-008  1.5833386E-008  3.3634788E-008  4.4496184E-008  3.8377971E-009 -4.2190129E-009 -2.1009651E-008 -2.1557132E-008 -2.2124347E-008 -5.5775115E-008 -5.3490504E-008 -1.3171735E-007  3.9033821E-009 -4.2656306E-009  1.5147758E-008  4.6863789E-008 -4.3022126E-009 -2.1502274E-008  2.2621211E-008  6.3959834E-009  2.6325455E-009 -8.2172507E-008  2.9602598E-008  2.3629405E-008  1.8793866E-008 -5.7181261E-008 -3.2825112E-009 -2.6165626E-008 -2.7603557E-008 -7.9613042E-008 -1.9762963E-007 -6.0137828E-008 -5.8175772E-008 -4.9697878E-008  9.8263037E-009 -9.6377770E-008 -4.3394087E-008 -4.3646250E-008 -1.2853375E-008 -4.3871527E-009 -2.2328738E-008 -2.3911228E-008 -6.2732142E-008 -1.9471990E-007 -6.8087339E-008 -7.2704235E-008 -5.9549839E-008  8.3977224E-010 -1.4645624E-007 -5.9195719E-008 -6.1226918E-008 -1.3832190E-008 -1.5807453E-008 -6.0865120E-008 -1.4117649E-007 -5.8599690E-008 -1.1040580E-007 -5.0639476E-008 -5.2237588E-008 -4.8541902E-008 -1.5892059E-008 -1.3156189E-008 -2.8420580E-009 -2.6421728E-008 -1.7866414E-007 -6.6971241E-008 -6.8608849E-008 -8.2933967E-009 -1.2698066E-007 -5.7417878E-008 -5.5119618E-008 -1.3096356E-008 -1.7744713E-008 -8.9253995E-008 -4.5040121E-008 -4.2867786E-008 -1.3100749E-008 -4.7410742E-009 -2.2365254E-008 -2.1838157E-008  2.4122003E-009 -2.0660092E-008 -2.2396216E-008 -2.0390171E-010 -2.2080130E-008 -2.1626309E-008 -1.9695969E-007 -2.8996172E-008 -3.2081336E-008  2.6715986E-008 -1.6847182E-007 -6.9877898E-008 -6.3773144E-008 -1.1190535E-008 -7.3492599E-008 -1.6625141E-007 -6.6342999E-008 -6.5468149E-008 -1.5922533E-007 -6.2302252E-008 -1.4558406E-007 -1.1155203E-007 -9.9560242E-008 -1.8522788E-009 -2.6541130E-008 -1.0434478E-007 -4.7987442E-008 -2.0619543E-007 -5.7600084E-008 -1.8797531E-007 -1.8712847E-007 -6.9432165E-008 -6.7801722E-008 -4.5585953E-009 -2.0875585E-007 -1.9834771E-007  5.0209470E-009 -1.6595305E-008 -1.4799130E-008  1.0335207E-008 -1.3074657E-008  1.9153134E-008  3.6105022E-008  4.4922689E-008 -1.7985169E-009 -2.7070479E-008 -1.3718256E-009 -2.6012841E-008  3.2768904E-009 -1.9416293E-007 -1.7875419E-007  6.6001457E-009 -8.5817518E-008 -3.8026442E-009 -3.5577565E-009  3.2955781E-008  3.1170310E-008  3.3663697E-008 -2.0561994E-007 -4.2729490E-009 -9.3072927E-008 -4.2129023E-008 -1.8366401E-007 -1.7466545E-007 -1.6952609E-007 -1.6240624E-007 -1.1996284E-007 -5.8093947E-008  1.2080063E-008 -9.7259050E-009  1.7483419E-008 -2.3458061E-010 -1.1576371E-007 -2.0348590E-007 -4.2271884E-008 -1.9695093E-007  3.8130653E-010 -1.2298024E-007  3.2900390E-008 -1.5810065E-007 -9.2337692E-009  2.6992357E-008 -4.0825012E-009 -2.3873225E-008 -1.4701128E-007 -9.9546727E-008  2.5402647E-008 -1.1237122E-007 -4.0976420E-009 -4.0856669E-009 -1.4940074E-007 -2.0087904E-008 -2.6926971E-008 -5.6524455E-008 -6.5890068E-008  9.6729918E-009 -2.2784434E-008  4.3839957E-008 -5.1014946E-008 -3.8436820E-010  1.7710007E-008  3.3156349E-008  2.3272102E-008 -5.8975671E-008 -4.0778986E-008 -2.2225423E-008  2.4457346E-008 -9.8899895E-008  2.9003646E-008  5.8465050E-009 -5.1553193E-008  7.6709584E-009  2.9425436E-008  1.4548008E-008  3.8402021E-008  3.6382363E-008 -6.1047997E-009  2.5096734E-008 -2.3129314E-008  2.5548935E-008 -1.5093018E-008  3.0211157E-008 -9.6174455E-010 -2.2303098E-009 -1.9180965E-008  5.3098185E-009 -6.6475864E-008 -7.3506013E-008 -5.9352472E-008 -1.1726626E-008 -8.0049334E-008 -1.8231217E-008 -5.0482329E-008 -8.4054499E-008 -1.0635560E-008 -1.6794781E-008 -5.4169969E-008 -2.4137261E-008 -6.9190312E-008 -6.9978786E-008 -2.5647385E-008 -7.3507396E-008 -7.8024431E-009  3.7493510E-008  3.1893199E-009 -7.8406405E-010 -1.5246405E-009 -1.5481462E-007  1.2567569E-008 -2.3242050E-007  5.3687716E-009 -2.3645104E-009 -2.7133543E-009  1.2787270E-009  8.2322138E-009 -1.1612619E-007 -2.2939321E-009 -2.5233236E-007  2.7322131E-008 -9.4924755E-008  2.0322421E-008 -1.0078370E-007 -2.6254640E-008 -8.4512534E-008 -1.9073307E-009 -1.5364644E-008 -5.7132474E-008 -8.5936863E-008  3.2991857E-008  1.0761426E-008 -6.4451085E-008 -7.3387129E-009 -9.4458778E-008 -9.3158934E-008 -9.0367599E-008 -1.7546608E-008 -1.6133887E-008 -8.7987987E-008 -1.7250256E-009 -1.7975298E-008 -8.0790904E-008  4.5404424E-008  2.4110240E-008 -1.1862674E-007 -1.1434579E-007 -1.6825038E-008  4.2359742E-009  5.3571303E-009  1.1673243E-008  2.1576046E-008  2.7510564E-008  1.4439342E-008  1.5521325E-008 -3.8032338E-008 -5.2119015E-008  1.5206207E-008 -1.8014520E-008 -2.0041240E-008 -6.3522579E-008 -2.2170921E-008 -1.8426414E-008 -2.3062993E-008 -4.9470048E-008 -2.1924796E-008 -2.2544104E-008 -7.9477730E-008 -3.6133572E-008 -1.7408173E-008 -2.1211532E-008 -1.8842358E-008 -5.6949755E-008 -2.0336716E-008 -6.9610225E-008 -1.8747298E-008 -2.0352516E-008 -1.6726273E-008 -4.9051458E-008  1.1785865E-010 -9.6642107E-009 -4.9978073E-008 -4.5820212E-008 -6.7310083E-008  1.7993097E-008  4.1600028E-008  7.8672230E-010 -1.8652023E-008 -6.0781476E-008 -9.1428242E-008 -5.9838217E-008 -7.9555030E-008 -8.0497656E-008 -2.0382424E-008  2.1212529E-008  3.9168010E-008 -1.3363719E-008 -1.1666019E-008 -7.9487702E-008 -2.0024362E-008 -7.9077147E-008  9.3083374E-009  3.2390831E-008 -6.0607898E-008 -1.0687198E-005 -2.5743940E-005 -1.5221863E-005 -2.1440838E-005 -2.0276560E-005 -1.5004983E-005 -1.7457404E-005 -2.5242178E-005 -2.1569807E-005 -1.4394118E-005 -1.2339911E-005 -1.4386760E-005 -3.6504541E-006 -9.4663873E-006 -6.5487517E-006 -1.8403145E-005 -2.7553848E-005 -1.9503698E-005 -1.0725954E-005 -2.2856552E-005 -1.9671558E-005 -5.6955011E-006 -9.4275614E-006 -1.2188903E-005 -2.0348718E-005 -2.7437102E-005 -1.6859094E-005 -1.2460429E-005 -9.4776460E-006 -1.2715638E-006 -9.4651940E-006 -1.1468233E-005 -1.0838944E-005 -1.0143698E-005 -1.0253493E-005 -1.1628698E-005 -1.2461877E-005 -1.1690029E-005 -2.2203993E-005 -1.9952401E-005 -1.8386151E-005 -2.1498842E-005 -1.7981064E-005 -1.6715287E-005 -2.7069249E-005 -2.5073197E-005 -2.5207442E-005 -2.4451993E-005 -2.2928185E-005 -2.3084746E-005 -1.4103813E-005 -1.5231603E-005 -1.4132824E-005 -1.5277458E-005 -2.0318224E-005 -2.1552340E-005 -2.0622609E-005 -2.2942548E-005 -2.2503520E-005 -1.0922579E-005 -1.0840752E-005 -9.1364341E-006 -1.0663273E-005 -1.2380408E-005 -2.1286107E-005 -1.9107852E-005 -1.7649886E-005 -1.7031676E-005 -2.0521479E-005 -1.9444245E-005 -2.1559730E-005 -2.2505783E-005 -2.6418577E-005 -5.1069721E-006 -6.1791853E-006 -4.5568620E-006 -3.0579794E-006 -4.0266619E-006 -2.1936488E-006 -1.8542775E-005 -7.5918010E-006 -8.0055866E-006 -1.6256756E-005 -1.4551646E-005 -1.6117047E-005 -1.4270203E-005 -7.9674084E-006 -1.3138956E-005 -1.3169757E-005 -2.5250066E-005 -2.1051684E-005 -2.3227244E-005 -2.5277450E-005 -1.3270340E-005 -2.4133344E-005 -2.0897153E-005 -1.8513669E-005 -2.7737799E-005 -1.7092164E-005 -1.8016073E-005 -1.2233487E-005 -1.0004772E-005 -9.1839370E-006 -1.4055507E-006 -2.6283337E-006 -1.6209505E-005 -9.9699897E-006 -1.9638871E-005 -1.2708031E-005 -2.3586789E-005 -2.7672630E-005 -1.5920644E-005 -2.3320528E-005 -2.1067586E-005 -1.8717707E-005 -2.4356993E-005 -1.6990229E-005 -1.1017374E-005 -1.6019792E-005 -1.1354434E-005 -2.4701881E-005 -2.1412419E-005 -1.5760828E-005 -1.1204272E-005 -7.5683618E-006 -6.5441715E-006 -1.3397285E-005 -1.4015339E-005 -4.2469970E-006 -2.4721998E-006 -1.0629986E-006 -9.4891133E-006 -8.9492091E-006 -1.2025511E-006 -9.6940553E-006 -1.3387488E-005 -2.2783633E-005 -2.5154923E-005 -2.2523720E-005 -2.1614719E-005 -2.0496018E-005 -9.3070734E-006 -1.2461510E-005 -2.3434904E-005 -1.9532914E-005 -1.6003304E-005 -1.6086412E-005 -2.3324659E-005 -1.3346666E-005 -1.3258350E-005 -5.4067618E-006 -7.5428465E-006 -8.3718040E-006 -9.0316550E-006 -1.0374240E-005 -9.9751892E-006 -9.1682632E-006 -1.0822999E-005 -1.1353420E-005 -1.2094727E-005 -1.1570276E-005 -1.2508330E-005 -1.2130165E-005 -1.2289057E-005 -1.2392370E-005 -1.1708464E-005 -1.0848621E-005 -8.7440356E-006 -1.1869211E-005 -8.4392161E-006 -1.1208194E-005 -9.7251860E-006 -9.6001138E-006 -7.9570633E-006 -1.0436123E-005 -1.2273915E-005 -1.2427764E-005 -7.5318301E-006 -7.3651715E-006 -7.1311306E-006 -7.9261504E-006 -1.5033070E-007 -1.9036453E-007 -2.4566866E-007 -3.1721725E-007 -3.9600492E-007 -4.9033991E-007 -5.9251774E-007 -1.5678241E-005 -8.2912554E-007 -1.1945454E-007 -1.6639817E-007 -2.6982856E-007 -7.9830198E-007 -1.3815122E-005 -2.0364866E-007 -7.0181096E-006 -7.9910003E-006 -6.9004885E-006 -2.2748898E-007 -2.8487609E-007 -6.4150089E-007 -6.8771182E-007 -1.6282713E-005 -1.4217147E-005 -5.5467740E-007 -5.2936293E-007 -1.6411257E-007 -1.0328232E-007 -1.0276501E-005 -1.5453701E-007 -4.4826498E-007 -3.6259414E-007 -5.3743700E-007 -3.8023959E-008 -5.6693649E-008 -1.2861096E-007 -1.0529262E-006 -1.2417539E-007 -1.9194809E-008 -1.4118605E-005 -1.0302503E-005 -1.0269808E-005 -8.9805765E-006 -7.1651118E-006 -9.4871861E-006 -7.7179873E-006 -3.8088990E-007 -9.5840446E-006 -1.4009084E-005 -1.1502968E-005 -4.7608941E-006 -5.0028748E-006 -9.5587021E-008 -3.0342609E-007 -7.7718827E-008 -4.3419161E-006 -4.5955281E-006 -3.9447658E-006 -4.1906605E-006 -3.5026352E-006 -3.7699374E-006 -4.4038304E-006 -3.9223130E-006 -4.6500418E-006 -3.1897768E-006 -2.1675465E-005 -1.7924325E-008 -1.6867317E-008 -4.0360002E-006 -4.8731176E-006 -8.4730963E-006 -8.6446394E-006 -7.8195249E-006 -7.8263657E-006 -6.3979867E-006 -6.3101898E-006 -4.7336562E-006 -4.5457538E-006 -1.5336721E-005 -2.0544641E-006 -1.7493506E-007 -1.5314307E-007 -2.1301854E-007 -8.7607875E-007 -1.5400618E-007 -3.4579201E-006 -3.2307969E-006 -2.5175296E-006 -2.3254343E-006 -2.8177634E-006 -2.0316920E-006 -2.3192752E-006 -1.7013648E-006 -1.8461099E-006 -1.3830581E-006 -1.4380023E-006 -1.1022441E-006 -1.8821625E-006 -1.1081151E-006 -8.6736744E-007 -8.5656968E-007 -6.7857772E-007 -6.7103435E-007 -5.2899827E-007 -4.9818412E-007 -4.0702732E-007 -3.7887070E-007 -3.1271297E-007 -2.8795823E-007 -2.3906122E-007 -1.4070329E-008 -3.9879010E-006 -4.9350684E-006 -2.0667780E-008 -7.8794461E-007 -5.7115168E-006 -2.3850185E-005 -2.1785948E-007 -1.2612183E-006 -5.3276848E-007 -4.3277374E-006 -1.2984601E-007 -4.4990755E-007 -4.7727658E-008 -1.8526300E-006 -1.9126051E-006 -1.8117798E-007 -6.9871208E-007 -1.9266917E-007 -6.1150573E-006 -1.0529664E-007 -3.3857112E-006 -1.4333226E-006 -1.4225147E-006 -1.6319911E-007 -1.9020666E-007 -1.4581128E-007 -3.8622439E-006 -4.6538747E-006 -2.9266638E-006 -2.6513405E-006 -1.5016169E-007 -2.3890217E-006 -2.1809182E-006 -2.4398354E-006 -1.9918229E-006 -2.2286944E-006 -1.8185966E-006 -2.0266408E-006 -1.5753379E-006 -1.8038626E-006 -1.5939657E-006 -1.6546406E-006 -3.6665336E-006 -1.9060846E-006 -1.4066698E-007 -1.5872927E-007 -1.0697359E-006 -8.4207205E-007 -3.2519678E-007 -6.7790896E-008 -1.3494951E-007 -8.9683933E-008 -8.1594506E-008 -1.1306242E-007 -3.4440740E-007 -2.1536555E-007 -1.7881914E-007 -1.5934796E-007 -7.3798315E-007 -1.4761395E-006 -1.3523169E-007 -1.9878007E-006 -7.8855732E-009 -3.2342200E-006 -2.8485806E-006 -1.0775805E-006 -1.0340837E-006 -1.0650855E-006 -1.3273424E-006 -1.1051612E-008 -9.3343016E-007 -5.3095435E-006 -1.0807204E-007 -1.4197559E-006 -1.2292966E-006 -6.1979617E-006 -5.6606839E-006 -3.9536242E-006 -4.5692787E-006 -1.6212875E-006 -8.0878877E-006 -1.1228489E-007 -1.4718228E-007 -8.3936314E-008 -1.1560168E-007 -1.2552761E-007 -1.7131482E-007 -1.5738141E-006 -1.8288629E-005 -7.9716809E-007 -7.7516769E-007 -1.6213254E-006 -2.0088394E-006 -1.0997263E-006 -9.5452471E-007 -1.0200424E-006 -8.1029768E-007 -7.5432274E-007 -8.4429048E-007 -6.5281236E-007 -5.7701307E-007 -6.8116432E-007 -5.2767720E-007 -4.4233481E-007 -4.0198380E-007 -4.6104521E-007 -3.0548422E-006 -9.5907728E-006 -9.0974164E-006 -7.6309992E-006 -1.0304028E-005 -2.0276645E-005 -1.8544830E-005 -1.1993218E-005 -1.1171805E-005 -8.5957288E-006 -8.0350339E-006 -6.6734039E-006 -6.2489214E-006 -6.4132957E-006 -5.6617498E-006 -5.8915843E-006 -4.4883218E-006 -4.4999594E-006 -4.3325193E-006 -8.0006139E-006 -1.0054754E-005 -9.3164407E-006 -1.1544972E-006 -1.1553467E-005 -1.1514460E-005 -3.2083714E-006 -2.4332779E-007 -3.0635839E-007 -2.6112612E-007 -6.5926503E-007 -9.0265981E-007 -6.8476526E-007 -4.3473692E-007 -5.7856874E-007 -3.8824715E-007 -5.1047271E-007 -8.1760254E-007 -6.8358562E-007 -1.2501219E-006 -3.3744841E-007 -4.3518510E-007 -3.1516415E-007 -5.8703593E-007 -8.2473152E-007 -4.8572233E-007 -6.4771510E-007 -5.3556450E-007 -7.4184226E-007 -1.8567680E-007 -2.3349589E-007 -5.1656025E-007 -2.2500475E-006 -1.0492905E-007 -1.3601910E-007 -5.5837031E-006 -8.9204187E-006 -1.2406780E-005 -9.1367196E-006 -9.1344266E-006 -1.3494319E-005 -1.0704616E-005 -1.3130001E-005 -1.4918976E-005 -1.7666826E-005 -1.0236069E-005 -1.8653494E-005 -1.6422282E-005 -1.8165205E-005 -1.0147894E-007 -1.2892623E-007 -9.3437062E-008 -1.7392011E-007 -1.2144618E-005 -8.6485916E-006 -7.2814483E-007 -6.3507239E-007 -1.6936764E-006 -2.0517584E-006 -1.3140999E-006 -1.3073650E-006 -3.8936830E-006 -3.3405179E-007 -3.0262910E-007 -3.5755430E-007 -8.9373314E-006 -6.0552046E-006 -1.7115966E-006 -2.0985366E-006 -8.8074434E-008 -1.5057065E-007 -1.8135934E-007 -3.0680919E-007 -3.4159125E-007 -5.9727551E-007 -5.7583347E-007 -9.2047159E-007 -7.7885926E-007 -5.1607870E-007 -1.0118359E-006 -1.4425801E-006 -1.7136020E-006 -6.4287571E-007 -4.4623961E-007 -1.2250719E-007 -8.4335101E-009 -1.0055900E-006 -7.2426850E-007 -2.2911759E-007 -1.9648156E-007 -8.1384008E-008 -1.1817939E-008 -5.6608372E-006 -2.4298419E-006 -2.5029032E-006 -2.1475571E-006 -2.5746591E-006 -2.1720851E-006 -3.9862139E-006 -1.6748025E-006 -1.0421998E-006 -1.0393358E-006 -1.2668863E-006 -1.0254862E-006 -1.0181094E-006 -4.8812630E-007 -4.0970331E-007 -5.0881432E-007 -5.6522444E-007 -2.6895641E-007 -6.6623870E-006 -5.1225245E-006 -3.6107712E-007 -3.2945784E-006 -1.7629749E-007 -2.6857941E-006 -8.0849133E-007 -8.1183862E-007 -1.0089574E-006 -8.0596342E-007 -9.8509866E-007 -7.9099720E-007 -6.2589659E-007 -5.9197908E-007 -6.1238700E-007 -1.3749027E-006 -1.0531315E-006 -3.3267371E-007 -4.6729159E-006 -6.9612214E-008 -4.6009097E-008 -2.3765034E-005 -1.6791611E-008 -1.6645194E-006 -1.3824310E-006 -3.2482019E-008 -2.0315942E-006 -1.6310644E-006 -9.1292513E-007 -6.5374862E-007 -4.9121804E-007 -4.4032438E-007 -5.7161898E-007 -3.8377140E-007 -4.8856021E-007 -3.2807818E-007 -4.0929509E-007 -2.7413996E-007 -3.3682516E-007 -2.2594655E-007 -2.7335369E-007 -1.8302989E-007 -4.7155180E-007 -6.8575253E-007 -2.1924423E-007 -1.4717526E-007 -3.0588779E-007 -5.6639489E-007 -3.7782505E-007 -9.1993707E-007 -1.9002252E-007 -8.5105208E-008 -9.1014274E-007 -7.1792722E-007 -9.0435798E-008 -6.9198300E-008 -3.5368544E-006 -4.6374463E-006 -2.7936607E-007 -3.6693900E-007 -9.4367994E-007 -8.3098704E-006 -2.1918414E-006 -2.6486573E-006 -3.0212014E-006 -3.1311274E-006 -3.4909091E-006 -7.2068626E-006 -2.3343720E-006 -1.7369505E-005 -1.5690180E-005 -1.5098811E-005 -1.2930696E-005 -1.3820901E-005 -1.4831480E-005 -1.1853846E-005 -1.0684163E-005 -7.8224176E-006 -1.4632468E-005 -2.8188982E-007 -3.6444518E-007 -5.2066702E-007 -2.6917835E-006 -3.2432109E-006 -2.0021445E-007 -2.9035580E-006 -2.8639194E-006 -1.0788945E-007 -9.8593350E-006 -3.0715792E-007 -3.7762405E-007 -1.2044531E-005 -5.3313622E-008 -5.8403992E-008 -3.1043678E-007 -2.3494523E-006 -1.9624427E-007 -6.2285737E-006 -7.6886428E-007 -6.0725126E-007 -4.6216404E-007 -4.6937466E-007 -5.9134134E-007 -4.6300738E-007 -2.5487754E-006 -1.3389147E-006 -5.2621758E-008 -1.2488217E-006 -1.9935689E-007 -1.2112622E-005 -1.2294577E-005 -5.7164839E-007 -1.7657936E-006 -1.0917034E-006 -6.1595260E-006 -4.3688394E-006 -1.4631217E-005 -1.1281116E-005 -3.5122509E-007 -3.5110059E-007 -1.4882495E-007 -1.0783909E-007 -7.4236660E-007 -7.2787702E-007 -6.7265500E-006 -6.0634879E-006 -1.0848388E-006 -1.0963635E-006 -2.8416656E-006 -2.8423366E-006 -2.9253909E-006 -7.9002435E-006 -1.4695776E-006 -2.0536483E-005 -1.5681208E-005 -9.1768545E-006 -7.5395381E-006 -8.3437029E-006 -7.5957020E-006 -7.3383318E-007 -3.2551775E-006 -2.4666089E-007 -1.7643293E-007 -7.7966707E-008 -5.7216270E-008 -6.8126519E-008 -5.2777495E-006 -5.9848106E-006 -2.9697392E-006 -1.1979585E-006 -1.1553549E-006 -3.8019354E-007 -3.3363858E-006 -1.7396920E-006 -5.9949598E-007 -3.6021169E-007 -2.6434155E-007 -3.9532651E-008 -5.1004995E-008 -3.0857966E-008 -4.2107415E-006 -3.2280119E-007 -5.4994066E-006 -6.3209699E-006 -6.6351468E-006 -7.3448739E-006 -7.6868997E-006 -2.0708794E-006 -5.0492461E-007 -7.1233907E-007 -3.0205449E-007 -3.1659682E-007 -9.3907796E-007 -1.4890958E-006 -1.8233370E-006 -2.5115856E-007 -3.4027629E-007 -3.2802786E-008 -5.6893304E-008 -4.0904865E-008 -1.7333115E-006 -1.3206541E-006 -2.9687813E-007 -2.1017786E-005 -1.7572937E-005 -4.3236891E-006 -3.0405459E-006 -4.1063959E-007 -4.4946703E-007 -9.6854582E-006 -7.9389180E-007 -5.6746003E-007 -1.2376675E-006 -1.7377143E-006 -9.5890473E-006 -2.1063750E-007 -2.6671781E-007 -2.3004685E-007 -3.3916297E-006 -3.4069702E-006 -3.3424410E-006 -4.5623872E-007 -1.4551898E-007 -6.3390584E-008 -1.6267661E-007 -3.1088143E-007 -1.5349000E-006 -2.2563788E-006 -2.0646687E-006 -1.4727762E-006 -9.8947420E-007 -7.3470038E-007 -2.5036475E-007 -2.1316347E-007 -2.6301648E-007 -1.8860005E-007 -1.4929006E-007 -1.2723586E-007 -1.8278194E-007 -2.2013849E-007 -3.0268325E-007 -9.8724972E-008 -8.1863847E-008 -1.1051650E-007 -6.4807839E-006 -4.0991582E-006 -2.7539797E-006 -2.5914604E-006 -1.5456189E-006 -1.5811966E-006 -4.6443001E-006 -4.1036922E-006 -9.7793414E-006 -3.0900765E-007 -4.5626651E-007 -7.8289218E-006 -1.7722317E-006 -2.2324066E-006 -3.7889522E-006 -2.3156102E-006 -1.2702887E-007 -6.2853745E-007 -4.6935591E-007 -4.6036857E-007 -3.4585384E-007 -3.2893958E-007 -8.7135985E-008 -5.4388374E-008 -2.3737400E-006 -9.6628610E-007 -7.2851603E-007 -5.6800547E-007 -4.2443322E-007 -5.3482745E-007 -8.8290890E-007 -1.7607181E-006 -4.8114272E-007 -6.3048224E-006 -1.2185541E-006 -8.9014430E-007 -1.2665168E-006 -3.1846411E-007 -1.4349838E-007 -5.3720926E-006 -1.3791224E-007 -2.0894375E-007 -2.8670991E-007 -4.6911602E-007 -3.4382948E-007 -1.0118196E-005 -3.0918763E-007 -2.8437040E-007 -4.5657028E-007 -4.0582472E-006 -1.9067890E-007 -9.6335687E-008 -2.6311185E-006 -1.8911715E-006 -1.8468851E-006 -1.1040962E-007 -1.9652546E-007 -2.3807764E-007 -8.6321283E-006 -8.4827456E-006 -3.1656859E-007 -4.6831404E-008 -5.9468318E-007 -5.9770954E-006 -3.9399886E-006 -1.4697702E-007 -2.6346942E-007 -1.1919124E-007 -1.9487975E-007 -1.3143515E-006 -1.7733691E-006 -1.3727806E-006 -1.9337990E-006 -2.4692700E-006 -1.1515731E-006 -7.3679968E-007 -8.6605199E-008 -1.3110733E-007 -1.1600919E-007 -1.7382696E-007 -1.0971213E-006 -2.4247060E-007 -3.2363039E-007 -4.0919504E-007 -3.9736743E-008 -5.2010752E-008 -1.4895573E-006 -9.3543628E-007 -4.2816138E-007 -2.1337392E-007 -4.8521874E-007 -6.4068711E-007 -5.2532511E-007 -2.5428060E-006 -1.6989540E-006 -2.4717361E-006 -1.0403232E-006 -7.7848214E-007 -6.3692721E-007 -5.7361732E-007 -5.4285435E-007 -3.5505035E-007 -3.1089496E-007 -1.9868966E-007 -1.3687982E-006 -7.8302824E-007 -1.4057690E-006 -1.8492782E-006 -5.8181419E-007 -4.0122989E-007 -6.8173886E-007 -5.3198950E-007 -7.8068410E-007 -2.3634987E-007 -8.0180103E-007 -2.5295961E-007 -4.3849315E-008 -3.0551069E-008 -1.4651050E-008 -2.6506618E-008 -1.7709238E-008 -3.5611482E-008 -4.7119837E-008 -6.2127177E-008 -3.9765313E-008 -3.2741267E-008 -4.8198992E-009 -1.2584464E-008 -2.0847116E-008 -2.4789257E-008 -3.7524188E-008 -9.0474038E-008 -8.9881369E-008 -1.3527690E-007 -9.4058519E-008 -1.0946992E-008 -6.1200659E-009 -1.1997674E-007 -1.9603454E-007 -1.2353255E-008 -2.5140412E-007 -7.9653622E-008 -9.8388671E-008 -7.7040315E-008 -8.2637242E-008 -6.0447529E-008 -4.1718197E-007 -6.7313758E-007 -2.6395895E-007 -3.8206861E-007 -3.3705590E-007 -5.1425211E-007 -2.0213706E-007 -1.9361604E-007 -4.0807624E-007 -4.7494959E-007 -7.6144409E-007 -1.7514516E-007 -6.0499034E-007 -8.8983582E-007 -1.2085871E-007 -1.2416416E-006 -7.9146049E-008 -2.4316889E-006 -1.7407688E-006 -3.2409385E-008 -6.3642912E-008 -3.2770708E-006 -6.7755574E-008 -2.5392783E-007 -2.1798336E-006 -4.4998072E-006 -2.8864005E-008 -1.3038679E-005 -1.1195589E-005 -8.3863770E-006 -6.0104131E-006 -5.1638028E-006 -8.9251114E-006 -7.0572607E-006 -7.2836197E-006 -6.7829455E-006 -5.4348555E-007 -2.9515455E-008 -1.9460658E-006 -1.4189689E-006 -7.3867977E-006 -5.8642538E-006 -1.9619834E-008 -8.7298275E-007 -4.3778192E-006 -1.9153291E-008 -1.0655371E-005 -4.1794389E-006 -2.4479724E-006 -2.1876278E-008 -5.8680931E-008 -3.3974452E-007 -3.6027936E-006 -1.0533722E-006 -1.5161037E-006 -1.3663596E-006 -7.7984121E-006 -3.4276972E-006 -5.7445840E-008 -6.9622647E-006 -4.1831448E-008 -1.5703295E-006 -1.0944757E-007 -1.0420711E-006 -5.6183901E-009 -4.4572856E-008 -6.3865122E-006 -2.2908405E-007 -8.1022894E-006 -6.1820847E-009 -7.7046516E-006 -7.2972116E-006 -5.1771470E-007 -9.4767467E-007 -3.7826693E-006 -2.1463929E-008 -2.3506591E-007 -4.5641017E-007 -1.8600038E-008 -1.6685214E-005 -3.1153413E-006 -5.8027658E-007 -1.2333577E-006 -2.8825291E-007 -2.3178923E-007 -1.7731965E-007 -1.7374467E-008 -1.2632074E-006 -7.4378196E-007 -2.4363386E-007 -9.0167518E-007 -6.4504663E-007 -1.0120955E-006 -3.5050930E-007 -1.1314301E-006 -7.8956068E-007 -1.1903275E-006 -5.5676857E-007 -8.9050162E-007 -4.1130965E-007 -4.0728581E-007 -6.3721196E-007 -1.1356860E-005 -1.3835952E-005 -1.2617861E-005 -1.7357948E-007 -2.9113310E-006 -1.9116882E-006 -3.5521813E-007 -1.4270557E-006 -6.8242869E-007 -8.5589924E-006 -8.3324176E-008 -1.4357291E-006 -5.6530631E-007 -3.3498083E-008 -2.4268852E-008 -1.1250162E-006 -2.4048482E-006 -9.0621737E-007 -2.7677968E-006 -2.6333199E-007 -1.0586063E-006 -4.8311075E-006 -1.1891150E-006 -1.6304642E-006 -3.7773112E-008 -9.7856015E-008 -6.4656699E-006 -6.4580974E-006 -6.3855361E-006 -8.1508588E-006 -8.4794067E-006 -1.2927822E-007 -2.8171859E-006 -3.2759641E-006 -5.7472050E-006 -6.6680377E-007 -3.2487268E-006 -1.4554895E-005 -6.3901052E-007 -2.2652012E-007 -2.1603671E-007 -7.0167526E-008 -2.5249168E-008 -6.0584782E-008 -4.0584339E-006 -1.2681675E-007 -1.2775833E-006 -3.5418010E-007 -2.0362849E-007 -1.7338800E-007 -1.4345277E-007 -5.4099630E-007 -1.4946969E-008 -9.6863090E-007 -1.4212781E-006 -5.9099096E-007 -1.0987640E-006 -3.9248591E-007 -2.8455929E-006 -6.8558018E-007 -5.8023670E-008 -5.2666174E-007 -1.8749923E-006 -4.0119138E-007 -9.6741237E-006 -2.2355125E-007 -3.7201300E-007 -2.7494332E-006 -8.1391204E-007 -9.6048336E-007 -3.4762285E-007 -7.1540447E-006 -1.9039463E-007 -3.6538191E-007 -4.6282785E-006 -2.4511782E-006 -3.2861357E-006 -7.2583210E-006 -1.8047181E-007 -2.9453376E-006 -1.0057562E-005 -8.3172928E-006 -1.4298439E-005 -1.3096897E-005 -1.1037738E-005 -9.4880415E-006 -1.5033651E-005 -1.6331679E-005 -2.3439980E-005 -2.4708407E-005 -1.2143989E-005 -1.8966197E-005 -1.7785531E-005 -1.7849860E-005 -1.7445427E-005 -1.6034713E-005 -2.0669777E-005 -1.3662879E-005 -1.2452998E-005 -7.0323421E-006 -2.4134340E-005 -7.1613122E-006 -9.8516433E-006 -1.0631250E-005 -1.0409982E-005 -1.0647065E-005 -1.4657047E-005 -9.4041349E-006 -1.3632771E-005 -8.4243448E-006 -1.1704362E-005 -7.6057246E-006 -1.1298856E-005 -1.6540383E-005 -4.4557519E-006 -1.2929076E-005 -3.7243456E-008 -2.6616112E-007 -1.4502858E-006 -6.7434936E-007 -3.1842799E-006 -7.3734174E-007 -4.3958598E-006 -1.0078503E-005 -1.5584864E-005 -1.5080947E-005 -1.5931726E-005 -1.5428858E-005 -1.4442623E-005 -1.2792620E-005 -5.4244245E-006 -7.3921291E-007 -1.9539622E-006 -5.1926308E-008 -1.5945389E-006 -1.9631011E-006 -1.1959076E-006 -1.3424076E-006 -4.6229831E-008 -7.1937097E-008 -4.3341903E-008 -2.4276201E-006 -5.0950264E-007 -1.6803650E-007 -2.3403858E-007 -1.5488258E-007 -6.0903072E-007 -3.7405602E-007 -6.7518835E-007 -1.6253744E-007 -1.5078166E-007 -1.4660617E-007 -3.0254702E-007 -3.4624727E-007 -6.0470657E-007 -2.2709061E-007 -5.5748362E-007 -2.1913911E-007 -4.5990481E-007 -2.0458329E-007 -1.8117081E-007 -4.2995987E-007 -5.9039598E-007 -2.6757848E-007 -7.8783897E-007 -7.0317594E-007 -6.7989002E-007 -2.9171979E-007 -6.9773245E-007 -6.9482227E-007 -6.8860800E-007 -2.4815413E-006 -1.9404416E-007 -3.2545892E-006 -6.2499897E-007 -4.2856509E-007 -3.2244411E-006 -2.0035688E-009 -1.8405680E-008 -4.7410095E-008 -8.9334692E-008 -3.7532278E-006 -3.6695024E-008 -7.8948195E-008 -2.6366284E-009 -7.3156524E-008 -3.1786597E-006 -2.2384255E-005 -8.6478114E-006 -6.5629175E-008 -4.2195004E-006 -9.7007135E-008 -2.2648825E-007 -1.1696810E-006 -5.0041947E-006 -8.4203925E-007 -7.8469325E-006 -1.3510447E-006 -3.0173951E-008 -2.5151446E-009 -3.3287774E-006 -1.1831061E-007 -2.5741606E-007 -3.7461803E-006 -1.3184296E-005 -9.4558334E-006 -8.7454002E-008 -2.7777552E-008 -5.8579176E-007 -1.5583293E-007 -2.9228587E-006 -2.6366964E-007 -1.2852220E-008 -3.5546291E-007 -4.4112419E-007 -1.8382206E-007 -1.0236535E-007 -1.0828370E-006 -8.6566047E-007 -1.4756330E-005 -1.6350757E-005 -1.4636185E-005 -1.6069545E-005 -1.1366002E-005 -3.6462611E-006 -1.4161138E-006 -6.0678410E-006 -8.0033508E-008 -1.5050187E-005 -2.9669726E-007 -3.7782959E-008 -1.4705238E-007 -8.6269235E-008 -6.7037788E-007 -7.8742872E-006 -3.1142434E-006 -1.6396253E-006 -2.1208031E-008 -5.0865925E-007 -5.3810066E-007 -1.3297567E-005 -1.5020344E-005 -1.3567777E-008 -7.4171973E-007 -4.4372663E-007 -5.6143585E-006 -1.2370134E-006 -2.8896862E-006 -4.6040248E-007 -3.6815052E-007 -9.8052595E-007 -2.4188374E-005
        </DataArray>
        <DataArray type="Float64" Name="joule heating" NumberOfComponents="1" format="ascii">
  7.8081541E+004  3.7183242E+003  4.0429726E+004  6.2930285E+005  7.5876997E+001  2.7438549E+002  2.7009460E+001 -9.0098043E+000 -7.6236896E-008  1.3027585E-003 -4.0906828E-006 -3.0892951E-009 -2.7274032E-008 -1.2201070E-003 -2.8550583E-006  9.5827215E-015  5.0660390E-015 -1.7636413E-006  5.5098557E+000  2.7277708E+005  8.5860287E-001 -2.4136230E+002  7.5740857E+004  8.3223859E+004  6.6516407E+004  7.0144401E+004  6.5501727E+004  4.7425510E+004  6.7007659E+004  4.2649145E+004  3.9522157E+004  3.0230724E+004  2.6230874E+004  1.8948732E+004  1.5094570E+004  1.4267612E+004  1.1479858E+004  7.4421511E+003  9.1565485E+005  6.5070712E+005  5.1048493E+005  4.1877357E+005  3.7147641E+005  2.6156234E+005  1.8788356E+005  2.6280188E+005  1.6883246E+005  1.6900570E+005  1.1892535E+005  1.0528346E+002  1.2176837E+002  1.7276667E+002  2.7758534E+002  3.6721000E+002  5.3911532E+002  7.7165038E+002  1.0741718E+003  1.4076451E+003  1.7275850E+003  1.6278293E+003  2.7102955E+003  2.7714348E+003  2.9901817E+003  2.8947814E+003  4.1794958E+003  3.5867565E+003  3.5127114E+003  3.3642950E+003  3.4870367E+003  4.4365055E+003  3.1863286E+003  3.7057541E+003  3.7841666E+003  3.5031077E+003  4.2215036E+003  3.5382149E+003  2.7206213E+003  2.8936723E+003  4.4927770E+003  2.9619088E+003  4.3723941E+003  3.3293203E+003  3.3419603E+003  3.0122632E+003  2.8421111E+003  3.6820490E+003  2.8008867E+003  2.7526566E+003  2.5201724E+003  3.3232696E+003  2.6494664E+003  2.6311023E+003  2.1264585E+003  3.0338812E+003  2.2856825E+003  2.3291731E+003  1.9905503E+003  2.5265943E+003  1.9572987E+003  1.9319758E+003  1.7398898E+003  2.2129605E+003  1.7436605E+003  1.6823049E+003  1.3452256E+003  1.8981271E+003  1.4043180E+003  1.2892234E+003  1.6717464E+003  1.1276968E+003  1.5837089E+003  1.2356786E+003  1.1575216E+003  1.0502380E+003  1.0165669E+003  1.2707983E+003  8.2981791E+002  7.9407503E+002  1.2213333E+003  7.9449160E+002  1.1186201E+003  8.3947535E+002  8.2499878E+002  7.7903615E+002  7.4474086E+002  8.3066313E+002  6.3087492E+002  5.7346856E+002  7.1209504E+002  5.0442799E+002  5.4605732E+002  6.4558706E+002  4.6450121E+002  5.2932134E+002  4.3573194E+002  6.1451394E+002  4.4586405E+002  4.3952365E+002  5.3956329E+002  4.0282637E+002  3.9338604E+002  3.9993908E+002  3.8101582E+002  3.0289406E+002  4.8732378E+002  3.8875165E+002  4.3353298E+002  5.6591309E+002  1.9066373E+002  7.4717598E+001  1.2198515E+001  1.9685399E-001  6.0156685E-002  2.4340382E-001  1.8171558E-001  5.1008051E-001  5.4818242E-001  2.9545942E-002  1.1333508E-001  1.2767710E+000 -2.8131803E+000  1.0376781E+001  3.0692138E+000  7.4404704E+000  7.5470138E+000  1.0364262E+000  2.4095296E+000  7.0587894E-001  2.4027460E+000  5.0142232E+000 -2.0922024E+000  5.3996914E+000  4.7844388E-001  1.3742793E+001  9.5389144E+000  8.8130918E+000  2.7517989E+000  3.3357576E-001 -3.0331876E-003  1.1622362E-004  1.7257637E-005 -4.4179023E-006 -4.6204173E-006  1.0573120E-005  5.6071376E-006 -3.7278952E-007  3.6282639E-006  5.2824820E-006 -3.2967864E-005 -3.5003395E-006  1.4340321E-005  4.2962117E-005  5.5429402E-005  1.9736085E-005  2.3176181E-005  9.5068636E-006  9.0747284E-006  1.1010110E-005  8.8261599E-006  1.1560222E-006  9.6971119E-006  1.7354872E-005 -1.4825603E-005 -3.5511553E-005 -2.7954602E-005  1.8946804E-005  1.6625219E-005  1.3149973E-005  1.5329953E-005  6.6004298E-007  1.9935229E-007  6.0016722E-007  4.0491638E-007  4.6650798E-008  8.4538764E-009  9.4530138E-010 -4.9243725E-009  1.8075896E-007  2.4548162E-007 -4.8516809E-007  2.7299434E-005  2.1753500E-005  2.7530759E-005 -4.0005514E-005  6.1599151E-004  7.9056322E-004  7.7058992E-004  1.3371454E-003  8.0107552E-004 -3.9165391E-003 -4.0461603E-003  8.7983587E-004  3.4167328E-004  4.2925352E-005  2.9144805E-004  7.4038009E-004  1.3667030E-003 -5.1746318E-004  5.0697280E-004  1.6769134E-003  2.7464311E-003  2.5951321E-003  9.2392408E-004  2.8482546E-003  1.4125616E-004  1.7453597E-003  9.2198677E-003 -7.3780213E-003  8.5871520E-001  1.1947204E+000  1.0365880E+000 -2.2256480E+000 -2.2200833E+001  3.4652884E+002  1.9850627E+003 -1.3354861E+004  4.0478693E+003  6.3090439E+003  6.3029285E+003  5.8970353E+003  6.3331344E+003  6.8063696E+003  6.2548462E+003  1.1094869E+005  8.9231140E+004  7.0673249E+004  5.7447478E+004  4.3807679E+004  3.7408485E+004  2.9579553E+004  2.2599575E+004  1.9152360E+004  1.5936573E+004  1.2716680E+004  9.6824894E+003  7.3785309E+003  5.8364691E+003  4.6676375E+003  3.5422691E+003  2.7088621E+003  2.5489645E+003  1.9034628E+003  1.4032823E+003  1.3299669E+003  1.0595057E+003  7.6984864E+002  6.3038017E+002  5.4939028E+002  4.6450232E+002  4.3342990E+002  3.3644325E+002  2.8865094E+002  2.6182205E+002  1.8873914E+002  1.7155737E+002  1.5935746E+002  1.2253910E+002  9.8084408E+001  8.4273553E+001  6.2310005E+001  4.7097514E+001  4.2384392E+001  2.1785913E+000 -2.6558947E-001  6.7780394E-002 -1.4605952E-002  3.9083368E-003 -9.7811755E-004  1.8481262E-004 -4.8238581E-005  1.2587732E-005  1.8720586E-007 -9.6165372E-009  9.0209362E-010  1.4290076E-012  6.2655940E-012  2.5435108E-012  1.0956871E-012  4.5413743E-012 -1.1058051E-012 -4.5599991E-013 -3.9976468E-013  1.0538348E-014 -1.0175777E-013 -1.0813069E-014 -8.7082149E-014 -4.7042281E-015 -1.5028135E-014 -5.5950172E-015  1.9533130E-014 -5.0495528E-014  8.5662329E-016 -2.7651180E-014  4.2391926E-013  3.6326537E-013  1.0651154E-013  1.0939008E-013  1.0129550E-014  1.6728644E-014  1.7362927E-015  8.5160602E-015  2.6330075E-015  2.6716646E-015  4.8380980E-015 -1.0151897E-014  7.4659932E-015  5.9994685E-015  5.6992450E-015  2.4353386E-015  9.3691636E-008 -9.4610512E-009  1.8688818E-009 -3.1489947E-010 -2.0026961E-009  8.9944270E-009 -3.3364378E-008  1.0933543E-007 -3.5630574E-007  3.4560987E-006 -5.6395891E-006  1.0923289E-004 -1.0338820E-003  1.0811945E-002  1.6436504E-002  8.8434608E-001 -8.2055853E-001  5.6716864E-015 -9.6531092E-015  8.7888466E-015 -6.0367781E-014  1.0568226E-014  1.2907554E-014  9.5930006E-015 -4.7014128E-014 -2.4442884E-014 -1.3384318E-012  3.1631952E-011 -6.9595793E-010  1.9825434E-008  1.6040095E-007  4.3236108E+001  1.5819028E+002  3.5308561E+002  6.3188375E+002  1.0648497E+003  1.5090565E+003  1.8891981E+003  2.5697425E+003  3.4038296E+003  4.0166114E+003  4.8234303E+003  5.9110779E+003  6.7177448E+003  7.5874945E+003  9.6623098E+003  1.0073596E+004  1.1411162E+004  1.3686085E+004  1.4804071E+004  1.5069873E+004  1.5879523E+004  1.9419228E+004  2.4089905E+004  2.1534323E+004  2.2165810E+004  2.5457440E+004  2.7892825E+004  2.9699355E+004  3.4929517E+004  3.7254244E+004  4.0558024E+004  4.2068973E+004  4.4903370E+004  4.8974070E+004  6.3688613E+004  5.3118005E+004  6.5236584E+004  7.9987853E+004  9.1789780E+004  9.9143988E+004  1.2261801E+005  1.4139047E+005  1.5473692E+005  1.9657895E+005  2.0654568E+005  2.3229366E+005  3.0633433E+005  3.4878818E+005  3.3123996E+005  3.3398029E+005  3.6222696E+005  3.5906650E+005  2.9167138E+005  2.3219743E+005  2.3192258E+005  2.0401973E+005  1.8391691E+005  1.6996978E+005  1.5714801E+005  1.5942689E+005  1.4591162E+005  1.3128231E+005  1.3198442E+005  1.2904029E+005  1.3073879E+005  1.3490442E+005  1.3193232E+005  1.2313854E+005  9.1880387E+001  7.6861534E+001  6.0964064E+001  4.9272397E+001  3.1421889E+001  2.0635725E+001  1.3820108E+001  5.6723933E+000  1.4401343E+000  3.0115494E-001  4.8236856E-001  9.2138417E-001  6.5357699E-001  2.6910281E+000  3.1579227E+000  4.5463881E+000  9.4339027E+000  1.2906481E+001  9.1440275E+000  1.2083502E+001  2.3068845E+001  4.6808349E+001  2.2441640E+001  4.9172445E+000  2.0740420E+000  6.0399862E+000  4.2180975E+000  1.9287757E+001  1.7732072E+001  7.8940043E+001  9.1635348E+001  1.5205381E+002  4.6608200E+002  1.1556108E+003  1.3628384E+003  3.2054282E+003  1.2176651E+004  2.6441587E+004  4.7036717E+004  6.7177266E+004  1.1187050E+005  1.7080917E+005  1.8526060E+005  2.1616064E+005  2.7347779E+005  3.2273655E+005  3.8644585E+005  4.3205077E+005  5.4578089E+005  6.2146925E+005  6.1148687E+005  6.7159471E+005  7.3841352E+005  8.2651147E+005  8.8600886E+005  1.0501047E+006  1.1237899E+006  1.0147519E+006 -1.9344295E+000  2.3684018E+001  2.3259033E+000  1.5241399E+001  4.5951979E+000  1.5465455E+001  7.9751092E+000  1.5723849E+001  1.3973877E+001  8.4412168E+000  1.6286519E+001  1.3893375E+001  1.4527262E+001  6.4042864E+000  2.3069840E+001  1.2791418E+001  2.0370718E+001  1.3095536E+001  2.2266539E+001  1.6306907E+001  2.3336469E+001  4.5055349E+000  1.4118123E+001  3.0471303E+001  2.4311232E+001  1.8893169E+001  3.0150725E+001  9.8417517E+000  1.6429091E+001  3.3135123E+001  1.9337695E+001  3.9641974E+001  2.4013637E+001  3.5892776E+001  2.9115157E+001  3.9322233E+001 -1.3904032E+001  3.5671843E+001  4.8350974E+001  2.8476063E+001  4.7370968E+001  4.1557758E+001  6.5548006E+001  4.1386991E+001  5.1101497E+001  2.3638754E+001  6.9559391E+001  3.7822655E+001  6.2089892E+001  5.7972212E+001  3.0247046E+001  8.8809649E+001  7.0832045E+001  5.4370279E+001  6.4589875E+001  3.6286218E+001  1.0574788E+002  8.0639940E+001  7.2872083E+001  8.3154813E+001  4.0138937E+001  1.1815216E+002  5.8942520E+001  1.0157758E+002  8.3636101E+001  9.7835058E+001  4.3392382E+001  1.4729799E+002  7.9527760E+001  1.0891664E+002  7.3645149E+001  1.4107017E+002  1.0556685E+002  1.1192382E+002  4.6827442E+001  1.4153466E+002  7.4547872E+001  1.4103295E+002  7.6741666E+001  1.2876107E+002  1.1738358E+002  9.5733697E+001  1.0928905E+002  4.0912833E+001  1.3907630E+002  6.4970369E+001  8.2991450E+001  4.3465447E+001  5.6256586E+001  6.4171433E+001  3.2353544E+001  3.3783105E+001  1.5435307E+001  6.9646338E+000  2.5562555E+000  3.0082713E+000  1.2856816E+000  2.3542877E+000  6.8970166E-001  6.1858772E+002 -1.0937006E+002  3.2743690E+001  5.7915715E+004  1.9234901E+004  3.2000869E+004  1.2424854E+004  1.1012657E+004  1.3683711E+005  7.0585897E+001  1.8007456E+003  4.7709516E+002  1.8820443E+002  2.4244708E+005  4.7055477E+003  7.9332114E+004  3.2954267E+004  5.0798533E+003  2.6104047E+005  8.2084518E+000  3.3834281E+005  2.0829533E+005  9.5659877E+002  2.4831670E+003  6.2469298E+004  2.9354501E+002  4.3001867E+004  3.7682113E+001  2.3843168E+004  1.3962099E+001  1.2620874E+001  4.6437841E+005  1.5933526E+000  1.2232670E+005  4.1721130E+005  7.0411365E+002  2.8767617E+003  6.6115960E+002  2.8320241E+005  7.5743006E+003  1.9940410E+005  2.2185239E+005  2.0075526E+004  1.8824093E+005  7.5045050E+003  1.2831367E+004  1.2052014E+002  1.0673035E+005  6.8449493E+004  3.7299867E+004  4.5296453E+000  4.3369029E+001  7.6049914E-001  5.7539503E+005  1.8300850E+005  1.3081260E+002  4.3868355E+000  2.9250094E+001  5.2022285E+001  9.6227260E+001  5.9836339E+001  1.2698342E+002  2.2801219E+002  2.8136746E+002  1.8469853E+002  3.4145302E+002  2.3480083E+002  3.8906571E+002  5.9568927E+002  6.5711522E+002  4.3504393E+002  6.4876892E+002  1.1011818E+003  1.0957395E+003  7.6052642E+002  1.1795035E+003  9.0006861E+002  1.3032292E+003  1.7653533E+003  1.8800283E+003  1.6065111E+003  2.2874456E+003  2.1003376E+003  3.0398864E+003  3.1370411E+003  4.4123740E+003  4.2339994E+003  6.2868758E+003  6.7023751E+003  9.3360057E+003  9.2597007E+003  1.3597291E+004  1.3287912E+004  1.9454480E+004  2.0083783E+004  2.9079736E+004  2.7584123E+004  4.0031683E+004  4.3148615E+004  5.8014424E+004  5.3939873E+004  2.8689645E+003  2.9845057E+003  9.9897724E+003  6.3410196E+004  8.2867705E+004  4.9557330E+002  8.2950941E+003  4.5839490E+004  4.2359516E+002  6.2758055E+002  1.4214156E+002  1.8038130E+002  9.4173199E+004  8.9970283E+003  1.2093668E+004  7.1157766E+002  1.1802879E+005  1.0734673E+005  4.6787298E+003  5.2638460E+003  1.3464533E+005  1.2226434E+004  8.0121658E+002  1.1145066E+002  1.2820115E+004  5.1101654E+002  7.7120943E+002  1.3936285E+002  1.6219550E+005  1.8584008E+005  1.1048574E+005  8.2042238E+003  5.5262316E+002  3.6464779E+002  5.9149287E+002  1.0372265E+004  7.9614464E+003  7.3968286E+003  1.4556695E+003  1.8461009E+003  1.2542458E+003  1.4986142E+003  6.3101446E+003  2.2038192E+005  8.6983633E+003  5.9912378E+003  4.5123411E+002  3.6513378E+002  3.2759581E+002  1.9756601E+002  1.3246176E+003  1.4270302E+003  9.0739764E+001  8.2567081E+003  1.2903818E+004  1.9871688E+005  8.8589101E+003  5.6070408E+003  4.4551773E+003  2.1492641E+003  1.7270763E+003  1.8270175E+004  1.8579793E+004  7.3688611E+001  5.7856345E+001  1.5427246E+002  1.4647438E+004  2.5276750E+005  1.2855078E+004  1.7694976E+004  1.4411434E+004  1.1722417E+004  2.2015214E+005  2.6358694E+004  2.9130540E+004  2.0509990E+004  3.0272847E+004  1.0212809E+003  8.7159590E+002  1.5930441E+004  2.1598471E+004  2.9033766E+002  4.4876315E+002  9.5117516E+003  6.7377923E+003  4.0983444E+003  4.7253848E+003  7.4090968E+003  5.2585652E+003  1.0667353E+004  5.0048150E+001  3.7381059E+001  6.0188959E+001  3.3552479E+001  2.4116917E+001  2.6090878E+001  1.5044469E+001  2.6517191E+002  2.3899066E+002  7.1069962E+003  2.7904479E+002  1.5697398E+001  2.3945535E+004  3.3858803E+004  4.2897437E+004  4.8211393E+004  2.1641060E+003  2.3661763E+003  1.5449336E+003  2.5220911E+003  2.0175576E+003  1.6120175E+003  2.5348425E+003  3.8891971E+003  1.1259192E+002  1.6003676E+003  3.8947063E+003  3.1484861E+003  3.3921861E+003  8.4366114E+002  2.7450158E+004  2.9456042E+002  2.0041838E+004  3.2810210E+003  9.1897414E+003  1.2110860E+002  2.9226093E+005  3.3234501E+005  3.8848606E+003  7.9313491E+002  2.3665005E+004  2.8738234E+004  2.6576796E+004  3.5051354E+004  3.9311275E+004  4.5890480E+004  4.2768426E+004  5.5977106E+004  5.9840771E+004  7.2709659E+004  7.7561131E+004  9.7535966E+004  1.0084464E+005  9.0072276E+004  1.1479185E+005  1.0979899E+005  8.7312514E+004  5.1978845E+004  8.2884261E+004  1.0749030E+005  1.2800362E+005  1.3810457E+005  3.0040969E+004  8.1846040E+003  4.7529627E+003  3.3534436E+003  1.3815458E+005  1.4255302E+005  2.8393530E+001  6.5976434E+001  2.2498891E+004  2.0089959E+002  1.3728852E+002  3.0406193E+002  1.7033311E+004  7.3501235E+002  6.3414583E+002  1.3179830E+004  6.0393769E+004  6.7437673E+004  5.6109009E+004  7.7780025E+004  6.7581261E+004  9.2027716E+004  9.0085476E+004  1.3419503E+005  1.7031374E+004  1.7944153E+004  5.6911840E+003  1.7282652E+004  1.0280342E+003  1.6363105E+002  3.8273460E+004  5.7876673E+003  7.8473391E+000  7.6985296E+000  2.7782646E+003  2.2320744E+003  8.8992872E+002  1.0613990E+005  1.3071603E+005  1.4733766E+001  1.6390070E+005  1.5121153E+005  1.7288405E+005  1.5128427E+005  1.8955297E+005  1.6935212E+005  2.2757580E+002  1.4138781E+004  1.1067218E+004  4.0908285E+004  5.6599237E+003  1.7254720E+003  1.1621745E+002  5.5113772E+002  4.8859317E+002  7.8833628E+004  2.0460201E+005  5.8433197E+003  3.9251847E+003  1.1363108E+003  5.7781584E+004  4.0763166E+004  5.6444928E+004  8.3827061E+003  6.7074943E+004  3.9312755E+002  3.2081279E+002  4.1837636E+002  3.5429409E+002  1.0435266E+004  6.0530916E+003  3.2598401E+003  2.7124369E+003  1.7201216E+003  5.5740449E+002  1.1618197E+004  1.4385704E+004  6.1572434E+002  1.1326301E+003  4.2426925E+001  5.1299219E+001  7.0691327E+001  9.8076435E+001  1.8214685E+003  3.6986247E+004  3.0382720E+001  3.3154594E+003  3.2544453E+004  2.5616481E+004  2.0013331E+004  1.9170380E+004  2.7853317E+004  8.9124776E+001  1.0286334E+002  2.5911264E+005  3.2869282E+005  2.4040839E+005  4.9368011E+004  1.2152795E+003  1.4064567E+003  2.0460749E+002  2.7248861E+002  6.8043045E+003  6.8154798E+003  5.3146555E+002  1.4398632E+005  1.3013820E+004  1.5802498E+005  1.9419083E+005  2.5698668E+005  1.4262917E+005  1.7825662E+005  1.2143358E+005  1.8396175E+004  2.1992657E+001  1.4983652E+001  2.5583826E+002  7.7506248E+004  1.3294613E+005  2.9095775E+005  6.9967401E+004  8.5612206E+004  1.0775097E+005  7.7275721E+004  2.7561603E+003  9.7394920E+004  3.9437579E+005  4.3254147E+005  9.1949976E+000  1.0393209E+003  1.6502210E+005  1.6456138E+002  1.0141452E+004  1.0292578E+003  2.1221049E+002  1.3267095E+002  1.4507024E+002  2.0095210E+005  1.9050916E+005  3.9177271E+003  2.2520578E+003  6.0607932E+001  3.0495738E+004  2.0501811E+004  2.6313877E+004  1.1783025E+004  1.8292110E+002  8.6399980E+003  2.4106738E+003  2.0974477E+002  1.6753992E+005  1.8263826E+005  1.5073877E+004  1.6741326E+005  2.5991673E+004  1.1462562E+001  1.3991776E+001  3.5345422E+000  4.9017875E-001  2.8054824E+000  3.7869957E+004  5.0729448E+004  5.0787584E+003  6.0920491E+003  4.1168116E+003  9.5977919E-001  1.0240480E+003  1.2748894E+003  1.6438088E+003  3.2749245E+005  2.8428339E+005  3.7590238E+005  4.5052898E+005  3.8555478E+003  2.9346807E+004  3.2097923E+004  2.9067115E+004  2.0565551E+004  1.8617558E+004  1.3805739E+004  3.6323446E+005  3.3231590E+003  2.0673922E+003  5.2869498E+003  3.2085053E+002  1.1040067E+003  5.1363757E+005  4.6991690E+002  1.4171058E+004  7.2726330E+002  8.5915453E+003  1.8229599E+005  1.9275532E+005  1.7751174E+005  2.3680345E+005  3.7790797E+002  2.3414017E+004  1.9150632E+005  2.7821908E+005  3.9707673E+004  1.4601549E+005  5.4188991E+003  1.0633385E+005  7.6564208E+003  1.0749590E+004  1.3614898E+005  5.5778129E+004  1.9064912E+004  5.1576346E+004  4.0187087E+004  4.3441826E+004  1.5933322E+001  7.5303939E+002  1.0368583E+003  3.1523777E+004  4.1679373E+002  8.0207279E+004  1.7397680E+002  3.4103953E+002  1.0621766E+002  2.0708280E+003  5.8324069E+002  4.0332726E+004  2.2176149E+001  2.6429292E+003  3.4031763E+005  4.6962809E+003  3.9014637E+002  6.5159377E+004  1.4254975E+005  1.0913158E+005  3.8818787E+003  5.3449290E+003  3.7666317E+003  1.0061704E+002  3.3920760E+003  2.9320411E+002  1.9626818E+004  2.9508881E+005  5.8725762E+005  3.3039949E+001  7.9858863E+001  3.1742541E+001  1.1768316E+005  2.8464378E+003  5.0009086E+004  6.4601265E+000  1.8911701E+003  4.2475895E+003  8.9693217E+004  1.4910858E+003  4.1633718E+001  6.2011766E+001  4.9480164E+004  7.3326174E+001  2.3999087E+004  2.0895343E+000  8.9086765E+002  1.7694577E+004  1.3603410E+004  1.3658689E+002  8.5537672E+003  2.9888822E+000  6.3327497E+004  2.0283197E+004  9.3598629E+002  1.6917099E+005  2.4178677E+003  1.2867199E+003  2.5460101E+004  4.2251562E+003  1.0241047E+005  3.0168699E+004  1.0613535E+004  2.2594009E+005  2.9110693E+003  6.7152744E+004  1.8074335E+005  6.7261448E+002  2.3527648E+004  4.0858912E+002  1.9925427E+002  1.4148242E+004  5.4695336E+003  1.2681061E+001  1.1794486E+004  3.9760966E+004  3.8288305E+004  1.7408989E+005  1.3929101E+003  5.9130125E+001  1.9159281E+003  7.1337023E+003  1.3919578E+004  2.8645531E+005  5.6565970E+000  4.6561709E+003  2.4013331E+003  2.0606948E+002  3.6421073E+004  2.5658292E+002  1.6400091E+002  2.8203593E+005  6.4635567E+003  8.4441222E+002  7.8229930E+001  1.3070199E+005  1.6078102E+005  2.2935998E+005  2.0409999E+005  6.8616901E+004  1.4478979E+005  2.0910269E+005  8.6654217E+001  5.8277938E+003  2.5284477E+003  4.8188664E+005  1.2132161E+005  2.4624730E+005  2.4666480E+003  8.2274121E+002  4.4983114E+002  1.8384144E+004  3.9288465E+001  6.0760489E+004  2.4313301E+004  1.8449685E+002  4.3453656E+001  3.4157616E+004  3.9714023E+003  1.8613095E+002  5.3405768E+004  2.1741217E+004  3.4087574E+004  1.3973481E+004  7.0703166E+002  4.7056461E+001  6.9797098E+001  8.3477681E+004  1.2826933E+002  4.2066818E+002  2.8447961E+003  1.2209637E+005  3.7293277E+005  7.5052720E+004  2.8193606E+004  6.3565409E-001  1.1888049E+001  2.9372353E+004  3.5574211E+004  2.8532085E+002  2.0708418E+003  7.6345186E+000  3.0494608E+000  8.7480635E+002  5.9042948E+003  4.4208947E+005  1.7071703E+004  1.2155815E+005  1.4535170E+003  5.0168631E+004  1.5653968E+005  1.8778851E+005  5.7440842E+004  2.0789369E+004  4.4654160E+002  5.3774585E+003  7.9810101E+001  1.9671457E+004  7.0155614E+004  4.6691690E+004  1.2982936E+003  1.6287625E+003  1.6239882E+003  1.0051293E+004  4.1130868E+004  3.3925706E+004  1.9781333E+004  1.8753571E+004  8.8670901E+002  1.6242308E+003  2.6201438E+003  3.9980767E+003  7.4658941E+003  9.3860284E+003  2.0085021E+004  1.3598648E+004  1.4533619E+004  3.6617173E+004  5.0345566E+002  1.0216171E+005  8.9724618E+005  3.7110259E+002  2.1108527E+002  1.3780390E+004  6.2501513E+005  3.7862056E+004  5.0649546E+004  4.7105268E+001  1.5252763E+005  6.0936525E+005  1.2802848E+006  2.9413400E+005  5.0473295E+004  4.7752487E+001  3.1421096E+004  3.6536004E+005  1.4973958E+004  1.2402017E+001  9.2611621E+005  1.3005761E+005  4.5462687E+005  1.4467444E+006  1.3721007E+004  1.8021424E+004  2.5283860E+004  1.4433819E+004  1.6719568E+004  3.0050604E+002  9.6557821E+003  6.5565566E+002  1.1129792E+003  4.9663483E+003  2.3134020E+003  3.2560293E+003  1.8892867E+005  5.4727988E+000  8.7480880E+003  2.5402613E+005  1.5923309E+006  1.9021007E+004  9.2338252E+000  2.2538781E+004  2.9144846E+004  3.5561233E+004  3.3202005E+004  2.7149954E+004  3.0665738E+004  3.7275742E+004  3.3820301E+004  4.2161630E+004  3.8340561E+004  4.8400569E+004  4.5518139E+004  5.6699229E+004  5.2682908E+004  6.7184442E+004  6.4629374E+004  8.1296237E+004  7.9655413E+004  9.9816153E+004  9.9484269E+004  1.2339047E+005  1.2871454E+005  1.5772668E+005  1.6393235E+005  2.0440037E+005  1.9221483E+005  2.5063342E+005  2.3312805E+005  2.9912183E+005  2.7562204E+005  3.5050032E+005  3.1688507E+005  3.9985424E+005  1.2864151E+005  1.6666003E+005  1.3395343E+005  1.7145754E+005  1.4664667E+005  1.7970533E+005  1.5343075E+005  2.0619617E+005  1.9091702E+005  1.5895462E+005  6.9713286E+004  3.5898305E+005  1.0807609E+005  1.2618794E+005  1.2929962E+005  5.9525259E+004  1.6506618E+005  1.3796177E+005  1.0959778E+005  1.1530790E+005  9.2230798E+004  9.2391885E+004  1.2069829E+005  9.9120621E+004  7.5926160E+004  8.0475152E+004  6.1978679E+004  6.2186268E+004  8.4115799E+004  6.7527447E+004  1.2902022E+005  4.9577891E+004  5.3136979E+004  7.1745245E+004  5.2910747E+004  7.4744297E+004  5.6290882E+004  4.0358534E+004  4.2051016E+004  3.0386675E+004  3.1354212E+004  4.4901535E+005  8.7967608E+004  3.8372458E+004  3.9371025E+004  4.3298741E+004  3.1666626E+004  8.1518593E+004  2.2165405E+004  2.2690003E+004  3.1407652E+004  2.2081796E+004  3.0271462E+004  2.0858058E+004  1.5556527E+004  1.4258258E+004  1.8956210E+004  1.2703590E+004  9.4745871E+003  8.4371303E+003  1.0980500E+004  6.8189687E+003  8.9737663E+003  5.5006579E+003  1.6425475E+004  4.2717756E+003  3.3949759E+003  3.8685061E+005  2.5122809E+005  4.0056467E+005  1.5537952E+004  6.1126325E+003  6.9438328E+003  6.7206607E+003  3.2033342E+004  5.0660800E+005  1.3580379E+004  3.2248559E+005  5.6472500E+005  1.7571508E+005  7.4291644E+004  2.5702095E+003  2.1099518E+003  4.3745396E+004  4.1020359E+004  2.5288575E+003  1.5340695E+003  9.6835726E+004  3.6352074E+004  1.8379425E+005  2.8427982E+004  7.1145215E+004  2.0984978E+005  4.7823253E+003  1.1827089E+004  1.3241689E+003  8.7771821E+002  1.0223531E+003  2.4993734E+004  4.9850191E+003  5.8561054E+002  2.6406484E+004  1.0698259E+004  3.5797336E+005  1.0246696E+005  2.9030838E+005  5.1147024E+004  6.4406205E+005  7.1426522E+005  3.1524231E+003  2.1223267E+003  2.4283688E+003  5.9895775E+004  5.1065517E+002  3.2530328E+002  2.0285400E+004  2.2370834E+004  2.7665977E+005  3.3295735E+004  5.7699200E+004  6.8357438E+004  2.2772687E+005  2.7626056E+005  1.4210165E+004  1.0359833E+004  1.3359950E+004  6.2658879E+005  3.5061617E+003  8.4594664E+003  9.0505715E+003  6.8622273E+003  5.0891699E+003  6.8152183E+003  5.0677293E+003  5.7804920E+004  2.2509368E+004  2.0591001E+004  3.2032761E+005  3.9166555E+005  5.6975478E+004  6.6270128E+004  5.6102633E+004  6.5296106E+004  5.5421109E+004  6.4936945E+004  5.5450755E+004  7.5648366E+004  6.5387742E+004  5.5401202E+004  6.6204846E+004  5.6321668E+004  7.7536222E+004  4.6351531E+004  4.7814420E+004  5.7328230E+004  4.7090233E+004  5.8928530E+004  4.9871158E+004  3.9809505E+004  4.2075582E+004  3.3703916E+004  3.5567050E+004  3.1581662E+004  6.1188682E+004  2.2807784E+004  7.8406685E+004  2.4776393E+004  3.0602024E+004  1.6756008E+003  1.4448848E+003  3.0912581E+002  1.8849420E+002  4.3227739E+002  2.8322440E+004  3.0100886E+004  3.7513339E+004  3.1994458E+004  2.5443334E+004  2.7345468E+004  1.8385167E+003  8.2164282E+005  7.3622013E+005  9.0780960E+005  3.3995826E+003  6.5603229E+003  6.8310427E+003  9.0688286E+003  6.0479941E+002  1.1246304E+003  1.6415529E+004  1.7761809E+004  2.3735810E+004  1.8343344E+004  1.3552839E+004  3.9529420E+004  7.2323299E+004  9.6936709E+003  2.5694755E+003  2.6219492E+005  2.3601460E+005  3.9337438E+004  1.8340326E+002  5.3412055E+002  1.8464707E+002  2.8822164E+005  1.2334168E+004  9.6226615E+001  1.1330388E+003  4.9918189E+003  2.1629682E+004  2.3483607E+004  2.0257189E+004  2.9071902E+004  2.5245958E+004  2.0304527E+004  2.1879127E+004  2.6862940E+004  2.3512902E+004  7.4661058E+003  6.2251022E+003  4.9031962E+004  5.0237999E+004  4.0694409E+004  4.1066532E+004  1.9154320E+004  2.0580505E+004  1.8719366E+004  6.1754560E+004  5.6802694E+004  3.7851426E+004  3.7395233E+003  3.8091721E+003  1.6763163E+004  5.1211644E+003  3.4771998E+003  2.3229538E+004  2.8619936E+004  1.8633175E+004  9.0278906E+003  3.6952757E+004  1.3072796E+003  1.5086278E+004  2.5780162E+003  1.8953575E+003  1.0908728E+005  1.1003796E+005  7.8438703E+004  1.0309898E+005  3.0078756E+005  2.3320293E+005  2.5909651E+004  2.5707702E+003  4.3834366E+002  1.8757285E+004  2.0325177E+004  3.2894403E+004  7.4371153E+004  2.1479620E+005  2.0464145E+004  1.7157018E+004  3.1655550E+004  4.9025739E+004  3.7035387E+005  3.2336982E+005  6.7559304E+003  8.9146622E+003  2.0713103E+003  2.3062858E+003  6.0704332E+004  9.7090838E+004  1.7225352E+004  3.4821670E+004  2.6673442E+004  3.3745629E+004  1.0264744E+006  1.1773674E+006  9.9363259E+005  1.2488824E+004  5.1430935E+004  1.4844092E+005  1.0107246E+005  1.0293880E+005  1.1282086E+004  4.6378544E+004  7.0750293E+004  3.7668760E+003  2.9206331E+003  5.8286124E+003  2.4891891E+004  2.5577129E+004  1.4441882E+003  1.2885432E+006  7.5668761E+003  3.5951396E+004  1.6172209E+003  1.0584029E+003  8.2759466E+002  7.0024535E+002  8.5273667E+002  5.7827981E+002  4.8316593E+002  5.0501152E+004  1.8729772E+005  2.0958659E+005  1.6944273E+005  1.8394469E+005  1.4805767E+005  1.6114240E+005  2.6744312E+004  2.2740293E+004  2.5825201E+004  2.9171899E+004  3.6610076E+004  2.7623705E+004  2.3979801E+004  4.5112976E+004  1.9359528E+004  1.5836967E+004  1.7137961E+004  7.1528710E+003  5.1069787E+003  6.0047753E+003  7.8699881E+003  2.8148210E+002  2.3325467E+004  4.8781228E+003  4.0057334E+003  4.8548895E+004  3.1842340E+004  4.0443896E+004  3.7061427E+003  1.3056244E+004  9.9334688E+003  1.1541418E+003  4.7499172E+004  1.5245166E+004  1.9270423E+003  1.3314547E+004  1.9826731E+004  1.4535368E+004  1.6913748E+004  1.0278678E+004  1.8972601E+004  5.3405158E+004  4.3372878E+003  1.7228247E+005  2.1037275E+005  1.3748187E+005  1.7004433E+005  3.1629247E+004  1.8323257E+002  1.0134431E+002  1.0267143E+002  4.7805693E+001  4.4410410E+004  3.8455027E+003  4.3625327E+004  2.4196145E+004  1.3728650E+005  4.8092802E+005  4.0942476E+005  5.6859188E+005  4.9313030E+005  3.4857537E+005  4.3362676E+005  5.7702928E+005  5.0842001E+005  6.6764748E+005  5.8291844E+005  7.6647171E+005  8.7229137E+005  3.8035111E+005  2.9731337E+005  6.4568405E+004  6.4492088E+004  8.3006940E+004  8.4504322E+004  1.0573733E+005  4.9652821E+004  1.0901314E+005  1.3563501E+005  3.1887028E+001  7.0676421E+002  1.0332178E+004  6.9985393E+003  5.4235165E+004  8.0268615E+002  1.2366246E+005  1.7208936E+005  2.2122831E+004  3.9110930E+004  1.7992558E+004  4.0298400E+004  1.8435564E+004  1.7024290E+004  2.1105786E+005  6.2364629E+004  1.4181379E+003  5.2999561E+003  1.5876033E+004  1.1435497E+004  9.8287336E+001  2.5437728E+003  7.2563222E+001  1.6799986E+002  1.7820850E+004  4.0661507E+003  4.9191048E+003  2.3987188E+004  2.1728545E+001  1.6474262E+004  4.2930290E+004  6.6340789E+005  4.4187737E+004  3.4055598E+004  4.4496798E+005  2.2999226E+005  5.7053333E+005  4.9727525E+005  5.4853693E+005  6.8551670E+005  5.9911776E+005  7.3467332E+005  5.0482816E+005  4.4035183E+005  2.8576189E+005  7.8430571E+005  3.4867219E+005  9.0989825E+005  2.3736033E+005  2.6047250E+005  2.5845574E+005  1.1176745E+006  1.4779914E+005  1.2681400E+006  1.3835469E+006  4.5878237E+005  6.5558470E+004  2.0165361E+005  1.8428237E+005  3.3298186E+005  2.7872377E+005  4.3378020E+005  1.1726610E+006  8.5989976E+005  3.1085216E+005  1.7132938E+004  1.8148586E+004  2.8518346E+003  3.0977905E+003  1.8680247E+004  1.6015123E+004  7.5747578E+004  6.6919035E+001  1.9960575E+001  5.4796504E+004  3.7124569E+004  4.6080498E+004  3.5168210E+004  3.7344106E+004  4.4176038E+004  2.0985226E+004  5.6412881E+002  1.0040609E+003  1.6494155E+004  1.4593343E+003  8.6072949E+002  2.1895590E+004  1.8309137E+003  1.7389840E+003  2.5666926E+003  1.4756512E+003  9.3574757E+003  1.3253515E+004  4.0329004E+003  4.3616258E+003  7.9829228E+003  1.3703309E+005  1.4969128E+004  2.9024054E+004  2.0057543E+005  1.5574621E+005  4.7803289E+004  5.1855554E+004  2.7887897E+004  3.1019263E+004  3.6430879E+004  6.2685813E+005  1.0667763E+006  4.7722613E+005  3.0206318E+004  2.6901744E+005  4.1713540E+005  9.0596698E+004  2.7698800E+004  1.5133862E+005  9.6727177E+005  1.5401337E+004  8.8794487E+003  1.2332504E+004  2.0734639E+004  4.3903480E+003  5.3455709E+001  9.0344833E+002  4.0238149E+003  7.5391799E+003  7.6362490E+004  2.6381360E+002  1.2188553E+004  5.4312269E+003  8.2570733E+004  3.0739581E+005  8.6049761E+004  3.4143036E+004  1.7728904E+004  2.1264524E+005  1.7879208E+004  1.0042010E+003  1.6494452E+003  5.1305443E+003  7.5238625E+004  2.1704468E+002  2.5280233E+005  2.3727078E+005  4.4174934E+004  6.1898279E+005  3.2477275E+004  2.0317056E+000  6.6848248E+004  8.8898462E+003  4.1182452E+003  3.0640312E+004  6.2770234E+004  1.9105056E+003  2.1494723E+003  8.9072511E+004  9.1248690E+004  9.8591002E+004  1.3153621E+004  7.4653261E+004  1.2956891E+005  2.8539972E+004  5.9875515E+004  1.1436529E+005  6.1093904E+004  1.2661726E+004  3.2327665E+002  4.0217284E+004  1.7834943E+003  6.7066693E+004  7.3434008E+003  2.0826195E+004  2.9122533E+004  1.0249061E+005  1.0437776E+004  7.6389406E+004  7.6082953E+005  4.0943227E+004  2.1892912E+005  1.4602322E+005  1.2386008E+004  4.8259114E+000  2.7658965E+004  5.0115218E+003  2.0012815E+005  3.2993350E+004  1.0724436E+004  2.2431734E+004  5.0922865E+005  1.3183722E+002  1.1796889E+003  8.0981219E+003  1.0887889E+004  1.6615752E+004  2.0238379E+004  9.0025798E+004  4.7211635E+004  6.8248061E+004  4.1033523E+004  1.9940520E+005  1.1711790E+004  2.6195776E+004  5.7211892E+002  2.1198395E+005  1.8821566E+004  4.1554937E+004  1.1918977E+005  3.2770022E+005  2.2863468E+005  9.3533038E+004  8.0131524E+005  1.3718037E+005  8.6748538E+005  6.7842084E+003  4.6069276E+004  2.2780664E+004  9.2135155E+004  7.3425482E+002  5.8144385E+004  2.7077602E+004  2.1610084E+003  1.7495924E+004  3.4505087E+004  1.7794151E+004  3.3404836E+005  8.6622854E+004  7.8022865E+004  2.2636547E+004  3.2049333E+004  3.8868466E+005  6.0097197E+005  8.6603189E+004  8.8236539E+004  8.9497019E+004  9.8407962E+004  4.0525353E+004  5.6164714E+002  3.8511930E+002  1.5663003E+004  1.2642206E+003  6.0527231E+003  2.2512763E+004  2.5401644E+004  1.0014060E+005  2.8780331E+003  9.7504282E+003  2.9035540E+001  3.6571698E+002  1.2163183E+005  3.9270927E+005  9.1275940E+004  3.7120889E+005  3.5340246E+003  2.3687767E+005  6.5196422E+005  9.8242516E+003  8.6886119E+004  9.8581737E+004  4.0571780E+002  9.7663085E+004  4.7521732E+004  4.1820062E+004  1.4904687E+005  1.9144600E+004  3.2334065E+003  2.3560834E+004  4.3119400E+003  4.3516420E+005  2.2151005E+005  1.0690211E+006  6.3773856E+002  9.2521814E+004  2.0389208E+004  5.8003999E+004  1.8479620E+001  1.5155203E+005  2.0242272E+005  3.6508396E+004  2.9854380E+004  8.3518929E+003  1.3014733E+004  1.3150377E+005  6.8586958E+004  7.6455419E+003 -2.2547171E+002  8.0961972E+004  1.2937151E+004  1.8003583E+005  1.3023111E+005  1.2521594E+001  4.7092991E+003  1.6062103E+003  1.1396987E+005  4.7154446E+004  2.5690086E+005  2.6388789E+005  6.4173100E+003  5.6321670E+004  2.7646097E+004  1.3555531E+004  1.1127845E+006  1.5791197E+004  2.8478429E+003  8.5787832E+004  2.4530294E+005  1.7349782E+004  6.5735231E+003  1.5172116E+003  7.9268221E+005  2.4661794E+004  4.1198631E+004  7.9768753E+001  4.6360131E+005  2.7605950E+003  1.0486094E+005  1.0824820E+005  5.2340778E+003  4.1915142E+004  7.7675684E+004  1.2315313E+005  5.3206508E+004  1.0588786E+005  6.0042062E+004  6.1295841E+002  1.2145674E+005  1.1908284E+006  5.0724676E+004  1.1082310E+005  4.4297031E+004  4.6286069E+003  1.8170449E+004  3.1653746E+004  1.8022217E+005  1.7574378E+003  2.7217675E+004  2.9193224E+004  5.5371503E+001  3.0396454E+000  3.2721320E+002  8.7436614E+000  2.5686556E+001  1.0236280E+002  5.4891148E+002  7.3856090E+002  3.2119766E+002  3.2651966E+002  5.6152217E+002  3.2479675E+001  4.3099749E+002  1.5116468E+001  1.4184081E+001  2.8892420E+002  2.0127819E+001  4.2288606E+002  2.3663143E+001  7.5223017E+002  9.2162783E+002  4.4737474E+001  2.5409789E+002  8.2893994E+001  1.0296968E+003  3.4394303E+001  9.8837982E+001  1.2034265E+002  2.8686677E+001  4.6469948E+001  6.4103392E+001  5.8501161E+001  6.4082552E+001  8.2113411E+001  1.1335072E+002  7.5642317E+001  1.0998737E+002  9.7637135E+001  1.0651921E+002  1.2880699E+002  2.0223423E+003  1.3295537E+002  1.4026527E+002  1.2969085E+002  1.2592362E+002  1.2944442E+002  1.2455902E+002  2.1771604E+000  1.4903945E+003  1.9919744E+003  1.3971893E+003  7.4666311E+002  1.1872210E+003  1.8184970E+001  1.4663579E+001  1.4140999E+001  2.5445850E+002  2.0428224E+001  1.7298002E+001  3.3087471E+001  4.0821605E+002  2.4288405E+002  2.8562352E+001  3.2026329E+002  5.8018192E+002  3.3907173E+002  9.1561372E+002  4.0777936E+001  1.0332695E+003  7.1073798E+001  1.2410778E+003  5.8127441E+002  1.5140599E+003  1.7233641E+003  2.0387152E+003  2.1610140E+003  2.0825086E+003  2.1508092E+003  2.4021198E+003  2.0842857E+003  1.8478371E+003  2.2924241E+003  2.1090661E+003  1.8361824E+002  3.5152335E+001  1.0484541E+003  9.6545267E+001  6.1714948E+001  5.1873252E+002  7.3517656E+001  4.2187084E+000  5.1546238E+002  2.5078719E+002  2.0875584E+002  1.0705078E+002  8.4344936E+001  1.3130790E+002  4.6187894E+001  3.9757469E+001  6.8686742E+001  3.5760717E+001  5.6269781E+001  9.4370046E+001  8.0886035E+001  3.4873794E+001  1.9308790E+001  1.2613540E+002  1.0785365E+002  5.3526560E+001  7.0715930E+001  1.2629746E+002  3.6252386E+001  1.9014732E+001  8.3425597E+000  1.0422583E+001  1.5954072E+001  2.6496162E+001  4.5676642E+000  1.4423501E+002  3.2569718E+002  1.7569098E+002  2.2280075E+002  1.1939114E+002  1.6254400E+001  6.1833092E+001  5.2327495E+001  1.8381666E+002  2.2772181E+002  2.7976250E+002  5.5112954E+002  6.0886948E+001  3.5875236E+002  8.2328497E+002  1.4262716E+001  6.4949413E+001  6.4129415E+001  6.6899168E+001  1.6224730E+002  1.4967160E+002  1.7360034E+003  9.3127454E+002  1.0866194E+003  8.3094928E+002  2.7830324E+002  1.5993866E+001  6.9792050E+001  1.2846381E+002  5.2069781E+002  5.4667561E+002  1.3205353E+003  1.0119691E+002  5.7782620E+002  5.9812580E+002  1.3974112E+003  3.5061276E+001  1.4294653E+002  1.5022080E+002  3.5757445E+002  1.6140836E+003  8.8160033E+002  8.9223401E+002  8.4168500E+002  2.7109655E+002  2.5100725E+002  1.1625458E+002  1.2834628E+002  4.0149242E+001  1.9025190E+001  7.7391968E+001  8.8661765E+001  2.0329412E+002  1.3437674E+003  7.3851599E+002  8.0234334E+002  7.0786718E+002  2.2978620E+002  5.4237741E+002  2.6824536E+002  3.3817203E+002  9.9628761E+001  1.2735413E+002  3.2613476E+002  5.3480972E+002  2.4343441E+002  3.3991427E+002  1.7935478E+002  1.8437490E+002  1.8114305E+002  6.6304147E+001  5.6341940E+001  3.2443340E+001  1.6177065E+002  8.3755868E+002  4.5520370E+002  5.2492860E+002  1.6512809E+002  4.2332961E+002  2.3732396E+002  2.5717278E+002  7.2830914E+001  1.0103485E+002  1.9873219E+002  1.1650209E+002  1.1222064E+002  3.5281094E+001  2.6945579E+001  9.4717245E+001  9.5471509E+001  7.5381155E+001  2.7179076E+002  3.2575033E+002  6.1842856E+001  2.4420514E+002  2.3267102E+002  1.7973780E+003  8.5622327E+002  1.0198376E+003  3.0747890E+002  8.9386985E+002  4.7001232E+002  4.6612469E+002  1.4464192E+002  4.8591290E+002  9.2802263E+002  3.8792495E+002  4.2275547E+002  8.4709406E+002  3.1467677E+002  4.9813014E+002  1.8844744E+002  1.7205301E+002  4.5063389E+001  1.9578156E+002  2.5826744E+002  1.4556820E+002  1.7900350E+003  6.7024504E+002  1.2799588E+003  1.1197240E+003  6.2280192E+002  6.1674765E+002  1.9693961E+002  8.8169470E+002  8.9214602E+002  9.0789770E+001  3.1792923E+002  3.3072293E+002  7.8357870E+001  4.0772871E+002  7.7221909E+001  1.0538154E+002  4.1279294E+002  3.6043430E+001  1.8851684E+002  5.0724225E+001  2.1606991E+002  5.7959509E+001  7.2475866E+002  1.4023631E+003  7.4094060E+001  1.3464618E+002  2.0589132E+001  2.1790679E+001  1.2533993E+002  5.2806836E+002  4.9039668E+002  1.0099309E+003  1.5833866E+001  2.0825528E+002  1.0366545E+002  6.9486643E+002  6.0926250E+002  4.4863054E+002  4.1868099E+002  3.3981359E+002  2.0652943E+002  9.1221201E+001  4.2283326E+002  1.1977894E+002  4.9448352E+002  2.3991017E+002  1.6464758E+003  7.8477086E+002  1.2772138E+003  4.7029103E+001  3.0190296E+002  9.9665461E+001  1.4820809E+003  8.9598286E+002  8.6340591E+001  1.8678713E+001  8.9120163E+001  1.0110716E+003  1.2624681E+003  5.8825187E+002  1.1808552E+003  9.3209172E+000  1.0218408E+001  3.6042553E+002  6.4320973E+001  1.5821883E+002  2.0105317E+002  4.5968551E+002  5.5769135E+002  7.3775196E+001  4.0781184E+002  1.2770636E+002  4.4361344E+002  1.1329009E+001  5.3790376E+001  2.0301810E+001  1.4075274E+002  7.8722098E+001  7.4270122E+002  2.5002454E+002  2.0504582E+002  4.4488032E+001  1.2824312E+000  1.1949053E+002  1.8147847E+000  1.2084209E+002  1.4651881E+002  1.2287117E+002  7.1650369E+001 -1.2183848E+000  1.1915501E+002  4.2652468E+001  2.8819610E+002  3.3142281E+001  3.2552274E+001  1.3180215E+001  1.3956348E+001  5.3830249E+001  6.4222127E+002  7.2958520E+002  9.4311868E+002  1.3257891E+002  2.1763890E+002  2.6901589E+002  7.8421291E+001  9.5497473E+001  4.7043981E+002  9.5694546E+002  3.2851599E+002  1.9796414E+002  1.8680307E+002  6.3659505E+002  4.7161972E+002  2.2276691E+002  5.7650344E+002  3.9146881E+002  4.2677096E+002 -1.0215965E+001 -8.7004015E+000 -3.7514213E+000  1.9119882E+002 -8.5738487E+000  8.6880189E+002 -1.0926631E+001 -2.7947859E+000 -2.2779497E+000 -5.0157985E+000 -8.4520007E+000  1.5920439E+002  5.6714978E+000  6.0971738E+002 -1.0269530E+001  1.4809570E+002 -2.5204709E+001  9.8462021E+001  8.3714690E+001  2.1962302E+002 -5.6214989E+000  3.2776950E+001  9.0923091E+001  6.6169822E+002  2.6851824E+002  2.4294413E+002  9.1673802E+001  5.2879861E+002  4.4287549E+002  4.5379608E+002  2.0186384E+002  9.2254039E+001  3.6285196E+001  1.9088680E+002  1.9403667E+002  7.4283780E+001  2.1301672E+002  1.7693938E+002  3.5229379E+002  6.2794372E+002 -5.5943411E+001 -1.3090305E+000  1.8698314E+002  4.8990335E-001  4.4637277E+000  8.7445680E+001  2.3622816E+002  6.9718366E+000  1.2934130E+002  9.0695150E+002  7.2124806E+002  3.3989030E+002  1.6328866E+002  2.1916957E+002  1.9152339E+002  1.0402830E+002  4.4421148E+001  7.0365112E+001  1.0051862E+002  8.5278622E+001  1.3282105E+002  2.2850526E+002  6.1200802E+002  1.1033824E+002  1.7970658E+002  3.0874537E+001  1.3864718E+002  7.2109623E+001  2.4265766E+002  4.9983498E+001  2.4231190E+002  2.8585301E+002  1.0312509E+002  3.2841591E+002  2.7601268E+002  1.0691557E+002  9.4181888E+002  9.0760274E+002  3.0873679E+002  3.1745652E+002  2.6651618E+002  1.3826707E+002  1.8221295E+002  4.2238592E+002  6.4194982E+001  1.6324950E+002  1.7540520E+002  3.7980307E+001  1.7316730E+001  3.9435294E+002  2.7126964E+002  2.9273237E+002  2.6677139E+002  1.9562319E+002  1.5581655E+002  6.0743156E+002  8.5565095E+001  8.8363884E+001 -2.5386516E-003  4.0209553E+004  5.1930650E-001  3.0476143E+001 -1.5127031E+003  1.2954198E+002  3.2326243E+001  2.5827332E+004  2.1619055E+002 -2.2849396E-001  3.3958877E-002  2.4736157E+003 -2.3665646E+000 -5.7684329E+000  4.9992319E+000  2.0060875E+002  1.6703625E+004 -2.0755104E+001  9.9413138E-005  9.4001599E+003  8.8972544E+003  7.3822735E+002  1.9360812E+003 -1.1280925E-004 -6.5963343E+001  4.1934681E+004  8.4008660E+000  2.3500232E+000 -1.5062662E-006  2.2683585E+001  5.8245281E-005  7.3417733E-002  2.5557234E-003  1.9746825E-004  1.7358712E-004  7.1369388E-003 -5.2865708E-003 -4.0835353E-004  3.8022085E+004  1.6282765E+003  9.6637920E+001 -4.1098648E+003  6.9456022E+001  1.4628399E+000  8.7806585E+004  2.5899429E+003  1.8400093E+004  1.2946798E+003 -3.5060921E+002  6.0630491E+002 -8.4257768E-003  2.5639306E-001 -2.2884282E-002 -2.7278860E-001  4.6718224E+001  1.1122412E+003 -2.1896253E+002  1.2137679E+004  7.3738155E+001  4.6178165E+000  1.7101502E+002 -1.0311840E+000  2.0083989E+003  2.7513032E+003  7.5579675E+004 -1.7196838E+003  7.1802323E+003  4.1404992E+002  6.4749156E+003  3.1985614E+002  9.7356080E+002  1.0573608E+003  1.5673913E+005  6.5081384E+000 -2.1476325E+001  5.5643791E+001  3.7652474E-001  4.4280023E+002 -2.9387723E-001  1.2815091E+002  1.0478363E+004  5.5303836E+002  1.2835506E+004 -8.8202267E+001  6.0701551E+003 -1.4119218E+001  8.5709334E+000  6.3232975E-005 -1.2442655E-003  2.0647780E+004 -4.3765211E+000 -4.1552941E+002  1.9706522E+004  2.2380426E-001  1.7610391E+005  3.3839034E+001  9.6044174E+001  3.1176155E+005  2.0177884E+001  1.0749851E+005 -6.1476122E+001  7.6960430E-004  9.7277170E-006  1.4822830E+001  1.9248033E+002  9.8453826E+000  6.1897452E-005  3.7876736E+002  4.1360933E+004  3.3729477E+003  4.3573232E+005  1.2340750E+002  4.3882844E+002  3.6085209E+001 -2.7925521E+002  2.5136413E+004  6.2662618E+001  1.6833352E-003  2.6682961E+003 -9.2948805E-005  2.3034585E+005  1.0417991E+002 -2.7160777E+000  6.2626023E+004  1.0837010E+002  1.8228074E+003  2.8124941E+001 -2.8955594E-002  8.5996028E+003  2.1219621E+002  8.8852592E-001  7.8969504E-004  2.1211256E-006  1.1450273E+003  8.7479179E-005  6.0978211E+002  2.4506541E+004  9.4526449E+003  3.2634390E+002  2.8878118E+003  3.6011100E+003  1.1756170E+003 -1.9375075E-003  5.7235847E+003  1.4165935E+003 -2.0885510E-001  5.7140397E+000  1.1619838E+004  6.8882849E+001 -1.4139174E-002  6.0715187E+002  2.2269714E-008  1.6008537E-006  3.9795071E-005  1.3560654E-004  4.3930911E-005  1.3717695E-006  4.6184821E-005  7.5169049E-005  4.8404325E-005 -2.5470644E-005  3.8461840E-006 -8.2461768E-005 -3.6443076E-004  3.8241713E-005  1.7641582E-004  3.9924275E-004  8.8861386E-006 -5.1782538E-004  2.8248757E-004  3.5767062E-004  9.2781367E-004  5.6967274E-006  2.2732635E-007  2.5074443E-004  1.8524627E-004  1.4755081E-004  6.9999739E-005  2.3779164E-008  6.7049581E-009  5.8165399E-004  7.5792650E+000  1.5198350E+001  8.8429752E+000  1.4166459E+001  2.2092168E+001  3.5221640E+001  1.0901099E+002  4.9784808E+002  3.6713611E+001  3.0090455E-006  1.0005177E+001  4.8685439E+001  8.0602649E+001  3.0001724E+003  4.4574237E+001  1.5630288E+002 -5.3581915E-006  2.0337438E-008  1.9977186E+001  3.0617472E+001  3.0296440E+001  3.4526449E+001  3.7303789E+003 -2.8905973E+002  2.0243636E+001  1.0984944E+002  9.8694863E+000  2.6448056E-015  1.1497214E-002  2.0161582E-013  2.8501063E+001  1.8454944E+001  3.6399250E+001  1.3770297E-015  2.3046440E-010  9.1934637E+000  3.0123563E+002 -2.1594845E-013  6.1839402E-015  1.7877098E+001  4.7407237E-007 -5.2295698E-007  8.0787906E-007  4.1096089E-009  2.4069722E-007 -5.1351787E-007  6.6474582E+000  2.7853414E+002  2.1720667E+002  9.7476333E+000 -1.8159586E+000  5.9928523E+001  5.1455289E+000 -9.7799471E-012  9.4011632E-004  2.2443417E+000  1.2762867E+000  1.5999399E-002  1.1856031E-001  1.6240925E-003  2.7990899E-003  2.6960339E-002 -1.7237635E-004  1.7389639E-002  3.9980998E-005  3.7902056E+003  5.1293551E-014  2.8894865E-015 -2.4779698E-003  1.0292428E-001 -7.3189388E-006  2.8826693E-005  6.0282244E-005 -1.2621695E-002  6.9593391E-004  3.2979297E-002 -2.8662107E-004  2.6108801E-002  1.4388677E+003  6.8824998E+002  4.8063180E+000  3.3820637E+000  9.0582125E+000  5.9036909E+001 -9.5038322E+000 -8.1750281E-004  1.3018787E-003 -6.8980636E-005  1.8278072E-005  1.8618859E-003 -4.8684048E-005  3.3414631E-004 -1.2356256E-005  8.6631928E-006 -6.3504691E-007  1.3491642E-006 -6.6767195E-008  4.0893671E-005  1.3842233E-007 -4.6880464E-009  6.2282422E-008 -1.8255716E-009  1.3174900E-008 -5.2803698E-010  3.0845193E-010 -3.2760261E-011  1.5814814E-012 -1.0107351E-012 -7.1426467E-013 -9.9933739E-014 -1.2344454E-015 -6.1661620E-003  1.3205509E-001  3.7996717E-012  1.0878327E-011  6.8507271E-003  2.1006483E+004 -1.5386224E-013 -5.5725620E-007 -3.8759399E-011  1.0050206E+002 -1.3667054E-013  3.3196057E-010  1.1917161E+000 -2.7155357E-006 -1.0018318E-006  1.3058667E-014  1.7662251E-009 -9.0761872E-014  4.4569377E-005  1.1940868E-001  1.2715835E-005  3.0845655E-008 -8.0445955E-007  6.8891010E-015 -1.4821213E-013  5.4898581E-016  6.0345176E-002 -4.5777237E-002 -3.4439492E-004  1.9283854E-005 -5.2262663E-015  8.0705839E-006  1.8745876E-006  1.1936078E-005  1.1752592E-006  1.4366277E-005  1.5055066E-006  1.7533062E-004 -4.1170767E-004  3.4010670E-003  1.7837880E-006  5.3673144E-005  1.2762201E+000  1.4450530E-005  4.3027620E-015 -1.0383697E-014  1.1206337E-006  1.8797775E-009 -6.2401507E-012  1.0592357E-015  2.5450023E-013 -3.5295834E-014 -3.9971848E-001 -3.0198815E-015  5.6078186E+001  2.1306444E+001  4.0833230E+000  1.7580282E+001  2.1158335E+002  6.2078121E+002  3.4610093E+000 -1.4246999E-003  6.8491516E-015  1.0441132E-002  8.7843036E+002 -2.6902553E-008 -3.6249090E-009 -5.4939607E-008 -7.9602924E-007  2.9002327E-009 -2.3587932E-008  1.4284740E-006  3.1952647E-015  1.4741194E-002  9.4765523E-004  1.1286697E+000  6.3795911E-001  2.4142921E-002  1.6466441E-001  2.2520316E-003  2.7766960E-002  7.2106097E-015 -6.2946286E-015  6.5078730E-016 -1.7587420E-017  9.1948475E-015 -2.9339464E-014  1.6949938E-002 -5.1855340E+001  6.0661651E-010 -9.8915359E-011  5.0705379E-002 -1.5202994E-003 -1.1700582E-002  1.9695545E-003  6.9043447E-005  5.0631433E-005  3.2328249E-003 -2.6931255E-005  5.4810478E-006 -1.7767330E-004  8.3408049E-003  5.5053711E-003  7.4330308E-005  1.0860403E-002  9.3214860E-002 -6.6347121E-003  2.9638018E-007 -2.6168875E-009  4.6422108E-007 -2.7944916E-007  1.0722187E+004 -2.4800085E+002  6.6298006E-001  2.7077075E-002  3.2189756E-006  5.7772500E-008  1.0499371E-010 -4.1565370E-008  3.5138672E-010 -2.7284890E-009  5.5543912E-010 -2.6089161E-009 -2.9802959E-007  1.3684759E-010  1.9081035E-008  3.9816350E-007  6.0806364E-008 -5.9835698E-009  1.5254685E+003  3.6044648E+002  1.2879145E-008  1.3126999E+001  6.1637296E+000  6.1363264E+001  4.5826616E+001  2.0294740E+001  2.2454562E+002  1.1962752E+002  3.4491580E+000  1.0842996E+002  2.6754728E+000  4.1870717E+001  2.0430756E+002  6.7327339E+000  1.0000769E+002  4.7893541E-001  1.7610669E+001  1.6709937E+002  9.9244193E+000  1.7855892E+002  1.3057914E+001  1.5126344E+002  1.2798188E+001  3.2193226E+001  2.7701756E+000  1.3353109E+002  1.0442760E-003  1.7680201E-015  3.2321648E-015 -5.6419905E-001  4.4549762E-006  5.0304029E-003  2.3672720E-002  3.0465548E-005  1.2381217E-002  1.3487953E-002 -8.1766350E-003 -6.6999422E-002  1.7545997E-002 -1.7788183E-004 -1.9797566E-001  2.5900691E-001  2.9538865E-001 -1.1118073E-014  8.3995645E-014 -1.1370120E-013  6.3925124E-013  7.2873434E+001  1.3942391E+000 -8.4445053E-010 -1.0224488E-009  1.8125617E-001 -2.6733905E-002  2.3822166E-004  2.0855390E-004  1.7589297E-003  1.7000063E-003  1.5108857E-002 -3.8259329E-003  1.3905898E+000  9.6817714E-002  6.5517547E-002  1.0444958E+000  2.8968721E-001  5.1655582E-002  2.0737063E-004  6.2953410E-003  3.5842366E-005  3.0973828E-004  4.2438114E-006 -2.4141795E-006 -1.5252118E-006 -1.0293684E-007  5.9831314E-004 -7.7744690E-005  4.4770197E-003  6.9133013E-009  6.0918164E-009  4.7995534E-013  5.9328024E-015 -5.5315425E-008  1.5181913E-009  5.3921029E-014  3.7014902E-001 -1.5784589E-014  2.4662530E-009  5.6132828E+002  3.1059718E-002 -2.2272459E-002  2.6032834E+000 -1.8743805E-001  4.6194043E-004  2.8849673E+002 -6.4801379E-005  7.5896161E-002 -7.5308891E-002  1.9380638E-003 -3.8294964E-003  2.0637457E+000 -1.7146581E-011 -2.2562705E-011 -3.6301242E-010  4.4701542E-011  5.2411856E-002 -1.0533118E+000 -1.7120701E+000  6.6283161E-002 -3.2078675E-002 -1.2691164E-011  6.7277993E-005 -2.2826213E-001  5.4685086E-002 -2.0844878E-003 -1.6291210E-002  7.7664053E-004  9.7523914E-003  1.4866434E-001  1.6622887E-001  1.7700278E+000  2.7226350E+000  1.1145970E-005  6.9256661E-008 -8.5382096E-005  1.5772362E-014 -1.3363478E-014  3.5083586E+004  2.2904593E+000 -8.4346195E-007 -3.0231784E-008  1.8105964E+000  7.7062335E-008  2.6418383E-008 -3.5194518E-009 -1.8032342E-009  1.1412284E-010 -3.2994649E-012 -1.8961966E-009  5.4032435E-011 -1.3604900E-010  2.4678212E-012 -1.0528602E-010  3.3483988E-012 -6.9932130E-013  1.0888374E-013 -8.1805396E-013  2.9583604E-014 -8.8771272E-011 -2.5145109E-009  2.7164938E-016  3.9544316E-015 -3.1294245E-013 -2.9329237E-010 -1.0461941E-011 -1.1038010E-009 -2.7941541E-014  7.3017132E-015 -1.1650335E-006 -5.5043047E-008  8.1587034E-015 -1.8207811E-015  6.4574953E-005 -5.3906880E-007  9.9135117E-002 -3.7288009E-003  7.0013315E+000  4.9260041E-001 -7.5351955E-001  1.0168492E+001  3.1492260E-001  9.6432432E-002 -6.3285175E-001  1.7999306E-005  2.1583163E-003 -3.1808033E-001 -1.1105213E-001 -1.8356605E-002  2.0524690E-002  1.9359873E-002  5.2298178E-003  1.0982887E-001  4.7538298E-005  1.4697381E-007  6.1397296E-003  2.3953693E-001  2.3464218E-002  2.8097271E-006  7.1351791E+001  1.0413177E+000  1.1799123E+000  1.4868115E-001  5.1019288E-001 -1.9061341E-015  1.2615810E+002 -2.4785845E-009 -2.7601589E-010  6.5569212E+001  2.1138932E-013  3.1029504E-013 -9.2000105E-012 -1.7517366E-004  2.9442567E-001 -1.1750298E-008 -4.5938762E-003 -2.7621410E-003 -2.9727958E-002  1.0698226E-001 -2.4381293E-003  2.0172737E-002  6.4780411E-002  3.1790840E+001  5.7810432E-015  1.1542041E-007  3.1344698E-009  3.2557531E+002  4.0968168E+002  5.3829177E-004  5.5974698E+001  2.6610590E-003  5.3863911E-001  2.7108088E-002  4.0423093E-001 -8.3004985E-004  6.1107696E-001 -5.6969007E-003  3.4986436E+001  2.2478264E-011  3.0297389E+000 -6.4757082E+001 -1.3096891E-006 -3.0602553E-005  3.8912557E+001  4.4882651E+000  2.0772446E-002  8.5977361E-004  1.2541084E+002  5.0928354E-003 -3.0222231E-005  1.5274114E+003  5.2821238E+001  9.5290251E-008 -1.2580690E-010  7.3461034E-008 -8.6208812E-010  1.2443427E+001  1.9439716E-007  3.5305987E-013 -5.1485717E-013 -2.2429268E-012  5.8163117E-015  2.6154787E-015  9.2944724E+000  1.9567780E+002  7.0639627E-002 -8.4539201E-005  1.2017939E-005 -5.9126272E-013 -1.9176409E+001  7.8312335E-005  3.8280019E+000  1.2381552E-011 -9.0164388E-001 -3.5518487E-015  2.6620235E-015  7.1237561E-015  1.7289816E+001 -4.3428712E-012  5.2011531E+000  1.9482525E+001  5.5744055E-001  2.9123431E+001  5.4370963E+000 -2.9230748E-003  1.0211743E+001 -4.5798503E-001  4.3056678E+000  1.6594788E+000  1.5744914E+001  2.8154197E-001  2.6384148E+000 -2.8385459E-001  9.7715519E-002 -3.0487701E-015  9.2583738E-015 -2.0669218E-018  1.6117313E+001  1.7223900E+002  3.2462714E-012  6.6402550E+003  8.1309892E+002  1.9347801E-006  1.5895793E-007  3.5434524E+001  1.4545543E+001  7.2163185E+000 -1.3020852E+000 -1.4322027E+001  7.7191304E-001  2.3083546E-005  7.1901132E-002  7.4284258E-013  4.4580862E-011  1.5221318E-012 -2.9591452E-002  2.4378493E-003  1.0793857E+000  9.6543932E-003 -6.1107297E-011 -1.5381330E-011  8.4178856E-014  1.3941716E-006 -5.2898062E-002  1.9299536E-008 -1.1498954E-010  3.9215790E-010 -9.4431512E-010  3.7663590E-011  2.4599051E-003  1.2706523E-002  2.3831273E-002  1.7850301E-001  6.3456539E-004  8.3111075E-002  8.7083921E-002  6.8053445E-001 -4.7066691E-001  2.6168930E-001 -7.2466581E-001  7.0956936E-001  1.1159000E-009  2.2693251E-010  5.7577862E-011  5.2467424E-010  2.8451482E-010  8.0843590E-011  3.8012846E+002  1.2524373E-001  7.2065563E+001  1.2565796E-001  4.1917531E-003  3.6208380E+001  2.5174609E+002  1.1997763E+002  7.5311305E+001 -2.7816474E-004 -5.7117187E-014 -1.9011339E-001  2.4537222E+000  1.5834151E+000  2.1701928E+000  6.5865380E+000  1.6412287E-015  1.5755910E+001 -3.5586051E-006  5.9973219E-007  4.6740009E-008  3.7867280E-009  1.5468448E-001  9.4262704E-003  1.1147509E-002  2.9974628E-002 -1.3274025E-001  6.7584969E-003  2.5511709E-001  3.7246774E-001  5.9800911E-006  2.0239031E-011  3.0212175E+000  1.7906376E+000  4.8405989E+000 -1.0391565E-001  1.2157012E+002  3.3403413E+000  9.4482966E+000  1.0512552E-001  1.1050527E-011 -2.2290490E-012  4.1330671E-002  5.7196200E+001  8.4480314E-008  3.2630535E-008  6.7671404E-002  4.9720725E-002  4.7345580E-002  6.2925493E+001  5.4042330E+000  6.8342203E+000  9.8275789E+002  7.6482239E+001  2.1662454E+001  2.7712132E-015  3.5229456E-002  1.0963265E+000  3.3950425E-002  3.5764951E-012  4.7775792E-012  9.9055094E-013  6.7969208E-013  9.6971013E-002  1.2605572E-001  4.5415003E+000  1.2101268E-001  1.1401069E-002 -2.0945829E-005 -3.3976993E-004  1.0982986E-013  2.9850003E-014  3.2455616E-015 -2.5755721E-014 -2.1263343E-007 -2.8551241E-013 -5.9725290E-012 -1.4074275E-011 -4.2088790E-015  8.9026951E-015 -3.6350405E-006  4.2930579E-009 -7.5829375E-010 -3.6735500E-013  4.7594550E-001  2.0746240E-001 -8.4151840E-009 -7.5214193E-005 -3.1950398E-006  3.0073377E-004 -1.1670892E-007 -8.3345155E-009 -4.5349521E-010 -1.7313249E-009 -3.3098234E-010 -2.4188997E-011 -2.1222342E-012  2.7677336E-013 -8.3250101E-007 -4.6052664E-009  2.9819856E-006 -1.1477361E-005 -2.8533992E-010 -1.5718367E-011 -6.0400787E-011  2.3943494E-010 -5.2595607E-009 -1.1173107E-012 -3.1543850E-008 -3.7146543E-013 -8.1786366E-015  2.5986884E-014  3.9702812E-011  4.4918692E-011  1.7587286E-009  8.0574534E-011  2.5361324E-013  1.8018856E-012  4.5004479E-011  6.7011587E-012 -4.7867612E-015 -4.5559979E-015  3.7729078E-015 -1.3178254E-014 -2.9417090E-014  5.3809828E-013 -2.7384431E-014  3.5326377E-015 -1.4123245E-013 -1.6723649E-014  2.7425482E-008 -3.9847698E-016 -1.2680426E-013 -7.7449606E-015 -1.3100068E-012 -7.9419543E-015 -4.2181585E-016 -6.1433211E-015  2.4786572E-015 -1.3536541E-014 -8.9906936E-011 -4.0354237E-010  2.5056514E+002 -1.3200796E-011 -1.3566174E-011 -1.5900881E-010  1.9863552E+000  1.6710075E+002  6.4126804E+002  1.2931821E+003  1.2540795E+002  8.1251299E+001  2.0448876E+003  3.3661762E+003  1.8369470E+001  5.0650018E+003  7.0459569E+000  1.0772623E+004  7.3822595E+003  9.3131407E+000  2.2089274E+001  1.4543336E+004  8.9187341E-016 -2.7604521E-012  6.9913191E+001  1.3950611E+003 -3.3247011E-014  2.0344056E+000  5.6269549E-001  2.8185570E-008 -4.8831305E-008  3.4297054E-009 -4.2540089E-008  3.1542713E-009  1.0782433E-008  1.5771812E-007  5.7341388E-003 -8.2091565E-015  2.9355170E+000  1.2347879E+001  1.2471622E+001  4.3304272E-001 -2.2719254E-010  4.1718330E-002  2.9883637E-006 -4.0538728E-014  4.5137610E+003  1.2489999E+003  6.0108052E-004 -1.4035374E-014 -1.3732389E-014  5.1815123E+002  3.2830206E+001 -5.3169562E-006 -4.0299269E-008  1.1994671E+001  1.8888442E+003  7.2549961E+002 -3.4804907E-015  2.0504973E+002 -1.4499736E-013  2.1374350E-004  2.8350268E-005 -6.8117147E-010  3.5108981E-016 -6.1132191E-014  2.8099022E+003 -1.8790578E-012  4.5086135E+000  2.6395503E-008  2.8599010E-004  1.8005066E-009  2.4115169E-008  1.0135624E-003  5.4322679E+003  1.8180094E+001  1.6906387E+000  1.1266909E-004 -5.2270457E-015  1.4282407E+003  2.2384487E-006  1.1327556E-008 -3.6131839E-004  2.8339891E-001  2.1611590E+000  1.0903633E+001 -1.0566265E-014  9.3686832E-005  6.7201579E-011  1.0905804E+000  4.0137055E+000  5.8779030E+000  3.9266489E-001  2.6242458E+000  1.2280076E+001  6.0900376E+000  5.4469582E+001  1.3237818E+001  1.3028911E+000  8.7567037E+000  2.8499909E+000  1.5712470E-001  3.0518156E-003 -1.6533987E-003  5.0731349E-002 -3.9891056E-012  1.3636891E-001  1.1606228E-002  2.1382965E-001  9.8425595E+002  6.0430118E-004  7.9101651E+000  3.3149565E-007  1.0609433E-005  7.8043661E+001  1.9144699E-001 -1.6788317E-014  8.4534452E-002  2.3828428E-004 -4.0778559E-004  1.4111525E-009  7.0874257E+000  4.2335565E+002  1.4070103E+000  5.0558208E-011  8.4954432E-004  1.1128360E-012  3.4235429E+000  5.3022027E-004 -8.2520108E-008 -6.7144046E-007  1.8926080E-007  2.9096957E-006  9.6810280E-001  2.6693623E-003  3.3636138E-002 -6.5285158E-007  3.8607078E+000  4.6102228E-004  9.5114153E+003  2.0380355E+001  9.2191578E+002 -2.2602859E-010  3.4327785E-013  6.1876328E-010  2.7700137E-012  3.0468322E+002  1.0715220E+002  1.6749723E-005  7.6330585E-001 -2.6056009E-012  1.0210503E+001  1.4925299E+002  6.6863695E+001  5.3408576E-015  1.3307108E+001  3.7577491E-001  4.5928051E-010  4.7113977E+001  1.8620751E+000  1.4225866E-004 -2.4012806E-004  8.3609305E-002  2.1152197E-011  1.6061530E+003  3.3703153E-011  4.2911143E-005  2.4617845E+000  6.8543279E+000 -5.4841895E-004  1.9758064E+002  7.3729892E+001  9.9755252E+000  9.7336126E+000  3.9087055E+000 -6.1883286E-011  3.1867195E-005  1.5639549E-004  8.0761890E-003 -2.9518343E-007  4.5784526E+002 -1.9907543E+002 -3.6753988E-007  7.1007315E-005  1.8182917E-002  1.9281887E-002  1.6654584E-001  2.6626953E-002  2.4066708E+001 -3.3248358E+001  6.5251940E+004  1.8897993E+005 -5.0183311E-004  1.2865173E+004  5.0884868E+004  1.9308736E-001  2.3009239E-001  1.3297094E+000  8.0740000E+003  4.4738165E-001  3.6634567E-002  1.9987376E-001  1.3391958E+005  9.3801243E-007  2.9945172E-002  4.7452917E-004  3.1889069E-006  3.8340503E-006  4.4344341E-003  4.5719921E-006  5.5899596E-004  7.3512311E-008  1.3529092E-002  6.4452378E-008  5.4344010E-005  1.5457549E+000  7.2308955E-002  9.0944972E-001  1.0309447E-009  1.3852357E+001  3.0965547E-004 -1.7273675E-010  1.9666299E-003  1.4998746E-001  1.5642249E-001  4.1877962E-004  3.4289088E-003 -4.6675646E-002  2.1183237E-001  3.8766792E+003  8.6747408E+003  1.3781005E+004 -7.9703520E-006  1.4307296E-003  3.8093461E-002 -1.5160711E-013  4.8914839E-009  4.4568627E+000  4.1208077E+001  7.4732035E-007  4.5855837E+000  1.8155920E+001  1.6373290E+001  5.2566305E-007  6.0495999E+002  8.3115270E+001  1.8057271E+002  1.9890850E+001  7.3110663E+002  3.3105531E+002  6.9240219E+002  3.5943086E+001  1.0109571E+002  1.0589626E+002  2.6703380E+002  2.6958881E+002  6.1759637E+002  1.7709593E+002  6.5181031E+002  1.0315958E+002  5.4913331E+002  3.6302730E+001  1.2116425E+002  4.0692031E+002  6.9768009E+002  1.7049157E+002  6.2897952E+002  6.2739258E+002  3.8168294E+002  2.2473614E+002  1.0670641E+002  8.2851570E+002  6.1618902E+002  1.7350680E+003 -2.8733204E-013  2.8086555E-009  8.0428703E-003  3.0210085E+000 -6.7466040E-003 -1.4339497E-014 -3.7662540E-014 -5.8220164E-011  6.6290681E+001  1.4869613E+001 -2.4360147E-014 -5.5690953E-015  4.6686637E+001  3.4154091E-004  5.4612662E-001  3.5664747E+004  8.1619605E+001  1.8646472E+000  1.6758892E-003 -1.1156624E-013  9.2064470E-012  1.2350589E+000  9.3889990E-001  3.5838454E-007  5.5880802E+002 -9.9910307E-006 -4.1110196E-014  3.1174053E-007  2.9148768E-001  2.5461538E-009 -4.3592242E-012  4.3901527E+002  2.3256766E+003  8.9290105E+002  4.2511516E-010 -6.4872548E-010  2.7086093E-001  3.3012274E-001  1.3419846E-003  3.7632340E+001 -6.6736393E-013  6.7006079E+001  1.1966801E+002 -2.2330227E-007 -1.9885855E-013  5.6671918E-005  5.9965571E+002  1.8689594E-001  5.3180821E-002  1.9011278E-001  8.2347302E-002  2.2955784E-001  4.3446141E+004  1.5543167E+000  5.2217975E-007  5.1219459E+000  1.4256069E+004  1.3614352E+000  8.0235209E-012  2.3334627E+000  3.5416384E-014  2.4592094E-002  1.1196352E-007 -6.4348812E-003  2.4335395E-010  8.1167146E+000  1.2827823E+002  2.5513066E-003  1.4908848E+001  2.1187142E+002  3.4255541E-016  6.9065371E-001  1.6811712E-001  1.0994590E-009  2.7219388E-005  3.9081790E-002 -4.8428761E-011  5.4159179E+002  3.6867571E+000  3.5970419E+005
        </DataArray>
        <DataArray type="Float64" Name="temperature" NumberOfComponents="1" format="ascii">
  5.0862870E+002  5.0858964E+002  5.0849778E+002  5.0878126E+002  5.0500000E+002  4.4300980E+002  4.4309601E+002  5.0911661E+002  5.0709385E+002  5.0715921E+002  3.5434549E+002  3.5433004E+002  3.5437890E+002  3.5440190E+002  2.9315000E+002  2.9315000E+002  2.9315000E+002  2.9315000E+002  5.0871770E+002  5.0880201E+002  5.0409680E+002  5.0903824E+002  5.0851667E+002  5.0853278E+002  5.0854757E+002  5.0856116E+002  5.0857349E+002  5.0858465E+002  5.0859428E+002  5.0860249E+002  5.0860882E+002  5.0861299E+002  5.0861467E+002  5.0861371E+002  5.0861091E+002  5.0860692E+002  5.0860207E+002  5.0859642E+002  5.0876647E+002  5.0874132E+002  5.0871419E+002  5.0868667E+002  5.0865957E+002  5.0863325E+002  5.0860792E+002  5.0858375E+002  5.0856079E+002  5.0853913E+002  5.0851858E+002  5.0415125E+002  5.0349689E+002  5.0285637E+002  5.0218199E+002  5.0144240E+002  5.0060613E+002  4.9963325E+002  4.9847841E+002  4.9727046E+002  4.9607824E+002  4.9490064E+002  4.9373738E+002  4.9258880E+002  4.9145436E+002  4.9033424E+002  4.8922818E+002  4.8813556E+002  4.8705679E+002  4.8599237E+002  4.8494187E+002  4.8390524E+002  4.8288241E+002  4.8187355E+002  4.8087860E+002  4.7989700E+002  4.7892919E+002  4.7797496E+002  4.7703393E+002  4.7610662E+002  4.7519282E+002  4.7429208E+002  4.7340477E+002  4.7253072E+002  4.7166989E+002  4.7082222E+002  4.6998765E+002  4.6916628E+002  4.6835774E+002  4.6756205E+002  4.6677900E+002  4.6600880E+002  4.6525178E+002  4.6450770E+002  4.6377657E+002  4.6305866E+002  4.6235354E+002  4.6166152E+002  4.6098232E+002  4.6031598E+002  4.5966253E+002  4.5902208E+002  4.5839439E+002  4.5777947E+002  4.5717744E+002  4.5658813E+002  4.5601144E+002  4.5544765E+002  4.5489639E+002  4.5435775E+002  4.5383188E+002  4.5331847E+002  4.5281787E+002  4.5232977E+002  4.5185417E+002  4.5139118E+002  4.5094078E+002  4.5050301E+002  4.5007739E+002  4.4966456E+002  4.4926444E+002  4.4887646E+002  4.4850123E+002  4.4813831E+002  4.4778787E+002  4.4745015E+002  4.4712474E+002  4.4681126E+002  4.4651020E+002  4.4622174E+002  4.4594593E+002  4.4568241E+002  4.4543095E+002  4.4519160E+002  4.4496462E+002  4.4474980E+002  4.4454652E+002  4.4435527E+002  4.4417607E+002  4.4400941E+002  4.4385545E+002  4.4371389E+002  4.4358508E+002  4.4346928E+002  4.4336638E+002  4.4327606E+002  4.4319885E+002  4.4313448E+002  4.4308323E+002  4.4304379E+002  4.4305179E+002  4.4307601E+002  4.4309041E+002  5.0911491E+002  5.0911448E+002  5.0911187E+002  5.0910746E+002  5.0910125E+002  5.0909472E+002  5.0908668E+002  5.0907757E+002  5.0906653E+002  5.0905740E+002  5.0904714E+002  5.0903611E+002  5.0902448E+002  5.0901011E+002  5.0899553E+002  5.0897845E+002  5.0895989E+002  5.0893701E+002  5.0891008E+002  5.0888181E+002  5.0884545E+002  5.0880017E+002  5.0874550E+002  5.0868032E+002  5.0860134E+002  5.0851055E+002  5.0841176E+002  5.0830213E+002  5.0818259E+002  5.0805571E+002  5.0791877E+002  5.0777567E+002  5.0762397E+002  5.0746280E+002  5.0729113E+002  5.0726084E+002  5.0732144E+002  5.0728975E+002  3.5433880E+002  3.5432868E+002  3.5431837E+002  3.5430895E+002  3.5430077E+002  3.5429372E+002  3.5428780E+002  3.5428288E+002  3.5427893E+002  3.5427587E+002  3.5427367E+002  3.5427226E+002  3.5427161E+002  3.5427170E+002  3.5427248E+002  3.5427395E+002  3.5427606E+002  3.5427882E+002  3.5428218E+002  3.5428616E+002  3.5429072E+002  3.5429585E+002  3.5430156E+002  3.5430780E+002  3.5431450E+002  3.5432145E+002  3.5432778E+002  3.5434385E+002  3.5435505E+002  3.5434552E+002  3.5433804E+002  3.5433134E+002  3.5432523E+002  3.5431963E+002  3.5431456E+002  3.5431006E+002  3.5430613E+002  3.5430279E+002  3.5430006E+002  3.5429796E+002  3.5429652E+002  3.5429574E+002  3.5429566E+002  3.5429631E+002  3.5429772E+002  3.5429992E+002  3.5430296E+002  3.5430690E+002  3.5431179E+002  3.5431769E+002  3.5432469E+002  3.5433291E+002  3.5434252E+002  3.5435372E+002  3.5436810E+002  3.5435760E+002  5.0733580E+002  5.0750349E+002  5.0766247E+002  5.0781432E+002  5.0795858E+002  5.0809600E+002  5.0822406E+002  5.0834448E+002  5.0845867E+002  5.0856428E+002  5.0866612E+002  5.0862586E+002  5.0862192E+002  5.0861754E+002  5.0861283E+002  5.0860776E+002  5.0860229E+002  5.0859630E+002  5.0857826E+002  5.0854310E+002  5.0851345E+002  5.0848709E+002  5.0846298E+002  5.0844046E+002  5.0841907E+002  5.0839844E+002  5.0837833E+002  5.0835848E+002  5.0833871E+002  5.0831879E+002  5.0829855E+002  5.0827773E+002  5.0825607E+002  5.0823345E+002  5.0820969E+002  5.0818456E+002  5.0815785E+002  5.0812935E+002  5.0809868E+002  5.0806525E+002  5.0802886E+002  5.0798920E+002  5.0794552E+002  5.0789746E+002  5.0784441E+002  5.0778534E+002  5.0771840E+002  5.0764293E+002  5.0755744E+002  5.0745979E+002  5.0734663E+002  5.0721456E+002  5.0705773E+002  5.0686654E+002  5.0663027E+002  5.0631635E+002  5.0585614E+002  4.8617915E+002  4.5640962E+002  4.2139707E+002  3.8702364E+002  3.6174744E+002  3.4495340E+002  3.3055267E+002  3.1754190E+002  3.0523216E+002  2.9315000E+002  2.9315000E+002  2.9315000E+002  2.9315000E+002  2.9315000E+002  2.9315000E+002  2.9315000E+002  2.9315000E+002  2.9315000E+002  2.9315000E+002  2.9315000E+002  2.9315000E+002  2.9315000E+002  2.9315000E+002  2.9315000E+002  2.9315000E+002  2.9315000E+002  2.9315000E+002  2.9315000E+002  2.9315000E+002  2.9315000E+002  2.9315000E+002  2.9315000E+002  2.9315000E+002  2.9315000E+002  2.9315000E+002  2.9315000E+002  2.9315000E+002  2.9315000E+002  2.9315000E+002  2.9315000E+002  2.9315000E+002  2.9315000E+002  2.9315000E+002  2.9315000E+002  2.9315000E+002  2.9315000E+002  2.9315000E+002  2.9601770E+002  2.9897247E+002  3.0210963E+002  3.0552590E+002  3.0935074E+002  3.1377040E+002  3.1901086E+002  3.2543260E+002  3.3348602E+002  3.4377008E+002  3.5452507E+002  3.6544630E+002  3.7701572E+002  3.8951913E+002  4.0337402E+002  4.1805405E+002  4.3184335E+002  2.9315000E+002  2.9315000E+002  2.9315000E+002  2.9315000E+002  2.9315000E+002  2.9315000E+002  2.9315000E+002  2.9315000E+002  2.9315000E+002  2.9315000E+002  2.9315000E+002  2.9315000E+002  2.9315000E+002  2.9315000E+002  5.0871805E+002  5.0871894E+002  5.0872032E+002  5.0872216E+002  5.0872446E+002  5.0872725E+002  5.0873047E+002  5.0873407E+002  5.0873796E+002  5.0874209E+002  5.0874645E+002  5.0875093E+002  5.0875559E+002  5.0876032E+002  5.0876516E+002  5.0877002E+002  5.0877479E+002  5.0877956E+002  5.0878420E+002  5.0878878E+002  5.0879317E+002  5.0879735E+002  5.0880133E+002  5.0880513E+002  5.0880874E+002  5.0881212E+002  5.0881532E+002  5.0881826E+002  5.0882098E+002  5.0882347E+002  5.0882572E+002  5.0882772E+002  5.0882948E+002  5.0883099E+002  5.0883225E+002  5.0883324E+002  5.0883398E+002  5.0883444E+002  5.0883461E+002  5.0883448E+002  5.0883402E+002  5.0883322E+002  5.0883201E+002  5.0883038E+002  5.0882828E+002  5.0882559E+002  5.0882219E+002  5.0881781E+002  5.0881177E+002  5.0878839E+002  5.0877727E+002  5.0876706E+002  5.0875732E+002  5.0874795E+002  5.0873881E+002  5.0872989E+002  5.0872116E+002  5.0871261E+002  5.0870420E+002  5.0869593E+002  5.0868780E+002  5.0867981E+002  5.0867189E+002  5.0866411E+002  5.0865646E+002  5.0864894E+002  5.0864160E+002  5.0863460E+002  5.0467662E+002  5.0450960E+002  5.0439295E+002  5.0430555E+002  5.0423866E+002  5.0418579E+002  5.0414788E+002  5.0412054E+002  5.0410322E+002  5.0450914E+002  5.0491632E+002  5.0532463E+002  5.0573521E+002  5.0614746E+002  5.0656446E+002  5.0698695E+002  5.0739801E+002  5.0771357E+002  5.0795699E+002  5.0815295E+002  5.0831825E+002  5.0846307E+002  5.0859446E+002  5.0873353E+002  5.0874914E+002  5.0876497E+002  5.0878131E+002  5.0879857E+002  5.0881715E+002  5.0883749E+002  5.0886031E+002  5.0888649E+002  5.0891734E+002  5.0895518E+002  5.0899721E+002  5.0903843E+002  5.0903887E+002  5.0903920E+002  5.0903946E+002  5.0903870E+002  5.0903644E+002  5.0903316E+002  5.0902886E+002  5.0902287E+002  5.0901541E+002  5.0900687E+002  5.0899733E+002  5.0898692E+002  5.0897524E+002  5.0896278E+002  5.0894953E+002  5.0893481E+002  5.0891876E+002  5.0890127E+002  5.0888224E+002  5.0886111E+002  5.0883845E+002  5.0881310E+002  4.4311266E+002  4.4314590E+002  4.4319416E+002  4.4325696E+002  4.4333301E+002  4.4342228E+002  4.4352461E+002  4.4364002E+002  4.4376836E+002  4.4390956E+002  4.4406384E+002  4.4423092E+002  4.4440976E+002  4.4460056E+002  4.4480367E+002  4.4501851E+002  4.4524512E+002  4.4548380E+002  4.4573494E+002  4.4599860E+002  4.4627452E+002  4.4656272E+002  4.4686370E+002  4.4717701E+002  4.4750244E+002  4.4784063E+002  4.4819132E+002  4.4855380E+002  4.4892924E+002  4.4931724E+002  4.4971766E+002  4.5013057E+002  4.5055598E+002  4.5099390E+002  4.5144441E+002  4.5190727E+002  4.5238273E+002  4.5287125E+002  4.5337195E+002  4.5388533E+002  4.5441124E+002  4.5495002E+002  4.5550136E+002  4.5606525E+002  4.5664188E+002  4.5723147E+002  4.5783365E+002  4.5844843E+002  4.5907641E+002  4.5971687E+002  4.6037038E+002  4.6103699E+002  4.6171628E+002  4.6240845E+002  4.6311342E+002  4.6383162E+002  4.6456297E+002  4.6530706E+002  4.6606469E+002  4.6683534E+002  4.6761881E+002  4.6841491E+002  4.6922311E+002  4.7004425E+002  4.7087903E+002  4.7172698E+002  4.7258780E+002  4.7346218E+002  4.7434963E+002  4.7525044E+002  4.7616455E+002  4.7709217E+002  4.7803368E+002  4.7898797E+002  4.7995539E+002  4.8093691E+002  4.8193216E+002  4.8294114E+002  4.8396394E+002  4.8500075E+002  4.8605131E+002  4.8711613E+002  4.8819477E+002  4.8928728E+002  4.9039435E+002  4.9151525E+002  4.9264990E+002  4.9379855E+002  4.9496149E+002  4.9613852E+002  4.9732890E+002  4.9853121E+002  4.9967326E+002  5.0062257E+002  5.0142088E+002  5.0210268E+002  5.0269255E+002  5.0321130E+002  5.0367493E+002  5.0919326E+002  5.0925678E+002  5.0923117E+002  5.0879634E+002  5.0872063E+002  5.0876232E+002  5.0831072E+002  5.0869449E+002  5.0881147E+002  5.0579898E+002  5.0810587E+002  5.0777002E+002  5.0718130E+002  5.0869062E+002  5.0821931E+002  5.0880362E+002  5.0839051E+002  5.0864618E+002  5.0881313E+002  5.0723157E+002  5.0873099E+002  5.0865259E+002  5.0798900E+002  5.0863873E+002  5.0845364E+002  5.0752918E+002  5.0877975E+002  5.0493036E+002  5.0873786E+002  5.0463194E+002  5.0806535E+002  5.0876349E+002  5.0595518E+002  5.0852041E+002  5.0880779E+002  5.0861810E+002  5.0816756E+002  5.0789129E+002  5.0871116E+002  5.0826746E+002  5.0863054E+002  5.0867246E+002  5.0834952E+002  5.0881384E+002  5.0866376E+002  5.0868774E+002  5.0676980E+002  5.0881178E+002  5.0880177E+002  5.0877330E+002  5.0450761E+002  5.0839566E+002  5.0513792E+002  5.0880062E+002  5.0857873E+002  5.0862231E+002  5.0682594E+002  5.0704528E+002  5.0751651E+002  5.0738690E+002  5.0697966E+002  5.0725655E+002  5.0765085E+002  5.0758464E+002  5.0728030E+002  5.0757890E+002  5.0731188E+002  5.0761193E+002  5.0782911E+002  5.0785445E+002  5.0765057E+002  5.0785939E+002  5.0806852E+002  5.0808156E+002  5.0793895E+002  5.0811560E+002  5.0799782E+002  5.0815075E+002  5.0826045E+002  5.0827570E+002  5.0818857E+002  5.0829793E+002  5.0822250E+002  5.0832260E+002  5.0838975E+002  5.0842085E+002  5.0834502E+002  5.0842655E+002  5.0849691E+002  5.0849732E+002  5.0843718E+002  5.0850363E+002  5.0845110E+002  5.0851318E+002  5.0856644E+002  5.0857178E+002  5.0852437E+002  5.0857666E+002  5.0862291E+002  5.0862336E+002  5.0858468E+002  5.0838829E+002  5.0837390E+002  5.0856350E+002  5.0866803E+002  5.0866383E+002  5.0787764E+002  5.0856463E+002  5.0866292E+002  5.0792610E+002  5.0783309E+002  5.0697157E+002  5.0703246E+002  5.0869728E+002  5.0838773E+002  5.0840335E+002  5.0788579E+002  5.0869391E+002  5.0866686E+002  5.0846847E+002  5.0847160E+002  5.0872241E+002  5.0861893E+002  5.0809023E+002  5.0661271E+002  5.0863328E+002  5.0774576E+002  5.0816832E+002  5.0674818E+002  5.0871756E+002  5.0874154E+002  5.0873018E+002  5.0834709E+002  5.0780535E+002  5.0801635E+002  5.0821052E+002  5.0836165E+002  5.0854670E+002  5.0854379E+002  5.0811778E+002  5.0815751E+002  5.0806775E+002  5.0810455E+002  5.0832686E+002  5.0873666E+002  5.0855643E+002  5.0848568E+002  5.0766390E+002  5.0759071E+002  5.0749003E+002  5.0706148E+002  5.0827123E+002  5.0822967E+002  5.0661185E+002  5.0857534E+002  5.0863561E+002  5.0871733E+002  5.0858656E+002  5.0829319E+002  5.0827262E+002  5.0817586E+002  5.0813083E+002  5.0867185E+002  5.0866454E+002  5.0624383E+002  5.0623369E+002  5.0685176E+002  5.0840714E+002  5.0875698E+002  5.0837241E+002  5.0841392E+002  5.0864746E+002  5.0861085E+002  5.0876539E+002  5.0870815E+002  5.0870935E+002  5.0866221E+002  5.0869938E+002  5.0802718E+002  5.0798239E+002  5.0838205E+002  5.0842110E+002  5.0810145E+002  5.0827738E+002  5.0857190E+002  5.0850522E+002  5.0840979E+002  5.0843167E+002  5.0852843E+002  5.0845799E+002  5.0860046E+002  5.0585815E+002  5.0586405E+002  5.0585203E+002  5.0546474E+002  5.0550179E+002  5.0589529E+002  5.0555652E+002  5.0742534E+002  5.0730638E+002  5.0854705E+002  5.0734743E+002  5.0595660E+002  5.0865905E+002  5.0869484E+002  5.0873101E+002  5.0872668E+002  5.0837667E+002  5.0834602E+002  5.0820613E+002  5.0832387E+002  5.0841874E+002  5.0818526E+002  5.0830370E+002  5.0842864E+002  5.0652595E+002  5.0817021E+002  5.0824162E+002  5.0821974E+002  5.0824238E+002  5.0837278E+002  5.0871745E+002  5.0753247E+002  5.0868770E+002  5.0835064E+002  5.0832960E+002  5.0666493E+002  5.0875065E+002  5.0876856E+002  5.0840463E+002  5.0793501E+002  5.0845274E+002  5.0845891E+002  5.0842842E+002  5.0846474E+002  5.0850329E+002  5.0850044E+002  5.0847042E+002  5.0850559E+002  5.0853429E+002  5.0854052E+002  5.0856837E+002  5.0857911E+002  5.0860238E+002  5.0854867E+002  5.0858078E+002  5.0855574E+002  5.0852112E+002  5.0847511E+002  5.0859605E+002  5.0862496E+002  5.0863087E+002  5.0864962E+002  5.0866046E+002  5.0855789E+002  5.0825968E+002  5.0846930E+002  5.0858953E+002  5.0860846E+002  5.0627259E+002  5.0657568E+002  5.0870153E+002  5.0818333E+002  5.0798517E+002  5.0835256E+002  5.0866671E+002  5.0795236E+002  5.0790068E+002  5.0863014E+002  5.0875883E+002  5.0875372E+002  5.0872407E+002  5.0875024E+002  5.0872353E+002  5.0874891E+002  5.0862270E+002  5.0856706E+002  5.0866646E+002  5.0867454E+002  5.0851372E+002  5.0862472E+002  5.0806980E+002  5.0696379E+002  5.0874434E+002  5.0854486E+002  5.0564614E+002  5.0519868E+002  5.0819394E+002  5.0816771E+002  5.0800264E+002  5.0877293E+002  5.0877278E+002  5.0633048E+002  5.0865473E+002  5.0863671E+002  5.0866936E+002  5.0866759E+002  5.0868502E+002  5.0868553E+002  5.0738958E+002  5.0864807E+002  5.0861658E+002  5.0844110E+002  5.0852308E+002  5.0821729E+002  5.0828475E+002  5.0787208E+002  5.0782424E+002  5.0870417E+002  5.0869692E+002  5.0849860E+002  5.0846784E+002  5.0806518E+002  5.0876650E+002  5.0873863E+002  5.0877348E+002  5.0859749E+002  5.0850736E+002  5.0767178E+002  5.0761777E+002  5.0773297E+002  5.0768129E+002  5.0859641E+002  5.0836161E+002  5.0852547E+002  5.0854400E+002  5.0844119E+002  5.0784061E+002  5.0834383E+002  5.0835147E+002  5.0842665E+002  5.0851688E+002  5.0543096E+002  5.0543200E+002  5.0594380E+002  5.0638490E+002  5.0825415E+002  5.0874596E+002  5.0503958E+002  5.0820845E+002  5.0843563E+002  5.0840169E+002  5.0839058E+002  5.0868352E+002  5.0872526E+002  5.0626784E+002  5.0654684E+002  5.0873404E+002  5.0874520E+002  5.0871945E+002  5.0844655E+002  5.0806717E+002  5.0809393E+002  5.0727928E+002  5.0735506E+002  5.0830668E+002  5.0828956E+002  5.0775390E+002  5.0869286E+002  5.0862676E+002  5.0874973E+002  5.0877478E+002  5.0878679E+002  5.0876039E+002  5.0878814E+002  5.0861247E+002  5.0846404E+002  5.0507618E+002  5.0512598E+002  5.0749822E+002  5.0863143E+002  5.0867098E+002  5.0877709E+002  5.0848698E+002  5.0849597E+002  5.0852966E+002  5.0878977E+002  5.0824828E+002  5.0878254E+002  5.0878851E+002  5.0877860E+002  5.0475997E+002  5.0833295E+002  5.0860033E+002  5.0774872E+002  5.0860148E+002  5.0801821E+002  5.0713960E+002  5.0684922E+002  5.0697869E+002  5.0867439E+002  5.0870210E+002  5.0839377E+002  5.0826151E+002  5.0542241E+002  5.0862593E+002  5.0870153E+002  5.0873631E+002  5.0864579E+002  5.0841254E+002  5.0830496E+002  5.0818926E+002  5.0734739E+002  5.0858174E+002  5.0861989E+002  5.0870137E+002  5.0861740E+002  5.0872138E+002  5.0759405E+002  5.0788029E+002  5.0637134E+002  5.0473576E+002  5.0492702E+002  5.0853184E+002  5.0854931E+002  5.0857140E+002  5.0853272E+002  5.0846630E+002  5.0554573E+002  5.0803482E+002  5.0806836E+002  5.0811471E+002  5.0879681E+002  5.0880859E+002  5.0876109E+002  5.0880444E+002  5.0828615E+002  5.0873355E+002  5.0874983E+002  5.0874036E+002  5.0869173E+002  5.0869563E+002  5.0857164E+002  5.0874137E+002  5.0819418E+002  5.0813676E+002  5.0824390E+002  5.0861817E+002  5.0862484E+002  5.0877632E+002  5.0783083E+002  5.0833171E+002  5.0794187E+002  5.0828979E+002  5.0864241E+002  5.0866252E+002  5.0864375E+002  5.0870056E+002  5.0770031E+002  5.0837484E+002  5.0881272E+002  5.0872124E+002  5.0841412E+002  5.0881365E+002  5.0865669E+002  5.0880949E+002  5.0865794E+002  5.0868832E+002  5.0854794E+002  5.0880027E+002  5.0872480E+002  5.0879193E+002  5.0875960E+002  5.0878835E+002  5.0823474E+002  5.0793631E+002  5.0803894E+002  5.0849220E+002  5.0849887E+002  5.0878439E+002  5.0710374E+002  5.0747282E+002  5.0696362E+002  5.0814868E+002  5.0787114E+002  5.0869444E+002  5.0466111E+002  5.0838115E+002  5.0875217E+002  5.0829836E+002  5.0756840E+002  5.0880315E+002  5.0879375E+002  5.0874659E+002  5.0864186E+002  5.0850405E+002  5.0846035E+002  5.0776204E+002  5.0838891E+002  5.0761953E+002  5.0844640E+002  5.0873225E+002  5.0878763E+002  5.0853435E+002  5.0619954E+002  5.0664523E+002  5.0864748E+002  5.0864216E+002  5.0877420E+002  5.0601176E+002  5.0814659E+002  5.0823254E+002  5.0849496E+002  5.0863195E+002  5.0624060E+002  5.0500654E+002  5.0869571E+002  5.0592976E+002  5.0872098E+002  5.0446996E+002  5.0807913E+002  5.0836200E+002  5.0862281E+002  5.0700158E+002  5.0858498E+002  5.0536438E+002  5.0856167E+002  5.0861841E+002  5.0802932E+002  5.0863133E+002  5.0828334E+002  5.0806949E+002  5.0848572E+002  5.0857255E+002  5.0864834E+002  5.0840862E+002  5.0832042E+002  5.0879447E+002  5.0833302E+002  5.0859200E+002  5.0865526E+002  5.0793569E+002  5.0871639E+002  5.0775831E+002  5.0744145E+002  5.0866084E+002  5.0825483E+002  5.0665010E+002  5.0871608E+002  5.0842654E+002  5.0875835E+002  5.0860990E+002  5.0846543E+002  5.0807937E+002  5.0823099E+002  5.0860154E+002  5.0864072E+002  5.0881341E+002  5.0486464E+002  5.0848360E+002  5.0831231E+002  5.0716488E+002  5.0866433E+002  5.0727615E+002  5.0714590E+002  5.0872316E+002  5.0827229E+002  5.0802711E+002  5.0651844E+002  5.0854928E+002  5.0879639E+002  5.0869912E+002  5.0868592E+002  5.0846880E+002  5.0862223E+002  5.0868245E+002  5.0620975E+002  5.0858698E+002  5.0819341E+002  5.0878978E+002  5.0879493E+002  5.0871196E+002  5.0817132E+002  5.0798889E+002  5.0766375E+002  5.0875015E+002  5.0465891E+002  5.0869600E+002  5.0876510E+002  5.0792509E+002  5.0781220E+002  5.0875484E+002  5.0845967E+002  5.0726976E+002  5.0877657E+002  5.0875534E+002  5.0878860E+002  5.0866708E+002  5.0853485E+002  5.0659135E+002  5.0685058E+002  5.0872693E+002  5.0851388E+002  5.0776826E+002  5.0822822E+002  5.0860392E+002  5.0879792E+002  5.0881536E+002  5.0872445E+002  5.0441250E+002  5.0442907E+002  5.0878065E+002  5.0841540E+002  5.0759519E+002  5.0854957E+002  5.0862746E+002  5.0573944E+002  5.0797123E+002  5.0849609E+002  5.0877017E+002  5.0867846E+002  5.0860065E+002  5.0814961E+002  5.0852852E+002  5.0868791E+002  5.0866629E+002  5.0847252E+002  5.0837535E+002  5.0781343E+002  5.0826891E+002  5.0620723E+002  5.0868685E+002  5.0847533E+002  5.0877574E+002  5.0832959E+002  5.0856334E+002  5.0818175E+002  5.0859750E+002  5.0874857E+002  5.0878068E+002  5.0872588E+002  5.0868621E+002  5.0877202E+002  5.0879406E+002  5.0881302E+002  5.0882671E+002  5.0883554E+002  5.0883768E+002  5.0883183E+002  5.0865543E+002  5.0863044E+002  5.0881828E+002  5.0875594E+002  5.0862196E+002  5.0892546E+002  5.0890255E+002  5.0874127E+002  5.0861787E+002  5.0866072E+002  5.0875428E+002  5.0862616E+002  5.0882780E+002  5.0859429E+002  5.0895765E+002  5.0887984E+002  5.0899241E+002  5.0900506E+002  5.0873485E+002  5.0861675E+002  5.0858585E+002  5.0860909E+002  5.0878845E+002  5.0871232E+002  5.0900897E+002  5.0897842E+002  5.0884129E+002  5.0864142E+002  5.0883568E+002  5.0882645E+002  5.0867060E+002  5.0870879E+002  5.0874778E+002  5.0883751E+002  5.0876412E+002  5.0878107E+002  5.0883268E+002  5.0880338E+002  5.0882166E+002  5.0856736E+002  5.0875607E+002  5.0900124E+002  5.0854355E+002  5.0880015E+002  5.0860582E+002  5.0873164E+002  5.0861260E+002  5.0862287E+002  5.0862628E+002  5.0863219E+002  5.0862891E+002  5.0863781E+002  5.0864142E+002  5.0864752E+002  5.0865078E+002  5.0865868E+002  5.0866105E+002  5.0866956E+002  5.0867201E+002  5.0868349E+002  5.0868432E+002  5.0869657E+002  5.0869740E+002  5.0871157E+002  5.0871163E+002  5.0872924E+002  5.0872728E+002  5.0874723E+002  5.0874271E+002  5.0876626E+002  5.0876309E+002  5.0873610E+002  5.0875686E+002  5.0872906E+002  5.0874878E+002  5.0872057E+002  5.0874010E+002  5.0871043E+002  5.0872946E+002  5.0876687E+002  5.0878706E+002  5.0879099E+002  5.0880693E+002  5.0881156E+002  5.0882515E+002  5.0882869E+002  5.0882159E+002  5.0884324E+002  5.0884460E+002  5.0867223E+002  5.0869955E+002  5.0877341E+002  5.0883039E+002  5.0884441E+002  5.0871055E+002  5.0885970E+002  5.0886036E+002  5.0884833E+002  5.0886133E+002  5.0884971E+002  5.0886014E+002  5.0887398E+002  5.0887378E+002  5.0886227E+002  5.0887333E+002  5.0886246E+002  5.0887061E+002  5.0888391E+002  5.0888202E+002  5.0888848E+002  5.0887029E+002  5.0887911E+002  5.0889268E+002  5.0888652E+002  5.0890334E+002  5.0889706E+002  5.0888283E+002  5.0889011E+002  5.0887688E+002  5.0888278E+002  5.0871775E+002  5.0883875E+002  5.0886776E+002  5.0867736E+002  5.0889865E+002  5.0888906E+002  5.0891709E+002  5.0887286E+002  5.0887872E+002  5.0889537E+002  5.0888350E+002  5.0890213E+002  5.0888861E+002  5.0887218E+002  5.0887496E+002  5.0889306E+002  5.0887774E+002  5.0886016E+002  5.0886217E+002  5.0888062E+002  5.0886219E+002  5.0888386E+002  5.0886489E+002  5.0886495E+002  5.0884519E+002  5.0884673E+002  5.0876920E+002  5.0869191E+002  5.0868771E+002  5.0886046E+002  5.0884463E+002  5.0884466E+002  5.0888615E+002  5.0865334E+002  5.0874916E+002  5.0889806E+002  5.0867095E+002  5.0873655E+002  5.0887535E+002  5.0883996E+002  5.0882683E+002  5.0882968E+002  5.0891525E+002  5.0892443E+002  5.0884681E+002  5.0882979E+002  5.0890915E+002  5.0886094E+002  5.0871000E+002  5.0885872E+002  5.0883059E+002  5.0887552E+002  5.0883177E+002  5.0885346E+002  5.0881343E+002  5.0881004E+002  5.0882910E+002  5.0863411E+002  5.0883085E+002  5.0881165E+002  5.0885312E+002  5.0884938E+002  5.0865889E+002  5.0869287E+002  5.0864358E+002  5.0865259E+002  5.0876939E+002  5.0875583E+002  5.0882718E+002  5.0881290E+002  5.0881327E+002  5.0883252E+002  5.0879506E+002  5.0879515E+002  5.0885068E+002  5.0885584E+002  5.0878792E+002  5.0885423E+002  5.0882332E+002  5.0882106E+002  5.0889502E+002  5.0889426E+002  5.0885615E+002  5.0884778E+002  5.0885317E+002  5.0872314E+002  5.0881893E+002  5.0884380E+002  5.0884603E+002  5.0884153E+002  5.0883031E+002  5.0883970E+002  5.0882969E+002  5.0885256E+002  5.0862605E+002  5.0863054E+002  5.0863117E+002  5.0864605E+002  5.0881420E+002  5.0881175E+002  5.0880474E+002  5.0880264E+002  5.0879479E+002  5.0879351E+002  5.0878536E+002  5.0880200E+002  5.0878438E+002  5.0877514E+002  5.0877483E+002  5.0876554E+002  5.0878432E+002  5.0876544E+002  5.0875665E+002  5.0875609E+002  5.0874652E+002  5.0874650E+002  5.0873635E+002  5.0873549E+002  5.0872643E+002  5.0872549E+002  5.0871694E+002  5.0873368E+002  5.0873625E+002  5.0863823E+002  5.0881826E+002  5.0884797E+002  5.0884816E+002  5.0880020E+002  5.0879875E+002  5.0877964E+002  5.0877906E+002  5.0878021E+002  5.0871563E+002  5.0870744E+002  5.0870893E+002  5.0869979E+002  5.0869810E+002  5.0869081E+002  5.0880039E+002  5.0879007E+002  5.0880199E+002  5.0877544E+002  5.0881960E+002  5.0883723E+002  5.0883830E+002  5.0884691E+002  5.0882908E+002  5.0884755E+002  5.0884935E+002  5.0885307E+002  5.0886011E+002  5.0885632E+002  5.0884926E+002  5.0870109E+002  5.0874734E+002  5.0884568E+002  5.0880867E+002  5.0861732E+002  5.0862919E+002  5.0875723E+002  5.0876443E+002  5.0884838E+002  5.0879430E+002  5.0860442E+002  5.0885023E+002  5.0877763E+002  5.0886702E+002  5.0883016E+002  5.0868913E+002  5.0868218E+002  5.0869643E+002  5.0868386E+002  5.0867541E+002  5.0867342E+002  5.0866694E+002  5.0866882E+002  5.0866077E+002  5.0884055E+002  5.0883612E+002  5.0882614E+002  5.0883437E+002  5.0882899E+002  5.0883570E+002  5.0865857E+002  5.0865292E+002  5.0863448E+002  5.0893975E+002  5.0895482E+002  5.0876522E+002  5.0882037E+002  5.0882101E+002  5.0885776E+002  5.0883029E+002  5.0882554E+002  5.0884319E+002  5.0884270E+002  5.0884296E+002  5.0884357E+002  5.0884791E+002  5.0878849E+002  5.0884605E+002  5.0880812E+002  5.0879721E+002  5.0879078E+002  5.0880556E+002  5.0877464E+002  5.0875895E+002  5.0891820E+002  5.0891505E+002  5.0886511E+002  5.0880978E+002  5.0886515E+002  5.0862330E+002  5.0861848E+002  5.0893135E+002  5.0873613E+002  5.0860453E+002  5.0864186E+002  5.0863824E+002  5.0886827E+002  5.0879772E+002  5.0891728E+002  5.0888494E+002  5.0883862E+002  5.0884839E+002  5.0886652E+002  5.0888846E+002  5.0892241E+002  5.0895547E+002  5.0865023E+002  5.0884180E+002  5.0883706E+002  5.0883094E+002  5.0881135E+002  5.0880263E+002  5.0876004E+002  5.0884424E+002  5.0869571E+002  5.0888635E+002  5.0883598E+002  5.0882172E+002  5.0884749E+002  5.0871026E+002  5.0885181E+002  5.0882066E+002  5.0881244E+002  5.0884883E+002  5.0864513E+002  5.0865631E+002  5.0878969E+002  5.0878189E+002  5.0884060E+002  5.0866709E+002  5.0881248E+002  5.0879765E+002  5.0879611E+002  5.0878268E+002  5.0878368E+002  5.0877021E+002  5.0876975E+002  5.0884292E+002  5.0861425E+002  5.0863963E+002  5.0862589E+002  5.0864885E+002  5.0863556E+002  5.0865869E+002  5.0872398E+002  5.0871402E+002  5.0873190E+002  5.0874097E+002  5.0874282E+002  5.0873858E+002  5.0870581E+002  5.0877591E+002  5.0870498E+002  5.0886750E+002  5.0862743E+002  5.0883957E+002  5.0883438E+002  5.0883582E+002  5.0884182E+002  5.0876676E+002  5.0887060E+002  5.0882988E+002  5.0882352E+002  5.0878771E+002  5.0875641E+002  5.0876394E+002  5.0882168E+002  5.0884674E+002  5.0884356E+002  5.0878692E+002  5.0881734E+002  5.0863084E+002  5.0879898E+002  5.0862336E+002  5.0884694E+002  5.0884187E+002  5.0883881E+002  5.0885856E+002  5.0869500E+002  5.0880788E+002  5.0883094E+002  5.0890282E+002  5.0892884E+002  5.0890534E+002  5.0893285E+002  5.0882518E+002  5.0875066E+002  5.0874931E+002  5.0876339E+002  5.0876183E+002  5.0886163E+002  5.0882182E+002  5.0896800E+002  5.0894125E+002  5.0861285E+002  5.0891949E+002  5.0888054E+002  5.0890919E+002  5.0887267E+002  5.0884346E+002  5.0883780E+002  5.0886353E+002  5.0882994E+002  5.0885420E+002  5.0882222E+002  5.0884411E+002  5.0887696E+002  5.0880577E+002  5.0885705E+002  5.0862630E+002  5.0864127E+002  5.0864056E+002  5.0865749E+002  5.0865520E+002  5.0863745E+002  5.0867584E+002  5.0866906E+002  5.0877465E+002  5.0877106E+002  5.0884115E+002  5.0883847E+002  5.0881111E+002  5.0893686E+002  5.0864241E+002  5.0868423E+002  5.0883908E+002  5.0877317E+002  5.0866439E+002  5.0863525E+002  5.0868038E+002  5.0867081E+002  5.0878732E+002  5.0872444E+002  5.0897602E+002  5.0895008E+002  5.0897492E+002  5.0893396E+002  5.0884914E+002  5.0881163E+002  5.0879592E+002  5.0880906E+002  5.0868823E+002  5.0888399E+002  5.0891314E+002  5.0862041E+002  5.0880775E+002  5.0865504E+002  5.0882067E+002  5.0889911E+002  5.0884720E+002  5.0862052E+002  5.0875974E+002  5.0866463E+002  5.0878061E+002  5.0870514E+002  5.0869189E+002  5.0870912E+002  5.0867742E+002  5.0869478E+002  5.0864520E+002  5.0867513E+002  5.0868191E+002  5.0874153E+002  5.0861849E+002  5.0882300E+002  5.0859201E+002  5.0858041E+002  5.0865486E+002  5.0889679E+002  5.0899454E+002  5.0882104E+002  5.0876548E+002  5.0896865E+002  5.0899725E+002  5.0899592E+002  5.0896005E+002  5.0898635E+002  5.0856393E+002  5.0861310E+002  5.0886022E+002  5.0872696E+002  5.0858917E+002  5.0861628E+002  5.0861131E+002  5.0881235E+002  5.0881277E+002  5.0864559E+002  5.0864198E+002  5.0879119E+002  5.0873372E+002  5.0874743E+002  5.0882941E+002  5.0864830E+002  5.0883368E+002  5.0866311E+002  5.0867789E+002  5.0871748E+002  5.0872253E+002  5.0874449E+002  5.0875119E+002  5.0883730E+002  5.0876031E+002  5.0877388E+002  5.0883767E+002  5.0876808E+002  5.0878551E+002  5.0877646E+002  5.0878830E+002  5.0883076E+002  5.0883456E+002  5.0879010E+002  5.0879809E+002  5.0882454E+002  5.0896460E+002  5.0860390E+002  5.0866366E+002  5.0855290E+002  5.0858020E+002  5.0885401E+002  5.0872633E+002  5.0864215E+002  5.0867705E+002  5.0868533E+002  5.0894759E+002  5.0874714E+002  5.0866115E+002  5.0863538E+002  5.0881150E+002  5.0863179E+002  5.0893531E+002  5.0870028E+002  5.0871968E+002  5.0885629E+002  5.0885418E+002  5.0883983E+002  5.0884166E+002  5.0886160E+002  5.0882901E+002  5.0874852E+002  5.0877691E+002  5.0886533E+002  5.0883769E+002  5.0872462E+002  5.0875630E+002  5.0885613E+002  5.0880886E+002  5.0882846E+002  5.0894785E+002  5.0876037E+002  5.0869246E+002  5.0886123E+002  5.0853824E+002  5.0883941E+002  5.0878513E+002  5.0891241E+002  5.0883005E+002  5.0862466E+002  5.0882739E+002  5.0886282E+002  5.0896012E+002  5.0871790E+002  5.0893636E+002  5.0874738E+002  5.0874130E+002  5.0865754E+002  5.0884990E+002  5.0881618E+002  5.0886422E+002  5.0884250E+002  5.0879985E+002  5.0879981E+002  5.0878383E+002  5.0879543E+002  5.0880939E+002  5.0861375E+002  5.0880975E+002  5.0893027E+002  5.0883167E+002  5.0890998E+002  5.0881863E+002  5.0877066E+002  5.0882879E+002  5.0880997E+002  5.0885438E+002  5.0884720E+002  5.0876536E+002  5.0890523E+002  5.0861338E+002  5.0887149E+002  5.0888541E+002  5.0884512E+002  5.0879341E+002  5.0888895E+002  5.0887433E+002  5.0870395E+002  5.0887456E+002  5.0891010E+002  5.0877169E+002  5.0890804E+002  5.0883066E+002  5.0867518E+002  5.0883643E+002  5.0862641E+002  5.0886661E+002  5.0879117E+002  5.0873658E+002  5.0877949E+002  5.0881854E+002  5.0885414E+002  5.0889696E+002  5.0891648E+002  5.0889602E+002  5.0873470E+002  5.0875617E+002  5.0890416E+002  5.0885933E+002  5.0885930E+002  5.0883687E+002  5.0873612E+002  5.0880757E+002  5.0866091E+002  5.0862922E+002  5.0891154E+002  5.0877696E+002  5.0884013E+002  5.0874361E+002  5.0891298E+002  5.0869459E+002  5.0873637E+002  5.0883843E+002  5.0864419E+002  5.0864895E+002  5.0882249E+002  5.0888507E+002  5.0866311E+002  5.0883311E+002  5.0880391E+002  5.0867641E+002  5.0874925E+002  5.0863541E+002  5.0881716E+002  5.0867515E+002  5.0876612E+002  5.0890922E+002  5.0867032E+002  5.0894732E+002  5.0868292E+002  5.0897514E+002  5.0874750E+002  5.0873649E+002  5.0891977E+002  5.0884097E+002  5.0878174E+002  5.0876868E+002  5.0862117E+002  5.0879809E+002  5.0883581E+002  5.0900932E+002  5.0897239E+002  5.0861204E+002  5.0880610E+002  5.0880469E+002  5.0887508E+002  5.0875759E+002  5.0870917E+002  5.0863186E+002  5.0877406E+002  5.0860758E+002  5.0881568E+002  5.0855869E+002  5.0881155E+002  5.0859851E+002  5.0881288E+002  5.0880156E+002  5.0876004E+002  5.0863734E+002  5.0870238E+002  5.0869385E+002  5.0876193E+002  5.0864738E+002  5.0881988E+002  5.0871404E+002  5.0883794E+002  5.0879906E+002  5.0857288E+002  5.0878673E+002  5.0876263E+002  5.0882477E+002  5.0868196E+002  5.0883571E+002  5.0876090E+002  5.0860910E+002  5.0858624E+002  5.0887532E+002  5.0883573E+002  5.0884533E+002  5.0884038E+002  5.0852381E+002  5.0869278E+002  5.0884128E+002  5.0901028E+002  5.0868453E+002  5.0884061E+002  5.0859801E+002  5.0881785E+002  5.0872958E+002  5.0882455E+002  5.0879025E+002  5.0893837E+002  5.0878149E+002  5.0883047E+002  5.0856702E+002  5.0883143E+002  5.0864699E+002  5.0865214E+002  5.0885056E+002  5.0884668E+002  5.0884485E+002  5.0881163E+002  5.0880154E+002  5.0887458E+002  5.0883688E+002  5.0883503E+002  5.0878141E+002  5.0882729E+002  5.0883501E+002  5.0875068E+002  5.0881594E+002  5.0894204E+002  5.0886211E+002  5.0889640E+002  5.0859902E+002  5.0884857E+002  5.0882789E+002  5.0884829E+002  5.0880223E+002  5.0871838E+002  5.0874676E+002  5.0884746E+002  5.0879238E+002  5.0862569E+002  5.0883270E+002  5.0886050E+002  5.0883150E+002  5.0868741E+002  5.0883695E+002  5.0886408E+002  5.0865967E+002  5.0889145E+002  5.0881008E+002  5.0873070E+002  5.0864808E+002  5.0385264E+002  5.0176634E+002  5.0179416E+002  5.0017279E+002  5.0382103E+002  5.0408263E+002  5.0013351E+002  4.9780401E+002  4.4313098E+002  4.4530419E+002  4.4870646E+002  4.5076998E+002  4.4667919E+002  4.4336268E+002  4.4357673E+002  4.4411117E+002  4.4467502E+002  4.4730767E+002  4.4616054E+002  4.5211077E+002  4.5518975E+002  4.5414336E+002  4.4378832E+002  4.6062675E+002  4.5872816E+002  4.4991835E+002  4.6645810E+002  4.8447683E+002  4.4801361E+002  4.5307845E+002  4.5751621E+002  4.5640972E+002  4.9554611E+002  4.9207625E+002  4.7131214E+002  4.6283332E+002  4.6792650E+002  4.6411341E+002  4.7479486E+002  4.7292556E+002  4.6959541E+002  4.7861007E+002  4.8033544E+002  4.8242971E+002  4.7662141E+002  4.8766872E+002  4.8971614E+002  5.0298722E+002  4.9327540E+002  4.8548864E+002  4.6490154E+002  4.5118333E+002  4.6134382E+002  4.4512715E+002  4.4322062E+002  4.4398163E+002  4.4325703E+002  4.4560411E+002  4.4433499E+002  4.4907529E+002  4.4583146E+002  4.4344805E+002  4.4698102E+002  4.4446968E+002  4.5026116E+002  4.4489930E+002  4.5359243E+002  4.5172132E+002  4.5690057E+002  4.5946164E+002  4.6000883E+002  4.4952577E+002  4.6343739E+002  4.6719075E+002  4.7212083E+002  4.7386785E+002  4.7742019E+002  4.7576752E+002  4.7943413E+002  4.8330167E+002  4.9091478E+002  4.8150279E+002  4.8870363E+002  5.0323669E+002  4.9791863E+002  4.9551209E+002  4.6962848E+002  4.5521931E+002  4.4798116E+002  4.4309688E+002  5.0377172E+002  4.9907094E+002  4.9972629E+002  5.0080234E+002  5.0036657E+002  5.0124205E+002  4.9939429E+002  5.0093227E+002  5.0172588E+002  5.0201096E+002  5.0241196E+002  5.0269226E+002  5.0236080E+002  5.0308524E+002  5.0303821E+002  5.0278224E+002  5.0268955E+002  5.0329509E+002  5.0330763E+002  5.0358512E+002  5.0166795E+002  5.0354439E+002  5.0219537E+002  5.0260881E+002  5.0314271E+002  5.0149391E+002  4.9916334E+002  5.0102084E+002  5.0383669E+002  5.0103445E+002  5.0254575E+002  4.4307938E+002  4.4311391E+002  4.4312656E+002  4.4316057E+002  4.9673463E+002  4.9727452E+002  4.9613037E+002  4.9495037E+002  4.9670684E+002  4.9437302E+002  4.9366552E+002  4.9435801E+002  4.4369894E+002  4.4362830E+002  4.4350069E+002  4.4377085E+002  4.4355577E+002  4.4369141E+002  4.8761542E+002  4.8817392E+002  4.8715543E+002  4.8938538E+002  4.8873738E+002  4.4414205E+002  4.4405216E+002  4.7757410E+002  4.7703920E+002  4.7607528E+002  4.7659569E+002  4.8344683E+002  4.8303279E+002  4.8182612E+002  4.8240350E+002  4.5033804E+002  4.5009999E+002  4.4965975E+002  4.4989313E+002  4.7126456E+002  4.7170652E+002  4.7076682E+002  4.7266155E+002  4.7215293E+002  4.4428343E+002  4.4437221E+002  4.4460084E+002  4.4449780E+002  4.4490230E+002  4.4501758E+002  4.4526007E+002  4.4511073E+002  4.6641225E+002  4.6681532E+002  4.6608770E+002  4.6768458E+002  4.6722247E+002  4.5163999E+002  4.5184097E+002  4.5235924E+002  4.5213877E+002  4.5264939E+002  4.5290978E+002  4.5073093E+002  4.5097562E+002  4.4638382E+002  4.4654470E+002  4.4684069E+002  4.4622632E+002  4.4638315E+002  4.4668405E+002  4.5122238E+002  4.5142978E+002  4.5938856E+002  4.5969854E+002  4.6034127E+002  4.6003832E+002  4.4909539E+002  4.4889418E+002  4.4853169E+002  4.4870885E+002  4.4829810E+002  4.4318670E+002  4.4323559E+002  4.4330928E+002  4.4328420E+002  4.4732902E+002  4.4718772E+002  4.4746902E+002  4.6135985E+002  4.6107028E+002  4.6178470E+002  4.5876775E+002  4.5902833E+002  4.5848547E+002  4.7845350E+002  4.7886633E+002  4.7987744E+002  4.7944825E+002  4.5749763E+002  4.5721222E+002  4.5656099E+002  4.5692399E+002  4.5777958E+002  4.5574696E+002  4.5554185E+002  4.5487971E+002  4.5411213E+002  4.5386689E+002  4.5260068E+002  4.4609602E+002  4.4467291E+002  4.5465201E+002  4.5439225E+002  4.4557473E+002  4.4571679E+002  4.6878036E+002  4.6920350E+002  4.6205616E+002  4.6273020E+002  4.6312849E+002  4.6380275E+002  4.6346746E+002  4.7040775E+002  4.6568811E+002  4.6491712E+002  4.6460059E+002  4.6524119E+002  4.6879953E+002  4.6841029E+002  4.7568938E+002  4.9094881E+002  4.9150206E+002  4.5361722E+002  4.5336072E+002  4.5581243E+002  4.5606483E+002  4.6208132E+002  4.6412950E+002  4.8040756E+002  4.6563925E+002  4.4334027E+002  4.4764818E+002  4.4949731E+002  4.8552170E+002  4.8487740E+002  4.8596665E+002  4.6799266E+002  4.4535934E+002  4.4394731E+002  4.4389101E+002  4.6063891E+002  4.5807312E+002  4.5630681E+002  4.5463575E+002  4.4765158E+002  4.4784457E+002  4.7042244E+002  4.7001477E+002  4.7390023E+002  4.7433736E+002  4.4697221E+002  4.7477720E+002  4.7523073E+002  4.7298721E+002  4.5816965E+002  4.4833784E+002  4.8652403E+002  4.8437936E+002  4.8392265E+002  4.8139553E+002  4.4586644E+002  4.4598753E+002  4.8659925E+002  4.9205637E+002  4.9261851E+002  4.8980165E+002  4.4346437E+002  4.4383638E+002  4.5308631E+002  4.4423651E+002  4.5055623E+002  4.4929910E+002  4.6239590E+002  4.7802106E+002  4.4479312E+002  4.9028268E+002  4.4544307E+002  4.7337194E+002  5.0367512E+002  4.9319828E+002  5.0332841E+002  4.4816493E+002  4.4340273E+002  4.8091367E+002  4.9867106E+002  4.4309033E+002  5.0009567E+002  5.0345587E+002  4.4317486E+002  5.0238238E+002  5.0417914E+002  5.0207570E+002  4.9836360E+002  5.0400077E+002  4.4316744E+002  5.0361736E+002  4.4321121E+002  4.8092917E+002  4.4341340E+002  5.0393257E+002  4.5254127E+002  4.4841484E+002  4.4551625E+002  4.9056034E+002  4.7358966E+002  4.7800883E+002  4.4478207E+002  4.6240136E+002  4.5054195E+002  4.4930899E+002  4.4418068E+002  4.9668951E+002  4.8549354E+002  4.6647201E+002  4.4732160E+002  4.5521131E+002  4.6491664E+002  4.5874213E+002  4.5749316E+002  4.6136559E+002  4.7131620E+002  4.8769064E+002  4.6003992E+002  4.5213674E+002  4.4873473E+002  4.4988422E+002  4.7215361E+002  4.8239259E+002  4.6346881E+002  4.4450174E+002  4.4328964E+002  4.5693296E+002  4.6722334E+002  4.4509149E+002  4.4644731E+002  4.7658464E+002  4.8873691E+002  4.4364372E+002  4.7946775E+002  4.4353901E+002  4.4801278E+002  4.5336148E+002  4.4670609E+002  4.4390462E+002  4.4403483E+002  4.7435883E+002  4.8394969E+002  4.7522380E+002  4.4596991E+002  4.9152862E+002  4.6841259E+002  4.6999582E+002  4.5604283E+002  4.5387404E+002  4.4573663E+002  4.5437558E+002  4.6920928E+002  4.5098882E+002  4.5141219E+002  4.9261019E+002  4.9552922E+002  4.9433394E+002  4.4305727E+002  4.4310318E+002  5.0148933E+002  5.0379453E+002  5.0340145E+002  5.0429597E+002  4.9775229E+002  5.0209943E+002  5.0300312E+002  4.8316434E+002  4.7737964E+002  4.7874405E+002  4.6287103E+002  4.5953873E+002  4.5026948E+002  4.5178379E+002  4.4435817E+002  4.4904305E+002  4.4491988E+002  4.4693805E+002  4.5299573E+002  4.5920852E+002  4.8483125E+002  4.5556895E+002  4.5648915E+002  4.4335082E+002  4.4528047E+002  4.4619264E+002  4.4959370E+002  4.4464035E+002  4.6054583E+002  4.6402522E+002  4.4347653E+002  4.7278430E+002  4.6781052E+002  4.4378283E+002  4.8166396E+002  4.7591651E+002  4.8029971E+002  4.8953847E+002  4.7076534E+002  4.5484977E+002  4.4756447E+002  4.6181259E+002  4.4708438E+002  4.6086774E+002  4.6437364E+002  4.4775091E+002  5.0067869E+002  4.8685865E+002  4.8627844E+002  4.6587821E+002  4.6546787E+002  4.5796513E+002  4.5827902E+002  4.9347846E+002  5.0361310E+002  4.4313335E+002  5.0768740E+002  5.0892495E+002  5.0849045E+002  5.0906579E+002  5.0871208E+002  5.0916885E+002  5.0914674E+002  5.0908596E+002  5.0898624E+002  5.0826266E+002  5.0798896E+002  5.0916227E+002  5.0922115E+002  5.0920273E+002  5.0921022E+002  5.0876352E+002  5.0903412E+002  5.0911876E+002  5.0782056E+002  5.0911378E+002  5.0913449E+002  5.0917728E+002  5.0917647E+002  5.0809503E+002  5.0889354E+002  5.0898743E+002  5.0849513E+002  5.0918765E+002  5.0751512E+002  5.0923371E+002  5.0747607E+002  5.0784142E+002  5.0780528E+002  5.0764963E+002  5.0771695E+002  5.0795627E+002  5.0809730E+002  5.0801116E+002  5.0880579E+002  5.0879215E+002  5.0869948E+002  5.0886529E+002  5.0872384E+002  5.0862221E+002  5.0905354E+002  5.0910041E+002  5.0907923E+002  5.0912364E+002  5.0908227E+002  5.0905532E+002  5.0836378E+002  5.0847586E+002  5.0835755E+002  5.0841906E+002  5.0910348E+002  5.0915940E+002  5.0917372E+002  5.0914836E+002  5.0914415E+002  5.0919453E+002  5.0924317E+002  5.0925017E+002  5.0922269E+002  5.0921818E+002  5.0912374E+002  5.0919177E+002  5.0920179E+002  5.0919565E+002  5.0917804E+002  5.0883426E+002  5.0892684E+002  5.0897615E+002  5.0906485E+002  5.0921800E+002  5.0925833E+002  5.0925978E+002  5.0926113E+002  5.0923504E+002  5.0922151E+002  5.0912934E+002  5.0917172E+002  5.0924688E+002  5.0915254E+002  5.0922006E+002  5.0921094E+002  5.0921524E+002  5.0920432E+002  5.0823782E+002  5.0823585E+002  5.0905214E+002  5.0894193E+002  5.0901587E+002  5.0899505E+002  5.0811975E+002  5.0887181E+002  5.0908362E+002  5.0860946E+002  5.0901127E+002  5.0859980E+002  5.0914257E+002  5.0923487E+002  5.0752650E+002  5.0743779E+002  5.0926036E+002  5.0917523E+002  5.0858421E+002  5.0763354E+002  5.0881757E+002  5.0914522E+002  5.0896053E+002  5.0893224E+002  5.0912874E+002  5.0911217E+002  5.0900810E+002  5.0919089E+002  5.0912642E+002  5.0864859E+002  5.0787439E+002  5.0921097E+002  5.0793686E+002  5.0906732E+002  5.0900381E+002  5.0836118E+002  5.0913435E+002  5.0924658E+002  5.0923149E+002  5.0914892E+002  5.0830483E+002  5.0914455E+002  5.0924798E+002  5.0920880E+002  5.0738447E+002  5.0735181E+002  5.0915659E+002  5.0757204E+002  5.0922173E+002  5.0892170E+002  5.0902525E+002  5.0911879E+002  5.0916576E+002  5.0887328E+002  5.0923144E+002  5.0813080E+002  5.0903840E+002  5.0918135E+002  5.0855199E+002  5.0851116E+002  5.0914559E+002  5.0922562E+002  5.0820342E+002  5.0924528E+002  3.5433571E+002  3.5432375E+002  3.5433532E+002  3.5431752E+002  3.5430011E+002  3.5431086E+002  3.5429279E+002  3.5430311E+002  3.5429372E+002  3.5428746E+002  3.5428582E+002  3.5428455E+002  3.5428376E+002  3.5428692E+002  3.5429729E+002  3.5430912E+002  3.5431649E+002  3.5428556E+002  3.5434870E+002  3.5428975E+002  3.5432576E+002  3.5430577E+002  3.5432993E+002  3.5429675E+002  3.5428974E+002  3.5428429E+002  3.5435150E+002  3.5434794E+002  3.5433684E+002  3.5436647E+002  4.3173748E+002  4.3832727E+002  4.4306692E+002  4.4799830E+002  4.5370928E+002  4.5956999E+002  4.6642587E+002  4.9980857E+002  4.7530736E+002  3.4653108E+002  4.3532087E+002  5.0775248E+002  4.8284707E+002  5.0299972E+002  5.0753442E+002  5.0652152E+002  4.7497651E+002  3.6842665E+002  4.3985514E+002  4.4483658E+002  4.7128468E+002  4.8889527E+002  4.9589255E+002  4.8608069E+002  4.9379544E+002  5.0790490E+002  5.0733781E+002  2.9639055E+002  4.9425602E+002  2.9706693E+002  4.5636073E+002  4.5085782E+002  4.6289827E+002  2.9481441E+002  3.2211352E+002  5.0704184E+002  5.0804890E+002  2.9600775E+002  2.9471552E+002  5.0364430E+002  3.5265412E+002  3.5294111E+002  3.5297011E+002  3.5370300E+002  3.5313831E+002  3.5362746E+002  4.9838049E+002  5.0473807E+002  4.7969475E+002  4.6451247E+002  5.0727619E+002  5.0609988E+002  5.0665981E+002  2.9868288E+002  3.8371949E+002  5.0566813E+002  5.0404010E+002  5.0415128E+002  5.0228905E+002  5.0286153E+002  5.0061024E+002  4.9990427E+002  4.9791531E+002  4.9675359E+002  5.0135889E+002  5.0263738E+002  2.9537155E+002  2.9403179E+002  4.9445829E+002  4.9253717E+002  4.8570436E+002  4.7676686E+002  4.5730165E+002  4.4776816E+002  4.2038471E+002  4.1439916E+002  3.8620072E+002  3.8426799E+002  5.0234527E+002  5.0828688E+002  4.3670843E+002  4.3504985E+002  4.3824631E+002  4.7867171E+002  5.0155199E+002  3.6367908E+002  3.6202687E+002  3.4721078E+002  3.4583341E+002  3.5726518E+002  3.4246764E+002  3.5096557E+002  3.3810710E+002  3.4444475E+002  3.3339994E+002  3.3812505E+002  3.2871982E+002  3.4992760E+002  3.3225862E+002  3.2426132E+002  3.2696785E+002  3.2012855E+002  3.2309070E+002  3.1644116E+002  3.1782538E+002  3.1287561E+002  3.1383111E+002  3.0972233E+002  3.1035284E+002  3.0690591E+002  2.9406726E+002  4.8979159E+002  4.8663858E+002  3.0747041E+002  3.0435999E+002  4.8070017E+002  5.0541182E+002  3.0726633E+002  3.2809041E+002  3.1445772E+002  5.0830351E+002  2.9581578E+002  3.1919049E+002  5.0610516E+002  3.3502672E+002  3.3436834E+002  3.0437615E+002  3.0332587E+002  3.0393487E+002  3.6660195E+002  4.2945994E+002  3.5928006E+002  3.2549643E+002  3.2392261E+002  3.0450985E+002  3.0728868E+002  3.0188083E+002  4.8504776E+002  4.7904395E+002  5.0296998E+002  5.0204460E+002  3.0139260E+002  5.0359928E+002  5.0267437E+002  5.0108626E+002  5.0182489E+002  5.0014209E+002  5.0096898E+002  4.9913177E+002  5.0035598E+002  4.9811662E+002  5.0257869E+002  3.3771124E+002  5.0574736E+002  5.0398505E+002  3.0433809E+002  3.0697358E+002  3.3526517E+002  3.2107194E+002  3.0870251E+002  2.9557572E+002  2.9692632E+002  2.9512299E+002  5.0302878E+002  2.9974836E+002  5.0781550E+002  5.0765020E+002  5.0746970E+002  5.0711625E+002  5.0797900E+002  5.0816868E+002  4.1747492E+002  5.0470917E+002  2.9362676E+002  3.6796590E+002  5.0842473E+002  3.1744374E+002  3.1561732E+002  3.1819356E+002  3.2078347E+002  2.9561021E+002  3.1278090E+002  3.6212482E+002  3.0000908E+002  4.9912776E+002  5.0104719E+002  4.8327360E+002  4.7156844E+002  4.6832275E+002  4.5598903E+002  5.0503816E+002  4.6778889E+002  2.9923463E+002  3.0063564E+002  2.9795766E+002  3.0387098E+002  3.0632005E+002  3.0992808E+002  4.9699953E+002  5.0523472E+002  3.1177960E+002  3.1204727E+002  5.0571832E+002  5.0540149E+002  5.0006609E+002  5.0177016E+002  5.0252586E+002  5.0306136E+002  5.0246834E+002  5.0371178E+002  5.0355771E+002  5.0326354E+002  5.0193437E+002  5.0265870E+002  5.0374418E+002  5.0326868E+002  5.0215806E+002  4.8986499E+002  3.5266310E+002  3.5113962E+002  4.4532891E+002  3.5261207E+002  5.0248652E+002  4.9519950E+002  4.9891371E+002  4.8722256E+002  3.5331459E+002  3.5124041E+002  3.5499107E+002  3.5866012E+002  3.5272149E+002  3.5395434E+002  3.4855313E+002  3.4550079E+002  3.5491239E+002  3.3814255E+002  3.5319905E+002  3.5302163E+002  3.5120406E+002  3.1636853E+002  5.0278365E+002  4.9698101E+002  3.3770007E+002  4.4088126E+002  4.3622376E+002  4.4363527E+002  4.6844277E+002  4.6729861E+002  4.7312855E+002  4.5406976E+002  4.4865163E+002  4.5143288E+002  4.4582830E+002  4.8585485E+002  4.9076433E+002  4.8984114E+002  4.4896380E+002  4.4284701E+002  4.4559442E+002  4.6382407E+002  4.6228350E+002  4.5708740E+002  4.5473017E+002  4.6035039E+002  4.5830289E+002  4.3650749E+002  4.3059511E+002  4.9593552E+002  4.9697447E+002  2.9847675E+002  2.9962032E+002  4.9675947E+002  4.6674293E+002  3.9111476E+002  3.9819388E+002  4.0026528E+002  3.8417475E+002  3.9005119E+002  4.7674691E+002  4.7012896E+002  4.7304238E+002  3.8927756E+002  4.8483817E+002  4.7308905E+002  4.7307985E+002  3.0168462E+002  3.0902574E+002  3.0538453E+002  3.1299025E+002  4.6457663E+002  4.3859378E+002  3.0903610E+002  3.0663219E+002  5.0616621E+002  5.0597716E+002  5.0590382E+002  5.0543416E+002  4.5991949E+002  5.0427511E+002  5.0380597E+002  5.0469892E+002  4.5024024E+002  4.1762876E+002  5.0662394E+002  5.0650577E+002  4.1378282E+002  3.9457240E+002  3.7528706E+002  3.8273960E+002  3.6487867E+002  3.7327216E+002  3.5638045E+002  3.6424562E+002  3.4990168E+002  3.4320609E+002  3.8294803E+002  3.7257081E+002  3.9138709E+002  3.3862947E+002  3.3305010E+002  3.1192817E+002  2.9362778E+002  3.1796789E+002  3.1167900E+002  3.1382728E+002  4.0501317E+002  3.0108558E+002  3.0024638E+002  5.0620578E+002  5.0587778E+002  5.0644971E+002  5.0698583E+002  5.0697168E+002  3.8049032E+002  5.0848477E+002  3.6380270E+002  5.0621651E+002  5.0583546E+002  5.0505133E+002  5.0546823E+002  5.0660249E+002  3.0383278E+002  3.0191533E+002  3.0371131E+002  3.0677861E+002  5.0516444E+002  4.6327192E+002  4.4298435E+002  3.9560236E+002  4.4158823E+002  3.1714048E+002  4.9936064E+002  5.0621917E+002  5.0588321E+002  5.0510164E+002  5.0554908E+002  5.0472888E+002  5.0522052E+002  5.0602492E+002  5.0584277E+002  5.0659744E+002  5.0680355E+002  5.0314975E+002  3.3611945E+002  3.7883992E+002  2.9926140E+002  2.9413761E+002  5.0747450E+002  5.0538578E+002  3.2603828E+002  3.1945114E+002  4.2407444E+002  3.3075979E+002  3.2168132E+002  3.1697252E+002  3.1081588E+002  3.0612089E+002  3.0542267E+002  3.0956920E+002  3.0450260E+002  3.0814878E+002  3.0350115E+002  3.0663813E+002  3.0240978E+002  3.0509867E+002  3.0134217E+002  3.0360275E+002  3.0027816E+002  3.0952328E+002  3.1358586E+002  3.0218629E+002  2.9930822E+002  3.0559955E+002  3.0630872E+002  3.0216274E+002  3.1113487E+002  3.0216322E+002  2.9976136E+002  3.4411185E+002  3.3413855E+002  2.9748520E+002  2.9667440E+002  3.6648202E+002  3.5548084E+002  5.0554407E+002  5.0511238E+002  4.9516581E+002  4.3986173E+002  5.0739630E+002  5.0741412E+002  5.0702902E+002  5.0750817E+002  5.0719520E+002  4.3770921E+002  3.7098111E+002  4.7680769E+002  4.7175370E+002  4.0438103E+002  3.8955651E+002  3.8488287E+002  3.9020276E+002  4.7555803E+002  4.7448648E+002  3.9366925E+002  3.9022229E+002  5.0590121E+002  5.0550094E+002  3.1185899E+002  5.0784016E+002  5.0790140E+002  5.0600643E+002  4.8840506E+002  4.8074419E+002  2.9744419E+002  4.9625963E+002  3.2763059E+002  3.2524402E+002  4.9307587E+002  2.9851189E+002  3.0010333E+002  2.9968163E+002  3.5260851E+002  5.0563677E+002  3.5588294E+002  5.0491388E+002  5.0543116E+002  5.0620296E+002  5.0590988E+002  5.0514538E+002  5.0564149E+002  4.7036791E+002  5.0719044E+002  2.9570510E+002  3.2444982E+002  3.2821706E+002  4.7373503E+002  4.8115285E+002  5.0485964E+002  5.0743533E+002  4.0414431E+002  4.1092041E+002  3.9260185E+002  4.7667822E+002  3.9105875E+002  5.0638170E+002  5.0613751E+002  4.2659446E+002  3.1514721E+002  5.0695381E+002  5.0724681E+002  4.0774134E+002  4.0552363E+002  5.0731513E+002  5.0698901E+002  5.0586485E+002  5.0501281E+002  5.0808215E+002  4.1691337E+002  5.0194586E+002  4.9973546E+002  4.8637156E+002  3.5047556E+002  3.4743076E+002  3.5045461E+002  3.4752418E+002  4.9704680E+002  3.4520093E+002  2.9845317E+002  2.9689221E+002  3.1051010E+002  2.9776318E+002  2.9811254E+002  5.0382512E+002  5.0341176E+002  4.0089574E+002  5.0426505E+002  5.0388484E+002  3.0192027E+002  5.0817492E+002  3.5476861E+002  5.0687132E+002  3.0207743E+002  5.0631313E+002  2.9615413E+002  2.9667494E+002  2.9533369E+002  5.0684061E+002  2.9973476E+002  5.0100299E+002  5.0003771E+002  4.9596137E+002  4.9979725E+002  4.9645396E+002  3.9571446E+002  4.4343302E+002  4.3849795E+002  4.3419935E+002  4.2927807E+002  4.6415444E+002  4.6233243E+002  4.6677913E+002  4.3012262E+002  4.1911309E+002  2.9531774E+002  2.9680068E+002  2.9569058E+002  5.0706332E+002  5.0758055E+002  3.0122228E+002  5.0411110E+002  4.9928025E+002  3.4695317E+002  3.3450269E+002  5.0727073E+002  5.0697330E+002  4.8785452E+002  5.0655655E+002  5.0714658E+002  5.0644622E+002  5.0338077E+002  4.7241714E+002  2.9826212E+002  3.2125845E+002  3.0015306E+002  5.0447881E+002  4.9610125E+002  5.0656487E+002  5.0474280E+002  3.2074042E+002  3.1350775E+002  2.9879172E+002  3.4831828E+002  4.7617033E+002  3.2893048E+002  3.2293556E+002  3.1678022E+002  3.1024555E+002  3.0516451E+002  5.0475882E+002  5.0442276E+002  5.0336110E+002  5.0379314E+002  5.0471033E+002  5.0419056E+002  5.0535214E+002  5.0283522E+002  5.0239827E+002  5.0509002E+002  5.0452241E+002  5.0563509E+002  3.4617237E+002  3.3365787E+002  3.2483289E+002  3.2314357E+002  3.1266156E+002  3.1373896E+002  5.0787422E+002  3.9962615E+002  4.7758099E+002  4.1679125E+002  4.0451244E+002  4.5601397E+002  5.0779314E+002  5.0774259E+002  5.0811109E+002  5.0461786E+002  2.9589301E+002  5.0629740E+002  5.0671644E+002  5.0655590E+002  5.0662463E+002  5.0688742E+002  2.9686708E+002  5.0388411E+002  3.3950870E+002  3.3759665E+002  3.2894278E+002  3.2613332E+002  4.2709587E+002  4.1352091E+002  4.2012771E+002  4.1269970E+002  4.2881241E+002  4.4351119E+002  4.9821344E+002  4.9956753E+002  3.4962328E+002  3.0139373E+002  5.0320621E+002  4.2652240E+002  5.0642299E+002  5.0073765E+002  4.9966019E+002  4.9972566E+002  5.0100890E+002  4.6479890E+002  3.1869821E+002  3.1421855E+002  5.0536481E+002  5.0752688E+002  3.3729232E+002  3.2987746E+002  4.5802838E+002  4.4684416E+002  4.3122803E+002  5.0233227E+002  5.0665274E+002  5.0673039E+002  5.0538375E+002  5.0085571E+002  5.0719051E+002  2.9506723E+002  5.0143291E+002  4.9103820E+002  3.7622263E+002  2.9705827E+002  3.0071703E+002  2.9667481E+002  2.9947708E+002  4.9595099E+002  4.9430065E+002  4.9307481E+002  4.9083216E+002  4.9313103E+002  3.5674750E+002  5.0462082E+002  2.9604699E+002  2.9801098E+002  2.9835403E+002  3.0086048E+002  3.2251330E+002  3.0382319E+002  3.0732495E+002  3.0962559E+002  2.9519423E+002  2.9594946E+002  3.3128214E+002  3.2010580E+002  3.2262740E+002  3.1039358E+002  5.0090993E+002  5.0019842E+002  3.2970095E+002  3.4533471E+002  3.3378271E+002  3.5800879E+002  3.2460081E+002  3.1746131E+002  3.1478134E+002  3.1157171E+002  3.0535986E+002  3.0110985E+002  2.9995990E+002  2.9759276E+002  3.2556979E+002  3.1078810E+002  3.4198800E+002  3.3131526E+002  3.0479074E+002  3.0099979E+002  3.0618508E+002  3.0654005E+002  3.0911809E+002  2.9869032E+002  3.1543671E+002  3.0516616E+002  2.9712726E+002  2.9631485E+002  2.9549655E+002  2.9801701E+002  2.9841948E+002  3.0077284E+002  3.0037982E+002  3.0385414E+002  3.0370212E+002  2.9773054E+002  2.9342963E+002  2.9388099E+002  2.9432552E+002  2.9460345E+002  2.9526692E+002  3.0784046E+002  3.0312175E+002  3.0209207E+002  2.9512533E+002  2.9383301E+002  2.9548670E+002  3.0202484E+002  3.0319271E+002  2.9382569E+002  3.0620128E+002  2.9743701E+002  3.0001569E+002  2.9828125E+002  2.9823228E+002  2.9677753E+002  3.1143717E+002  3.1766919E+002  5.0758821E+002  3.0751259E+002  3.1434307E+002  3.1217848E+002  5.0632168E+002  5.0748910E+002  5.0780983E+002  5.0783393E+002  5.0742127E+002  5.0738208E+002  5.0796479E+002  5.0799356E+002  5.0687513E+002  5.0811467E+002  5.0649007E+002  5.0835205E+002  5.0822936E+002  5.0579381E+002  5.0631415E+002  5.0850786E+002  2.9624303E+002  3.1057726E+002  5.0803977E+002  5.0816189E+002  2.9449862E+002  4.8869543E+002  4.6581208E+002  3.5039439E+002  3.4611495E+002  3.4004282E+002  3.5012085E+002  3.5214199E+002  3.5069173E+002  3.5090718E+002  5.0453020E+002  2.9474772E+002  4.8662105E+002  4.8311358E+002  4.7748862E+002  4.0474565E+002  3.0369377E+002  5.0099797E+002  3.6583711E+002  2.9490745E+002  5.0449688E+002  5.0842013E+002  3.6392792E+002  2.9423481E+002  2.9647436E+002  5.0769888E+002  5.0769852E+002  3.2509809E+002  3.1991355E+002  4.7470710E+002  5.0620115E+002  5.0839144E+002  2.9534701E+002  5.0363397E+002  2.9561749E+002  5.0450637E+002  3.5908471E+002  3.1242968E+002  2.9348241E+002  2.9409778E+002  5.0615493E+002  2.9752176E+002  4.8830035E+002  2.9738017E+002  4.5948611E+002  3.4603096E+002  3.0411658E+002  5.0441508E+002  5.0853735E+002  5.0444422E+002  5.0183014E+002  5.0425143E+002  2.9428008E+002  4.9042237E+002  3.4932541E+002  3.2292864E+002  5.0466343E+002  4.1058018E+002  4.1169536E+002  4.1968261E+002  2.9445567E+002  5.0197230E+002  3.0309446E+002  4.2663897E+002  4.5890242E+002  4.5279661E+002  4.4742903E+002  4.3531683E+002  4.6844290E+002  4.5486903E+002  4.8681390E+002  4.4657754E+002  4.4001456E+002  4.4177092E+002  4.3902176E+002  4.3380142E+002  4.3117801E+002  4.3167014E+002  4.2793696E+002  2.9660461E+002  5.0648384E+002  4.3566141E+002  5.0278379E+002  5.0779617E+002  5.0401303E+002  4.3605968E+002  3.3777140E+002  5.0376952E+002  5.0741151E+002  4.0988859E+002  2.9467519E+002  4.2789605E+002  5.0518886E+002  5.0407459E+002  3.2776476E+002  5.0677428E+002  5.0761994E+002  5.0177817E+002  3.1099493E+002  3.6967837E+002  2.9753393E+002  5.0376781E+002  3.8622717E+002  3.6490633E+002  3.7753026E+002  4.4937984E+002  4.0402322E+002  5.0590309E+002  4.9586583E+002  4.9294867E+002  3.6365530E+002  4.9864432E+002  4.9906464E+002  4.9155879E+002  4.4996793E+002  5.0779113E+002  3.2268943E+002  3.0253378E+002  3.0128151E+002  3.0686110E+002  5.0796273E+002  5.0721423E+002  3.4371067E+002  5.0585940E+002  2.9739320E+002  5.0235943E+002  5.0736364E+002  4.9741612E+002  2.9417930E+002  5.0694146E+002  4.5697551E+002  3.0106914E+002  4.7197983E+002  5.0173150E+002  5.0058768E+002  5.0447133E+002  3.9863268E+002  3.0124078E+002  5.0798556E+002  3.0003396E+002  4.6126898E+002  4.2589421E+002  4.3726617E+002  5.0421047E+002  5.0754759E+002  4.9221098E+002  5.0693831E+002  4.9114024E+002  4.2692541E+002  3.1783075E+002  3.8017850E+002  4.9831049E+002  3.7363040E+002  3.9664638E+002  5.0770826E+002  5.0828009E+002  3.5304722E+002  4.8657244E+002  3.8779147E+002  3.9116909E+002  4.9898083E+002  4.9113852E+002  5.0455425E+002  5.0387114E+002  5.0493485E+002  5.0687433E+002  4.7732959E+002  5.0188989E+002  5.0053012E+002  4.6978778E+002  4.6625083E+002  4.7859228E+002  5.0687404E+002  4.6939896E+002  4.0927881E+002  4.8183635E+002  5.0551292E+002  3.5433235E+002  3.8606456E+002  3.8402728E+002  3.5307436E+002  3.5309370E+002  3.8718077E+002  3.5292959E+002  3.9249285E+002  3.5282833E+002  3.8374505E+002  3.5351779E+002  4.7023385E+002  4.7008055E+002  4.8961397E+002  4.7914990E+002  3.1616250E+002  5.0694049E+002  5.0427611E+002  3.0540278E+002  3.8002499E+002  5.0083125E+002  3.8628909E+002  4.1691901E+002  4.1188682E+002  4.1771806E+002  4.4362141E+002  4.9927643E+002  5.0121771E+002  5.0387891E+002  3.7408798E+002  3.9703067E+002  4.9606019E+002  2.9427663E+002  3.1519205E+002  4.7766876E+002  4.7958020E+002  5.0291568E+002  5.0489282E+002  4.3073898E+002  4.3467095E+002  3.3477171E+002  4.6207515E+002  4.3670335E+002  4.4290686E+002  4.3640658E+002  4.7012490E+002  4.5312782E+002  4.8729422E+002  4.3064230E+002  4.3660446E+002  4.3231605E+002  4.4761565E+002  4.5018331E+002  4.6779712E+002  4.4152369E+002  4.6552527E+002  4.3941046E+002  4.5888365E+002  4.3764943E+002  4.3863680E+002  4.5551958E+002  4.9210783E+002  4.4474812E+002  4.8450973E+002  4.7459679E+002  4.7716996E+002  4.4599051E+002  4.8155270E+002  4.8044289E+002  4.7826370E+002  5.0814826E+002  2.9739301E+002  3.2950420E+002  3.8807315E+002  5.0652138E+002  5.0535930E+002  2.9326745E+002  2.9354330E+002  3.0919613E+002  5.0698023E+002  5.0679201E+002  2.9621030E+002  2.9492399E+002  5.0495995E+002  3.7014317E+002  5.0601034E+002  5.0795906E+002  4.9594159E+002  5.0532127E+002  4.1581888E+002  2.9521850E+002  3.1659628E+002  4.5301740E+002  4.9926147E+002  3.2959191E+002  5.0307714E+002  5.0344682E+002  2.9497932E+002  2.9519381E+002  4.2470392E+002  3.2468566E+002  2.9903097E+002  5.0831813E+002  4.9249546E+002  5.0045966E+002  3.1845745E+002  3.1146034E+002  4.2840294E+002  5.0516877E+002  4.9774507E+002  5.0709454E+002  2.9451241E+002  5.0718637E+002  5.0734087E+002  3.0169694E+002  2.9558053E+002  5.0362391E+002  5.0769322E+002  4.2958082E+002  4.3111717E+002  4.3666814E+002  4.3104756E+002  4.3370773E+002  5.0857453E+002  5.0643577E+002  3.5307975E+002  5.0573555E+002  4.9939104E+002  4.2701705E+002  3.0607930E+002  5.0606281E+002  2.9526623E+002  4.1902549E+002  3.5065049E+002  5.0380051E+002  3.1581575E+002  4.3521977E+002  5.0741042E+002  5.0407160E+002  5.0078421E+002  4.9753097E+002  2.9395632E+002  4.9513472E+002  5.0512925E+002  3.4045334E+002  5.0274046E+002  3.8514909E+002  3.0180477E+002  4.9698902E+002  4.9778292E+002  5.0837389E+002
        </DataArray>
        <DataArray type="Float64" Name="temperature loads" NumberOfComponents="1" format="ascii">
 -3.2235653E-003 -7.7194020E-003 -4.4394937E-002 -3.6869049E-003  2.5030114E-002 -7.4799071E-004  5.0297501E-006  2.6865934E-004  4.9532593E-002  4.9640025E-002 -2.7014168E-003 -1.1839276E-002 -1.1837113E-002 -2.7006851E-003 -5.0724539E-004 -3.8521392E-004 -1.1085357E-004 -8.8571836E-005  1.1618491E-011  2.4865716E-009  8.8704181E-004  1.0444003E-012 -4.2080412E-002 -4.0322252E-002 -3.8563800E-002 -3.6805152E-002 -3.5046373E-002 -3.3287529E-002 -3.1528665E-002 -2.9769837E-002 -2.8011074E-002 -2.6175527E-002 -2.2579923E-002 -1.7656456E-002 -1.3857269E-002 -1.1409883E-002 -9.8241207E-003 -8.8287269E-003 -4.5591885E-002 -4.5573837E-002 -4.5563788E-002 -4.5556978E-002 -4.5552002E-002 -4.5548213E-002 -4.5545254E-002 -4.5542907E-002 -4.5541031E-002 -4.5539522E-002 -4.5538300E-002 -7.4876475E-004 -7.9871659E-004 -8.7338642E-004 -9.7683236E-004 -1.1169283E-003 -1.3063401E-003 -1.5594332E-003 -1.7540556E-003 -1.8038236E-003 -1.8022764E-003 -1.8005994E-003 -1.7988098E-003 -1.7969140E-003 -1.7949204E-003 -1.7928314E-003 -1.7906477E-003 -1.7883641E-003 -1.7859991E-003 -1.7835633E-003 -1.7810593E-003 -1.7784938E-003 -1.7758683E-003 -1.7731913E-003 -1.7704624E-003 -1.7676884E-003 -1.7648685E-003 -1.7620073E-003 -1.7591053E-003 -1.7561678E-003 -1.7531994E-003 -1.7502046E-003 -1.7471821E-003 -1.7441353E-003 -1.7410724E-003 -1.7379914E-003 -1.7348996E-003 -1.7317956E-003 -1.7286769E-003 -1.7255444E-003 -1.7224011E-003 -1.7192567E-003 -1.7161135E-003 -1.7129830E-003 -1.7098648E-003 -1.7067666E-003 -1.7036830E-003 -1.7006251E-003 -1.6975884E-003 -1.6945774E-003 -1.6915954E-003 -1.6886424E-003 -1.6857194E-003 -1.6828324E-003 -1.6799793E-003 -1.6771650E-003 -1.6743878E-003 -1.6716524E-003 -1.6689577E-003 -1.6663084E-003 -1.6637038E-003 -1.6611444E-003 -1.6586336E-003 -1.6561720E-003 -1.6537621E-003 -1.6514030E-003 -1.6490988E-003 -1.6468482E-003 -1.6446523E-003 -1.6425140E-003 -1.6404346E-003 -1.6384137E-003 -1.6364538E-003 -1.6345546E-003 -1.6327193E-003 -1.6309492E-003 -1.6292371E-003 -1.6275744E-003 -1.6259723E-003 -1.6244405E-003 -1.6229794E-003 -1.6215790E-003 -1.6202274E-003 -1.6189340E-003 -1.6177011E-003 -1.6165166E-003 -1.6153727E-003 -1.6142757E-003 -1.6132354E-003 -1.6122596E-003 -1.6113538E-003 -1.6105209E-003 -1.6097629E-003 -1.6090828E-003 -1.6084784E-003 -1.6079485E-003 -1.6074925E-003 -1.6071108E-003 -1.6068046E-003 -1.6065592E-003  9.0413071E-005  6.0320660E-005  3.0173430E-005  1.6119215E-003  3.2238455E-003  4.8354621E-003  6.4463996E-003  8.0563863E-003  9.6653859E-003  1.1272859E-002  1.2878307E-002  1.4481154E-002  1.6082469E-002  1.7680921E-002  1.9275827E-002  2.0866368E-002  2.2450634E-002  2.4028629E-002  2.5597895E-002  2.7156339E-002  2.8699195E-002  3.0223348E-002  3.1725209E-002  3.3192642E-002  3.4615491E-002  3.5985086E-002  3.7293692E-002  3.8537603E-002  3.9724784E-002  4.0867894E-002  4.1970581E-002  4.3037456E-002  4.4073448E-002  4.5076701E-002  4.6051915E-002  4.6995167E-002  4.7903180E-002  4.8770427E-002  5.0009075E-002  5.0180982E-002  5.0067305E-002 -2.9772659E-003 -3.3083409E-003 -3.6394005E-003 -3.9704879E-003 -4.3015526E-003 -4.6325975E-003 -4.9636012E-003 -5.2945699E-003 -5.6254834E-003 -5.9563382E-003 -6.2871359E-003 -6.6178624E-003 -6.9484859E-003 -7.2790746E-003 -7.6095492E-003 -7.9398983E-003 -8.2701586E-003 -8.6002950E-003 -8.9303230E-003 -9.2602050E-003 -9.5899423E-003 -9.9195366E-003 -1.0248984E-002 -1.0578264E-002 -1.0907401E-002 -1.1236354E-002 -1.1565287E-002 -1.1893613E-002 -1.1563453E-002 -1.1234905E-002 -1.0905981E-002 -1.0576879E-002 -1.0247611E-002 -9.9182030E-003 -9.5886414E-003 -9.2589138E-003 -8.9290615E-003 -8.5990658E-003 -8.2689834E-003 -7.9387303E-003 -7.6083995E-003 -7.2779701E-003 -6.9475373E-003 -6.6168667E-003 -6.2862201E-003 -5.9554569E-003 -5.6246689E-003 -5.2937776E-003 -4.9628830E-003 -4.6318765E-003 -4.3009109E-003 -3.9698854E-003 -3.6388364E-003 -3.3077836E-003 -2.9766946E-003 -2.6460472E-003  4.8859806E-002  4.7978730E-002  4.7064666E-002  4.6119574E-002  4.5144908E-002  4.4142602E-002  4.3110727E-002  4.2054189E-002  4.0980069E-002  3.9897653E-002  3.8859099E-002 -3.5186491E-003 -3.7129385E-003 -4.0036261E-003 -4.4002047E-003 -4.9253428E-003 -5.6153088E-003 -6.5250731E-003 -2.9622877E-003 -2.9027804E-003 -2.8431149E-003 -2.7833628E-003 -2.7235513E-003 -2.6636953E-003 -2.6038056E-003 -2.5438908E-003 -2.4839562E-003 -2.4240081E-003 -2.3640498E-003 -2.3040862E-003 -2.2441196E-003 -2.1841497E-003 -2.1241776E-003 -2.0642082E-003 -2.0042464E-003 -1.9442951E-003 -1.8843570E-003 -1.8244363E-003 -1.7645317E-003 -1.7046387E-003 -1.6447633E-003 -1.5849101E-003 -1.5250844E-003 -1.4652888E-003 -1.4055253E-003 -1.3457907E-003 -1.2860828E-003 -1.2264151E-003 -1.1667990E-003 -1.1072428E-003 -1.0477613E-003 -9.8836776E-004 -9.2909497E-004 -8.6999626E-004 -8.1115136E-004 -7.5283746E-004 -6.9582890E-004 -6.6960326E-016 -1.0450495E-013 -2.0498880E-013 -6.6807671E-014 -1.3877788E-017 -7.9777157E-013 -1.1472767E-013  3.1916657E-013  1.8319547E-013 -3.0188448E-003 -5.9108785E-003 -8.5415079E-003 -1.0816738E-002 -1.2403339E-002 -1.3007388E-002 -1.2949248E-002 -1.2022193E-002 -1.0656735E-002 -9.1655737E-003 -7.3868551E-003 -5.6437991E-003 -3.7038138E-003 -1.9301868E-003 -1.9397473E-003 -3.9761692E-003 -5.6295345E-003 -7.3271555E-003 -8.5785012E-003 -9.6308690E-003 -1.0297039E-002 -1.0610591E-002 -1.0590163E-002 -1.0339773E-002 -9.8461946E-003 -9.1958038E-003 -8.4374666E-003 -7.6133881E-003 -6.7985917E-003 -5.9665469E-003 -5.1673492E-003 -4.3929734E-003 -3.6707635E-003 -2.9896316E-003 -2.3400189E-003 -1.7232178E-003 -1.1313842E-003 -5.6249680E-004  2.2098642E-014  4.5897314E-014  1.2384191E-013  2.0680853E-013  2.0834289E-013  2.8633085E-013  3.8390645E-013  6.1135125E-013 -3.4694470E-017  3.4446751E-013  5.9105498E-014  6.1860239E-015 -4.4270143E-015 -1.5364446E-014 -5.6335145E-015  8.6736174E-019  1.7347235E-018 -5.1744754E-004 -1.0534416E-003 -1.4613346E-003 -1.8194689E-003 -2.1220552E-003 -2.3136995E-003 -2.4182248E-003 -2.4292248E-003 -2.3419948E-003 -2.1260919E-003 -1.8501294E-003 -1.4703571E-003 -1.0235815E-003 -5.2600384E-004  5.7157904E-013  9.9927657E-011  3.7288048E-011  7.3872376E-011  2.6985048E-010  2.5846040E-010  2.3782509E-010  2.0200266E-010  2.1634503E-010  2.9172110E-010  2.7325417E-010  3.0384556E-010  3.0407751E-010  2.9301267E-010  3.7269611E-010  3.7863159E-010  4.8821989E-010  3.6724296E-010  4.1813861E-010  3.8939166E-010  5.4241205E-010  7.4438660E-010  4.6787879E-010  6.0173022E-010  6.0848170E-010  5.7894826E-010  6.9643565E-010  5.9905858E-010  6.5001463E-010  6.5192067E-010  6.3479888E-010  7.5409525E-010  7.9871878E-010  1.1633115E-009  1.2745573E-009  1.1488052E-009  8.9969074E-010  7.8947059E-010  8.6731857E-010  8.7475288E-010  1.1837475E-009  7.9222846E-010  9.5184251E-010  1.7067067E-009  9.4853792E-010  1.5260868E-009  1.3093129E-009  1.4479282E-010  8.9463440E-010  3.0005866E-009  2.8042195E-009  2.7832733E-009  1.0543084E-009  1.3605601E-009  1.9628097E-010  3.9534287E-010  1.1338287E-009  1.3246927E-009  1.2438671E-009  1.3587190E-009  2.0475659E-009  1.5144919E-009  1.0094075E-009  1.7133134E-009  2.6554682E-009  2.6365417E-009  2.7744753E-009  2.8970784E-009  4.7900250E-002  4.2577998E-002  3.7255750E-002  3.1933501E-002  2.6611252E-002  2.1289001E-002  1.5966750E-002  1.0644499E-002  5.3222501E-003  3.4324674E-012  4.4966253E-012  3.6100598E-012  2.1843291E-011 -2.8623008E-016  7.5897342E-012  3.6303192E-012  3.0010286E-012  2.9193268E-012  3.5707988E-013  6.7138557E-013  1.4667646E-012 -7.0426292E-016  2.3940178E-012  3.8520200E-012  5.2988722E-012 -8.2344263E-015  3.6937633E-012  4.4582460E-012  4.4781812E-012  6.3349127E-012  1.4352083E-011  7.7149257E-012  9.8148252E-012  2.4873496E-011  4.7712117E-012  1.2171565E-010  4.2206351E-012  8.8666558E-011  2.1040647E-010  3.8125184E-010  1.9249485E-010  5.2568437E-010  3.3894357E-010  5.1181814E-010  1.1683971E-009  7.5144066E-010  1.0108703E-009  1.1471322E-009  1.3560164E-009  1.4917890E-009  1.3816139E-009  1.4621693E-009  1.4651061E-009  1.7082873E-009  1.7257315E-009  1.6287794E-009  2.6543603E-009  9.7455526E-010 -2.2810288E-010 -1.0565660E-011 -3.5237792E-015 -3.9589574E-011 -2.8452623E-011 -1.9606239E-011 -1.8010149E-011 -2.2780360E-011 -2.6717888E-015 -1.8466377E-011 -1.7473984E-011 -3.3015795E-011 -2.4701974E-015 -3.1179925E-012 -1.3279592E-011 -7.6951852E-012 -4.1042799E-012 -2.4860151E-012 -5.6035248E-012 -4.2114100E-012  2.0660399E-013  5.3290705E-015  2.3891999E-013  2.0747848E-012  6.7114302E-012  6.4134089E-012  4.6918766E-012  2.1103900E-012 -2.8627701E-015  8.2839680E-012  6.5161641E-012  3.0064832E-011 -3.8267690E-015  1.3685192E-011  1.4823426E-011  2.4476421E-011  4.6233449E-012  1.5346733E-011  5.9497580E-011  4.2226503E-011  1.7691626E-015  3.9511573E-011  5.2028116E-011  4.1713642E-011  6.0589846E-011  1.2320883E-011  6.6133780E-011  4.7818585E-011  1.4844569E-010  1.6200373E-011  8.1735507E-011  7.2189194E-011  4.9961681E-011  8.0128001E-011 -1.8226016E-015  2.1371492E-011  8.8553674E-011  6.0892644E-011  5.5130234E-011  7.2580142E-011  1.6779408E-011  8.9519503E-011  1.2085661E-010 -1.6388588E-015  7.0131547E-011  7.1343585E-011  1.6531883E-011  8.8132506E-011  6.0116539E-011  5.8844041E-011  5.8860086E-011  1.3249319E-010  8.9103160E-011  2.1753851E-011 -5.3303253E-015  8.1580964E-011  5.3159255E-011  7.1414043E-011  5.7044308E-011  1.3173510E-010  5.6374700E-011  7.8766569E-011  1.5107686E-011  7.0258695E-011  6.5130397E-011  8.1046044E-015  9.9604937E-011  4.4731330E-011  4.2632701E-011  3.9156769E-011  2.4317726E-011  4.4672415E-011  1.8170553E-011  1.4178285E-011 -1.3735674E-015  8.8413772E-011  3.6307296E-011 -9.9338785E-016  5.1748230E-012 -3.3595349E-012  5.3290705E-015 -3.4059866E-011  1.8869637E-010  9.1871658E-011  1.3322487E-010  1.8926764E-010  1.1957972E-010  1.2751753E-010  4.3050281E-010  6.6602947E-011  1.4190733E-010  1.9859038E-010  3.2250107E-010  2.1347778E-010  1.6303403E-010  1.1562075E-010  3.4761071E-011 -2.3285383E-013  2.9998730E-011  1.0473400E-010  3.2696031E-010  2.1860462E-010  3.9351891E-011  5.8822957E-010  2.7802386E-010  1.8917786E-010  2.5040193E-010  1.8738366E-010  1.5691622E-010  9.6428548E-012  2.5740690E-010  4.4350095E-011  4.4353636E-010  2.4948405E-010  6.7181281E-012  3.9331231E-010  2.8993182E-010  1.9858134E-010  2.2301480E-010  3.1905791E-010  1.4627282E-010  9.7257649E-011  2.4357070E-010  8.0779710E-011  7.0483615E-011  4.2658731E-011  2.4114656E-010  7.1752671E-011  1.7932053E-010  1.3132654E-010  4.0930095E-012  2.5936687E-012  1.1122663E-010  6.7470296E-010  1.8918093E-012  1.5407091E-011  4.9355548E-011  2.5490611E-011  8.4803777E-011  6.9373948E-011  7.7255811E-011  3.7654626E-011  1.0201115E-010  1.0497883E-010  1.1662757E-010  1.2517124E-010  1.4403941E-010  7.4549782E-011  6.3111430E-011  1.2851534E-010  4.0626230E-011  8.3958694E-011  6.4162426E-011  1.5453068E-010  5.4854402E-011  1.4940065E-010  2.0724561E-010  8.0597602E-011  1.3892877E-010  8.1695948E-011  1.8741221E-010  9.8727459E-011  2.2560724E-010  2.1839971E-010  1.6665534E-010  1.6143628E-010  1.6607798E-010  1.8860658E-010  2.0747080E-010  2.2057572E-010  2.3636560E-010  1.0383247E-010  1.9733835E-010  1.2789643E-010  9.7961734E-011  3.3464126E-010  2.5352274E-010  1.3358620E-010  1.8561885E-010  1.3087382E-010  1.7641580E-010  2.7433812E-010  1.2174282E-010  2.4990159E-010  2.7030990E-010  3.8693126E-011  1.0558956E-010  2.7799555E-010  3.0540893E-011  1.4145041E-010  1.4831857E-010  2.8778855E-010  1.0187702E-010  2.1696666E-010  3.2372585E-010  1.6385370E-010  1.3373102E-010  1.5078884E-010 -8.6269497E-014  1.2732282E-010  1.4544752E-010  8.8998441E-011  8.0670310E-011  2.5705467E-010  8.7987874E-011  1.4236891E-010  5.3401852E-011  8.8774202E-011  3.0463393E-010  2.6679459E-010  1.0843076E-010  1.9660717E-010  2.2974933E-010  3.9168893E-011  2.6956152E-011  2.5570346E-010  2.5422369E-010  3.2317615E-010  9.5557790E-011  1.5551219E-010  1.9087198E-010  9.9174935E-011  1.1806191E-010  1.4639140E-010  6.2226370E-011  1.3841137E-010  2.4147084E-010  1.5190322E-010  1.9839163E-010  1.7002969E-010  7.9856792E-011  6.8372979E-011  1.2841654E-010  9.3300917E-011  1.3611489E-014  5.5894090E-014  8.8543608E-011  1.3452980E-010  2.0099296E-010  1.8776329E-010  3.5873882E-010  2.6397006E-010  2.1114251E-010  2.4622663E-010  1.2902478E-010  2.3465340E-010  2.0065135E-010  2.4884917E-010  1.9268951E-010  2.0581343E-010  9.8126764E-011 -4.4541899E-014  2.4616043E-010  2.4473510E-010  1.6426537E-010  3.1295922E-010  1.5832060E-010  1.9209778E-010  2.1248843E-010  1.1227195E-010  4.2358980E-010  4.7029234E-011  1.6298916E-011  6.5346470E-011  1.1605327E-010  1.7153394E-010  1.1434475E-010  6.1115436E-011  9.0039211E-011  1.1874356E-010  5.9333992E-011  1.3647220E-010  1.2486820E-010  1.6317296E-010  1.2088226E-010  1.4542537E-010  1.3172636E-010  1.6829523E-010  2.8120217E-010  2.5050845E-010  1.4897008E-010  5.5271653E-011  3.3857792E-010  1.8140653E-010  2.5868846E-010  2.7122818E-010  6.9678414E-011  6.3459012E-011  7.8478166E-011  8.2328462E-011  6.2092086E-011  9.4337355E-011  1.3171566E-010  1.1170143E-010  1.3734050E-010  2.9817185E-010  9.2083813E-011  2.6757546E-010  2.6858027E-010  2.4226384E-011  2.5522455E-010  2.0322886E-010  3.3375063E-014  1.2123332E-010  2.1088143E-010  8.8126412E-011  1.2992189E-010  1.2761932E-010  7.1676139E-011  1.9295635E-010  3.8009457E-010  2.7242208E-010  1.2028435E-010  5.1245876E-010  2.0929680E-010  2.2835081E-010  1.3407122E-010  3.2526646E-010  2.9049304E-010  2.8752650E-010  2.6775569E-010  3.5846559E-010  2.8971565E-010  2.3347252E-010  3.1085707E-010  2.7956973E-010  3.1669714E-010  1.0400963E-010  2.7061198E-010  2.6643120E-010  2.9108645E-010  2.2765298E-010  3.6718006E-010  1.3597342E-010  4.0547832E-010  6.8141059E-011  2.6785535E-010  2.2630717E-010  8.0815375E-011  1.2439443E-010  1.4840429E-010  2.5670296E-011  1.3719692E-011  9.2768589E-012  2.3753496E-010  1.0931372E-010  1.3464488E-010  2.1748793E-010  2.0222463E-010  2.2670980E-010  2.5951865E-010  1.2120663E-010  2.8124008E-010  1.2565023E-010  1.1336211E-010  2.0672855E-010  2.1677706E-010  1.5947801E-010  5.7093483E-011  1.1632267E-010  5.5701408E-011  9.6084846E-011  2.0945149E-010  7.4410816E-011  5.5339993E-011  1.6923142E-010  3.1774855E-010  3.1677656E-010  2.2103454E-010  2.6361576E-010  1.9811293E-010  7.8435673E-011  2.5322514E-010  2.7350950E-010  2.9456657E-010  3.5215819E-010  2.7875660E-010  1.8102480E-010  1.8085338E-010  1.9518805E-010  1.7510157E-010  3.3632941E-010  2.3519703E-010  1.9151250E-010  2.1611891E-011  6.1352554E-011  2.7587412E-010  3.6243497E-010  2.8852465E-010  2.3897766E-010  6.8674445E-011  1.5174340E-010  1.6944433E-010  1.8983640E-010  1.4101547E-010  1.1382880E-010  2.5968580E-010  2.0290648E-010  1.3143879E-010  1.8878410E-010  1.8847005E-010  1.1272045E-010  1.7118269E-010  7.4204915E-011  3.4719684E-011  3.7023433E-011  5.8652241E-011  1.9067943E-010  4.5475078E-010  3.2337506E-011  1.2170511E-011  8.3815946E-011  1.8416727E-010  3.0563404E-010  3.2330440E-010  1.2112382E-010  1.4951240E-010  2.4047301E-014  4.4395720E-010  4.6359599E-010  2.1879345E-010  3.9168111E-010  3.4523894E-010  2.9013479E-010  2.8862143E-010  2.3110458E-010  3.2620212E-010  2.5193736E-010  4.4139533E-013  8.6125556E-011  2.3981248E-010  2.0844993E-010  1.5346186E-010  1.5659513E-010  1.1885631E-010  2.9436440E-010  1.3127988E-010  5.7073594E-011  7.2550192E-011  2.2021578E-010  1.9719223E-010  2.1286113E-010  1.1870269E-010  1.3155534E-010  2.3757248E-010  2.8351021E-010  1.7604899E-010  4.7814570E-011  1.7246857E-010  1.9962680E-010  9.9497276E-011  2.3230016E-010  1.9889253E-010  5.3289687E-010  2.5684057E-010  2.4798463E-010  1.0286527E-010  2.3688920E-010  9.7189346E-011  1.4959207E-010  1.8977283E-010  6.7197447E-011  2.9509657E-010  1.8420793E-011  1.4755069E-010  9.5923406E-011  2.9717482E-010  2.7642915E-010  2.9073972E-010  1.1368313E-010 -9.2347007E-014  1.8232018E-010  2.2415644E-010  1.5975758E-010  1.2826220E-010  1.9839506E-010  1.5493492E-010  1.4584180E-010  6.9145072E-012  2.2704283E-010  3.1863463E-010  1.6558928E-010  3.6636103E-010  9.3962171E-011  8.8441841E-011  1.4882062E-010  9.8163272E-011  2.0773576E-011  4.1916669E-015  2.8174364E-011  5.3556660E-011  5.3802273E-011  9.6081748E-011  2.7267409E-010  5.8949566E-011  2.1219121E-010  6.6179950E-011  2.6029085E-011  1.7622041E-010  2.7125857E-010  2.5904160E-010  2.0663271E-010  2.8413606E-010  2.0969129E-010  1.2071443E-010  1.5847479E-010 -5.2036965E-014  1.2858759E-010  1.1432219E-010  1.2102793E-010 -3.3439022E-015  9.4054066E-011  2.7067222E-010  7.3432579E-011  2.1166162E-010  2.4096639E-010  2.7733684E-011  2.8333835E-011  2.2130401E-010  2.6744960E-010  3.2806137E-010  6.0694195E-011  3.2269240E-010  3.3210392E-010  3.0196686E-010  1.3831636E-010  3.7366279E-010  2.0201865E-010  6.1193908E-010  4.2275567E-010  2.0160363E-010  7.1912454E-010  2.3517277E-010  7.5051255E-011  4.2998221E-010  5.1175160E-011  1.0054155E-010  9.6036956E-011  1.5848199E-010  1.6461426E-010  2.0156244E-010  2.4486600E-010  1.0240260E-010  6.5980279E-012  1.0599773E-010  2.0449934E-010  3.5890610E-010  3.4017644E-011  1.0552811E-010  1.7015810E-010  6.0097175E-011  1.0288208E-010  2.0194350E-010  5.1735888E-011  1.8839222E-010  1.1090768E-010  2.1808067E-010  3.7344865E-010  2.9159824E-010  1.4842139E-010  3.1184631E-010  1.7777033E-010  2.2426371E-010  9.7849702E-011  1.6722285E-010  1.5823359E-010  4.0277607E-011  1.6830240E-010  1.3864639E-010  3.0407324E-010  7.9076838E-011  3.5721786E-010  4.9778116E-012  3.1688773E-011  7.0389719E-011  2.4487644E-010  5.2135059E-011  2.2023981E-010  5.5860624E-011  1.7708893E-010  1.5386036E-010  3.1462079E-010  4.7603238E-011  1.5723485E-010  3.0856304E-010  2.0452808E-010  1.1952903E-010  1.3280479E-010  5.5538696E-011  9.8109917E-011  1.3533589E-010  9.3551834E-011  1.6125795E-010  3.3396361E-011  3.3596299E-011  2.8849007E-010  1.5721820E-010  5.5484510E-011  1.7454642E-010  9.2664100E-011  2.8026947E-010  2.4078556E-010  5.4581639E-011  3.2179714E-010  3.5994646E-010  2.5100314E-010  2.3194327E-010  6.2079959E-011  3.2212273E-010  2.4735890E-010  2.1403864E-010  1.4663934E-010  2.0331304E-010  1.3919424E-010  1.0920760E-010  3.2449337E-010  6.8039394E-011  3.6275006E-011  1.2357697E-010  1.0809889E-010 -7.7614605E-014  7.4425093E-011  1.4305971E-011  2.5687285E-010  2.8046822E-011  1.8309864E-010  3.4157263E-010 -2.4782267E-014  9.2796881E-011  1.1800391E-010  7.9424637E-011  4.4285663E-010  1.0245091E-010  2.2406423E-010  1.7488834E-010  4.2110277E-010  1.9931861E-010  2.1905882E-010  1.8075151E-010  1.3909404E-010  2.4747674E-010  1.5875538E-010  2.4108911E-010  2.9490269E-010  3.8439637E-010  3.6145549E-010  1.1627360E-010  2.1829264E-010  1.6489423E-010  2.1142962E-010  1.3889203E-015  1.5070717E-010  3.3504385E-010  9.1333163E-011  1.4835935E-010  9.7041344E-011  2.3071719E-010  1.3866952E-010  4.2678749E-011  4.3109718E-011  2.6291279E-010  2.1581716E-010  2.3917831E-010  1.7031648E-010  8.6846098E-011  1.3875479E-010  4.6240638E-011  8.3872519E-012  7.0443666E-011  1.0266904E-010  2.2482650E-010  5.2752272E-015  1.9176706E-010  1.5949797E-010  1.1478478E-010  2.2269776E-010  7.2269077E-011  1.4075510E-010  3.9319234E-012  6.6830453E-015  2.2268883E-010  1.6775589E-010  1.4219003E-010  2.3124828E-011  5.9104990E-012  5.8707838E-011  2.5551723E-010  3.3169615E-011  3.0067212E-010  6.4708168E-011  1.7109697E-010  1.3504633E-010  3.2421596E-010  2.8688948E-010 -1.0541325E-014  4.2828608E-010  2.2503882E-010  1.2853393E-010  2.8211461E-010  8.1749298E-011  1.6819771E-010  1.8980141E-010  7.0006805E-011  5.7241172E-011  6.5172799E-011  3.5224053E-011  2.6634938E-010  2.1132850E-010  1.9005157E-009  2.6343276E-009  1.8655159E-009  8.3813351E-010  7.7527886E-010  8.5178009E-010  1.2601833E-009  2.1802684E-009  2.1156906E-009  2.0660921E-009  1.3792485E-009  7.4772176E-010  2.1592961E-009  3.6793066E-010  6.6060553E-009  3.3531042E-009  7.0239949E-011  4.4372598E-010  1.7005980E-009  7.8935106E-009  2.5980102E-009  5.6960283E-009  1.3900273E-011  5.8548438E-010  2.7231855E-009  4.7431233E-009  1.2993621E-009  7.2416131E-010  2.2085967E-010  1.4879325E-009  1.3805863E-009  2.9379628E-009  5.2844875E-011  7.5979884E-009  9.0944629E-010  1.3404975E-009  1.4532353E-009  2.3368754E-009  2.3996477E-009  2.7759888E-009  4.2839733E-009  2.7029729E-009  3.1839710E-010  1.6732254E-009  8.2797583E-010  9.1429386E-010  1.1374250E-009  7.2781410E-010  8.6592614E-010  2.9509827E-009  6.5925904E-012  2.1982841E-010  6.6182317E-009  4.0592269E-009  1.5453516E-009  1.2778621E-010  5.2834484E-009  3.8156624E-009  5.7855494E-009  1.5439075E-009  3.5420783E-009  3.6000181E-009  2.9538114E-009  2.7433974E-009  3.2316535E-009  3.4451659E-009  3.1636353E-009  4.8049820E-009  1.0554321E-009  6.7120696E-013  3.2261426E-009  3.6873475E-009  3.6163794E-009  3.5314079E-009  2.9473721E-009  2.2154488E-009  3.5258992E-009  3.2852905E-009  4.0201121E-009  1.3749076E-009  1.7964794E-009  3.1866065E-009  1.8533228E-009  3.8095731E-009  4.2479484E-009  4.1025086E-009  4.0112219E-009  4.0940573E-009  4.2496740E-009  7.2924698E-010  3.1864128E-009  3.6589726E-009  2.5554397E-009  2.1756932E-009  3.5199209E-009  2.1735182E-009  2.6720866E-009  3.5075878E-009  2.4436866E-009  5.7259392E-009  4.2538758E-009  4.3118976E-009  5.4274760E-009  1.9816734E-009  1.7265923E-009  2.5144717E-009  2.3508713E-009  2.4708405E-009  2.0995152E-009  2.4035596E-009  1.7081554E-009  1.9678493E-009  1.2041271E-009  2.1828745E-009  1.9522539E-009  2.4354766E-009  1.3949742E-009  1.9714162E-009  1.6647141E-009  1.8833497E-009  1.5531647E-009  1.4078495E-009  1.3806906E-009  2.0492791E-009  1.6269187E-009  1.3575245E-009  1.3381765E-009  1.1990059E-009  1.2452636E-009  1.2395820E-009  4.3882272E-009  2.4004140E-009  1.4414019E-009  3.1285855E-009  8.4581439E-010  1.5062475E-009  1.7624217E-009  1.6030683E-009  1.2866069E-009  8.1686842E-010  1.3792729E-009  5.0147264E-010  9.1531387E-010  4.8680800E-010  7.8358768E-010  1.0316044E-009  1.1766717E-009  5.8844009E-010  6.4551516E-010  6.2105959E-010  2.4899604E-010  3.8900709E-010  4.7152314E-010  5.9505950E-010  5.4713495E-010  2.1747333E-010  2.1104005E-009  3.7830432E-009  4.5332185E-009  1.1107390E-013  5.9591859E-010  2.6682597E-009  1.2013540E-009  1.7344064E-009  4.3578666E-009  9.2620402E-010  4.3991114E-009  4.6201545E-009  2.5502182E-009  2.7886363E-009  7.2365803E-010 -3.8838816E-013  1.5533145E-009  1.6246484E-009  4.9228875E-010  5.8589552E-010  1.3390245E-009  2.1302347E-009  4.3783405E-009  1.5746694E-009  1.9974551E-009  2.9735324E-009  6.5357568E-010  1.1934682E-009  3.9659547E-010  4.8069956E-010  2.1320662E-010  9.3987427E-010  7.5201956E-013  1.2125132E-010  1.2087185E-009  1.5023008E-009  4.6705456E-009  4.2385232E-009  4.3707313E-009  2.5343319E-009  2.2110207E-009  2.3403512E-009  4.2064103E-010  5.6603385E-010  9.1171765E-010  1.8121261E-009  8.7636085E-010  1.5917998E-010  1.5362512E-009  2.0247352E-009  3.0015458E-009  1.7353818E-009  2.0640857E-009  2.9155860E-009  2.5720288E-009  2.8356044E-009  1.5646160E-009  1.2308941E-009  1.1527370E-009  4.8392405E-009  1.6249085E-009  1.7910011E-009  1.9287556E-009  5.6078590E-010  2.1198524E-009  8.2056311E-010  1.8795475E-009  3.2604707E-009  2.3510457E-009  4.2535409E-009  4.5213600E-009  4.9709939E-009  2.0066549E-009  2.9961029E-009  2.1469654E-009  9.7770680E-010  1.0331860E-009  2.3512712E-009  2.4108100E-009  2.6937698E-009  2.3548769E-009  2.3908858E-009  2.4385468E-009  2.1837500E-009  2.3647598E-009  2.9558608E-009  2.5798954E-009  2.6920388E-009  2.0819731E-009  2.6323258E-009  2.6972919E-009  3.0504535E-009  2.3306654E-009  2.3165912E-009  2.4725160E-009  2.2962117E-009  3.0806070E-009  4.0021051E-009  2.3269198E-009  1.4553835E-013  2.3466038E-009  6.2581646E-010  1.2051858E-009  6.6286587E-010  1.6001890E-010 -3.0747599E-014  1.0509019E-009  2.3194090E-009  1.2605480E-009  2.4452662E-009  1.1778906E-009  2.2486136E-009  1.0742838E-009  6.7601481E-009  6.2908856E-009  7.2966828E-009  9.7264122E-010  1.4455085E-009  3.6054356E-010  1.6588001E-009  2.2740920E-010  3.3658873E-010  1.4112199E-009  7.6861288E-010  1.2155667E-009  1.8148632E-009  2.3635957E-009  2.5706194E-009  2.7628345E-009  1.1477814E-009  5.8859403E-010  5.0577848E-009  5.3926852E-009  2.7253563E-009  2.3097225E-010  1.3359162E-010  1.8902626E-010  5.2265158E-009  1.2808783E-009  2.8460156E-010  1.3706841E-010  1.0602878E-009  2.2826682E-009  2.5545085E-009  2.2466044E-009  2.3184244E-009  2.6389695E-009  2.7113406E-009  2.2985758E-009  2.4170438E-009  2.7248819E-009  1.8073663E-009  3.6519528E-010  1.9572371E-009  1.9693907E-009  3.4984054E-009  2.3381570E-009  1.1787809E-009  1.0177347E-009  2.3686620E-009  3.9125289E-010  7.1931246E-010  1.3808367E-009  1.5548889E-009  8.1929807E-010  1.1867136E-009  1.7295628E-009  7.7740098E-010  6.4332538E-010  2.2857146E-009  1.8651620E-009  1.3753016E-009  2.9049404E-009  7.2556089E-010  3.5259984E-009  7.4289651E-010  1.0324395E-009  1.1778785E-009  3.0909240E-009  3.7126061E-009  2.7819010E-009  1.7817074E-009  1.8808413E-009  1.4351309E-009  5.3877123E-010  1.6741117E-010  4.2288705E-009  2.3860255E-009  8.2014946E-010  2.0788385E-009  4.8216158E-009  2.0397292E-009  3.9988032E-009  1.3687265E-009  1.1490336E-009  1.9669821E-009  2.1221271E-009  4.2886283E-010  1.6996239E-009  3.4298957E-010  2.1288727E-010  1.0513805E-009  1.0579289E-009  3.8018475E-009  2.6148314E-009  2.1532254E-009  9.5303500E-010  4.3064441E-009  3.4985532E-009  5.0522130E-009  4.3347989E-010  1.9939958E-009  1.8789855E-009  4.7562552E-009  5.1535375E-009  1.2038146E-009  2.2534678E-009  2.2105777E-009  8.4135159E-010  5.3636513E-010  1.0677987E-009  3.6521782E-009  2.0560136E-009  4.9840310E-010  2.7467188E-009  1.1753805E-009  9.4460358E-010  1.4468879E-009  4.1086423E-010  4.4473413E-010  4.6204153E-010  1.3323245E-009  2.7046140E-010  6.7583084E-010  1.6902287E-009  3.3464064E-009  3.6949059E-009  3.9782655E-009  1.8649222E-009  5.2781559E-009  1.6877922E-009  2.0037891E-009  1.0791786E-009  2.1779854E-009  2.1787101E-009  3.3125452E-009  3.1597792E-009  2.4921642E-009  2.8991396E-009  1.7181887E-009  4.5471129E-010  2.8870274E-009  1.3029559E-009  1.4837389E-009  9.3385533E-010  1.2568596E-009  4.5392486E-010  1.4635346E-009  2.2771834E-009  1.1493300E-009  2.0261990E-009  2.3263502E-009  3.5292744E-009  1.1978910E-009  2.4549742E-009  1.0999706E-009  7.8518808E-010  1.8521557E-009  3.0979894E-009  1.4054511E-009  1.0774985E-009  4.1627575E-009  2.6659781E-009  1.1760219E-009  1.3696095E-009  2.5481768E-009  3.4116977E-009  9.2816430E-010  9.9621871E-010  6.2927333E-010  3.8284005E-009  2.8709949E-009  2.2417892E-009  2.9498303E-010  2.7366496E-010  7.0754870E-011  2.7088883E-011  3.1776055E-009  1.0911162E-009  8.8120553E-013  8.6107113E-010  2.8534067E-009  3.1465217E-009  2.7941149E-009  3.4334006E-009  2.9549735E-009  4.7060900E-009  1.5625746E-009  3.4010146E-009  6.9083069E-009  3.6358371E-009  1.8523773E-009  5.3169461E-009  3.6140848E-009  2.9641930E-009  1.4434413E-009  3.3324603E-009  2.9902758E-009  4.2905250E-009  3.5790074E-009  1.4447539E-009  1.8853260E-009  1.3240826E-009  4.5864211E-009  1.4689005E-010  7.9925526E-010  1.1535214E-009  2.5728108E-009  8.1286032E-010  6.0867086E-011  5.4115664E-009  3.4964473E-009  6.2001545E-010  2.8344742E-009  1.7981525E-009  4.5571023E-009  4.0153002E-009  2.6372012E-009  3.2386989E-009  2.6441724E-009  1.9595493E-010 -8.3595452E-014  1.7503275E-010  6.4516604E-010  5.7137424E-011  3.3189555E-010  4.5180175E-011  1.2555076E-010  3.0214720E-009  3.1861795E-010  4.1375963E-010  2.0206161E-009  7.8487500E-011  2.4784942E-009  2.0915365E-009  3.8983552E-009  8.4164228E-010  2.2709963E-009  4.0420371E-009  4.0087405E-009  2.2058309E-009  4.6416478E-009  4.9765644E-009  5.1847165E-009  5.8092435E-009  5.1013632E-009  5.8001101E-009  4.7485124E-009  4.0769068E-009  4.3448756E-009  4.4394400E-009  4.5170019E-009  5.1480703E-009  4.4965265E-009  3.7345914E-009  1.1168489E-009  7.0508122E-010  4.1852672E-009  4.6273754E-009  1.3188291E-009  4.8989951E-010  8.7414980E-010  1.5147670E-009  1.9847448E-009  1.1413574E-008  7.5944386E-009  7.4258666E-009  5.5588514E-009  7.7411490E-009  4.3989423E-009  1.7859642E-009  1.2121902E-009  2.7266710E-010  2.9743186E-009  1.6088888E-009  1.8952169E-009 -1.3373196E-013  1.8258817E-010  1.8682978E-009  2.5776558E-009  1.6796946E-009  6.0508032E-010  3.6918929E-009  2.0655842E-009  2.7677198E-009  2.9830694E-010  4.7215718E-010  1.1677679E-009  7.2285103E-010  3.4234873E-010  1.4275619E-009  9.3078345E-010  6.5023114E-010  7.4781348E-010  3.6421212E-010  1.6462519E-009  1.6327074E-009  7.7098418E-010  9.7034326E-010  1.0988798E-009  1.9658911E-009  2.9081048E-009  2.3582977E-009  4.1187114E-009  2.6992403E-009  1.9309686E-009  3.3185188E-009  9.0911763E-010  2.2217598E-009  2.8781919E-009  3.0238874E-009  4.9173466E-009  5.0981658E-009  1.9597564E-009  3.6141221E-009  5.7209269E-009  3.8614219E-010  2.2969451E-009  2.5695019E-009  4.5528383E-009  1.3721592E-009  1.0493981E-009  2.2377878E-009  1.1262203E-009  2.1522252E-009  3.9571454E-010  4.4750697E-010  4.6629833E-010  1.6470586E-009  4.0285436E-009  2.9077678E-010  8.9058418E-010  1.2525428E-009  2.9804141E-009  1.5105008E-009  3.0612215E-009  2.5438246E-009  1.1996373E-009  6.4707311E-009  2.4375936E-009  2.0473242E-010  2.3121720E-010  1.2681299E-009  2.0698648E-009  5.8563366E-011  4.8875406E-009  6.9649856E-010  2.6187833E-009  3.0835102E-009  2.5379430E-009  5.7656966E-011  2.7175896E-009  1.6275334E-009  1.1030810E-009  1.3592677E-009  3.0155157E-009  1.3535790E-009  6.2198468E-010  3.4683126E-009  3.0098900E-009  1.1983933E-009  1.3152318E-009  1.0403501E-009  1.9446140E-009  2.6554487E-009  1.5183247E-009  1.1962387E-009  7.0340918E-010  1.3229145E-009  2.8922724E-010  3.1775286E-009  2.1071831E-010  2.4487765E-009  1.4277721E-010  2.2523484E-009  1.0369513E-009  1.7101508E-009  1.5501927E-009  2.2381894E-009  4.4186479E-009  1.6226050E-009  3.8154796E-009  2.5059119E-009  7.0244738E-010  8.3667075E-011  6.9987960E-010  1.6191260E-009  3.8345638E-009  1.7888289E-009  3.5955622E-012  1.1607872E-009  4.5897925E-009  4.2645135E-010  4.6860388E-010  1.0299587E-009  1.1905660E-009  5.7297351E-010  4.7929213E-010  1.9988915E-009  2.1034691E-009  3.0609892E-009  5.0299410E-010  2.3745734E-009  1.3029317E-009  6.9224133E-010  7.1462218E-011  3.1104934E-009  3.8251481E-009  1.3734673E-012  7.9113419E-010  2.0286611E-009  1.7720752E-009  9.3913289E-010  3.4840787E-009  3.6890427E-009  2.9065507E-009  1.0969974E-009  3.7657241E-009  2.1903925E-009  1.7279435E-009  1.9027868E-010  2.3744816E-009  1.0194351E-009  1.0566153E-009 -1.2524301E-012  2.6178784E-009  1.5683442E-009  3.1986250E-009  3.3772070E-009  2.6229775E-009  8.0870452E-010  2.7103339E-009  2.2977849E-009  2.4475125E-009  4.4108070E-010  3.6930080E-009  3.1499373E-009  1.1904449E-009  1.8107240E-009  2.1291975E-010  6.9952200E-010  2.1791980E-009  1.6123030E-010  1.3205276E-009  4.3484837E-010  1.9351336E-010  2.0277184E-009  8.2502538E-010  1.0985280E-009  3.7797425E-011  3.1489451E-010  2.2258422E-009  2.3749017E-009  3.3907067E-010  6.8581276E-009  3.6564403E-010  9.5975447E-009  3.7549287E-009  1.0964392E-009  3.3687295E-009  1.3419442E-009  4.7707344E-010  2.1729767E-009  3.4849981E-009  1.8866168E-009  6.6066385E-010  3.2091337E-009  1.0121377E-009  9.5337782E-010  4.8745068E-010  2.1285225E-009  5.4673880E-009  5.5538565E-009  3.8370104E-010  1.8069166E-009  2.5850163E-009  7.4493514E-010  4.0421711E-011  4.5023795E-009  5.4656155E-009  5.1953811E-010  1.3177825E-009  1.2840873E-009  1.6539427E-009  2.5597023E-009  1.8274022E-009  1.4720698E-009  1.5588734E-011  1.3324323E-009  1.4924179E-009  6.2332523E-009  8.1514931E-010  2.1760314E-011  6.0054866E-010  2.3108702E-010  5.1000962E-010  1.5229043E-009  4.3003562E-009  2.0744127E-009  1.2369625E-009  2.7163798E-009  2.5205698E-009  5.6922131E-010  3.0345198E-009  4.0722987E-010  1.2374615E-009  1.2883352E-009  2.1642667E-009  1.9494407E-009  1.2198353E-009  6.8561984E-010  3.1831714E-009  1.6882049E-009  2.6468336E-009  1.2213113E-010  1.2007241E-009  3.4913185E-010  1.6698602E-009  1.7305929E-009  1.0792374E-009  2.2210679E-009  1.9299258E-009  1.7209262E-009  2.6479938E-009  2.6834917E-009  1.3985233E-012  6.8246821E-010  1.9852407E-009  2.3094292E-009  6.0770088E-010  8.2892416E-010  2.1688906E-009  1.0261145E-009  1.1434248E-009  1.9171091E-009  2.5221342E-009  2.4885796E-010  9.9955336E-010  1.9832613E-009  2.3687008E-010  1.3363558E-011  8.8186600E-010  3.9430639E-010  2.7843007E-010  5.5304727E-010  8.7033141E-010  1.0967155E-009 -6.5065930E-010 -2.3465364E-010  3.6428562E-010  2.9748510E-011  7.0391544E-011 -7.7652324E-011 -1.1412748E-010 -3.9344469E-010 -3.9581501E-011  1.3981283E-010 -1.8156974E-011  1.7140778E-009  1.1170300E-009  4.7706280E-010 -3.5928763E-010  2.6273028E-010  1.7518760E-009  7.0069667E-011  5.2002735E-010  3.5887510E-010  2.6407310E-011  3.2150733E-010  5.0838432E-011  3.3444561E-010  2.7883099E-010  7.1167898E-010  5.4664775E-010  3.2683777E-010  8.2896164E-010  3.2058540E-010  4.5599963E-010  3.0074812E-010  2.3430132E-009  6.0607592E-011  6.8635503E-011  1.2094052E-009  9.0845074E-010  5.8244185E-011  3.7900433E-010  8.3905746E-011  2.3152739E-009  2.2298084E-009  2.5850513E-009  1.2457073E-009  1.8692346E-009 -4.1820063E-011 -1.3913215E-010 -1.0674069E-010 -4.7835162E-010 -7.2270407E-012 -1.1292111E-010  9.5063160E-012 -1.9794397E-011 -6.5348791E-010  6.6678008E-012 -6.3289035E-010  5.4298615E-010 -7.0665228E-011  1.1933281E-009  1.2072871E-010  1.6049581E-009  2.7407053E-010  1.1624297E-009  1.7115548E-010  5.0656049E-009  9.2429966E-010  1.8903193E-009  2.3465994E-009  2.8410921E-009  1.2284316E-009  2.1283783E-009  2.7025389E-009  1.9330491E-009  1.0864394E-009  1.2712198E-009  2.9783874E-014  2.0132952E-010  2.3691372E-009  1.0580992E-009  2.1843354E-010  3.7102129E-010 -3.1342025E-010  1.3918659E-010  1.4048591E-009  1.0136881E-009  4.4731192E-010  7.1830769E-010  4.3614930E-010  4.2599248E-010  7.7685155E-010  9.4743768E-011  1.0426636E-009  3.8213506E-010  4.0807187E-010  4.2176578E-010  3.8844735E-010  6.1248697E-010  3.7748283E-010  4.1603209E-010  7.1918988E-010  1.1369632E-009  9.8658868E-010  2.0652882E-009  1.1377158E-010  6.1552186E-010  1.5196709E-010  2.6390215E-010  3.5056935E-010  2.2439058E-010  1.5291057E-010  5.3238133E-010  2.1850733E-009  7.4674626E-010 -1.3901402E-010 -1.5177385E-009 -2.8339705E-010 -2.3855973E-010  2.7396200E-010  1.2463963E-009  2.8080994E-010  6.4695627E-010  8.8913710E-010  2.9617553E-010  7.7011157E-010  1.3985930E-009 -2.1712411E-010 -4.7447912E-010 -1.9154062E-010 -1.6417800E-010 -7.9763471E-010 -7.9093354E-010  2.6978479E-009  1.9829783E-009  1.6587743E-009  8.2160866E-010  1.2224454E-009 -1.6575253E-010 -4.5192294E-011  6.5134402E-010  8.3079010E-010  1.5332720E-009  3.0338091E-009  6.0442085E-011  1.8002936E-009  8.1345064E-010  3.3051966E-009  2.2746341E-010  4.1273182E-014  4.2288306E-010  6.2110140E-010  2.0532803E-009  7.2901235E-010  2.0562987E-009  1.2503455E-009  2.1641955E-009 -3.3731382E-010 -3.7129071E-010 -1.3585480E-011 -2.7460993E-010 -9.4468052E-011 -3.2098997E-010 -2.6884993E-011 -8.9871370E-010  3.9270018E-009  8.2649267E-010  1.4598301E-009  1.1492725E-009  1.9657713E-009  2.1758101E-010  1.2621790E-009  7.1054274E-015  3.5283359E-010  7.4046725E-010  6.2172050E-010  2.0944688E-010  8.8680604E-010  1.1500721E-010  2.9508215E-011  1.1754185E-010  4.9585026E-011  1.4602554E-011  3.4240350E-011  1.0071488E-010  5.0362185E-010  2.1024675E-009  1.6006467E-009  7.8159832E-010  1.1988384E-009  4.0841814E-010  1.4840390E-010  2.4584190E-010  1.1163632E-010  1.7015860E-010 -9.0071484E-010 -6.4693061E-010 -2.7277194E-010 -5.8742507E-010  4.7476448E-011  4.0977365E-011  9.2021223E-011  5.2898081E-010  1.0859936E-009  2.3964124E-010  3.6247756E-010  6.7461414E-010  1.0201359E-009  1.1547755E-009  1.4280957E-009  6.5625420E-010  1.9474259E-009  1.8482258E-009  1.3665791E-009  1.4406496E-009  9.3704016E-010  1.4628453E-009  1.9030181E-009  7.2446971E-010  9.3609603E-010  6.9898966E-010  1.2568894E-009  6.3450756E-010 -2.7541864E-011 -1.3536487E-010  8.6331779E-011  7.4197964E-010  1.7761053E-011 -9.6732543E-012  2.0398333E-009  1.6781140E-009  1.9037980E-009  1.0057575E-009  2.9780182E-009  1.4405699E-009  6.0765226E-010  1.8727489E-009  1.7939544E-009  6.0298742E-010  1.6028220E-009  8.3040354E-010  5.2366965E-015  1.8293166E-009  3.0459499E-010  1.1410183E-010  5.6976998E-010  1.1595657E-010  4.9487164E-010  3.0906662E-010  8.5785467E-010  4.3525112E-010  4.6637028E-010  2.4986954E-009  4.5358706E-010 -7.7393460E-010  4.4831410E-011  6.4501644E-011  9.4319802E-010  1.0906637E-009  8.3560609E-010  2.9081280E-009  2.2324732E-012 -3.9261749E-010 -4.0887471E-010  1.7682080E-009  9.3578829E-010  1.3345609E-009  1.8805721E-009  1.0932000E-010  2.4232540E-010  1.2595531E-010  1.4968482E-009  5.8678637E-010  1.1673984E-009  1.0135555E-010  2.9083800E-009  2.0743181E-009  1.2416253E-009  5.2712167E-010  4.9214347E-011  6.1396667E-010  1.1186658E-009  2.1764046E-009  4.8050453E-010 -2.3779052E-011 -3.1446114E-011  1.0697505E-009  1.8511251E-009  1.3477688E-009  2.3441949E-009 -1.5179564E-010 -3.2276413E-011  1.2886938E-009 -4.9515977E-010  3.0689366E-010  3.5939865E-010  1.3275841E-009  1.4448576E-009 -1.7285396E-010  1.4524336E-009  1.4073888E-010  1.5698741E-009  1.6982197E-010  3.2091530E-010  1.4779877E-010  4.5141603E-011 -6.4698577E-010  2.3698070E-009  7.4128268E-010 -1.0972500E-009  3.0219268E-010  3.8120716E-011 -7.7499375E-010  1.6289875E-010  7.9015785E-010  2.0696802E-009  6.2513348E-010  6.2032554E-010 -6.9037927E-011  1.2239946E-009 -4.2526890E-010  8.9538221E-010 -6.3700867E-010  3.6621082E-010  3.1967286E-011  4.6278146E-012  2.4122348E-011  2.2347372E-009  2.2982598E-009  2.7137204E-009 -1.0589333E-010  1.8565391E-009  2.3929503E-010  1.2057464E-010 -4.1379186E-010  1.3438975E-009  4.5255312E-010  5.9804088E-010 -3.1394160E-014  6.4965068E-010  8.2549154E-010  7.9980464E-010  7.4985200E-010  1.1824226E-009  8.4455857E-010  8.6935008E-010  7.1537087E-010  2.4034644E-010  1.1024931E-010  2.5247441E-010  8.8104857E-011  1.7051358E-009  1.6224848E-010 -2.1901761E-011 -2.3631110E-010  5.5522467E-010  8.9086545E-011 -1.3985793E-010  2.1405619E-011  1.6650122E-009  6.8984137E-010 -1.5613209E-009  8.9453472E-010 -2.2102740E-014  2.0172308E-011  3.5161571E-010  4.2130846E-012 -5.5003113E-010 -2.5772096E-010  8.2825486E-010  9.1891484E-010  5.1178793E-010 -3.7195346E-011  6.1261581E-010  9.2767414E-010  8.9136924E-010  6.1001352E-010  8.8437747E-010  9.4586209E-012  1.2111059E-009  3.8531277E-010  2.2982816E-010 -1.9075048E-014  9.7042000E-010  1.4791552E-009 -1.2488157E-013 -7.0386782E-010  1.9888381E-014  5.5643373E-010  6.7897900E-011  6.4173874E-011  7.0074551E-010  6.6792552E-010  3.4090242E-010  1.0077977E-009  1.2555315E-013  1.2711591E-009  5.0880383E-010  1.3729873E-009  7.7063333E-010  2.6328089E-010  1.8337324E-010  4.2791237E-014  2.0692427E-010 -2.6580520E-010  5.2621384E-011 -2.3382573E-014  1.5951755E-009  2.3286968E-009  1.1586299E-009  3.8271553E-010 -1.3834104E-010 -6.2598488E-011  5.6240457E-012 -5.6843419E-014 -3.0751998E-011  1.2692993E-009  1.6336834E-009 -3.6923158E-010  4.0991918E-010 -2.4997257E-014 -4.4479975E-010  8.1959683E-010 -3.2340814E-014  1.3889938E-009  4.2624183E-010  7.9216684E-010  5.6977069E-010  1.5844463E-010  2.8905057E-009  1.7886821E-010  1.8745514E-009  3.5306225E-009  1.5514773E-010  2.8272207E-015  1.5086812E-009  3.0490277E-009  1.0328364E-009  1.9163595E-009  1.2743326E-009  2.6327917E-009  7.6020248E-010  6.9754771E-010 -2.0474576E-010 -4.8639777E-009  2.6227553E-010 -2.0020252E-009 -1.3585577E-010 -1.4082389E-009  1.1368684E-013 -1.3275780E-010  3.0354386E-010 -4.1009685E-010 -2.7173428E-009 -4.1450221E-009  9.4729558E-011 -7.8671292E-011 -5.2361315E-010 -1.4856028E-010 -5.5081273E-010  3.9000270E-010 -2.2555469E-010 -6.1259016E-009  3.2952130E-010  2.0747848E-010 -1.6669333E-011 -9.1688435E-011 -2.0821744E-009 -5.2659743E-010  4.8078164E-010 -1.4709940E-009 -2.5664804E-010 -1.1943939E-009 -1.2727597E-011 -2.8695695E-009 -1.7107595E-009 -1.7563480E-009 -7.8357516E-009 -9.2352366E-009 -4.3443151E-009 -2.4593874E-009 -1.8704895E-009 -3.4617642E-010 -1.6965487E-009 -1.1489192E-009 -3.3998049E-010 -1.0404051E-009 -1.9373374E-009  4.2251713E-010  1.9156232E-010  4.8487436E-011  1.0919621E-010 -2.6398084E-010 -5.2847327E-010 -4.4872195E-010 -3.1794798E-009 -2.5388545E-009 -8.6839691E-010 -4.1973180E-010 -4.7123194E-010 -1.3673684E-010 -5.0718540E-011 -3.9756287E-010 -1.8820856E-010 -3.2844127E-010  5.0846438E-011  7.6973095E-011 -1.0278711E-010  1.9917934E-010  8.0717655E-012  1.2192913E-010 -1.6163426E-010 -3.8937742E-011 -8.2917495E-010 -5.3375970E-010 -4.9703885E-010  3.1201353E-010 -1.0358292E-010 -8.7354124E-011 -9.0729202E-011 -6.4396488E-011 -5.7418958E-011 -6.9590556E-011 -2.6489033E-010 -8.9528385E-012  9.8339115E-012  1.0527401E-010 -1.0624035E-010  2.1145752E-011 -1.6413537E-010 -5.6530780E-011 -4.2277861E-009 -2.4353994E-009 -5.2409632E-011 -3.2429170E-010 -6.1390892E-011  3.6970960E-010 -2.2415634E-009 -1.3733370E-010 -3.0820502E-010 -8.9255536E-010  3.6601477E-010 -2.9422722E-009  3.3105607E-010 -3.1928948E-010 -3.3099923E-009 -6.9860562E-009 -4.5709214E-011 -4.6966875E-011 -2.8036879E-009  9.0949470E-013 -6.0333605E-010  1.0504664E-010  1.0652457E-010  2.2100721E-010 -2.9638159E-010 -3.8261305E-010 -5.5922555E-010 -1.9548452E-010  1.4387069E-010 -3.8608050E-010 -3.6670826E-009 -9.1063157E-011 -2.1466349E-009  2.5806912E-010 -1.9713298E-010 -5.2159521E-010  1.4381385E-011 -2.4644464E-010 -1.0945200E-010 -4.8129323E-010 -1.6930244E-009  1.5276669E-011  1.2100543E-011 -2.1266544E-011 -7.1418071E-009 -3.1759555E-009 -1.6889601E-011 -3.7023256E-009 -2.1236701E-010 -4.9715254E-010 -5.3330496E-010 -4.9271875E-010 -2.9706371E-010 -1.3224053E-009  2.1628921E-011 -3.7865107E-009 -4.5997695E-010 -2.6591351E-010 -6.3982952E-010 -1.5054411E-009  5.1159077E-012 -4.0557779E-010 -3.2718503E-009 -9.9475983E-014  8.6903924E-009  2.7545752E-008 -3.8144975E-008 -1.1279440E-008  5.0022209E-012  2.4671976E-008 -1.2167220E-008 -4.2932413E-008 -4.7577259E-008 -1.4180728E-008 -9.3227584E-008 -2.7654721E-008 -8.9072785E-008 -2.0968741E-008 -4.9956498E-008 -4.3493145E-008  1.4602620E-008 -2.1549511E-008 -2.0640385E-008 -1.3432384E-008 -3.4615027E-008  6.1463652E-009  1.1981570E-008 -5.5763394E-010 -5.4772727E-008 -3.2808998E-008 -1.4930947E-008  5.6968815E-008  1.5659680E-008 -2.0287075E-008 -3.9376141E-013 -7.9179718E-014  1.6717183E-013  3.7665704E-013  1.5727350E-012  1.5161275E-012  1.4337698E-012  2.3699931E-012  9.3800662E-013  9.0620567E-013 -4.0555059E-013  3.7916892E-013 -2.7755576E-017  9.4413366E-013  2.5141000E-013  5.8686389E-013  3.8558046E-013 -2.2204460E-016  2.3440624E-013  3.7082143E-013  6.9337591E-013  1.7095769E-012  2.4213409E-012  1.1256551E-012  1.1663587E-012  2.4977242E-013  3.8063996E-013 -1.8141044E-013 -2.2525315E-012  7.0810025E-013  2.4690076E-012  1.4969042E-012  7.6495060E-013  1.2208012E-012  1.7395217E-012  1.8803015E-013 -2.7755576E-017  1.9761970E-013  5.5511151E-016 -1.7191804E-012 -5.3981597E-011 -3.8296477E-011  1.1359524E-011  1.4663160E-011 -7.2506931E-011 -4.1772731E-011  2.2106657E-012  5.7354121E-013  2.1371793E-012  2.4903968E-012  1.1216583E-012  6.4402650E-013  2.8437669E-013  6.7901240E-012  1.4925561E-014  8.5612073E-013  1.1468049E-012  8.3756613E-013  1.2753965E-012  6.1926853E-013  9.0347174E-013  1.9992341E-012  2.5001112E-012  2.5862507E-012  1.1012025E-012  1.6930901E-012  1.3429258E-012  8.7507779E-013  5.1625371E-013  2.2507829E-012  1.3322676E-015  5.0042748E-012 -7.3940853E-013  1.3322676E-015  3.2809866E-012  3.5084713E-012  1.0011991E-011  5.3818061E-012  8.7957419E-013  1.5168422E-013  2.0816682E-017 -4.5303344E-013  4.7833265E-014  1.7817692E-012  3.3076666E-013  1.0295431E-011  6.9719786E-012  9.3928199E-012  6.2541083E-012  5.8839600E-012  5.5694338E-012  1.5513146E-012  1.2025936E-012  3.6273207E-012  2.5122127E-012  2.8239633E-012  2.0101698E-012  1.7490454E-012  3.0063729E-012  1.6913138E-012  1.6553425E-012  3.0738745E-012  5.2176041E-012  3.3190117E-012  5.0101034E-012  4.3068882E-012  4.8900883E-012  5.1427751E-012  5.6509242E-012  6.0463856E-012  2.6243452E-012  2.6771085E-012  2.6556396E-012  8.7624352E-013  3.1921688E-012 -2.1883467E-012  4.6473936E-013  2.7693403E-012  6.4848127E-013  2.3782087E-012  9.9902031E-013  3.5929038E-012  3.9220294E-012  4.4732967E-013  7.1304074E-012  1.0178303E-011  2.9614089E-012  2.6340041E-012  6.0847993E-012 -2.3711200E-011 -5.2137461E-013  1.3421153E-011  7.5395246E-012  9.4732000E-012  6.3776762E-012  5.8180127E-012  6.2498895E-012  9.2414965E-013  2.1071200E-012  7.2362949E-013  6.5042416E-013  6.1830541E-012  3.8895276E-013  7.6960660E-013  1.2676804E-012  6.2379268E-013  1.4887397E-012  1.0676460E-012  1.9203528E-012  8.3015539E-013  1.9064750E-012  6.8645090E-013 -1.8156379E-012  1.7107149E-013  8.4914020E-013  5.6228355E-012  4.9769078E-012  4.6949111E-012  1.1450840E-012  4.4962922E-012  5.8553162E-013 -6.4859229E-013  1.7807977E-013  3.1993505E-013  6.1122218E-012  2.3533953E-013  3.4452996E-013  3.3735514E-013  2.3252233E-013  2.7476632E-013  2.5152103E-013 -8.9274421E-013  4.6342097E-013  4.9249493E-013  3.7059245E-012  2.3486768E-013  6.9317885E-012  8.1679108E-012  5.1421090E-012  1.0562551E-011  8.0824236E-014  8.6042284E-012 -1.2202447E-011  6.0166316E-012  8.9045438E-013 -1.3877788E-017  1.5031032E-012  9.8054898E-013  8.4962593E-013  2.8473890E-012  6.6499584E-013 -4.4014792E-013  5.8582028E-012  5.6650240E-012  5.5013771E-012  4.1016079E-012  4.6427306E-012  5.3206328E-012  3.1409597E-012 -6.2100325E-013  4.6334048E-012  3.0500047E-012  3.3685554E-013  4.9604765E-013  2.6854907E-013  1.3569840E-012  7.8255458E-013  4.0891596E-013  6.6047862E-013  3.0218189E-013  7.1134765E-013  4.8301640E-013  7.0046746E-013  6.8479250E-013  4.8375193E-013  4.7213622E-013  6.4467875E-013  4.9821258E-015 -6.8503259E-012 -5.5835614E-012  1.0174084E-012 -1.1352030E-012  2.4238389E-012  1.4697132E-012 -8.3361096E-013 -1.0788315E-012 -9.8722523E-012 -1.7640917E-011  6.1023561E-011  2.5189184E-011  9.4881880E-012  1.0447559E-011  1.8752111E-011  2.2540636E-011  1.2880030E-011  9.5931041E-012  3.7164993E-011 -3.1920189E-011 -9.8714648E-012  1.0448309E-011  8.5678686E-013  2.5288105E-013  1.0174417E-011  2.2388341E-013  7.6122442E-013  2.4097391E-013  1.1309044E-012  1.8969201E-012  1.2725723E-012  1.2069998E-012  5.4607013E-013  1.8114954E-012  2.7755576E-017  1.8654002E-012  1.1280143E-012  1.3000712E-012  5.3361482E-013  1.3877788E-017  5.7746169E-013  1.9188678E-012  7.9929119E-013  1.9464291E-012  1.0322160E-012  1.8085325E-012  7.3160228E-013 -1.7582463E-013 -9.3813846E-015  6.7428702E-013  1.6895652E-012  5.2065019E-012  4.7941651E-012  3.0675185E-012 -1.0076384E-012 -1.1136592E-011 -7.9628526E-012  4.5602411E-012 -4.5162651E-011 -9.4167452E-012 -3.6396858E-012 -3.5579872E-012 -1.1342483E-011 -5.6404881E-013 -7.0636830E-012 -6.0016436E-012 -6.1425587E-012  4.7486459E-012  2.7796099E-012  2.6060820E-012  3.4479086E-012  3.4762748E-012  2.8820835E-012  6.4972472E-012  6.5820682E-012  2.9443115E-013  4.0706327E-013  3.2988889E-013  3.6780301E-013 -2.0512758E-012  6.3427735E-013  8.2363977E-013  6.1051858E-013  1.4766521E-012  3.0941361E-012  6.5164540E-013  3.7309045E-013 -3.7224390E-013 -3.6907977E-014 -8.8207219E-014  2.4569236E-013  1.2521650E-012  2.3971103E-012  5.5511151E-017  1.1102230E-016  2.3904212E-012  2.1070368E-012  1.7687796E-012  2.3588909E-012  1.7926771E-012  3.0438985E-012  3.2841507E-012  4.7302995E-012 0.0  3.2360781E-012  1.3764545E-012  5.1458282E-012 -1.1161905E-013  3.5554892E-012  2.1460611E-013  8.2875373E-013  4.4694803E-013  4.1908144E-013  3.3692493E-013  3.6273762E-013  1.0572099E-012  1.0024759E-012  1.1335932E-012  2.8284319E-013  4.6207482E-013  5.8286709E-013  3.3828496E-013  3.0385416E-013  4.5470294E-012  3.6748382E-012  4.4435566E-012  2.7431390E-012  5.1660065E-013  1.9878543E-012  2.8549940E-012  8.1639209E-013  1.9891866E-012  2.7357006E-012  4.3857973E-013  2.7025604E-013  2.8417546E-013  3.3002767E-013  2.7072788E-013  3.5522973E-013  3.4199032E-013  1.4034607E-013  4.7545995E-013  2.4233393E-013  2.9055924E-013  1.0780266E-012  2.2923885E-012 -5.0884782E-012  3.3649750E-012  3.1052938E-013 -1.5581980E-013  5.6071120E-013  1.1581291E-011  1.2380319E-011 -1.2183657E-013  1.2314982E-011  1.2395307E-011  1.4683810E-012  1.2152501E-012  1.1319834E-012 -7.2031270E-013 -3.3617553E-013 -1.3429258E-012 -1.1171064E-012 -9.8809849E-013 -5.7420735E-013 -2.1427304E-013  3.6615155E-013  8.0468965E-013  1.5547563E-012  1.9357849E-012  2.2937208E-013 -1.5676349E-013  2.8492764E-012  2.8976821E-012  2.5681679E-012  3.8367087E-012  2.1393998E-012  9.3469676E-012  4.9598103E-012  1.9536595E-012  2.9475311E-012  2.0894397E-012  4.0962789E-012  4.2241766E-012 -2.6745550E-012 -1.8749308E-011  1.1617790E-013  5.7277100E-013  9.3988012E-013  1.1102230E-015  2.7691738E-013  3.7048142E-013  3.9773740E-013  3.2833458E-013  3.6881609E-013  7.5436324E-012  3.2173153E-012 -2.7483571E-013 -7.5119910E-012 -3.3844927E-011 -2.3569174E-011 -4.3099163E-011 -4.5414228E-011 -1.6352891E-012 -3.3306691E-016 -8.8817842E-016  2.7755576E-016  4.1434911E-013  6.0253885E-013 -6.9388939E-017  4.1265602E-013  3.3639758E-013  4.3706705E-013  1.6170398E-012  2.1660590E-012  1.9815261E-012  1.3958695E-012  1.6788237E-012  4.5375370E-012  2.3753222E-013  2.3983038E-012  1.2781998E-012  3.0131453E-012 -3.5882686E-012  1.5962925E-013 -9.0109170E-012  3.4795083E-013  2.8821390E-013  1.3877788E-017  1.1077250E-013  2.7051972E-013  3.1651071E-013  1.1102230E-016  5.7748251E-013  2.7189362E-012  3.3248959E-012  2.0888846E-012  2.3148150E-013  3.0037084E-013  2.5263819E-013  3.1505354E-013  2.1729563E-012  1.1612933E-012  3.9299675E-012 -3.3132663E-012 -1.2342460E-011  3.2621822E-013  4.4613618E-013 -7.0629266E-013  2.1196933E-012  4.5161097E-013  5.1300630E-013  4.6385118E-013  5.1669780E-012  2.3010066E-013  4.2059412E-013  5.8511529E-013  7.8709261E-013  1.2462253E-013 -2.7240571E-012  8.5975671E-013  9.1143759E-013  1.3094525E-012 -2.7358976E-011 -1.6086910E-011  4.6966320E-012 -4.2432169E-012  1.0066808E-012  1.1702861E-011  2.9054537E-012  1.3977708E-012  1.8253454E-012  1.2151391E-012  5.5039306E-012  7.9830587E-013  9.4108055E-013  3.5330905E-012  8.8633267E-013  1.0192125E-012  2.6176838E-012  3.2929215E-013  2.7249314E-012  2.2755409E-013  1.5984991E-012  4.2261333E-013  3.9590553E-012  4.2126302E-012  2.2930546E-012  1.1290968E-013  2.9996006E-012  1.7960911E-012  8.7499452E-013  1.7063573E-012  3.8735681E-013  2.6292302E-012 -1.7670101E-012  2.0147529E-012  7.8306805E-013  6.1992078E-014  3.2469860E-013  2.7335773E-012  2.7674252E-012  7.7293727E-013 -2.5687785E-014  7.7159112E-013  2.5163205E-012  4.4416693E-012  3.5278447E-012  1.4804824E-013  2.3021862E-013 -7.7449158E-013 -8.3100193E-014  5.6554761E-013 -1.0424786E-011 -4.7204879E-012  8.1587515E-014  3.9745984E-013  9.2340025E-013  3.8480330E-013  4.0127623E-013  5.8533040E-013  2.8294034E-013  3.4190983E-012  1.2396750E-012  2.6743052E-012 -8.7441165E-013  1.1802087E-012  3.7075204E-012  7.1484485E-013  4.6321280E-013  3.4440645E-012  4.9635296E-013  4.1966430E-013 0.0 -6.2086447E-013  1.3776313E-011  1.9944379E-011  1.0037748E-011  1.4306112E-011  3.9686032E-012  4.2544440E-013  3.1186165E-013  8.4182661E-013  4.2171128E-013  3.5710324E-013  3.6251557E-013  4.1552178E-013  1.0793727E-012  2.6913888E-013  5.3002394E-013  4.2636381E-013  3.9801148E-013 -9.0608632E-012 -4.0034642E-013  1.7009505E-011  5.5254690E-012  3.8741232E-013  2.5311087E-011  9.7977182E-013 -7.2164497E-016  8.6336494E-013  1.9036162E-013  1.1432522E-013  1.4500068E-012  3.5063619E-013  2.8002600E-013  2.9803937E-013  5.9841021E-013  8.0579987E-013  2.5347779E-013  1.2662094E-013  3.7383985E-013  6.0010330E-013  4.6673082E-013  2.4065194E-012  7.0420753E-013  1.9324209E-011  2.9009573E-012  5.6233906E-012  4.5441428E-012  7.0288220E-013  1.9601959E-012  6.3107852E-013  1.2885110E-012  5.9077743E-013 -3.6507880E-012  1.3277851E-012  4.9611704E-013  3.6526338E-012  1.0285106E-012  3.7356923E-013  1.3539725E-012  2.4331231E-013  1.2635656E-012  8.6498170E-013  2.2826185E-013  7.5991297E-013 -6.1905342E-013  5.9531269E-012  3.6075587E-012  4.6956883E-013  5.8804350E-013  3.2318592E-013  1.5362850E-012  1.7163909E-012  3.5285941E-012  1.0955958E-012  1.1969765E-012  1.4360735E-013  5.6309124E-014  3.9335202E-013  7.8279050E-013  1.4789558E-013  1.2101431E-012  8.4519197E-013  1.9408364E-012  3.0981884E-012 -4.5563553E-013 -1.1499690E-012 -4.9471538E-013 -3.3373304E-013  4.4236143E-013  1.3368889E-012  2.1994490E-012  1.1234555E-012  2.3538393E-012  2.3892555E-012  1.8045287E-013  1.9295676E-013  1.1644019E-012  3.7163606E-012  3.9959147E-012  2.6240121E-012  3.8666848E-012  3.5680348E-012  2.3138158E-012  2.5470737E-012  3.8311576E-012  4.2397197E-012  1.6664448E-013  3.8723469E-012  2.4663604E-012  6.8569456E-013  2.3533259E-013  3.7242431E-012  1.1331935E-011  5.0028870E-012  4.2095216E-012  1.2627677E-012  1.4066526E-013  5.3090865E-013 -4.9427129E-013  4.4320103E-012  3.3726355E-012  2.8488323E-012  2.1573854E-012  5.3228533E-012  5.8739680E-012  5.6078475E-012  1.2998824E-011  7.7070572E-012  3.2942538E-012  6.8296480E-012  1.4994672E-012  7.6637585E-012  2.4487079E-012  1.0018653E-012  4.7734039E-012  2.6793012E-012  5.9119376E-013  1.5237811E-013  4.8466786E-013  1.2700951E-013  8.3599794E-013  5.9609817E-012  3.5581815E-012  1.8224311E-012  1.9664825E-012  1.0724754E-012  2.9196645E-012  5.4134475E-013  2.6194602E-012  3.2946978E-012  4.5066173E-012  4.7370441E-012  6.7480466E-012  8.0224716E-013  3.9730441E-012  1.9428903E-014  2.5480729E-012  5.6955551E-012  7.3008266E-013  5.3878013E-012  5.0279780E-012  6.2646555E-012  4.7002402E-012  5.5333516E-012  4.3063331E-012  3.4457992E-012  1.4241941E-012  1.9116653E-013  1.2512213E-012  4.7616355E-012  1.2218004E-012 -9.0205621E-017  2.1253832E-013  2.2205848E-013  2.9733160E-013  1.9004243E-013  3.7554682E-013  3.0464520E-013  5.1025850E-013  3.3434366E-013  3.9143688E-013  1.7112006E-013  5.1131321E-013  4.0381587E-013  4.8581972E-013  2.0196345E-013  2.9720670E-013  2.8799185E-012  5.7132077E-012  2.5032754E-013  4.0492609E-013  1.2345680E-012  8.8595797E-013  2.0059510E-012 -3.5811118E-011 -9.5102537E-012  2.9695135E-012 -5.8692495E-012  1.7748303E-011  7.6673112E-012 -4.5150272E-011  6.2946870E-013  2.0496937E-012  2.1274510E-012  1.1267098E-012  1.9336477E-012  2.7503000E-012  2.8484853E-013  5.4002636E-013  6.1015082E-012  8.7929664E-013  7.3036022E-013  3.0722647E-013  3.0371261E-012  1.0911272E-012  4.4328985E-012  2.6437186E-013  4.3071102E-013  6.9388939E-017 -1.7200130E-013  4.0364240E-013  2.3908653E-013  3.2009118E-013  9.0705221E-013  4.1945614E-013  4.2812420E-012  4.6250503E-013  2.0598800E-013  7.4641404E-012  1.1102230E-015 -6.6613381E-016  4.8377968E-013  1.0043077E-012  1.8860191E-012  6.3241079E-014 -1.0340062E-012 -4.1601167E-012  2.1884994E-012  3.5452197E-013  3.0647707E-013  1.0408341E-017  5.3798979E-013  4.5051463E-013  1.4360735E-012  7.4498741E-013  1.3717028E-011  2.6338931E-012  6.3644923E-013 -1.8665625E-015  1.7891244E-013 -3.3625880E-013  5.2496896E-012  6.3795497E-013  1.5141444E-011  5.2291504E-014  2.7917807E-012  1.6846247E-012  1.1278548E-012  6.9388939E-018  1.1844831E-012  2.8463967E-012  2.2111479E-012  1.0922374E-012  1.7287421E-012  1.3403306E-012  2.0906193E-013  1.2273932E-012 -1.1151219E-012 -9.6454511E-012 -6.9087236E-012  6.6613381E-016  4.0673021E-013 -1.2159301E-012  7.0735778E-013  2.4738545E-013  9.5867758E-014  2.2655211E-012  6.3692107E-013  6.4319383E-013  2.4974467E-013  3.3653635E-015  3.6315395E-012  9.1066044E-013  6.1990690E-013  4.1813775E-013  1.4510726E-011  2.6194324E-013  2.1527224E-013  1.0218770E-012  1.0587198E-011 -1.6544821E-012  1.0176304E-012  4.0666776E-013 -4.6554427E-013  2.1619928E-011  7.4426021E-012  7.9570794E-012  9.6965769E-012  4.1638915E-013  1.4305501E-012  1.3837542E-012  1.4296342E-011  1.9401633E-012  9.8746011E-013  2.1128238E-012 0.0  2.1288526E-013  2.2573610E-012  9.8754338E-013  2.7772229E-013  1.0823842E-012  3.0980774E-013  2.5779379E-013  1.7583712E-012  2.6205427E-013  1.9120261E-012  9.7686442E-013  2.4527602E-013  9.5977393E-013  3.8857806E-016  1.0921819E-013  1.0926052E-012  3.3306691E-016  8.1781110E-013  6.8992034E-013  8.3824614E-013  3.4205971E-013 -1.3335513E-013  6.6613381E-016  1.3902768E-013  3.7888026E-012  1.5933366E-012 -3.5207948E-014  4.0125542E-013  8.8026808E-013  3.6294578E-013  1.4044738E-012  2.5238145E-013  1.1820545E-012 -4.2740811E-013  1.3322676E-015  1.9960145E-011  1.3334334E-012  1.4784840E-012  4.1973092E-012  2.0769497E-013  3.0772607E-013 -1.1763424E-011  5.7398530E-013 -5.0632713E-011 -1.3364088E-011 -2.4228397E-012 -1.2867485E-013 -1.4756529E-012  5.3401727E-014  8.9883656E-013  3.8669068E-013  8.0724316E-013  1.4463986E-012  2.2761792E-012 -1.7165963E-011 -6.4652728E-012 -2.7834679E-012 -5.6621374E-013 -1.5085155E-012 -2.4742430E-012 -1.6377039E-012  8.9089847E-013 -1.9356988E-011 -2.1638635E-011  5.0701665E-012 -2.6979530E-011 -2.4189956E-011 -5.4948712E-011 -5.2342575E-012 -4.7524040E-011  3.4217074E-012 -7.1884720E-012  4.9833138E-011 -5.3184124E-012 -1.3149981E-011 -9.6481156E-013 -5.6732397E-013  1.3465756E-012  1.8550439E-013  7.4049100E-013  5.5024874E-012  2.8044234E-012  8.1225304E-013  2.9964919E-012  1.4128129E-011 -4.6723389E-011 -6.2355815E-012 -8.7367058E-012  1.2228552E-012  9.9598108E-013  9.0449870E-013  1.3196888E-011  1.2792545E-012  1.0569462E-012  7.1009865E-013  1.5646373E-011  1.9113600E-012  2.9076602E-012  8.6702867E-013  2.3148497E-013 -6.2571129E-013 -2.1406661E-013  2.2473468E-011  2.4256916E-012 -2.2499363E-013  1.0294543E-013 -2.4771851E-013  2.6508587E-012  1.1102230E-016  1.6152843E-012 -4.3499926E-013 -6.8955258E-013 -6.2450045E-017  2.5210389E-013  9.1165964E-013  2.1195962E-012  2.5693336E-013  2.4037994E-012  7.2018780E-014  1.5838164E-012  5.4633381E-014 -2.0604352E-013  2.0816682E-017  3.2206876E-013  5.3012456E-013  2.2582214E-012  1.1980139E-012  1.9529794E-012  1.8206964E-013  2.1641786E-012  2.3786702E-012  3.1451161E-012  2.2323809E-013  1.0151879E-012  1.7411489E-011  3.1460945E-013  1.2760626E-013  3.0518643E-013  2.2204460E-015  2.2204460E-015  5.5355720E-013  1.4614698E-013  4.4300674E-013  1.4015455E-012 -8.8817842E-016  2.5807828E-013  9.5673469E-014  5.4700688E-013 -3.4328096E-013  8.3409668E-013  9.5673469E-014 -4.8078763E-012  3.4905412E-013  5.0370819E-012  2.7755576E-017  6.6724404E-013  1.3358203E-012  7.3693829E-013  1.4878376E-013  2.7553515E-012  9.7144515E-017  1.9167723E-012  1.0211831E-012  1.6568968E-012  2.6173508E-013  3.0575542E-013  1.1262102E-012  7.8442808E-013  1.0068890E-012  1.0109830E-012  3.8452574E-013  2.2874203E-012  4.5435877E-014  1.1102230E-015  1.2410906E-013  1.8039736E-013 0.0  7.1453954E-013  7.6817719E-013  3.1799563E-013 -8.6194385E-012 -2.3875069E-011 -2.0122459E-011 -1.5992874E-011 -2.4302782E-012  5.3437810E-013  2.4286129E-013 -9.5945474E-013  5.0140447E-014  1.7995605E-012  7.3226147E-014  8.3988372E-014  3.2829295E-013  3.5726977E-013  5.7849558E-013 -2.2204460E-016  7.0998762E-013  1.0108858E-011 -1.7425688E-013  5.0931481E-014  5.3418381E-013 -1.2415624E-012  1.2097268E-012  9.5878860E-013 -9.0771141E-014  1.6846247E-013 -5.7370220E-012  3.0067615E-013  4.1014969E-012  4.3092196E-012 0.0  1.6417701E-012 -5.9907634E-013
        </DataArray>
        <DataArray type="Float64" Name="stress_xx" NumberOfComponents="1" format="ascii">
 0.0 0.0 0.0 0.0  1.9218423E+004  1.2719600E+003  3.2038786E+003 0.0 0.0 0.0 0.0 0.0 0.0 0.0 0.0 0.0 0.0 0.0 0.0 0.0  1.6910650E+005 0.0 0.0 0.0 0.0 0.0 0.0 0.0 0.0 0.0 0.0 0.0 0.0 0.0 0.0 0.0 0.0 0.0 0.0 0.0 0.0 0.0 0.0 0.0 0.0 0.0 0.0 0.0 0.0  5.2441347E+003  2.2079989E+003  1.4771021E+003  1.0200722E+003  6.4462487E+002  6.3186779E+002  6.3601052E+002  6.8257980E+002  6.1962216E+002  6.1257091E+002  6.0815643E+002  5.9380633E+002  6.6902587E+002  6.3953638E+002  6.5512510E+002  6.4349686E+002  6.4858909E+002  6.4227001E+002  6.8525007E+002  6.9490864E+002  6.6806540E+002  5.6998424E+002  5.6641338E+002  6.5964665E+002  6.3150491E+002  6.2612947E+002  6.2510740E+002  5.4404522E+002  5.5023942E+002  6.3369695E+002  6.0146606E+002  6.1879594E+002  6.0953974E+002  6.1102646E+002  5.9143971E+002  5.5649885E+002  5.6806523E+002  5.5574681E+002  5.8199649E+002  5.9867759E+002  5.9304404E+002  6.3915561E+002  6.4746164E+002  5.9979620E+002  6.0057450E+002  5.9594677E+002  6.3416368E+002  6.3846005E+002  5.9313450E+002  5.9866861E+002  6.3875602E+002  6.3437525E+002  5.8360379E+002  5.9081210E+002  5.8112816E+002  5.5093993E+002  5.7251117E+002  5.6961087E+002  5.3852051E+002  5.5406418E+002  5.6122087E+002  5.8031711E+002  5.8226983E+002  5.6861020E+002  5.4247276E+002  5.6134915E+002  5.7259151E+002  5.0730825E+002  5.1332138E+002  6.0584725E+002  5.8280145E+002  5.8228261E+002  5.7573962E+002  5.7765651E+002  6.1354580E+002  6.1469245E+002  5.7108765E+002  5.7996208E+002  5.6647368E+002  5.3262983E+002  5.5727883E+002  5.8606607E+002  5.0249463E+002  4.8618609E+002  5.5925634E+002  5.5260384E+002  5.5360238E+002  5.6046498E+002  5.6736479E+002  6.0389774E+002  5.9367143E+002  4.7253552E+002  5.1399526E+002  6.2302526E+002  6.0856868E+002  6.1301247E+002  6.2153796E+002  7.1656086E+002  7.0341286E+002  4.5460289E+003  4.4982057E+003  4.0463326E+003 0.0 0.0 0.0 0.0 0.0 0.0 0.0 0.0 0.0 0.0 0.0 0.0 0.0 0.0 0.0 0.0 0.0 0.0 0.0 0.0 0.0 0.0 0.0 0.0 0.0 0.0 0.0 0.0 0.0 0.0 0.0 0.0 0.0 0.0 0.0 0.0 0.0 0.0 0.0 0.0 0.0 0.0 0.0 0.0 0.0 0.0 0.0 0.0 0.0 0.0 0.0 0.0 0.0 0.0 0.0 0.0 0.0 0.0 0.0 0.0 0.0 0.0 0.0 0.0 0.0 0.0 0.0 0.0 0.0 0.0 0.0 0.0 0.0 0.0 0.0 0.0 0.0 0.0 0.0 0.0 0.0 0.0 0.0 0.0 0.0 0.0 0.0 0.0 0.0 0.0 0.0 0.0 0.0 0.0 0.0 0.0 0.0 0.0 0.0 0.0 0.0 0.0 0.0 0.0 0.0 0.0 0.0 0.0 0.0 0.0 0.0 0.0 0.0 0.0 0.0 0.0 0.0 0.0 0.0 0.0 0.0 0.0 0.0 0.0 0.0 0.0 0.0 0.0 0.0 0.0 0.0 0.0 0.0 0.0 0.0 0.0 0.0 0.0 0.0 0.0 0.0 0.0 0.0 0.0 0.0 0.0 0.0 0.0 0.0 0.0 0.0 0.0 0.0 0.0 0.0 0.0 0.0 0.0 0.0 0.0 0.0 0.0 0.0 0.0 0.0 0.0 0.0 0.0 0.0 0.0 0.0 0.0 0.0 0.0 0.0 0.0 0.0 0.0 0.0 0.0 0.0 0.0 0.0 0.0 0.0 0.0 0.0 0.0 0.0 0.0 0.0 0.0 0.0 0.0 0.0 0.0 0.0 0.0 0.0 0.0 0.0 0.0 0.0 0.0 0.0 0.0 0.0 0.0 0.0 0.0 0.0 0.0 0.0 0.0 0.0 0.0 0.0 0.0 0.0 0.0 0.0 0.0 0.0 0.0 0.0 0.0 0.0 0.0 0.0 0.0 0.0 0.0 0.0 0.0 0.0 0.0 0.0 0.0 0.0 0.0 0.0 0.0 0.0 0.0 0.0 0.0 0.0 0.0 0.0 0.0 0.0 0.0 0.0 0.0 0.0 0.0 0.0 0.0 0.0 0.0 0.0 0.0 0.0 0.0 0.0 0.0 0.0 0.0 0.0 0.0 0.0 0.0 0.0 0.0 0.0 0.0 0.0 0.0 0.0 0.0 0.0 0.0 0.0 0.0 0.0 0.0 0.0 0.0 0.0 0.0 0.0 0.0 0.0 0.0 0.0 0.0 0.0  2.2848041E+004  7.3472140E+004  1.0366918E+005  1.2403462E+005  1.3932939E+005  1.5214083E+005  1.6086347E+005  1.6524586E+005  1.6865983E+005 0.0 0.0 0.0 0.0 0.0 0.0 0.0 0.0 0.0 0.0 0.0 0.0 0.0 0.0 0.0 0.0 0.0 0.0 0.0 0.0 0.0 0.0 0.0 0.0 0.0 0.0 0.0 0.0 0.0 0.0 0.0 0.0 0.0 0.0 0.0 0.0 0.0 0.0 0.0 0.0 0.0 0.0 0.0 0.0 0.0 0.0 0.0 0.0 0.0 -7.6631844E+003 -1.2979475E+004 -1.4084806E+004 -1.4484518E+004 -1.3524509E+004 -1.2592140E+004 -1.1354329E+004 -1.1079364E+004 -1.0802421E+004 -1.0908819E+004 -1.1132224E+004 -1.2198362E+004 -1.2418688E+004 -1.2112299E+004 -1.2216055E+004 -1.1935179E+004 -1.1302064E+004 -1.0732258E+004 -1.0719439E+004 -1.0484800E+004 -1.0512666E+004 -1.0502599E+004 -1.0612173E+004 -1.0710466E+004 -1.0404080E+004 -1.0728214E+004 -1.1137379E+004 -1.0598640E+004 -1.0612709E+004 -1.0880209E+004 -1.0538558E+004 -1.0726377E+004 -1.0617797E+004 -1.1068324E+004 -1.0741165E+004 -1.0627413E+004 -1.0563457E+004 -1.1060702E+004 -1.0821498E+004 -1.1180595E+004 -1.0677952E+004 -1.1143636E+004 -1.1176832E+004 -1.0690824E+004 -1.0788818E+004 -1.1183276E+004 -1.1103875E+004 -1.0706812E+004 -1.1050988E+004 -1.0872028E+004 -1.0898824E+004 -1.1229695E+004 -1.1221408E+004 -1.1383146E+004 -1.0920827E+004 -1.0945135E+004 -1.1143995E+004 -1.0800571E+004 -1.1395388E+004 -1.2260525E+004 -1.2925591E+004 -1.3240692E+004 -1.2593678E+004 -1.1315967E+004 -1.1828225E+004 -1.2183874E+004 -1.1850511E+004 -1.2110366E+004 -1.1876994E+004 -1.2370374E+004 -1.1791791E+004 -1.2087423E+004 -1.2837685E+004 -1.2865502E+004 -1.2060327E+004 -1.2131258E+004 -1.1611318E+004 -1.1766450E+004 -1.2055161E+004 -1.1861487E+004 -1.1641920E+004 -1.1992501E+004 -1.2205815E+004 -1.1937717E+004 -1.2689420E+004 -1.2823524E+004 -1.3068438E+004 -1.2162388E+004 -1.2024981E+004 -1.1847750E+004 -1.0737001E+004 -8.1650636E+003 -2.4379263E+003  6.7814568E+003  1.9810376E+004  3.7923376E+004  6.2108423E+004  9.2193891E+004  1.2812539E+005 0.0 0.0 0.0 0.0 0.0 0.0 0.0 0.0 0.0 0.0 0.0 0.0 0.0 0.0 0.0 0.0 0.0 0.0 0.0 0.0 0.0 0.0 0.0 0.0 0.0 0.0 0.0 0.0 0.0 0.0 0.0 0.0 0.0 0.0 0.0 0.0 0.0 0.0 0.0 0.0 0.0 0.0 0.0 0.0 0.0 0.0 0.0 0.0 0.0 0.0 0.0 0.0 0.0 0.0 0.0 0.0 0.0 0.0 0.0 0.0 0.0 0.0 0.0 0.0 0.0 0.0 0.0 0.0 0.0 0.0 0.0 0.0 0.0 0.0 0.0 0.0 0.0 0.0 0.0 0.0 0.0 0.0 0.0 0.0 0.0 0.0 0.0 0.0 0.0 0.0 0.0 0.0 0.0 0.0 0.0 0.0 0.0 0.0 0.0 0.0 0.0 0.0 0.0 0.0 0.0 0.0 0.0 0.0 0.0 0.0 0.0 0.0 0.0 0.0 0.0 0.0 0.0 0.0 0.0 0.0 0.0 0.0 0.0 0.0 0.0 0.0 0.0 0.0 0.0 0.0 0.0 0.0 0.0 0.0 0.0 0.0 0.0 0.0 0.0 0.0 0.0 0.0 0.0 0.0 0.0 0.0 0.0 0.0 0.0 0.0 0.0 0.0 0.0 0.0 0.0 0.0 0.0 0.0 0.0 0.0 0.0 0.0 0.0 0.0 0.0 0.0 0.0 0.0 0.0 0.0 0.0 0.0 0.0 0.0 0.0 0.0 0.0 0.0 0.0 0.0 0.0 0.0 0.0 0.0 0.0 0.0 0.0 0.0 0.0 0.0 0.0 0.0 0.0 0.0 0.0 0.0 0.0 0.0 0.0 0.0 0.0 0.0 0.0 0.0 0.0 0.0 0.0 0.0 0.0 0.0 0.0 0.0 0.0 0.0 0.0 0.0 0.0 0.0 0.0 0.0 0.0 0.0 0.0 0.0 0.0 0.0 0.0 0.0 0.0 0.0 0.0 0.0 0.0 0.0 0.0 0.0 0.0 0.0 0.0 0.0 0.0 0.0 0.0 0.0 0.0 0.0 0.0 0.0 0.0 0.0 0.0 0.0 0.0 0.0 0.0 0.0 0.0 0.0 0.0 0.0 0.0 0.0 0.0 0.0 0.0 0.0 0.0 0.0 0.0 0.0 0.0 0.0 0.0 0.0 0.0 0.0 0.0 0.0 0.0 0.0 0.0 0.0 0.0 0.0 0.0 0.0 0.0 0.0 0.0 0.0 0.0 0.0 0.0 0.0 0.0 0.0 0.0 0.0 0.0 0.0 0.0 0.0 0.0 0.0 0.0 0.0 0.0 0.0 0.0 0.0 0.0 0.0 0.0 0.0 0.0 0.0 0.0 0.0 0.0 0.0 0.0 0.0 0.0 0.0 0.0 0.0 0.0 0.0 0.0 0.0 0.0 0.0 0.0 0.0 0.0 0.0 0.0 0.0 0.0 0.0 0.0 0.0 0.0 0.0 0.0 0.0 0.0 0.0 0.0 0.0 0.0 0.0 0.0 0.0 0.0 0.0 0.0 0.0 0.0 0.0 0.0 0.0 0.0 0.0 0.0 0.0 0.0 0.0 0.0 0.0 0.0 0.0 0.0 0.0 0.0 0.0 0.0 0.0 0.0 0.0 0.0 0.0 0.0 0.0 0.0 0.0 0.0 0.0 0.0 0.0 0.0 0.0 0.0 0.0 0.0 0.0 0.0 0.0 0.0 0.0 0.0 0.0 0.0 0.0 0.0 0.0 0.0 0.0 0.0 0.0 0.0 0.0 0.0 0.0 0.0 0.0 0.0 0.0 0.0 0.0 0.0 0.0 0.0 0.0 0.0 0.0 0.0 0.0 0.0 0.0 0.0 0.0 0.0 0.0 0.0 0.0 0.0 0.0 0.0 0.0 0.0 0.0 0.0 0.0 0.0 0.0 0.0 0.0 0.0 0.0 0.0 0.0 0.0 0.0 0.0 0.0 0.0 0.0 0.0 0.0 0.0 0.0 0.0 0.0 0.0 0.0 0.0 0.0 0.0 0.0 0.0 0.0 0.0 0.0 0.0 0.0 0.0 0.0 0.0 0.0 0.0 0.0 0.0 0.0 0.0 0.0 0.0 0.0 0.0 0.0 0.0 0.0 0.0 0.0 0.0 0.0 0.0 0.0 0.0 0.0 0.0 0.0 0.0 0.0 0.0 0.0 0.0 0.0 0.0 0.0 0.0 0.0 0.0 0.0 0.0 0.0 0.0 0.0 0.0 0.0 0.0 0.0 0.0 0.0 0.0 0.0 0.0 0.0 0.0 0.0 0.0 0.0 0.0 0.0 0.0 0.0 0.0 0.0 0.0 0.0 0.0 0.0 0.0 0.0 0.0 0.0 0.0 0.0 0.0 0.0 0.0 0.0 0.0 0.0 0.0 0.0 0.0 0.0 0.0 0.0 0.0 0.0 0.0 0.0 0.0 0.0 0.0 0.0 0.0 0.0 0.0 0.0 0.0 0.0 0.0 0.0 0.0 0.0 0.0 0.0 0.0 0.0 0.0 0.0 0.0 0.0 0.0 0.0 0.0 0.0 0.0 0.0 0.0 0.0 0.0 0.0 0.0 0.0 0.0 0.0 0.0 0.0 0.0 0.0 0.0 0.0 0.0 0.0 0.0 0.0 0.0 0.0 0.0 0.0 0.0 0.0 0.0 0.0 0.0 0.0 0.0 0.0 0.0 0.0 0.0 0.0 0.0 0.0 0.0 0.0 0.0 0.0 0.0 0.0 0.0 0.0 0.0 0.0 0.0 0.0 0.0 0.0 0.0 0.0 0.0 0.0 0.0 0.0 0.0 0.0 0.0 0.0 0.0 0.0 0.0 0.0 0.0 0.0 0.0 0.0 0.0 0.0 0.0 0.0 0.0 0.0 0.0 0.0 0.0 0.0 0.0 0.0 0.0 0.0 0.0 0.0 0.0 0.0 0.0 0.0 0.0 0.0 0.0 0.0 0.0 0.0 0.0 0.0 0.0 0.0 0.0 0.0 0.0 0.0 0.0 0.0 0.0 0.0 0.0 0.0 0.0 0.0 0.0 0.0 0.0 0.0 0.0 0.0 0.0 0.0 0.0 0.0 0.0 0.0 0.0 0.0 0.0 0.0 0.0 0.0 0.0 0.0 0.0 0.0 0.0 0.0 0.0 0.0 0.0 0.0 0.0 0.0 0.0 0.0 0.0 0.0 0.0 0.0 0.0 0.0 0.0 0.0 0.0 0.0 0.0 0.0 0.0 0.0 0.0 0.0 0.0 0.0 0.0 0.0 0.0 0.0 0.0 0.0 0.0 0.0 0.0 0.0 0.0 0.0 0.0 0.0 0.0 0.0 0.0 0.0 0.0 0.0 0.0 0.0 0.0 0.0 0.0 0.0 0.0 0.0 0.0 0.0 0.0 0.0 0.0 0.0 0.0 0.0 0.0 0.0 0.0 0.0 0.0 0.0 0.0 0.0 0.0 0.0 0.0 0.0 0.0 0.0 0.0 0.0 0.0 0.0 0.0 0.0 0.0 0.0 0.0 0.0 0.0 0.0 0.0 0.0 0.0 0.0 0.0 0.0 0.0 0.0 0.0 0.0 0.0 0.0 0.0 0.0 0.0 0.0 0.0 0.0 0.0 0.0 0.0 0.0 0.0 0.0 0.0 0.0 0.0 0.0 0.0 0.0 0.0 0.0 0.0 0.0 0.0 0.0 0.0 0.0 0.0 0.0 0.0 0.0 0.0 0.0 0.0 0.0 0.0 0.0 0.0 0.0 0.0 0.0 0.0 0.0 0.0 0.0 0.0 0.0 0.0 0.0 0.0 0.0 0.0 0.0 0.0 0.0 0.0 0.0 0.0 0.0 0.0 0.0 0.0 0.0 0.0 0.0 0.0 0.0 0.0 0.0 0.0 0.0 0.0 0.0 0.0 0.0 0.0 0.0 0.0 0.0 0.0 0.0 0.0 0.0 0.0 0.0 0.0 0.0 0.0 0.0 0.0 0.0 0.0 0.0 0.0 0.0 0.0 0.0 0.0 0.0 0.0 0.0 0.0 0.0 0.0 0.0 0.0 0.0 0.0 0.0 0.0 0.0 0.0 0.0 0.0 0.0 0.0 0.0 0.0 0.0 0.0 0.0 0.0 0.0 0.0 0.0 0.0 0.0 0.0 0.0 0.0 0.0 0.0 0.0 0.0 0.0 0.0 0.0 0.0 0.0 0.0 0.0 0.0 0.0 0.0 0.0 0.0 0.0 0.0 0.0 0.0 0.0 0.0 0.0 0.0 0.0 0.0 0.0 0.0 0.0 0.0 0.0 0.0 0.0 0.0 0.0 0.0 0.0 0.0 0.0 0.0 0.0 0.0 0.0 0.0 0.0 0.0 0.0 0.0 0.0 0.0 0.0 0.0 0.0 0.0 0.0 0.0 0.0 0.0 0.0 0.0 0.0 0.0 0.0 0.0 0.0 0.0 0.0 0.0 0.0 0.0 0.0 0.0 0.0 0.0 0.0 0.0 0.0 0.0 0.0 0.0 0.0 0.0 0.0 0.0 0.0 0.0 0.0 0.0 0.0 0.0 0.0 0.0 0.0 0.0 0.0 0.0 0.0 0.0 0.0 0.0 0.0 0.0 0.0 0.0 0.0 0.0 0.0 0.0 0.0 0.0 0.0 0.0 0.0 0.0 0.0 0.0 0.0 0.0 0.0 0.0 0.0 0.0 0.0 0.0 0.0 0.0 0.0 0.0 0.0 0.0 0.0 0.0 0.0 0.0 0.0 0.0 0.0 0.0 0.0 0.0 0.0 0.0 0.0 0.0 0.0 0.0 0.0 0.0 0.0 0.0 0.0 0.0 0.0 0.0 0.0 0.0 0.0 0.0 0.0 0.0 0.0 0.0 0.0 0.0 0.0 0.0 0.0 0.0 0.0 0.0 0.0 0.0 0.0 0.0 0.0 0.0 0.0 0.0 0.0 0.0 0.0 0.0 0.0 0.0 0.0 0.0 0.0 0.0 0.0 0.0 0.0 0.0 0.0 0.0 0.0 0.0 0.0 0.0 0.0 0.0 0.0 0.0 0.0 0.0 0.0 0.0 0.0 0.0 0.0 0.0 0.0 0.0 0.0 0.0 0.0 0.0 0.0 0.0 0.0 0.0 0.0 0.0 0.0 0.0 0.0 0.0 0.0 0.0 0.0 0.0 0.0 0.0 0.0 0.0 0.0 0.0 0.0 0.0 0.0 0.0 0.0 0.0 0.0 0.0 0.0 0.0 0.0 0.0 0.0 0.0 0.0 0.0 0.0 0.0 0.0 0.0 0.0 0.0 0.0 0.0 0.0 0.0 0.0 0.0 0.0 0.0 0.0 0.0 0.0 0.0 0.0 0.0 0.0 0.0 0.0 0.0 0.0 0.0 0.0 0.0 0.0 0.0 0.0 0.0 0.0 0.0 0.0 0.0 0.0 0.0 0.0 0.0 0.0 0.0 0.0 0.0 0.0 0.0 0.0 0.0 0.0 0.0 0.0 0.0 0.0 0.0 0.0 0.0 0.0 0.0 0.0 0.0 0.0 0.0 0.0 0.0 0.0 0.0 0.0 0.0 0.0 0.0 0.0 0.0 0.0 0.0 0.0 0.0 0.0 0.0 0.0 0.0 0.0 0.0 0.0 0.0 0.0 0.0 0.0 0.0 0.0 0.0 0.0 0.0 0.0 0.0 0.0 0.0 0.0 0.0 0.0 0.0 0.0 0.0 0.0 0.0 0.0 0.0 0.0 0.0 0.0 0.0 0.0 0.0 0.0 0.0 0.0 0.0 0.0 0.0 0.0 0.0 0.0 0.0 0.0 0.0 0.0 0.0 0.0 0.0 0.0 0.0 0.0 0.0 0.0 0.0 0.0 0.0 0.0 0.0 0.0 0.0 0.0 0.0 0.0 0.0 0.0 0.0 0.0 0.0 0.0 0.0 0.0 0.0 0.0 0.0 0.0 0.0 0.0 0.0 0.0 0.0 0.0 0.0 0.0 0.0 0.0 0.0 0.0 0.0 0.0 0.0 0.0 0.0 0.0 0.0 0.0 0.0 0.0 0.0 0.0 0.0 0.0 0.0 0.0 0.0 0.0 0.0 0.0 0.0 0.0 0.0 0.0 0.0 0.0 0.0 0.0 0.0 0.0 0.0 0.0 0.0 0.0 0.0 0.0 0.0 0.0 0.0 0.0 0.0 0.0 0.0 0.0 0.0 0.0 0.0 0.0 0.0 0.0 0.0 0.0 0.0 0.0 0.0 0.0 0.0 0.0 0.0 0.0  9.2928996E+004  2.6242118E+004  3.9979182E+003  1.1065064E+003  1.1830181E+005  6.4173731E+004 -2.7582483E+002 -2.1726773E+003 -3.0295419E+003 -2.4934840E+003 -2.5781919E+003 -9.2684915E+003 -2.6728485E+003 -1.0897709E+004 -9.6472628E+003 -2.8976236E+003 -9.8178192E+003 -2.7286805E+003 -8.3009383E+003 -2.6426190E+003 -2.8552714E+003 -9.3750165E+003 -2.2457159E+003 -8.7619693E+003 -2.7523141E+003 -9.0542176E+003 -9.3020563E+003 -1.0096455E+004 -8.4985768E+003 -8.4454288E+003 -8.8131650E+003 -8.6906895E+003 -1.0240839E+004 -1.1322651E+004 -9.6082786E+003 -9.0428135E+003 -1.1246933E+004 -8.7750443E+003 -1.0648825E+004 -9.4408433E+003 -2.8867262E+003 -1.0689906E+004 -9.8054278E+003 -1.0246571E+004 -1.0033060E+004 -9.5865375E+003 -9.5624719E+003  7.4247044E+004 -2.7659688E+003 -2.9581463E+003 -2.7978763E+003 -2.4988711E+003 -2.8363562E+003 -1.0189401E+004 -1.2096440E+004 -9.3453715E+003 -3.2544984E+003 -8.8279977E+003 -1.0532243E+004 -8.5995752E+003 -2.5928271E+003 -2.6071483E+003 -8.3635646E+003 -3.1895804E+003 -2.3231851E+003 -3.1151057E+003 -2.5427310E+003 -8.5085483E+003 -2.7915047E+003 -8.7895805E+003 -2.9149820E+003 -2.4343771E+003 -2.7947862E+003 -3.2661291E+003 -3.0473728E+003 -2.9569785E+003 -2.7135590E+003 -2.8272810E+003 -3.0127518E+003 -2.7856856E+003 -3.0500107E+003 -2.6582919E+003 -3.1213917E+003  1.3086054E+004 -8.4252751E+003 -2.4984795E+003 -1.0176260E+004 -8.7464848E+003 -2.6780593E+003 -4.8082534E+003  1.3283449E+005 -1.3092500E+003 -1.6442916E+003  2.1364636E+003  8.1410996E+002  7.9043329E+003 -3.4795419E+003  7.0318414E+003  1.8391708E+004  1.8843830E+004  3.4368644E+004  3.5261005E+004  1.9354098E+004  3.6088370E+004  5.7321204E+004  5.4232965E+004  1.7702594E+004  3.0080939E+004  5.8665874E+004  6.2623305E+004  9.1359900E+003  8.6435065E+004  3.3555649E+004  5.2204324E+004  7.7870736E+004  1.7572560E+004 -4.6766021E+003  1.1465344E+004  1.9250086E+004  1.5643534E+003  9.4955515E+003 -3.7461451E+003 -7.8090441E+003 -9.7430093E+003 -9.6658891E+003 -9.8930894E+003 -7.8868022E+003 -8.2832094E+003 -8.1163395E+003 -4.7857979E+003 -1.0496256E+004 -7.6009651E+003 -5.0346768E+003 -9.3629038E+003 -7.2429436E+003 -7.0798420E+003 -6.5324826E+003 -4.6388697E+003 -5.2203254E+003 -3.0217704E+003 -6.3896875E+003 -6.2748076E+003 -5.9630835E+003 -9.4164779E+003 -9.8285675E+003 -6.8660218E+003 -1.0474159E+004 -7.8717546E+003 -7.6036340E+003 -5.2423344E+003 -9.9702484E+003 -7.1672863E+003 -7.1060703E+003 -5.5139086E+003 -9.2430507E+003 -6.9654129E+003 -6.6728983E+003 -4.6752085E+003 -3.0280780E+003 -6.2133802E+003 -5.7965228E+003 -5.9937301E+003 -9.5531961E+003 -2.9453616E+003 -6.5221441E+003 -6.3867102E+003 -1.0352979E+004 -1.0582946E+004 -8.4045349E+003 -6.9470796E+003 -5.2878038E+003 -3.0122829E+003 -6.4393620E+003 -6.0260476E+003 -7.1414162E+003 -1.0103076E+004 -2.3716306E+003 -5.4175441E+003 -5.6406958E+003 -8.2099353E+003 -8.5943258E+003 -5.4057324E+003 -2.3447383E+003 -5.4968393E+003 -2.6571567E+003 -5.6333960E+003 -5.7871052E+003 -5.3515680E+003 -8.3826080E+003 -7.9906766E+003 -9.1474205E+003 -7.0685276E+003 -2.5705750E+003 -6.0825963E+003 -5.9874589E+003 -8.7273742E+003 -2.5462079E+003 -5.5527684E+003 -5.8895658E+003 -7.8333279E+003 -8.0873930E+003 -3.2885757E+003 -7.6158971E+003 -6.9834400E+003 -1.0900539E+004 -8.8037031E+003 -7.8295671E+003 -7.6358200E+003 -9.3305493E+003 -7.8391645E+003 -7.2592057E+003 -9.1135674E+003 -8.1114783E+003 -7.8626262E+003 -2.6767456E+003 -6.5961138E+003 -6.2976450E+003 -9.7574826E+003 -2.7941094E+003 -5.8277787E+003 -5.5798674E+003 -8.6032033E+003 -5.8099882E+003 -2.4514925E+003 -5.3664090E+003 -5.2828217E+003 -2.5264998E+003 -5.5551534E+003 -2.7604303E+003 -2.3370343E+003 -2.9567379E+003 -9.0683001E+003 -6.8628063E+003 -2.6695426E+003 -5.2756068E+003 -3.0952263E+003 -6.4695132E+003 -2.6708996E+003 -2.8758566E+003 -5.8810896E+003 -6.0824956E+003 -8.5613180E+003 -2.6050607E+003 -2.6562347E+003 -9.1083753E+003 -8.1447502E+003 -7.9244185E+003 -1.1077402E+004 -9.2006978E+003 -1.0488433E+004 -1.0843936E+004 -8.0201131E+003 -9.2636373E+003 -7.0468118E+003 -9.0464626E+003 -7.2727556E+003 -9.2943302E+003 -2.6104460E+003 -2.8472644E+003 -9.2209548E+003 -2.9348070E+003 -8.8696036E+003 -8.9101596E+003 -1.0259866E+004 -7.7583943E+003 -8.1087002E+003 -3.0841299E+003 -9.3424474E+003 -2.5493256E+003 -5.8832834E+003 -2.5716240E+003 -2.5549552E+003 -2.4151116E+003 -2.3595352E+003 -2.5276433E+003 -5.7058730E+003 -9.6032620E+003 -7.3095089E+003 -1.0127901E+004 -7.5462116E+003 -2.5330399E+003 -2.8044445E+003 -6.8176527E+003 -3.0003699E+003 -9.1281207E+003 -2.7196339E+003 -9.8560228E+003 -2.7945100E+003 -6.5118538E+003 -9.8587649E+003 -8.8842813E+003 -6.8862296E+003 -2.7555850E+003 -2.9033051E+003 -6.8356168E+003 -3.0756966E+003 -9.9418268E+003 -9.0398269E+003 -2.5780738E+003 -8.8858957E+003 -6.7664353E+003 -5.8529718E+003 -5.8545976E+003 -8.5391081E+003 -8.6692004E+003 -8.8446712E+003 -6.0213574E+003 -8.4665423E+003  1.1527837E+005 -1.0698357E+004  8.2001006E+004 -5.6043693E+003 -6.6905465E+003 -6.5257225E+003 -4.5588562E+003 -3.7271845E+003  2.0040020E+001  1.0740990E+005 -7.2885650E+003  4.5528814E+004  4.6806823E+004  9.7895028E+003 -6.3856361E+003  8.3901027E+004 -1.2565793E+004  3.0339387E+004 -1.0299640E+004 -9.4910144E+003 -9.6893753E+003  1.1875673E+005 -9.6192162E+003 -9.6021306E+003 -7.6654860E+003 -6.3444421E+003 -6.0719960E+003 -6.5435636E+003 -6.9940209E+003 -8.8030465E+003 -5.4613307E+003 -8.4501653E+003 -6.1205686E+003 -2.0447368E+003 -7.0797232E+003 -8.4409561E+003 -6.2538982E+003 -8.7579203E+003 -6.4988648E+003 -6.4329269E+003 -8.0068709E+003 -6.6465332E+003 -8.9255790E+003 -8.7221923E+003 -1.0193657E+004 -1.0034578E+004 -9.8873342E+003 -2.0990955E+003 -1.1221929E+004 -2.4026276E+003 -1.0212763E+004 -1.1629341E+004 -1.3234049E+004 -1.0130412E+004 -1.1691594E+004 -2.3509844E+003 -9.5198602E+003 -2.3756785E+003 -1.1089209E+004 -2.3703735E+003 -1.1687196E+004 -2.1175138E+003 -7.7856830E+003 -5.4159243E+003 -9.8602899E+003 -8.1517891E+003 -5.4723878E+003 -5.9068074E+003 -9.1601180E+003 -9.4960739E+003 -5.2522873E+003 -6.1801018E+003 -6.7264428E+003 -5.6530336E+003 -5.4913839E+003 -8.0809638E+003 -8.0302618E+003 -5.2562299E+003 -9.2766191E+003 -8.0727304E+003 -5.3306327E+003 -9.7022363E+003 -6.3480066E+003 -2.1424482E+003 -3.2485315E+003 -4.8894973E+003  4.1210559E+003  1.3818373E+005  1.0092159E+005  3.3934409E+004 -6.0247869E+003  3.4148388E+004  1.5919489E+004 -6.2693540E+003 -6.8443087E+003 -9.8715968E+003 -8.5406218E+003 -8.1629230E+003 -6.0911369E+003 -8.1052830E+003 -1.0102990E+004 -8.1500293E+003 -7.4347529E+003 -7.7857421E+003 -8.1615361E+003 -6.0706561E+003 -6.3370422E+003 -8.5319469E+003 -8.2797825E+003 -1.0025299E+004 -5.9143256E+003 -7.9659137E+003 -5.7275944E+003 -9.2672014E+003 -8.1394463E+003 -8.1609969E+003 -6.1064414E+003 -9.1231522E+003 -1.0562533E+004 -5.7387756E+003 -6.2953057E+003 -6.5123267E+003 -9.1811748E+003 -9.2201917E+003 -8.9764200E+003 -8.3875287E+003 -5.7345263E+003 -5.9958696E+003 -5.8409078E+003 -6.0190550E+003 -6.0858798E+003 -7.8765200E+003  5.7269271E+003 -8.7288952E+003 -6.3794252E+003 -8.2224558E+003 -6.0438119E+003 -8.0564845E+003 -5.9410059E+003 -6.5865208E+003  5.1634330E+004 -7.3280417E+003 0.0 0.0 0.0 0.0 0.0 0.0 0.0 0.0 0.0 0.0 0.0 0.0 0.0 0.0 0.0 0.0 0.0 0.0 0.0 0.0 0.0 0.0 0.0 0.0 0.0 0.0 0.0 0.0 0.0 0.0 0.0 0.0 0.0 0.0 0.0 0.0 0.0 0.0 0.0 0.0 0.0 0.0 0.0 0.0 0.0 0.0 0.0 0.0 0.0 0.0 0.0 0.0 0.0 0.0 0.0 0.0 0.0 0.0 0.0 0.0 0.0 0.0 0.0 0.0 0.0 0.0 0.0 0.0 0.0 0.0 0.0 0.0 0.0 0.0 0.0 0.0 0.0 0.0 0.0 0.0 0.0 0.0 0.0 0.0 0.0 0.0 0.0 0.0 0.0 0.0 0.0 0.0 0.0 0.0 0.0 0.0 0.0 0.0 0.0 0.0 0.0 0.0 0.0 0.0 0.0 0.0 0.0 0.0 0.0 0.0 0.0 0.0 0.0 0.0 0.0 0.0 0.0 0.0 0.0 0.0 0.0 0.0 0.0 0.0 0.0 0.0 0.0 0.0 0.0 0.0 0.0 0.0 0.0 0.0 0.0 0.0 0.0 0.0 0.0 0.0 0.0 0.0 0.0 0.0 0.0 0.0 0.0 0.0 0.0 0.0 0.0 0.0 0.0 0.0 0.0 0.0 0.0 0.0 0.0 0.0 0.0 0.0 0.0 0.0 0.0 0.0 0.0 0.0 0.0 0.0 0.0 0.0 0.0 0.0 0.0 0.0 0.0 0.0 0.0 0.0 0.0 0.0 0.0 0.0 0.0 0.0 0.0 0.0 0.0 0.0 0.0 0.0 0.0 0.0 0.0 0.0 0.0 0.0 0.0 0.0 0.0 0.0 0.0 0.0 0.0 0.0 0.0 0.0 0.0 0.0 0.0 0.0 0.0 0.0 0.0 0.0 0.0 0.0 0.0 0.0 0.0 0.0 0.0 0.0 0.0 0.0 0.0 0.0 0.0 0.0 0.0 0.0 0.0 0.0 0.0 0.0 0.0 0.0 0.0 0.0 0.0 0.0 0.0 0.0 0.0 0.0 0.0 0.0 0.0 0.0 0.0 0.0 0.0 0.0 0.0 0.0 0.0 0.0 0.0 0.0 0.0 0.0 0.0 0.0 0.0 0.0 0.0 0.0 0.0 0.0 0.0 0.0 0.0 0.0 0.0 0.0 0.0 0.0 0.0 0.0 0.0 0.0 0.0 0.0 0.0 0.0 0.0 0.0 0.0 0.0 0.0 0.0 0.0 0.0 0.0 0.0 0.0 0.0 0.0 0.0 0.0 0.0 0.0 0.0 0.0 0.0 0.0 0.0 0.0 0.0 0.0 0.0 0.0 0.0 0.0 0.0 0.0 0.0 0.0 0.0 0.0 0.0 0.0 0.0 0.0 0.0 0.0 0.0 0.0 0.0 0.0 0.0 0.0 0.0 0.0 0.0 0.0 0.0 0.0 0.0 0.0 0.0 0.0 0.0 0.0 0.0 0.0 0.0 0.0 0.0 0.0 0.0 0.0 0.0 0.0 0.0 0.0 0.0 0.0 0.0 0.0 0.0 0.0 0.0 0.0 0.0 0.0 0.0 0.0 0.0 0.0 0.0 0.0 0.0 0.0 0.0 0.0 0.0 0.0 0.0 0.0 0.0 0.0 0.0 0.0 0.0 0.0 0.0 0.0 0.0 0.0 0.0 0.0 0.0 0.0 0.0 0.0 0.0 0.0 0.0 0.0 0.0 0.0 0.0 0.0 0.0 0.0 0.0 0.0 0.0 0.0 0.0 0.0 0.0 0.0 0.0 0.0 0.0 0.0 0.0 0.0 0.0 0.0 0.0 0.0 0.0 0.0 0.0 0.0 0.0 0.0 0.0 0.0 0.0 0.0 0.0 0.0 0.0 0.0 0.0 0.0 0.0 0.0 0.0 0.0 0.0 0.0 0.0 0.0 0.0 0.0 0.0 0.0 0.0 0.0 0.0 0.0 0.0 0.0 0.0 0.0 0.0 0.0 0.0 0.0 0.0 0.0 0.0 0.0 0.0 0.0 0.0 0.0 0.0 0.0 0.0 0.0 0.0 0.0 0.0 0.0 0.0 0.0 0.0 0.0 0.0 0.0 0.0 0.0 0.0 0.0 0.0 0.0 0.0 0.0 0.0 0.0 0.0 0.0 0.0 0.0 0.0 0.0 0.0 0.0 0.0 0.0 0.0 0.0 0.0 0.0 0.0 0.0 0.0 0.0 0.0 0.0 0.0 0.0 0.0 0.0 0.0 0.0 0.0 0.0 0.0 0.0 0.0 0.0 0.0 0.0 0.0 0.0 0.0 0.0 0.0 0.0 0.0 0.0 0.0 0.0 0.0 0.0 0.0 0.0 0.0 0.0 0.0 0.0 0.0 0.0 0.0 0.0 0.0 0.0 0.0 0.0 0.0 0.0 0.0 0.0 0.0 0.0 0.0 0.0 0.0 0.0 0.0 0.0 0.0 0.0 0.0 0.0 0.0 0.0 0.0 0.0 0.0 0.0 0.0 0.0 0.0 0.0 0.0 0.0 0.0 0.0 0.0 0.0 0.0 0.0 0.0 0.0 0.0 0.0 0.0 0.0 0.0 0.0 0.0 0.0 0.0 0.0 0.0 0.0 0.0 0.0 0.0 0.0 0.0 0.0 0.0 0.0 0.0 0.0 0.0 0.0 0.0 0.0 0.0 0.0 0.0 0.0 0.0 0.0 0.0 0.0 0.0 0.0 0.0 0.0 0.0 0.0 0.0 0.0 0.0 0.0 0.0 0.0 0.0 0.0 0.0 0.0 0.0 0.0 0.0 0.0 0.0 0.0 0.0 0.0 0.0 0.0 0.0 0.0 0.0 0.0 0.0 0.0 0.0 0.0 0.0 0.0 0.0 0.0 0.0 0.0 0.0 0.0 0.0 0.0 0.0 0.0 0.0 0.0 0.0 0.0 0.0 0.0 0.0 0.0 0.0 0.0 0.0 0.0 0.0 0.0 0.0 0.0 0.0 0.0 0.0 0.0 0.0 0.0 0.0 0.0 0.0 0.0 0.0 0.0 0.0 0.0 0.0 0.0 0.0 0.0 0.0 0.0 0.0 0.0 0.0 0.0 0.0 0.0 0.0 0.0 0.0 0.0 0.0 0.0 0.0 0.0 0.0 0.0 0.0 0.0 0.0 0.0 0.0 0.0 0.0 0.0 0.0 0.0 0.0 0.0 0.0 0.0 0.0 0.0 0.0 0.0 0.0 0.0 0.0 0.0 0.0 0.0 0.0 0.0 0.0 0.0 0.0 0.0 0.0 0.0 0.0 0.0 0.0 0.0 0.0 0.0 0.0 0.0 0.0 0.0 0.0 0.0 0.0 0.0 0.0 0.0 0.0 0.0 0.0 0.0 0.0 0.0 0.0 0.0 0.0 0.0 0.0 0.0 0.0 0.0 0.0 0.0 0.0 0.0 0.0 0.0 0.0 0.0 0.0 0.0 0.0 0.0 0.0 0.0 0.0 0.0 0.0 0.0 0.0 0.0 0.0 0.0 0.0 0.0 0.0 0.0 0.0 0.0 0.0 0.0 0.0 0.0 0.0 0.0 0.0 0.0 0.0 0.0 0.0 0.0 0.0 0.0 0.0 0.0 0.0 0.0 0.0 0.0 0.0 0.0 0.0 0.0 0.0 0.0 0.0 0.0 0.0 0.0 0.0 0.0 0.0 0.0 0.0 0.0 0.0 0.0 0.0 0.0 0.0 0.0 0.0 0.0 0.0 0.0 0.0 0.0 0.0 0.0 0.0 0.0 0.0 0.0 0.0 0.0 0.0 0.0 0.0 0.0 0.0 0.0 0.0 0.0 0.0 0.0 0.0 0.0 0.0 0.0 0.0 0.0 0.0 0.0 0.0 0.0 0.0 0.0 0.0 0.0 0.0 0.0 0.0 0.0 0.0 0.0 0.0 0.0 0.0 0.0 0.0 0.0 0.0 0.0 0.0 0.0 0.0 0.0 0.0 0.0 0.0 0.0 0.0 0.0 0.0 0.0 0.0 0.0 0.0 0.0 0.0 0.0 0.0 0.0 0.0 0.0 0.0 0.0 0.0 0.0 0.0 0.0 0.0 0.0 0.0 0.0 0.0 0.0 0.0 0.0 0.0 0.0 0.0 0.0 0.0 0.0 0.0 0.0 0.0 0.0 0.0 0.0 0.0 0.0 0.0 0.0 0.0 0.0 0.0 0.0 0.0 0.0 0.0 0.0 0.0 0.0 0.0 0.0 0.0 0.0 0.0 0.0 0.0 0.0 0.0 0.0 0.0 0.0 0.0 0.0 0.0 0.0 0.0 0.0 0.0 0.0 0.0 0.0 0.0 0.0 0.0 0.0 0.0 0.0 0.0 0.0 0.0 0.0 0.0 0.0 0.0 0.0 0.0 0.0 0.0 0.0 0.0 0.0 0.0 0.0 0.0 0.0 0.0 0.0 0.0 0.0 0.0 0.0 0.0 0.0 0.0 0.0 0.0 0.0 0.0 0.0 0.0 0.0 0.0 0.0 0.0 0.0 0.0 0.0 0.0 0.0 0.0 0.0 0.0 0.0 0.0 0.0 0.0 0.0 0.0 0.0 0.0 0.0 0.0 0.0 0.0 0.0 0.0 0.0 0.0 0.0 0.0 0.0 0.0 0.0 0.0 0.0 0.0 0.0 0.0 0.0 0.0 0.0 0.0 0.0 0.0 0.0 0.0 0.0 0.0 0.0 0.0 0.0 0.0 0.0 0.0 0.0 0.0 0.0 0.0 0.0 0.0 0.0 0.0 0.0 0.0 0.0 0.0 0.0 0.0 0.0 0.0 0.0 0.0 0.0 0.0 0.0 0.0 0.0 0.0 0.0 0.0 0.0 0.0 0.0 0.0 0.0 0.0 0.0 0.0 0.0 0.0 0.0 0.0 0.0 0.0 0.0 0.0 0.0 0.0 0.0 0.0 0.0 0.0 0.0 0.0 0.0 0.0 0.0 0.0 0.0 0.0 0.0 0.0 0.0 0.0 0.0 0.0 0.0 0.0 0.0 0.0 0.0 0.0 0.0 0.0 0.0 0.0 0.0 0.0 0.0 0.0 0.0 0.0 0.0 0.0 0.0 0.0 0.0 0.0 0.0 0.0 0.0 0.0 0.0 0.0 0.0 0.0 0.0 0.0 0.0 0.0 0.0 0.0 0.0 0.0 0.0 0.0 0.0 0.0 0.0 0.0 0.0 0.0 0.0 0.0 0.0 0.0 0.0 0.0 0.0 0.0 0.0 0.0 0.0 0.0 0.0 0.0 0.0 0.0 0.0 0.0 0.0 0.0 0.0 0.0 0.0 0.0 0.0 0.0 0.0 0.0 0.0 0.0 0.0 0.0 0.0 0.0 0.0 0.0 0.0 0.0 0.0 0.0 0.0 0.0 0.0 0.0 0.0 0.0 0.0 0.0 0.0 0.0 0.0 0.0 0.0 0.0 0.0 0.0 0.0
        </DataArray>
        <DataArray type="Float64" Name="stress_yy" NumberOfComponents="1" format="ascii">
 0.0 0.0 0.0 0.0  1.7447170E+004 -6.0724457E+004  3.5151603E+004 0.0 0.0 0.0 0.0 0.0 0.0 0.0 0.0 0.0 0.0 0.0 0.0 0.0  9.2298632E+002 0.0 0.0 0.0 0.0 0.0 0.0 0.0 0.0 0.0 0.0 0.0 0.0 0.0 0.0 0.0 0.0 0.0 0.0 0.0 0.0 0.0 0.0 0.0 0.0 0.0 0.0 0.0 0.0 -3.7764717E+004 -1.4644664E+004 -1.2057067E+004 -1.4757935E+004 -1.7212649E+004 -1.9358901E+004 -2.1203621E+004 -2.2173214E+004 -2.3004907E+004 -2.2690528E+004 -2.2714956E+004 -2.3296890E+004 -2.2855568E+004 -2.2728107E+004 -2.2580040E+004 -2.2401082E+004 -2.2633582E+004 -2.3194106E+004 -2.2926240E+004 -2.2798509E+004 -2.2709720E+004 -2.2678972E+004 -2.2532182E+004 -2.1897068E+004 -2.1970842E+004 -2.1568565E+004 -2.1045957E+004 -2.1379130E+004 -2.1324562E+004 -2.0759981E+004 -2.0900803E+004 -2.0920559E+004 -2.0811265E+004 -2.0685207E+004 -2.0539187E+004 -2.0250634E+004 -1.9381382E+004 -1.8854520E+004 -1.8845365E+004 -1.9654576E+004 -2.0721016E+004 -2.0962760E+004 -2.1227606E+004 -2.1513096E+004 -2.1199891E+004 -2.1305249E+004 -2.1116588E+004 -2.1120946E+004 -2.1273447E+004 -2.1274508E+004 -2.1086960E+004 -2.1000435E+004 -2.1186695E+004 -2.0853720E+004 -2.0791014E+004 -2.0974731E+004 -2.0763645E+004 -2.0697785E+004 -2.0785995E+004 -2.0631293E+004 -2.0728696E+004 -2.0769268E+004 -2.0608011E+004 -2.0705156E+004 -2.0609556E+004 -2.0514219E+004 -2.0224060E+004 -2.0671299E+004 -2.0758560E+004 -2.0380088E+004 -2.0550911E+004 -2.0420172E+004 -2.0391117E+004 -2.0585947E+004 -2.0226266E+004 -2.0053113E+004 -2.0377298E+004 -2.0301494E+004 -2.0211208E+004 -1.9913478E+004 -1.9399737E+004 -1.8740526E+004 -1.8397661E+004 -1.7017104E+004 -1.6124762E+004 -1.6716777E+004 -1.7498816E+004 -1.8516853E+004 -1.9493436E+004 -2.0156258E+004 -2.0556824E+004 -2.0662231E+004 -2.0989718E+004 -2.0614082E+004 -2.1342007E+004 -2.2781485E+004 -2.6322115E+004 -3.2083602E+004 -4.1760232E+004 -4.3696575E+003  2.1695672E+004  3.3758892E+004 0.0 0.0 0.0 0.0 0.0 0.0 0.0 0.0 0.0 0.0 0.0 0.0 0.0 0.0 0.0 0.0 0.0 0.0 0.0 0.0 0.0 0.0 0.0 0.0 0.0 0.0 0.0 0.0 0.0 0.0 0.0 0.0 0.0 0.0 0.0 0.0 0.0 0.0 0.0 0.0 0.0 0.0 0.0 0.0 0.0 0.0 0.0 0.0 0.0 0.0 0.0 0.0 0.0 0.0 0.0 0.0 0.0 0.0 0.0 0.0 0.0 0.0 0.0 0.0 0.0 0.0 0.0 0.0 0.0 0.0 0.0 0.0 0.0 0.0 0.0 0.0 0.0 0.0 0.0 0.0 0.0 0.0 0.0 0.0 0.0 0.0 0.0 0.0 0.0 0.0 0.0 0.0 0.0 0.0 0.0 0.0 0.0 0.0 0.0 0.0 0.0 0.0 0.0 0.0 0.0 0.0 0.0 0.0 0.0 0.0 0.0 0.0 0.0 0.0 0.0 0.0 0.0 0.0 0.0 0.0 0.0 0.0 0.0 0.0 0.0 0.0 0.0 0.0 0.0 0.0 0.0 0.0 0.0 0.0 0.0 0.0 0.0 0.0 0.0 0.0 0.0 0.0 0.0 0.0 0.0 0.0 0.0 0.0 0.0 0.0 0.0 0.0 0.0 0.0 0.0 0.0 0.0 0.0 0.0 0.0 0.0 0.0 0.0 0.0 0.0 0.0 0.0 0.0 0.0 0.0 0.0 0.0 0.0 0.0 0.0 0.0 0.0 0.0 0.0 0.0 0.0 0.0 0.0 0.0 0.0 0.0 0.0 0.0 0.0 0.0 0.0 0.0 0.0 0.0 0.0 0.0 0.0 0.0 0.0 0.0 0.0 0.0 0.0 0.0 0.0 0.0 0.0 0.0 0.0 0.0 0.0 0.0 0.0 0.0 0.0 0.0 0.0 0.0 0.0 0.0 0.0 0.0 0.0 0.0 0.0 0.0 0.0 0.0 0.0 0.0 0.0 0.0 0.0 0.0 0.0 0.0 0.0 0.0 0.0 0.0 0.0 0.0 0.0 0.0 0.0 0.0 0.0 0.0 0.0 0.0 0.0 0.0 0.0 0.0 0.0 0.0 0.0 0.0 0.0 0.0 0.0 0.0 0.0 0.0 0.0 0.0 0.0 0.0 0.0 0.0 0.0 0.0 0.0 0.0 0.0 0.0 0.0 0.0 0.0 0.0 0.0 0.0 0.0 0.0 0.0 0.0 0.0 0.0 0.0 0.0 0.0 0.0 0.0 0.0 0.0 0.0 0.0  3.3161363E+003  4.9270720E+002  5.8054074E+002  5.1652804E+002  5.4952594E+002  3.8849673E+002  4.5725786E+002  3.9656938E+002  3.9132016E+002 0.0 0.0 0.0 0.0 0.0 0.0 0.0 0.0 0.0 0.0 0.0 0.0 0.0 0.0 0.0 0.0 0.0 0.0 0.0 0.0 0.0 0.0 0.0 0.0 0.0 0.0 0.0 0.0 0.0 0.0 0.0 0.0 0.0 0.0 0.0 0.0 0.0 0.0 0.0 0.0 0.0 0.0 0.0 0.0 0.0 0.0 0.0 0.0 0.0  3.3861311E+004  2.9049027E+004  2.4681454E+004  2.1126138E+004  1.8584428E+004  1.7236934E+004  1.6723364E+004  1.6345987E+004  1.6135372E+004  1.5524722E+004  1.4965665E+004  1.4546874E+004  1.4067647E+004  1.3660439E+004  1.3805288E+004  1.4000019E+004  1.4327383E+004  1.4917882E+004  1.5502684E+004  1.5961737E+004  1.6123078E+004  1.7030419E+004  1.6327316E+004  1.6595646E+004  1.6451941E+004  1.6446805E+004  1.6647013E+004  1.7064921E+004  1.6716695E+004  1.6672271E+004  1.6642959E+004  1.6475570E+004  1.6638482E+004  1.6630680E+004  1.6774407E+004  1.6514156E+004  1.7405693E+004  1.6685511E+004  1.6647285E+004  1.6725062E+004  1.6726005E+004  1.6615592E+004  1.6740674E+004  1.6897253E+004  1.6873921E+004  1.7406971E+004  1.7061225E+004  1.6980712E+004  1.7320040E+004  1.7137021E+004  1.7131574E+004  1.7168579E+004  1.7181119E+004  1.7267318E+004  1.7357557E+004  1.7081508E+004  1.7063874E+004  1.6474773E+004  1.6103709E+004  1.5830527E+004  1.5300052E+004  1.5340371E+004  1.5205500E+004  1.5477304E+004  1.5770606E+004  1.6498777E+004  1.6113538E+004  1.6391473E+004  1.6458705E+004  1.6544547E+004  1.6518625E+004  1.6230380E+004  1.6325870E+004  1.6455597E+004  1.7321963E+004  1.7540658E+004  1.7902606E+004  1.8103189E+004  1.8256411E+004  1.8596092E+004  1.8407749E+004  1.8547202E+004  1.8782842E+004  1.8126315E+004  1.8165601E+004  1.7864521E+004  1.7788109E+004  1.8173228E+004  1.8166472E+004  1.8294191E+004  1.8190489E+004  1.7787601E+004  1.6747692E+004  1.5526822E+004  1.3432628E+004  1.1423263E+004  8.9703986E+003  7.1066679E+003  3.9496011E+003 0.0 0.0 0.0 0.0 0.0 0.0 0.0 0.0 0.0 0.0 0.0 0.0 0.0 0.0 0.0 0.0 0.0 0.0 0.0 0.0 0.0 0.0 0.0 0.0 0.0 0.0 0.0 0.0 0.0 0.0 0.0 0.0 0.0 0.0 0.0 0.0 0.0 0.0 0.0 0.0 0.0 0.0 0.0 0.0 0.0 0.0 0.0 0.0 0.0 0.0 0.0 0.0 0.0 0.0 0.0 0.0 0.0 0.0 0.0 0.0 0.0 0.0 0.0 0.0 0.0 0.0 0.0 0.0 0.0 0.0 0.0 0.0 0.0 0.0 0.0 0.0 0.0 0.0 0.0 0.0 0.0 0.0 0.0 0.0 0.0 0.0 0.0 0.0 0.0 0.0 0.0 0.0 0.0 0.0 0.0 0.0 0.0 0.0 0.0 0.0 0.0 0.0 0.0 0.0 0.0 0.0 0.0 0.0 0.0 0.0 0.0 0.0 0.0 0.0 0.0 0.0 0.0 0.0 0.0 0.0 0.0 0.0 0.0 0.0 0.0 0.0 0.0 0.0 0.0 0.0 0.0 0.0 0.0 0.0 0.0 0.0 0.0 0.0 0.0 0.0 0.0 0.0 0.0 0.0 0.0 0.0 0.0 0.0 0.0 0.0 0.0 0.0 0.0 0.0 0.0 0.0 0.0 0.0 0.0 0.0 0.0 0.0 0.0 0.0 0.0 0.0 0.0 0.0 0.0 0.0 0.0 0.0 0.0 0.0 0.0 0.0 0.0 0.0 0.0 0.0 0.0 0.0 0.0 0.0 0.0 0.0 0.0 0.0 0.0 0.0 0.0 0.0 0.0 0.0 0.0 0.0 0.0 0.0 0.0 0.0 0.0 0.0 0.0 0.0 0.0 0.0 0.0 0.0 0.0 0.0 0.0 0.0 0.0 0.0 0.0 0.0 0.0 0.0 0.0 0.0 0.0 0.0 0.0 0.0 0.0 0.0 0.0 0.0 0.0 0.0 0.0 0.0 0.0 0.0 0.0 0.0 0.0 0.0 0.0 0.0 0.0 0.0 0.0 0.0 0.0 0.0 0.0 0.0 0.0 0.0 0.0 0.0 0.0 0.0 0.0 0.0 0.0 0.0 0.0 0.0 0.0 0.0 0.0 0.0 0.0 0.0 0.0 0.0 0.0 0.0 0.0 0.0 0.0 0.0 0.0 0.0 0.0 0.0 0.0 0.0 0.0 0.0 0.0 0.0 0.0 0.0 0.0 0.0 0.0 0.0 0.0 0.0 0.0 0.0 0.0 0.0 0.0 0.0 0.0 0.0 0.0 0.0 0.0 0.0 0.0 0.0 0.0 0.0 0.0 0.0 0.0 0.0 0.0 0.0 0.0 0.0 0.0 0.0 0.0 0.0 0.0 0.0 0.0 0.0 0.0 0.0 0.0 0.0 0.0 0.0 0.0 0.0 0.0 0.0 0.0 0.0 0.0 0.0 0.0 0.0 0.0 0.0 0.0 0.0 0.0 0.0 0.0 0.0 0.0 0.0 0.0 0.0 0.0 0.0 0.0 0.0 0.0 0.0 0.0 0.0 0.0 0.0 0.0 0.0 0.0 0.0 0.0 0.0 0.0 0.0 0.0 0.0 0.0 0.0 0.0 0.0 0.0 0.0 0.0 0.0 0.0 0.0 0.0 0.0 0.0 0.0 0.0 0.0 0.0 0.0 0.0 0.0 0.0 0.0 0.0 0.0 0.0 0.0 0.0 0.0 0.0 0.0 0.0 0.0 0.0 0.0 0.0 0.0 0.0 0.0 0.0 0.0 0.0 0.0 0.0 0.0 0.0 0.0 0.0 0.0 0.0 0.0 0.0 0.0 0.0 0.0 0.0 0.0 0.0 0.0 0.0 0.0 0.0 0.0 0.0 0.0 0.0 0.0 0.0 0.0 0.0 0.0 0.0 0.0 0.0 0.0 0.0 0.0 0.0 0.0 0.0 0.0 0.0 0.0 0.0 0.0 0.0 0.0 0.0 0.0 0.0 0.0 0.0 0.0 0.0 0.0 0.0 0.0 0.0 0.0 0.0 0.0 0.0 0.0 0.0 0.0 0.0 0.0 0.0 0.0 0.0 0.0 0.0 0.0 0.0 0.0 0.0 0.0 0.0 0.0 0.0 0.0 0.0 0.0 0.0 0.0 0.0 0.0 0.0 0.0 0.0 0.0 0.0 0.0 0.0 0.0 0.0 0.0 0.0 0.0 0.0 0.0 0.0 0.0 0.0 0.0 0.0 0.0 0.0 0.0 0.0 0.0 0.0 0.0 0.0 0.0 0.0 0.0 0.0 0.0 0.0 0.0 0.0 0.0 0.0 0.0 0.0 0.0 0.0 0.0 0.0 0.0 0.0 0.0 0.0 0.0 0.0 0.0 0.0 0.0 0.0 0.0 0.0 0.0 0.0 0.0 0.0 0.0 0.0 0.0 0.0 0.0 0.0 0.0 0.0 0.0 0.0 0.0 0.0 0.0 0.0 0.0 0.0 0.0 0.0 0.0 0.0 0.0 0.0 0.0 0.0 0.0 0.0 0.0 0.0 0.0 0.0 0.0 0.0 0.0 0.0 0.0 0.0 0.0 0.0 0.0 0.0 0.0 0.0 0.0 0.0 0.0 0.0 0.0 0.0 0.0 0.0 0.0 0.0 0.0 0.0 0.0 0.0 0.0 0.0 0.0 0.0 0.0 0.0 0.0 0.0 0.0 0.0 0.0 0.0 0.0 0.0 0.0 0.0 0.0 0.0 0.0 0.0 0.0 0.0 0.0 0.0 0.0 0.0 0.0 0.0 0.0 0.0 0.0 0.0 0.0 0.0 0.0 0.0 0.0 0.0 0.0 0.0 0.0 0.0 0.0 0.0 0.0 0.0 0.0 0.0 0.0 0.0 0.0 0.0 0.0 0.0 0.0 0.0 0.0 0.0 0.0 0.0 0.0 0.0 0.0 0.0 0.0 0.0 0.0 0.0 0.0 0.0 0.0 0.0 0.0 0.0 0.0 0.0 0.0 0.0 0.0 0.0 0.0 0.0 0.0 0.0 0.0 0.0 0.0 0.0 0.0 0.0 0.0 0.0 0.0 0.0 0.0 0.0 0.0 0.0 0.0 0.0 0.0 0.0 0.0 0.0 0.0 0.0 0.0 0.0 0.0 0.0 0.0 0.0 0.0 0.0 0.0 0.0 0.0 0.0 0.0 0.0 0.0 0.0 0.0 0.0 0.0 0.0 0.0 0.0 0.0 0.0 0.0 0.0 0.0 0.0 0.0 0.0 0.0 0.0 0.0 0.0 0.0 0.0 0.0 0.0 0.0 0.0 0.0 0.0 0.0 0.0 0.0 0.0 0.0 0.0 0.0 0.0 0.0 0.0 0.0 0.0 0.0 0.0 0.0 0.0 0.0 0.0 0.0 0.0 0.0 0.0 0.0 0.0 0.0 0.0 0.0 0.0 0.0 0.0 0.0 0.0 0.0 0.0 0.0 0.0 0.0 0.0 0.0 0.0 0.0 0.0 0.0 0.0 0.0 0.0 0.0 0.0 0.0 0.0 0.0 0.0 0.0 0.0 0.0 0.0 0.0 0.0 0.0 0.0 0.0 0.0 0.0 0.0 0.0 0.0 0.0 0.0 0.0 0.0 0.0 0.0 0.0 0.0 0.0 0.0 0.0 0.0 0.0 0.0 0.0 0.0 0.0 0.0 0.0 0.0 0.0 0.0 0.0 0.0 0.0 0.0 0.0 0.0 0.0 0.0 0.0 0.0 0.0 0.0 0.0 0.0 0.0 0.0 0.0 0.0 0.0 0.0 0.0 0.0 0.0 0.0 0.0 0.0 0.0 0.0 0.0 0.0 0.0 0.0 0.0 0.0 0.0 0.0 0.0 0.0 0.0 0.0 0.0 0.0 0.0 0.0 0.0 0.0 0.0 0.0 0.0 0.0 0.0 0.0 0.0 0.0 0.0 0.0 0.0 0.0 0.0 0.0 0.0 0.0 0.0 0.0 0.0 0.0 0.0 0.0 0.0 0.0 0.0 0.0 0.0 0.0 0.0 0.0 0.0 0.0 0.0 0.0 0.0 0.0 0.0 0.0 0.0 0.0 0.0 0.0 0.0 0.0 0.0 0.0 0.0 0.0 0.0 0.0 0.0 0.0 0.0 0.0 0.0 0.0 0.0 0.0 0.0 0.0 0.0 0.0 0.0 0.0 0.0 0.0 0.0 0.0 0.0 0.0 0.0 0.0 0.0 0.0 0.0 0.0 0.0 0.0 0.0 0.0 0.0 0.0 0.0 0.0 0.0 0.0 0.0 0.0 0.0 0.0 0.0 0.0 0.0 0.0 0.0 0.0 0.0 0.0 0.0 0.0 0.0 0.0 0.0 0.0 0.0 0.0 0.0 0.0 0.0 0.0 0.0 0.0 0.0 0.0 0.0 0.0 0.0 0.0 0.0 0.0 0.0 0.0 0.0 0.0 0.0 0.0 0.0 0.0 0.0 0.0 0.0 0.0 0.0 0.0 0.0 0.0 0.0 0.0 0.0 0.0 0.0 0.0 0.0 0.0 0.0 0.0 0.0 0.0 0.0 0.0 0.0 0.0 0.0 0.0 0.0 0.0 0.0 0.0 0.0 0.0 0.0 0.0 0.0 0.0 0.0 0.0 0.0 0.0 0.0 0.0 0.0 0.0 0.0 0.0 0.0 0.0 0.0 0.0 0.0 0.0 0.0 0.0 0.0 0.0 0.0 0.0 0.0 0.0 0.0 0.0 0.0 0.0 0.0 0.0 0.0 0.0 0.0 0.0 0.0 0.0 0.0 0.0 0.0 0.0 0.0 0.0 0.0 0.0 0.0 0.0 0.0 0.0 0.0 0.0 0.0 0.0 0.0 0.0 0.0 0.0 0.0 0.0 0.0 0.0 0.0 0.0 0.0 0.0 0.0 0.0 0.0 0.0 0.0 0.0 0.0 0.0 0.0 0.0 0.0 0.0 0.0 0.0 0.0 0.0 0.0 0.0 0.0 0.0 0.0 0.0 0.0 0.0 0.0 0.0 0.0 0.0 0.0 0.0 0.0 0.0 0.0 0.0 0.0 0.0 0.0 0.0 0.0 0.0 0.0 0.0 0.0 0.0 0.0 0.0 0.0 0.0 0.0 0.0 0.0 0.0 0.0 0.0 0.0 0.0 0.0 0.0 0.0 0.0 0.0 0.0 0.0 0.0 0.0 0.0 0.0 0.0 0.0 0.0 0.0 0.0 0.0 0.0 0.0 0.0 0.0 0.0 0.0 0.0 0.0 0.0 0.0 0.0 0.0 0.0 0.0 0.0 0.0 0.0 0.0 0.0 0.0 0.0 0.0 0.0 0.0 0.0 0.0 0.0 0.0 0.0 0.0 0.0 0.0 0.0 0.0 0.0 0.0 0.0 0.0 0.0 0.0 0.0 0.0 0.0 0.0 0.0 0.0 0.0 0.0 0.0 0.0 0.0 0.0 0.0 0.0 0.0 0.0 0.0 0.0 0.0 0.0 0.0 0.0 0.0 0.0 0.0 0.0 0.0 0.0 0.0 0.0 0.0 0.0 0.0 0.0 0.0 0.0 0.0 0.0 0.0 0.0 0.0 0.0 0.0 0.0 0.0 0.0 0.0 0.0 0.0 0.0 0.0 0.0 0.0 0.0 0.0 0.0 0.0 0.0 0.0 0.0 0.0 0.0 0.0 0.0 0.0 0.0 0.0 0.0 0.0 0.0 0.0 0.0 0.0 0.0 0.0 0.0 0.0 0.0 0.0 0.0 0.0 0.0 0.0 0.0 0.0 0.0 0.0 0.0 0.0 0.0 0.0 0.0 0.0 0.0 0.0 0.0 0.0 0.0 0.0 0.0 0.0 0.0 0.0 0.0 0.0 0.0 0.0 0.0 0.0 0.0 0.0 0.0 0.0 0.0 0.0 0.0 0.0 0.0 0.0 0.0 0.0 0.0 0.0 0.0 0.0 0.0 0.0 0.0 0.0 0.0 0.0 0.0 0.0 0.0 0.0 0.0 0.0 0.0 0.0 0.0 0.0 0.0 0.0 0.0 0.0 0.0 0.0 0.0 0.0 0.0 0.0 0.0 0.0 0.0 0.0 0.0 0.0 0.0 0.0 0.0 0.0 0.0 0.0 0.0 0.0 0.0 0.0 0.0 0.0 0.0 0.0 0.0 0.0 0.0 0.0 0.0 0.0 0.0 0.0 0.0 0.0 0.0 0.0 0.0 0.0 0.0 0.0 0.0 0.0 0.0 0.0 0.0 0.0 0.0 0.0 0.0 0.0 0.0  2.2777393E+003  1.0550738E+004 -7.8516247E+003  1.5498279E+004  1.3431864E+003  6.8467500E+002 -7.9807048E+003 -5.7441127E+003 -8.8912507E+003 -4.1199702E+003 -4.9765610E+003  1.6811014E+004 -4.9333386E+003  1.7677377E+004  1.6633342E+004 -4.2897017E+003  1.3631442E+004 -4.1156631E+003  1.6098329E+004 -4.9985116E+003 -4.9337727E+003  1.7001123E+004 -4.5626912E+003  1.7113895E+004 -4.1583409E+003  1.6584403E+004  1.5732416E+004  1.8615197E+004  1.6415296E+004  1.6640566E+004  1.6891203E+004  1.6899187E+004  1.8320702E+004  1.8190991E+004  1.6028284E+004  1.7331784E+004  1.4856586E+004  1.7079974E+004  1.6708348E+004  1.6330196E+004 -5.0898048E+003  1.6589259E+004  1.7506890E+004  1.8125330E+004  1.6575385E+004  1.8400781E+004  1.8284086E+004  5.7599002E+003 -5.2940614E+003 -4.4736260E+003 -4.0883549E+003 -5.5012319E+003 -4.1460282E+003  1.4073517E+004  2.1662851E+004  1.5724207E+004 -5.6940520E+003  1.5557985E+004  1.3840784E+004  1.6753446E+004 -5.3181929E+003 -4.8017441E+003  1.6426658E+004 -3.9286499E+003 -5.2302168E+003 -4.3324117E+003 -5.5436530E+003  1.6682683E+004 -5.0256950E+003  1.7142362E+004 -5.1007057E+003 -4.6974149E+003 -5.1514202E+003 -4.4226028E+003 -4.8207405E+003 -4.8479887E+003 -5.2275607E+003 -4.6322726E+003 -5.0724640E+003 -5.1579807E+003 -5.4015085E+003 -5.0839612E+003 -5.5922936E+003 -5.8215398E+003  1.7699982E+004 -5.8873550E+003  1.5716443E+004  1.6772274E+004 -4.9608522E+003  2.7512427E+004  1.5794060E+003 -7.0327205E+003  2.4923802E+003  2.5987185E+002  8.2001201E+003  5.7624514E+003  1.0594990E+004  1.0325651E+004  7.7213322E+003  4.7328223E+003  5.3235872E+003  3.7179190E+003  1.7883848E+003  1.5317326E+003  3.6107533E+003  4.5184494E+003 -1.7965835E+003  4.7612001E+002  2.0398442E+003  1.3541562E+003  2.0920913E+003  2.4212709E+003  7.0084689E+003  5.9618696E+003  3.9029264E+003  1.0622322E+004  1.6241590E+004  1.3399607E+004 -3.3710079E+003 -8.3791462E+003 -6.4014279E+003  1.0183610E+004  1.6530096E+004  2.9475881E+004  1.9695617E+004  1.8150426E+004  1.2991637E+004  1.3433749E+004  1.3497363E+004  3.3159643E+003  1.8333686E+004  1.2935309E+004  2.8874797E+003  1.6462886E+004  1.1858088E+004  1.1636630E+004  1.1497607E+004  2.6958710E+003  3.6655982E+003 -5.5322957E+003  6.6318906E+003  6.2112044E+003  7.1247453E+003  1.5253229E+004  1.4808115E+004  1.0587508E+004  1.6550021E+004  1.2122024E+004  1.1732426E+004  2.8135922E+003  1.8321358E+004  1.2790267E+004  1.2505251E+004  3.0037060E+003  1.6627992E+004  1.2006660E+004  1.1609863E+004  2.8165947E+003 -4.7387163E+003  6.0948523E+003  6.0834934E+003  6.5559287E+003  1.3324748E+004 -4.5608853E+003  5.3519928E+003  4.9437946E+003  1.0925012E+004  1.3770918E+004  9.6103055E+003  9.9115865E+003  2.2319963E+003 -4.6730068E+003  5.6808057E+003  5.5208848E+003  5.7679899E+003  1.2240149E+004 -5.6993535E+003  6.5099429E+003  6.4796012E+003  1.3773120E+004  1.3673733E+004  6.5501492E+003 -5.6341433E+003  6.1465199E+003 -4.8586351E+003  6.2442397E+003  6.0465409E+003  6.3847186E+003  1.3263560E+004  1.3573757E+004  1.6875379E+004  1.1732393E+004 -5.3686104E+003  6.3912053E+003  6.2152634E+003  1.4254632E+004 -4.9295898E+003  5.9895294E+003  6.2811837E+003  1.3741515E+004  1.3184852E+004 -6.9094291E+003  6.5094354E+003  6.1246634E+003  1.5114701E+004  1.6578456E+004  1.2338194E+004  1.2403268E+004  1.7229433E+004  1.2851852E+004  1.2182941E+004  1.7143059E+004  1.2789137E+004  1.2805986E+004 -5.6679669E+003  6.8670896E+003  6.4910289E+003  1.4073380E+004 -5.0474664E+003  6.0601757E+003  6.5562175E+003  1.4012694E+004  5.6886231E+003 -5.6403412E+003  6.2019942E+003  6.2201478E+003 -5.6464792E+003  6.2352006E+003 -4.9346420E+003 -5.4826994E+003 -4.5750212E+003  1.6895007E+004  1.1710222E+004 -4.6549864E+003  5.8240132E+003 -4.9798171E+003  5.6918119E+003 -5.3218328E+003 -5.1509942E+003  6.2179470E+003  6.3143764E+003  1.4152780E+004 -5.4608879E+003 -5.2606981E+003  1.6922520E+004  1.2748518E+004  1.2601202E+004  1.5256763E+004  1.0064152E+004  1.6635820E+004  1.8164860E+004  1.2722672E+004  1.6968707E+004  1.1686982E+004  1.6963768E+004  1.1832652E+004  1.7303783E+004 -5.3851831E+003 -5.2557884E+003  1.6574620E+004 -5.2922076E+003  1.6686529E+004  1.6656129E+004  1.8637065E+004  1.3172274E+004  1.3693406E+004 -4.9513534E+003  1.4740948E+004 -5.0569451E+003  6.1486303E+003 -5.4263179E+003 -5.4717247E+003 -5.7319796E+003 -5.7915610E+003 -5.1542034E+003  5.5439583E+003  1.5953524E+004  1.1097216E+004  1.6547444E+004  1.1473097E+004 -5.2710237E+003 -5.3747947E+003  6.3789056E+003 -4.9019135E+003  1.7161899E+004 -4.9430594E+003  1.8551997E+004 -5.6087606E+003  6.7262713E+003  1.7773922E+004  1.6036136E+004  1.1186671E+004 -5.9580484E+003 -5.9623948E+003  6.9411298E+003 -5.6026163E+003  1.6908298E+004  1.6118996E+004 -5.1115388E+003  1.0283458E+004  1.1685783E+004  6.2904986E+003  6.3851132E+003  1.2028915E+004  9.1394880E+003  1.3561215E+004  5.2453419E+003  1.2258704E+004  2.1625808E+003  1.8169559E+004  2.3390577E+003  5.5698909E+003  6.4194493E+003  6.8805594E+003  4.4546107E+003 -6.9224387E+003  1.3320659E+004  3.0033417E+003  6.6359560E+003  8.2740494E+003 -6.1597738E+002 -1.8675191E+003  1.2784896E+004  2.3815629E+003  2.6302168E+004 -2.0999495E+003  1.5265365E+004  1.4875258E+004  1.4052537E+004  1.1107990E+003  1.7212610E+004  1.6990592E+004  1.1798746E+004  5.6067714E+003  5.1764806E+003  3.9735605E+003  2.6506746E+003  1.4116756E+004  3.5402881E+003  1.3737208E+004  4.6043606E+003 -9.4826039E+003  6.7172939E+003  1.1404362E+004  6.1156117E+003  1.2666924E+004  6.3603703E+003  6.3459890E+003  1.2246070E+004  6.1310210E+003  1.1911872E+004  1.3370612E+004  1.8058895E+004  1.7388907E+004  1.7268739E+004 -8.5424411E+003  1.7022739E+004 -9.2442886E+003  1.8021820E+004  1.4621108E+004  1.9827261E+004  1.7745358E+004  1.6117781E+004 -7.1503165E+003  1.6891395E+004 -8.6478095E+003  1.9287591E+004 -6.8023157E+003  1.7729392E+004 -8.8635109E+003  1.1702435E+004  3.9283442E+003  1.7083567E+004  1.3332425E+004  3.3174413E+003  3.5560952E+003  1.5385554E+004  1.3716559E+004  3.7400057E+003  3.8340373E+003  3.5123109E+003  3.6613579E+003  3.9319421E+003  1.3780915E+004  1.2969264E+004  3.7356379E+003  1.2482207E+004  1.3761555E+004  3.8355287E+003  1.5204637E+004  6.5779983E+003 -9.6959068E+003 -1.3608152E+004  3.4692818E+004 -2.0230989E+003  1.1431728E+003  2.0398053E+003  6.0217441E+003  6.3255448E+003  8.2578433E+003 -6.4387648E+002  5.0750084E+003  5.7752858E+003  1.3249617E+004  1.2961351E+004  1.2928394E+004  5.8494077E+003  1.2986877E+004  1.0184839E+004  1.2629487E+004  4.3339590E+003  1.2342498E+004  1.2949527E+004  5.2933743E+003  4.3091430E+003  1.3556477E+004  1.3100009E+004  1.3071277E+004  4.0529258E+003  1.2529663E+004  4.7621391E+003  1.0192051E+004  1.2897583E+004  1.2836586E+004  4.7875373E+003  1.2766768E+004  1.1160597E+004  4.8341447E+003  5.1021045E+003  4.8893777E+003  1.3071444E+004  1.4305888E+004  1.3199506E+004  1.3410959E+004  4.9972139E+003  4.3193685E+003  5.0121587E+003  5.2806249E+003  5.2698248E+003  1.2664214E+004  1.3388640E+004  1.4162933E+004  5.6705114E+003  1.2457013E+004  5.1269108E+003  1.2942280E+004  5.1493171E+003  5.3103572E+003  4.1797508E+002  7.1095347E+003 0.0 0.0 0.0 0.0 0.0 0.0 0.0 0.0 0.0 0.0 0.0 0.0 0.0 0.0 0.0 0.0 0.0 0.0 0.0 0.0 0.0 0.0 0.0 0.0 0.0 0.0 0.0 0.0 0.0 0.0 0.0 0.0 0.0 0.0 0.0 0.0 0.0 0.0 0.0 0.0 0.0 0.0 0.0 0.0 0.0 0.0 0.0 0.0 0.0 0.0 0.0 0.0 0.0 0.0 0.0 0.0 0.0 0.0 0.0 0.0 0.0 0.0 0.0 0.0 0.0 0.0 0.0 0.0 0.0 0.0 0.0 0.0 0.0 0.0 0.0 0.0 0.0 0.0 0.0 0.0 0.0 0.0 0.0 0.0 0.0 0.0 0.0 0.0 0.0 0.0 0.0 0.0 0.0 0.0 0.0 0.0 0.0 0.0 0.0 0.0 0.0 0.0 0.0 0.0 0.0 0.0 0.0 0.0 0.0 0.0 0.0 0.0 0.0 0.0 0.0 0.0 0.0 0.0 0.0 0.0 0.0 0.0 0.0 0.0 0.0 0.0 0.0 0.0 0.0 0.0 0.0 0.0 0.0 0.0 0.0 0.0 0.0 0.0 0.0 0.0 0.0 0.0 0.0 0.0 0.0 0.0 0.0 0.0 0.0 0.0 0.0 0.0 0.0 0.0 0.0 0.0 0.0 0.0 0.0 0.0 0.0 0.0 0.0 0.0 0.0 0.0 0.0 0.0 0.0 0.0 0.0 0.0 0.0 0.0 0.0 0.0 0.0 0.0 0.0 0.0 0.0 0.0 0.0 0.0 0.0 0.0 0.0 0.0 0.0 0.0 0.0 0.0 0.0 0.0 0.0 0.0 0.0 0.0 0.0 0.0 0.0 0.0 0.0 0.0 0.0 0.0 0.0 0.0 0.0 0.0 0.0 0.0 0.0 0.0 0.0 0.0 0.0 0.0 0.0 0.0 0.0 0.0 0.0 0.0 0.0 0.0 0.0 0.0 0.0 0.0 0.0 0.0 0.0 0.0 0.0 0.0 0.0 0.0 0.0 0.0 0.0 0.0 0.0 0.0 0.0 0.0 0.0 0.0 0.0 0.0 0.0 0.0 0.0 0.0 0.0 0.0 0.0 0.0 0.0 0.0 0.0 0.0 0.0 0.0 0.0 0.0 0.0 0.0 0.0 0.0 0.0 0.0 0.0 0.0 0.0 0.0 0.0 0.0 0.0 0.0 0.0 0.0 0.0 0.0 0.0 0.0 0.0 0.0 0.0 0.0 0.0 0.0 0.0 0.0 0.0 0.0 0.0 0.0 0.0 0.0 0.0 0.0 0.0 0.0 0.0 0.0 0.0 0.0 0.0 0.0 0.0 0.0 0.0 0.0 0.0 0.0 0.0 0.0 0.0 0.0 0.0 0.0 0.0 0.0 0.0 0.0 0.0 0.0 0.0 0.0 0.0 0.0 0.0 0.0 0.0 0.0 0.0 0.0 0.0 0.0 0.0 0.0 0.0 0.0 0.0 0.0 0.0 0.0 0.0 0.0 0.0 0.0 0.0 0.0 0.0 0.0 0.0 0.0 0.0 0.0 0.0 0.0 0.0 0.0 0.0 0.0 0.0 0.0 0.0 0.0 0.0 0.0 0.0 0.0 0.0 0.0 0.0 0.0 0.0 0.0 0.0 0.0 0.0 0.0 0.0 0.0 0.0 0.0 0.0 0.0 0.0 0.0 0.0 0.0 0.0 0.0 0.0 0.0 0.0 0.0 0.0 0.0 0.0 0.0 0.0 0.0 0.0 0.0 0.0 0.0 0.0 0.0 0.0 0.0 0.0 0.0 0.0 0.0 0.0 0.0 0.0 0.0 0.0 0.0 0.0 0.0 0.0 0.0 0.0 0.0 0.0 0.0 0.0 0.0 0.0 0.0 0.0 0.0 0.0 0.0 0.0 0.0 0.0 0.0 0.0 0.0 0.0 0.0 0.0 0.0 0.0 0.0 0.0 0.0 0.0 0.0 0.0 0.0 0.0 0.0 0.0 0.0 0.0 0.0 0.0 0.0 0.0 0.0 0.0 0.0 0.0 0.0 0.0 0.0 0.0 0.0 0.0 0.0 0.0 0.0 0.0 0.0 0.0 0.0 0.0 0.0 0.0 0.0 0.0 0.0 0.0 0.0 0.0 0.0 0.0 0.0 0.0 0.0 0.0 0.0 0.0 0.0 0.0 0.0 0.0 0.0 0.0 0.0 0.0 0.0 0.0 0.0 0.0 0.0 0.0 0.0 0.0 0.0 0.0 0.0 0.0 0.0 0.0 0.0 0.0 0.0 0.0 0.0 0.0 0.0 0.0 0.0 0.0 0.0 0.0 0.0 0.0 0.0 0.0 0.0 0.0 0.0 0.0 0.0 0.0 0.0 0.0 0.0 0.0 0.0 0.0 0.0 0.0 0.0 0.0 0.0 0.0 0.0 0.0 0.0 0.0 0.0 0.0 0.0 0.0 0.0 0.0 0.0 0.0 0.0 0.0 0.0 0.0 0.0 0.0 0.0 0.0 0.0 0.0 0.0 0.0 0.0 0.0 0.0 0.0 0.0 0.0 0.0 0.0 0.0 0.0 0.0 0.0 0.0 0.0 0.0 0.0 0.0 0.0 0.0 0.0 0.0 0.0 0.0 0.0 0.0 0.0 0.0 0.0 0.0 0.0 0.0 0.0 0.0 0.0 0.0 0.0 0.0 0.0 0.0 0.0 0.0 0.0 0.0 0.0 0.0 0.0 0.0 0.0 0.0 0.0 0.0 0.0 0.0 0.0 0.0 0.0 0.0 0.0 0.0 0.0 0.0 0.0 0.0 0.0 0.0 0.0 0.0 0.0 0.0 0.0 0.0 0.0 0.0 0.0 0.0 0.0 0.0 0.0 0.0 0.0 0.0 0.0 0.0 0.0 0.0 0.0 0.0 0.0 0.0 0.0 0.0 0.0 0.0 0.0 0.0 0.0 0.0 0.0 0.0 0.0 0.0 0.0 0.0 0.0 0.0 0.0 0.0 0.0 0.0 0.0 0.0 0.0 0.0 0.0 0.0 0.0 0.0 0.0 0.0 0.0 0.0 0.0 0.0 0.0 0.0 0.0 0.0 0.0 0.0 0.0 0.0 0.0 0.0 0.0 0.0 0.0 0.0 0.0 0.0 0.0 0.0 0.0 0.0 0.0 0.0 0.0 0.0 0.0 0.0 0.0 0.0 0.0 0.0 0.0 0.0 0.0 0.0 0.0 0.0 0.0 0.0 0.0 0.0 0.0 0.0 0.0 0.0 0.0 0.0 0.0 0.0 0.0 0.0 0.0 0.0 0.0 0.0 0.0 0.0 0.0 0.0 0.0 0.0 0.0 0.0 0.0 0.0 0.0 0.0 0.0 0.0 0.0 0.0 0.0 0.0 0.0 0.0 0.0 0.0 0.0 0.0 0.0 0.0 0.0 0.0 0.0 0.0 0.0 0.0 0.0 0.0 0.0 0.0 0.0 0.0 0.0 0.0 0.0 0.0 0.0 0.0 0.0 0.0 0.0 0.0 0.0 0.0 0.0 0.0 0.0 0.0 0.0 0.0 0.0 0.0 0.0 0.0 0.0 0.0 0.0 0.0 0.0 0.0 0.0 0.0 0.0 0.0 0.0 0.0 0.0 0.0 0.0 0.0 0.0 0.0 0.0 0.0 0.0 0.0 0.0 0.0 0.0 0.0 0.0 0.0 0.0 0.0 0.0 0.0 0.0 0.0 0.0 0.0 0.0 0.0 0.0 0.0 0.0 0.0 0.0 0.0 0.0 0.0 0.0 0.0 0.0 0.0 0.0 0.0 0.0 0.0 0.0 0.0 0.0 0.0 0.0 0.0 0.0 0.0 0.0 0.0 0.0 0.0 0.0 0.0 0.0 0.0 0.0 0.0 0.0 0.0 0.0 0.0 0.0 0.0 0.0 0.0 0.0 0.0 0.0 0.0 0.0 0.0 0.0 0.0 0.0 0.0 0.0 0.0 0.0 0.0 0.0 0.0 0.0 0.0 0.0 0.0 0.0 0.0 0.0 0.0 0.0 0.0 0.0 0.0 0.0 0.0 0.0 0.0 0.0 0.0 0.0 0.0 0.0 0.0 0.0 0.0 0.0 0.0 0.0 0.0 0.0 0.0 0.0 0.0 0.0 0.0 0.0 0.0 0.0 0.0 0.0 0.0 0.0 0.0 0.0 0.0 0.0 0.0 0.0 0.0 0.0 0.0 0.0 0.0 0.0 0.0 0.0 0.0 0.0 0.0 0.0 0.0 0.0 0.0 0.0 0.0 0.0 0.0 0.0 0.0 0.0 0.0 0.0 0.0 0.0 0.0 0.0 0.0 0.0 0.0 0.0 0.0 0.0 0.0 0.0 0.0 0.0 0.0 0.0 0.0 0.0 0.0 0.0 0.0 0.0 0.0 0.0 0.0 0.0 0.0 0.0 0.0 0.0 0.0 0.0 0.0 0.0 0.0 0.0 0.0 0.0 0.0 0.0 0.0 0.0 0.0 0.0 0.0 0.0 0.0 0.0 0.0 0.0 0.0 0.0 0.0 0.0 0.0 0.0 0.0 0.0 0.0 0.0 0.0 0.0 0.0 0.0 0.0 0.0 0.0 0.0 0.0 0.0 0.0 0.0 0.0 0.0 0.0 0.0 0.0 0.0 0.0 0.0 0.0 0.0 0.0 0.0 0.0 0.0 0.0 0.0 0.0 0.0 0.0 0.0 0.0 0.0 0.0 0.0 0.0 0.0 0.0 0.0 0.0 0.0 0.0 0.0 0.0 0.0 0.0 0.0 0.0 0.0 0.0 0.0 0.0 0.0 0.0 0.0 0.0 0.0 0.0 0.0 0.0 0.0 0.0 0.0 0.0 0.0 0.0 0.0 0.0 0.0 0.0 0.0 0.0 0.0 0.0 0.0 0.0 0.0 0.0 0.0 0.0 0.0 0.0 0.0 0.0 0.0 0.0 0.0 0.0 0.0 0.0 0.0 0.0 0.0 0.0 0.0 0.0 0.0 0.0 0.0 0.0 0.0 0.0 0.0 0.0 0.0 0.0 0.0 0.0 0.0 0.0 0.0 0.0 0.0 0.0 0.0 0.0 0.0 0.0 0.0 0.0 0.0 0.0 0.0 0.0 0.0 0.0 0.0 0.0 0.0 0.0 0.0 0.0 0.0 0.0 0.0 0.0 0.0 0.0 0.0 0.0 0.0 0.0 0.0 0.0 0.0 0.0 0.0 0.0 0.0 0.0 0.0 0.0 0.0 0.0 0.0 0.0 0.0 0.0 0.0 0.0 0.0 0.0 0.0 0.0 0.0 0.0 0.0 0.0 0.0 0.0 0.0 0.0 0.0 0.0 0.0 0.0 0.0 0.0 0.0 0.0 0.0 0.0 0.0 0.0 0.0 0.0 0.0 0.0 0.0 0.0 0.0 0.0 0.0 0.0 0.0 0.0 0.0 0.0 0.0 0.0 0.0 0.0 0.0 0.0 0.0
        </DataArray>
        <DataArray type="Float64" Name="stress_zz" NumberOfComponents="1" format="ascii">
 0.0 0.0 0.0 0.0 -6.0187052E+005  3.3450020E+004  3.2213298E+003 0.0 0.0 0.0 0.0 0.0 0.0 0.0 0.0 0.0 0.0 0.0 0.0 0.0  1.6924455E+005 0.0 0.0 0.0 0.0 0.0 0.0 0.0 0.0 0.0 0.0 0.0 0.0 0.0 0.0 0.0 0.0 0.0 0.0 0.0 0.0 0.0 0.0 0.0 0.0 0.0 0.0 0.0 0.0 -2.6061898E+005 -1.2732611E+005 -6.0923433E+004 -2.3257274E+004 -5.4497008E+002  1.2393678E+004  1.9392353E+004  2.2836191E+004  2.4104436E+004  2.4547762E+004  2.4587440E+004  2.4370138E+004  2.4317619E+004  2.4202765E+004  2.3940158E+004  2.3636651E+004  2.3583254E+004  2.3460794E+004  2.3403095E+004  2.3346510E+004  2.3309217E+004  2.3298713E+004  2.3249113E+004  2.3294827E+004  2.3301520E+004  2.3372254E+004  2.3458065E+004  2.3389504E+004  2.3274277E+004  2.3305411E+004  2.3243416E+004  2.3129324E+004  2.3073876E+004  2.3038932E+004  2.3040555E+004  2.3143546E+004  2.3397546E+004  2.3574566E+004  2.3440189E+004  2.3028320E+004  2.2514161E+004  2.2220909E+004  2.1994448E+004  2.1843347E+004  2.1797256E+004  2.1749191E+004  2.1701548E+004  2.1645032E+004  2.1540593E+004  2.1522712E+004  2.1487147E+004  2.1470914E+004  2.1363892E+004  2.1406814E+004  2.1357184E+004  2.1287298E+004  2.1228664E+004  2.1240515E+004  2.1200105E+004  2.1169593E+004  2.1174830E+004  2.1023941E+004  2.1056437E+004  2.1022500E+004  2.1051674E+004  2.1061161E+004  2.1051774E+004  2.1040441E+004  2.0942858E+004  2.0926033E+004  2.0966531E+004  2.0909199E+004  2.0950839E+004  2.0878584E+004  2.0824386E+004  2.0746950E+004  2.0801002E+004  2.1024656E+004  2.1107870E+004  2.1085962E+004  2.1271852E+004  2.1723091E+004  2.2119551E+004  2.2813825E+004  2.3122736E+004  2.3038419E+004  2.2800318E+004  2.2562206E+004  2.2174338E+004  2.1811822E+004  2.1838574E+004  2.1995451E+004  2.1913645E+004  2.2177187E+004  2.2215333E+004  2.1869806E+004  2.1075320E+004  2.0225862E+004  2.1204344E+004  2.1365684E+004  1.2117773E+004  5.5770831E+003 0.0 0.0 0.0 0.0 0.0 0.0 0.0 0.0 0.0 0.0 0.0 0.0 0.0 0.0 0.0 0.0 0.0 0.0 0.0 0.0 0.0 0.0 0.0 0.0 0.0 0.0 0.0 0.0 0.0 0.0 0.0 0.0 0.0 0.0 0.0 0.0 0.0 0.0 0.0 0.0 0.0 0.0 0.0 0.0 0.0 0.0 0.0 0.0 0.0 0.0 0.0 0.0 0.0 0.0 0.0 0.0 0.0 0.0 0.0 0.0 0.0 0.0 0.0 0.0 0.0 0.0 0.0 0.0 0.0 0.0 0.0 0.0 0.0 0.0 0.0 0.0 0.0 0.0 0.0 0.0 0.0 0.0 0.0 0.0 0.0 0.0 0.0 0.0 0.0 0.0 0.0 0.0 0.0 0.0 0.0 0.0 0.0 0.0 0.0 0.0 0.0 0.0 0.0 0.0 0.0 0.0 0.0 0.0 0.0 0.0 0.0 0.0 0.0 0.0 0.0 0.0 0.0 0.0 0.0 0.0 0.0 0.0 0.0 0.0 0.0 0.0 0.0 0.0 0.0 0.0 0.0 0.0 0.0 0.0 0.0 0.0 0.0 0.0 0.0 0.0 0.0 0.0 0.0 0.0 0.0 0.0 0.0 0.0 0.0 0.0 0.0 0.0 0.0 0.0 0.0 0.0 0.0 0.0 0.0 0.0 0.0 0.0 0.0 0.0 0.0 0.0 0.0 0.0 0.0 0.0 0.0 0.0 0.0 0.0 0.0 0.0 0.0 0.0 0.0 0.0 0.0 0.0 0.0 0.0 0.0 0.0 0.0 0.0 0.0 0.0 0.0 0.0 0.0 0.0 0.0 0.0 0.0 0.0 0.0 0.0 0.0 0.0 0.0 0.0 0.0 0.0 0.0 0.0 0.0 0.0 0.0 0.0 0.0 0.0 0.0 0.0 0.0 0.0 0.0 0.0 0.0 0.0 0.0 0.0 0.0 0.0 0.0 0.0 0.0 0.0 0.0 0.0 0.0 0.0 0.0 0.0 0.0 0.0 0.0 0.0 0.0 0.0 0.0 0.0 0.0 0.0 0.0 0.0 0.0 0.0 0.0 0.0 0.0 0.0 0.0 0.0 0.0 0.0 0.0 0.0 0.0 0.0 0.0 0.0 0.0 0.0 0.0 0.0 0.0 0.0 0.0 0.0 0.0 0.0 0.0 0.0 0.0 0.0 0.0 0.0 0.0 0.0 0.0 0.0 0.0 0.0 0.0 0.0 0.0 0.0 0.0 0.0 0.0 0.0 0.0 0.0 0.0 -3.2256577E+005 -1.6883593E+005 -6.7355942E+004  5.6101667E+003  6.0096491E+004  1.0306609E+005  1.3268950E+005  1.5313932E+005  1.6617891E+005 0.0 0.0 0.0 0.0 0.0 0.0 0.0 0.0 0.0 0.0 0.0 0.0 0.0 0.0 0.0 0.0 0.0 0.0 0.0 0.0 0.0 0.0 0.0 0.0 0.0 0.0 0.0 0.0 0.0 0.0 0.0 0.0 0.0 0.0 0.0 0.0 0.0 0.0 0.0 0.0 0.0 0.0 0.0 0.0 0.0 0.0 0.0 0.0 0.0 -7.8414224E+003 -1.2988348E+004 -1.4245848E+004 -1.4485205E+004 -1.3570169E+004 -1.2594770E+004 -1.1559186E+004 -1.1177422E+004 -1.0898994E+004 -1.0926906E+004 -1.1214347E+004 -1.2328399E+004 -1.2399118E+004 -1.2119167E+004 -1.2287415E+004 -1.2084314E+004 -1.1403711E+004 -1.0817218E+004 -1.0683034E+004 -1.0638992E+004 -1.0533527E+004 -1.0516157E+004 -1.0634927E+004 -1.0754123E+004 -1.0417889E+004 -1.0783721E+004 -1.1183078E+004 -1.0600223E+004 -1.0633603E+004 -1.0881645E+004 -1.0721221E+004 -1.0805446E+004 -1.0815281E+004 -1.1041787E+004 -1.0903181E+004 -1.0613628E+004 -1.0613406E+004 -1.1159599E+004 -1.0881250E+004 -1.1193383E+004 -1.0747935E+004 -1.1153909E+004 -1.1142609E+004 -1.0820286E+004 -1.0773018E+004 -1.1197003E+004 -1.1142112E+004 -1.0756234E+004 -1.1144602E+004 -1.0861756E+004 -1.0927609E+004 -1.1288109E+004 -1.1275475E+004 -1.1397989E+004 -1.0913862E+004 -1.0977241E+004 -1.1191915E+004 -1.0812995E+004 -1.1485548E+004 -1.2245180E+004 -1.2973666E+004 -1.3319611E+004 -1.2597598E+004 -1.1394229E+004 -1.1867839E+004 -1.2176652E+004 -1.1860335E+004 -1.2163942E+004 -1.2068305E+004 -1.2363292E+004 -1.1997614E+004 -1.2146451E+004 -1.3012304E+004 -1.2851642E+004 -1.2096131E+004 -1.2134047E+004 -1.1863017E+004 -1.1866878E+004 -1.2059669E+004 -1.1960072E+004 -1.1695413E+004 -1.2090335E+004 -1.2197442E+004 -1.1947370E+004 -1.2745258E+004 -1.3025044E+004 -1.3060031E+004 -1.2400853E+004 -1.2211112E+004 -1.1910216E+004 -1.0841586E+004 -8.2177231E+003 -2.3277600E+003  6.7851362E+003  1.9970762E+004  3.7895492E+004  6.2250425E+004  9.2265060E+004  1.2814527E+005 0.0 0.0 0.0 0.0 0.0 0.0 0.0 0.0 0.0 0.0 0.0 0.0 0.0 0.0 0.0 0.0 0.0 0.0 0.0 0.0 0.0 0.0 0.0 0.0 0.0 0.0 0.0 0.0 0.0 0.0 0.0 0.0 0.0 0.0 0.0 0.0 0.0 0.0 0.0 0.0 0.0 0.0 0.0 0.0 0.0 0.0 0.0 0.0 0.0 0.0 0.0 0.0 0.0 0.0 0.0 0.0 0.0 0.0 0.0 0.0 0.0 0.0 0.0 0.0 0.0 0.0 0.0 0.0 0.0 0.0 0.0 0.0 0.0 0.0 0.0 0.0 0.0 0.0 0.0 0.0 0.0 0.0 0.0 0.0 0.0 0.0 0.0 0.0 0.0 0.0 0.0 0.0 0.0 0.0 0.0 0.0 0.0 0.0 0.0 0.0 0.0 0.0 0.0 0.0 0.0 0.0 0.0 0.0 0.0 0.0 0.0 0.0 0.0 0.0 0.0 0.0 0.0 0.0 0.0 0.0 0.0 0.0 0.0 0.0 0.0 0.0 0.0 0.0 0.0 0.0 0.0 0.0 0.0 0.0 0.0 0.0 0.0 0.0 0.0 0.0 0.0 0.0 0.0 0.0 0.0 0.0 0.0 0.0 0.0 0.0 0.0 0.0 0.0 0.0 0.0 0.0 0.0 0.0 0.0 0.0 0.0 0.0 0.0 0.0 0.0 0.0 0.0 0.0 0.0 0.0 0.0 0.0 0.0 0.0 0.0 0.0 0.0 0.0 0.0 0.0 0.0 0.0 0.0 0.0 0.0 0.0 0.0 0.0 0.0 0.0 0.0 0.0 0.0 0.0 0.0 0.0 0.0 0.0 0.0 0.0 0.0 0.0 0.0 0.0 0.0 0.0 0.0 0.0 0.0 0.0 0.0 0.0 0.0 0.0 0.0 0.0 0.0 0.0 0.0 0.0 0.0 0.0 0.0 0.0 0.0 0.0 0.0 0.0 0.0 0.0 0.0 0.0 0.0 0.0 0.0 0.0 0.0 0.0 0.0 0.0 0.0 0.0 0.0 0.0 0.0 0.0 0.0 0.0 0.0 0.0 0.0 0.0 0.0 0.0 0.0 0.0 0.0 0.0 0.0 0.0 0.0 0.0 0.0 0.0 0.0 0.0 0.0 0.0 0.0 0.0 0.0 0.0 0.0 0.0 0.0 0.0 0.0 0.0 0.0 0.0 0.0 0.0 0.0 0.0 0.0 0.0 0.0 0.0 0.0 0.0 0.0 0.0 0.0 0.0 0.0 0.0 0.0 0.0 0.0 0.0 0.0 0.0 0.0 0.0 0.0 0.0 0.0 0.0 0.0 0.0 0.0 0.0 0.0 0.0 0.0 0.0 0.0 0.0 0.0 0.0 0.0 0.0 0.0 0.0 0.0 0.0 0.0 0.0 0.0 0.0 0.0 0.0 0.0 0.0 0.0 0.0 0.0 0.0 0.0 0.0 0.0 0.0 0.0 0.0 0.0 0.0 0.0 0.0 0.0 0.0 0.0 0.0 0.0 0.0 0.0 0.0 0.0 0.0 0.0 0.0 0.0 0.0 0.0 0.0 0.0 0.0 0.0 0.0 0.0 0.0 0.0 0.0 0.0 0.0 0.0 0.0 0.0 0.0 0.0 0.0 0.0 0.0 0.0 0.0 0.0 0.0 0.0 0.0 0.0 0.0 0.0 0.0 0.0 0.0 0.0 0.0 0.0 0.0 0.0 0.0 0.0 0.0 0.0 0.0 0.0 0.0 0.0 0.0 0.0 0.0 0.0 0.0 0.0 0.0 0.0 0.0 0.0 0.0 0.0 0.0 0.0 0.0 0.0 0.0 0.0 0.0 0.0 0.0 0.0 0.0 0.0 0.0 0.0 0.0 0.0 0.0 0.0 0.0 0.0 0.0 0.0 0.0 0.0 0.0 0.0 0.0 0.0 0.0 0.0 0.0 0.0 0.0 0.0 0.0 0.0 0.0 0.0 0.0 0.0 0.0 0.0 0.0 0.0 0.0 0.0 0.0 0.0 0.0 0.0 0.0 0.0 0.0 0.0 0.0 0.0 0.0 0.0 0.0 0.0 0.0 0.0 0.0 0.0 0.0 0.0 0.0 0.0 0.0 0.0 0.0 0.0 0.0 0.0 0.0 0.0 0.0 0.0 0.0 0.0 0.0 0.0 0.0 0.0 0.0 0.0 0.0 0.0 0.0 0.0 0.0 0.0 0.0 0.0 0.0 0.0 0.0 0.0 0.0 0.0 0.0 0.0 0.0 0.0 0.0 0.0 0.0 0.0 0.0 0.0 0.0 0.0 0.0 0.0 0.0 0.0 0.0 0.0 0.0 0.0 0.0 0.0 0.0 0.0 0.0 0.0 0.0 0.0 0.0 0.0 0.0 0.0 0.0 0.0 0.0 0.0 0.0 0.0 0.0 0.0 0.0 0.0 0.0 0.0 0.0 0.0 0.0 0.0 0.0 0.0 0.0 0.0 0.0 0.0 0.0 0.0 0.0 0.0 0.0 0.0 0.0 0.0 0.0 0.0 0.0 0.0 0.0 0.0 0.0 0.0 0.0 0.0 0.0 0.0 0.0 0.0 0.0 0.0 0.0 0.0 0.0 0.0 0.0 0.0 0.0 0.0 0.0 0.0 0.0 0.0 0.0 0.0 0.0 0.0 0.0 0.0 0.0 0.0 0.0 0.0 0.0 0.0 0.0 0.0 0.0 0.0 0.0 0.0 0.0 0.0 0.0 0.0 0.0 0.0 0.0 0.0 0.0 0.0 0.0 0.0 0.0 0.0 0.0 0.0 0.0 0.0 0.0 0.0 0.0 0.0 0.0 0.0 0.0 0.0 0.0 0.0 0.0 0.0 0.0 0.0 0.0 0.0 0.0 0.0 0.0 0.0 0.0 0.0 0.0 0.0 0.0 0.0 0.0 0.0 0.0 0.0 0.0 0.0 0.0 0.0 0.0 0.0 0.0 0.0 0.0 0.0 0.0 0.0 0.0 0.0 0.0 0.0 0.0 0.0 0.0 0.0 0.0 0.0 0.0 0.0 0.0 0.0 0.0 0.0 0.0 0.0 0.0 0.0 0.0 0.0 0.0 0.0 0.0 0.0 0.0 0.0 0.0 0.0 0.0 0.0 0.0 0.0 0.0 0.0 0.0 0.0 0.0 0.0 0.0 0.0 0.0 0.0 0.0 0.0 0.0 0.0 0.0 0.0 0.0 0.0 0.0 0.0 0.0 0.0 0.0 0.0 0.0 0.0 0.0 0.0 0.0 0.0 0.0 0.0 0.0 0.0 0.0 0.0 0.0 0.0 0.0 0.0 0.0 0.0 0.0 0.0 0.0 0.0 0.0 0.0 0.0 0.0 0.0 0.0 0.0 0.0 0.0 0.0 0.0 0.0 0.0 0.0 0.0 0.0 0.0 0.0 0.0 0.0 0.0 0.0 0.0 0.0 0.0 0.0 0.0 0.0 0.0 0.0 0.0 0.0 0.0 0.0 0.0 0.0 0.0 0.0 0.0 0.0 0.0 0.0 0.0 0.0 0.0 0.0 0.0 0.0 0.0 0.0 0.0 0.0 0.0 0.0 0.0 0.0 0.0 0.0 0.0 0.0 0.0 0.0 0.0 0.0 0.0 0.0 0.0 0.0 0.0 0.0 0.0 0.0 0.0 0.0 0.0 0.0 0.0 0.0 0.0 0.0 0.0 0.0 0.0 0.0 0.0 0.0 0.0 0.0 0.0 0.0 0.0 0.0 0.0 0.0 0.0 0.0 0.0 0.0 0.0 0.0 0.0 0.0 0.0 0.0 0.0 0.0 0.0 0.0 0.0 0.0 0.0 0.0 0.0 0.0 0.0 0.0 0.0 0.0 0.0 0.0 0.0 0.0 0.0 0.0 0.0 0.0 0.0 0.0 0.0 0.0 0.0 0.0 0.0 0.0 0.0 0.0 0.0 0.0 0.0 0.0 0.0 0.0 0.0 0.0 0.0 0.0 0.0 0.0 0.0 0.0 0.0 0.0 0.0 0.0 0.0 0.0 0.0 0.0 0.0 0.0 0.0 0.0 0.0 0.0 0.0 0.0 0.0 0.0 0.0 0.0 0.0 0.0 0.0 0.0 0.0 0.0 0.0 0.0 0.0 0.0 0.0 0.0 0.0 0.0 0.0 0.0 0.0 0.0 0.0 0.0 0.0 0.0 0.0 0.0 0.0 0.0 0.0 0.0 0.0 0.0 0.0 0.0 0.0 0.0 0.0 0.0 0.0 0.0 0.0 0.0 0.0 0.0 0.0 0.0 0.0 0.0 0.0 0.0 0.0 0.0 0.0 0.0 0.0 0.0 0.0 0.0 0.0 0.0 0.0 0.0 0.0 0.0 0.0 0.0 0.0 0.0 0.0 0.0 0.0 0.0 0.0 0.0 0.0 0.0 0.0 0.0 0.0 0.0 0.0 0.0 0.0 0.0 0.0 0.0 0.0 0.0 0.0 0.0 0.0 0.0 0.0 0.0 0.0 0.0 0.0 0.0 0.0 0.0 0.0 0.0 0.0 0.0 0.0 0.0 0.0 0.0 0.0 0.0 0.0 0.0 0.0 0.0 0.0 0.0 0.0 0.0 0.0 0.0 0.0 0.0 0.0 0.0 0.0 0.0 0.0 0.0 0.0 0.0 0.0 0.0 0.0 0.0 0.0 0.0 0.0 0.0 0.0 0.0 0.0 0.0 0.0 0.0 0.0 0.0 0.0 0.0 0.0 0.0 0.0 0.0 0.0 0.0 0.0 0.0 0.0 0.0 0.0 0.0 0.0 0.0 0.0 0.0 0.0 0.0 0.0 0.0 0.0 0.0 0.0 0.0 0.0 0.0 0.0 0.0 0.0 0.0 0.0 0.0 0.0 0.0 0.0 0.0 0.0 0.0 0.0 0.0 0.0 0.0 0.0 0.0 0.0 0.0 0.0 0.0 0.0 0.0 0.0 0.0 0.0 0.0 0.0 0.0 0.0 0.0 0.0 0.0 0.0 0.0 0.0 0.0 0.0 0.0 0.0 0.0 0.0 0.0 0.0 0.0 0.0 0.0 0.0 0.0 0.0 0.0 0.0 0.0 0.0 0.0 0.0 0.0 0.0 0.0 0.0 0.0 0.0 0.0 0.0 0.0 0.0 0.0 0.0 0.0 0.0 0.0 0.0 0.0 0.0 0.0 0.0 0.0 0.0 0.0 0.0 0.0 0.0 0.0 0.0 0.0 0.0 0.0 0.0 0.0 0.0 0.0 0.0 0.0 0.0 0.0 0.0 0.0 0.0 0.0 0.0 0.0 0.0 0.0 0.0 0.0 0.0 0.0 0.0 0.0 0.0 0.0 0.0 0.0 0.0 0.0 0.0 0.0 0.0 0.0 0.0 0.0 0.0 0.0 0.0 0.0 0.0 0.0 0.0 0.0 0.0 0.0 0.0 0.0 0.0 0.0 0.0 0.0 0.0 0.0 0.0 0.0 0.0 0.0 0.0 0.0 0.0 0.0 0.0 0.0 0.0 0.0 0.0 0.0 0.0 0.0 0.0 0.0 0.0 0.0 0.0 0.0 0.0 0.0 0.0 0.0 0.0 0.0 0.0 0.0 0.0 0.0 0.0 0.0 0.0 0.0 0.0 0.0 0.0 0.0 0.0 0.0 0.0 0.0 0.0 0.0 0.0 0.0 0.0 0.0 0.0 0.0 0.0 0.0 0.0 0.0 0.0 0.0 0.0 0.0 0.0 0.0 0.0 0.0 0.0 0.0 0.0 0.0 0.0 0.0 0.0 0.0 0.0 0.0 0.0 0.0 0.0 0.0 0.0 0.0 0.0 0.0 0.0 0.0 0.0 0.0 0.0 0.0 0.0 0.0 0.0 0.0 0.0 0.0 0.0 0.0 0.0 0.0 0.0 0.0 0.0 0.0 0.0 0.0 0.0 0.0 0.0 0.0 0.0 0.0 0.0 0.0 0.0 0.0 0.0 0.0 0.0 0.0 0.0 0.0 0.0 0.0 0.0 0.0 0.0 0.0 0.0 0.0 0.0 0.0 0.0 0.0 0.0 0.0 0.0 0.0 0.0 0.0 0.0 0.0 0.0 0.0 0.0 0.0 0.0 0.0 0.0 0.0 0.0 0.0 0.0 0.0 0.0 0.0 0.0 0.0 0.0 0.0 0.0 0.0 0.0 0.0 0.0 0.0 0.0 0.0 0.0 0.0 0.0 0.0 0.0 0.0 0.0 0.0 0.0 0.0 0.0 0.0 0.0 0.0 0.0 0.0 0.0 0.0 0.0  1.0594022E+004  2.4968474E+004 -1.7114975E+004  8.4583399E+002  8.2387001E+004 -1.1362671E+005  6.7322563E+003  1.1233897E+004  9.1354578E+003  1.0501894E+004  9.7985915E+003 -8.2856509E+003  9.6808786E+003 -1.0007254E+004 -8.5058101E+003  1.0852913E+004 -8.8610585E+003  8.8339996E+003 -7.2113530E+003  9.7987348E+003  9.7949592E+003 -8.3982301E+003  1.0551467E+004 -7.7313093E+003  9.3316567E+003 -7.9805179E+003 -8.3529371E+003 -9.0432663E+003 -7.5014994E+003 -7.3614479E+003 -7.8964789E+003 -7.6550252E+003 -9.0323703E+003 -1.0177447E+004 -8.6313570E+003 -8.0894921E+003 -1.0352414E+004 -7.7312468E+003 -9.6181621E+003 -8.3212068E+003  1.1648463E+004 -9.5209994E+003 -8.7338802E+003 -8.9846442E+003 -8.8240477E+003 -8.5692179E+003 -8.3706837E+003  7.2282273E+004  1.1641506E+004  1.0235402E+004  9.7687919E+003  1.0366881E+004  9.4051071E+003 -9.2278077E+003 -1.1299255E+004 -8.2935097E+003  9.5922073E+003 -7.7692384E+003 -9.6850136E+003 -7.6552483E+003  1.0310026E+004  1.0257380E+004 -7.3796970E+003  1.0772119E+004  1.0163901E+004  1.0618860E+004  1.0404790E+004 -7.4384923E+003  9.8854602E+003 -7.7780230E+003  9.8777782E+003  9.7657669E+003  1.0144521E+004  1.0900811E+004  1.0891522E+004  1.1152562E+004  1.1478846E+004  1.0992099E+004  1.1063224E+004  1.0807060E+004  1.1399749E+004  1.0956672E+004  1.0726834E+004 -9.9736571E+004 -7.6915357E+003  1.1918907E+004 -9.1159177E+003 -7.6310750E+003  9.7448897E+003 -4.1086248E+002  1.2742811E+005  1.0451088E+004  1.6836183E+003 -3.2863188E+003 -1.1896820E+003 -2.5968287E+003 -1.8951772E+003  2.6579045E+003  7.4107128E+003 -3.8506642E+003  1.3418776E+004 -4.3409415E+003 -2.1017157E+004 -3.7627143E+004  2.3631906E+004  3.8089173E+004 -4.6363217E+004 -7.4635278E+004 -3.4353699E+003 -3.3071772E+004 -1.1129848E+004  3.9291506E+004  2.3925460E+004  4.5885995E+004  6.7743872E+004  1.3878298E+004 -4.3886749E+003  1.0746637E+004 -1.7849481E+005 -1.4611004E+003 -4.7338002E+004  7.0493282E+003 -2.1980032E+003 -8.6165447E+003 -6.4781791E+003 -8.8731293E+003 -4.5204542E+003 -4.3422689E+003 -3.9638617E+003  4.2453082E+003 -9.2402403E+003 -3.1241289E+003  4.7120359E+003 -8.1944103E+003 -3.3085810E+003 -3.1555941E+003 -2.5312324E+003  4.0401139E+003  3.1784906E+003  1.0907340E+004  1.2389779E+003  1.4238176E+003  1.1066541E+003 -6.6727204E+003 -8.7464612E+003 -3.0708492E+003 -9.2376464E+003 -3.7230609E+003 -3.3974129E+003  4.1647933E+003 -8.9437705E+003 -3.0409168E+003 -2.8800150E+003  3.7694970E+003 -8.1725630E+003 -3.3863800E+003 -2.9590205E+003  3.4846268E+003  1.0946959E+004  1.6647965E+003  1.6992050E+003  1.2171372E+003 -6.9153042E+003  1.1311252E+004  6.4882209E+002  3.3750245E+002 -8.0370345E+003 -9.6216885E+003 -4.9216167E+003 -3.1371789E+003  3.4842152E+003  1.0783591E+004  1.2985123E+003  1.5915003E+003  1.7554038E+002 -7.6689775E+003  1.0447601E+004  9.5265052E+002  9.8824884E+002 -5.8046638E+003 -5.7468897E+003  1.0523900E+003  1.0534715E+004  8.0992930E+002  9.8135191E+003  8.4579402E+002  6.2332728E+002  9.9577663E+002 -5.5593283E+003 -5.7202311E+003 -8.1684926E+003 -3.5501806E+003  1.0253752E+004  3.8074441E+002  5.6449029E+002 -6.2281641E+003  9.8189393E+003  9.6515155E+002  6.3619740E+002 -5.6443023E+003 -5.0804389E+003  9.1933132E+003 -7.5519803E+002 -1.1865811E+002 -8.6566763E+003 -7.7896966E+003 -4.5223641E+003 -4.5502097E+003 -8.2117638E+003 -4.3570900E+003 -3.7059124E+003 -8.0731637E+003 -4.7002071E+003 -4.6613854E+003  1.1791375E+004  8.1989196E+002  1.3609197E+003 -6.8540713E+003  9.9153942E+003  1.0912457E+003  8.3337986E+002 -6.1348970E+003  1.2199942E+003  1.0476755E+004  1.3322289E+003  1.3683197E+003  1.0467517E+004  8.7446131E+002  9.7146326E+003  1.0482815E+004  1.1062226E+004 -8.1074012E+003 -3.4282590E+003  1.0104176E+004  1.1770913E+003  1.1703688E+004  8.5132378E+002  1.0389088E+004  1.0078847E+004  9.6484599E+002  6.8960808E+002 -6.0974206E+003  1.1797719E+004  1.1068109E+004 -8.0135491E+003 -4.5730810E+003 -4.5293254E+003 -1.0145802E+004 -5.4958719E+003 -9.4968727E+003 -9.6121218E+003 -3.8400733E+003 -8.2762145E+003 -3.4799329E+003 -8.0677849E+003 -3.7513129E+003 -8.3305104E+003  1.0593306E+004  1.1113246E+004 -8.2316773E+003  1.0150899E+004 -7.9552260E+003 -7.9721691E+003 -9.0789336E+003 -3.9086380E+003 -4.3857570E+003  1.1672370E+004 -8.3388168E+003  1.1150611E+004  9.4385873E+002  1.0336978E+004  1.0398318E+004  1.0547243E+004  1.0595453E+004  9.9341367E+003  1.0823969E+003 -8.5237495E+003 -3.4038596E+003 -8.9628030E+003 -3.6275368E+003  9.8008659E+003  1.1650688E+004  4.9026978E+002  1.0954282E+004 -8.2031226E+003  9.7292817E+003 -8.8288662E+003  1.1215740E+004  5.6068515E+002 -8.7885111E+003 -7.9005081E+003 -3.2992195E+003  1.1422182E+004  1.2070518E+004  8.3941795E+002  1.0918919E+004 -8.9682598E+003 -8.0368383E+003  9.9434691E+003 -5.2868863E+003 -3.2072731E+003  5.9419709E+002  6.9782497E+002 -4.2212989E+003 -5.0973273E+003 -4.8161865E+003  1.2726075E+003 -4.5147964E+003  1.0002662E+005 -9.5905309E+003  5.7067977E+004  1.2822410E+003  1.0142712E+002  7.2191631E+002  1.8684990E+003  8.1859997E+003 -4.7653315E+002  1.0588506E+005 -3.3204560E+002  4.4087462E+004 -1.9259938E+005 -2.5020889E+004 -3.6667475E+003 -4.1596215E+004 -1.1982834E+004 -1.2003957E+005 -6.6998260E+003 -6.1370397E+003 -6.6043363E+003  6.0984525E+004 -8.8605789E+003 -8.8015961E+003 -4.3376986E+003  2.2415207E+003  2.3899565E+003  3.1206856E+003  1.6711070E+003 -5.9111494E+003  2.8399229E+003 -5.5203742E+003  2.3443557E+003  1.4694698E+004  4.1704129E+002 -4.3945193E+003  1.2364466E+002 -5.1615871E+003  4.5316198E+002  1.9352495E+002 -4.2682363E+003  3.7944898E+002 -4.6007861E+003 -4.5952780E+003 -9.5044092E+003 -9.4567071E+003 -9.3242170E+003  1.2644509E+004 -1.0566533E+004  1.4049310E+004 -9.5438767E+003 -1.1015775E+004 -1.2734583E+004 -9.4874317E+003 -1.1072049E+004  1.3614922E+004 -8.7938429E+003  1.4201415E+004 -1.0358396E+004  1.1942667E+004 -1.0971119E+004  1.3356831E+004 -4.0011155E+003  2.9373349E+003 -9.2937407E+003 -5.0024192E+003  3.5743895E+003  3.5070309E+003 -5.9077832E+003 -6.3461210E+003  3.1822528E+003  3.5321902E+003  2.9432614E+003  3.7769762E+003  3.0372492E+003 -5.3071573E+003 -5.3026332E+003  3.1777474E+003 -6.2832489E+003 -5.2787355E+003  3.0121289E+003 -6.1837315E+003  1.6432688E+003  1.5056330E+004  1.4557826E+004 -3.8650367E+003 -1.1391736E+004  1.3666308E+005  9.4213689E+004 -2.6741759E+005  9.4284473E+002  3.0126027E+004 -7.1118367E+004  1.9314710E+003  1.4065817E+003 -6.1265979E+003 -4.9735254E+003 -4.8976881E+003  8.8207640E+002 -4.9716434E+003 -7.1665900E+003 -4.6595924E+003 -2.2598119E+002 -4.4642498E+003 -4.9381601E+003  1.3412470E+003  2.4730595E+003 -5.7835928E+003 -5.1589404E+003 -6.4737106E+003  2.0614418E+003 -4.8192532E+003  1.7386958E+003 -6.2107341E+003 -4.6877575E+003 -4.6580020E+003  1.8299323E+003 -5.6766741E+003 -7.3919119E+003  2.1185642E+003  2.0665426E+003  2.0540720E+003 -5.0465532E+003 -5.7363136E+003 -5.6968790E+003 -5.5491565E+003  1.3069237E+003  2.1270606E+003  1.3091812E+003  1.3133443E+003  1.6063385E+003 -4.7672779E+003  4.3566814E+003 -5.0768829E+003  1.5702092E+003 -4.7202689E+003  1.7689740E+003 -4.8029870E+003  1.4144577E+003  2.3382457E+003 -6.9570930E+004  4.0241022E+002 0.0 0.0 0.0 0.0 0.0 0.0 0.0 0.0 0.0 0.0 0.0 0.0 0.0 0.0 0.0 0.0 0.0 0.0 0.0 0.0 0.0 0.0 0.0 0.0 0.0 0.0 0.0 0.0 0.0 0.0 0.0 0.0 0.0 0.0 0.0 0.0 0.0 0.0 0.0 0.0 0.0 0.0 0.0 0.0 0.0 0.0 0.0 0.0 0.0 0.0 0.0 0.0 0.0 0.0 0.0 0.0 0.0 0.0 0.0 0.0 0.0 0.0 0.0 0.0 0.0 0.0 0.0 0.0 0.0 0.0 0.0 0.0 0.0 0.0 0.0 0.0 0.0 0.0 0.0 0.0 0.0 0.0 0.0 0.0 0.0 0.0 0.0 0.0 0.0 0.0 0.0 0.0 0.0 0.0 0.0 0.0 0.0 0.0 0.0 0.0 0.0 0.0 0.0 0.0 0.0 0.0 0.0 0.0 0.0 0.0 0.0 0.0 0.0 0.0 0.0 0.0 0.0 0.0 0.0 0.0 0.0 0.0 0.0 0.0 0.0 0.0 0.0 0.0 0.0 0.0 0.0 0.0 0.0 0.0 0.0 0.0 0.0 0.0 0.0 0.0 0.0 0.0 0.0 0.0 0.0 0.0 0.0 0.0 0.0 0.0 0.0 0.0 0.0 0.0 0.0 0.0 0.0 0.0 0.0 0.0 0.0 0.0 0.0 0.0 0.0 0.0 0.0 0.0 0.0 0.0 0.0 0.0 0.0 0.0 0.0 0.0 0.0 0.0 0.0 0.0 0.0 0.0 0.0 0.0 0.0 0.0 0.0 0.0 0.0 0.0 0.0 0.0 0.0 0.0 0.0 0.0 0.0 0.0 0.0 0.0 0.0 0.0 0.0 0.0 0.0 0.0 0.0 0.0 0.0 0.0 0.0 0.0 0.0 0.0 0.0 0.0 0.0 0.0 0.0 0.0 0.0 0.0 0.0 0.0 0.0 0.0 0.0 0.0 0.0 0.0 0.0 0.0 0.0 0.0 0.0 0.0 0.0 0.0 0.0 0.0 0.0 0.0 0.0 0.0 0.0 0.0 0.0 0.0 0.0 0.0 0.0 0.0 0.0 0.0 0.0 0.0 0.0 0.0 0.0 0.0 0.0 0.0 0.0 0.0 0.0 0.0 0.0 0.0 0.0 0.0 0.0 0.0 0.0 0.0 0.0 0.0 0.0 0.0 0.0 0.0 0.0 0.0 0.0 0.0 0.0 0.0 0.0 0.0 0.0 0.0 0.0 0.0 0.0 0.0 0.0 0.0 0.0 0.0 0.0 0.0 0.0 0.0 0.0 0.0 0.0 0.0 0.0 0.0 0.0 0.0 0.0 0.0 0.0 0.0 0.0 0.0 0.0 0.0 0.0 0.0 0.0 0.0 0.0 0.0 0.0 0.0 0.0 0.0 0.0 0.0 0.0 0.0 0.0 0.0 0.0 0.0 0.0 0.0 0.0 0.0 0.0 0.0 0.0 0.0 0.0 0.0 0.0 0.0 0.0 0.0 0.0 0.0 0.0 0.0 0.0 0.0 0.0 0.0 0.0 0.0 0.0 0.0 0.0 0.0 0.0 0.0 0.0 0.0 0.0 0.0 0.0 0.0 0.0 0.0 0.0 0.0 0.0 0.0 0.0 0.0 0.0 0.0 0.0 0.0 0.0 0.0 0.0 0.0 0.0 0.0 0.0 0.0 0.0 0.0 0.0 0.0 0.0 0.0 0.0 0.0 0.0 0.0 0.0 0.0 0.0 0.0 0.0 0.0 0.0 0.0 0.0 0.0 0.0 0.0 0.0 0.0 0.0 0.0 0.0 0.0 0.0 0.0 0.0 0.0 0.0 0.0 0.0 0.0 0.0 0.0 0.0 0.0 0.0 0.0 0.0 0.0 0.0 0.0 0.0 0.0 0.0 0.0 0.0 0.0 0.0 0.0 0.0 0.0 0.0 0.0 0.0 0.0 0.0 0.0 0.0 0.0 0.0 0.0 0.0 0.0 0.0 0.0 0.0 0.0 0.0 0.0 0.0 0.0 0.0 0.0 0.0 0.0 0.0 0.0 0.0 0.0 0.0 0.0 0.0 0.0 0.0 0.0 0.0 0.0 0.0 0.0 0.0 0.0 0.0 0.0 0.0 0.0 0.0 0.0 0.0 0.0 0.0 0.0 0.0 0.0 0.0 0.0 0.0 0.0 0.0 0.0 0.0 0.0 0.0 0.0 0.0 0.0 0.0 0.0 0.0 0.0 0.0 0.0 0.0 0.0 0.0 0.0 0.0 0.0 0.0 0.0 0.0 0.0 0.0 0.0 0.0 0.0 0.0 0.0 0.0 0.0 0.0 0.0 0.0 0.0 0.0 0.0 0.0 0.0 0.0 0.0 0.0 0.0 0.0 0.0 0.0 0.0 0.0 0.0 0.0 0.0 0.0 0.0 0.0 0.0 0.0 0.0 0.0 0.0 0.0 0.0 0.0 0.0 0.0 0.0 0.0 0.0 0.0 0.0 0.0 0.0 0.0 0.0 0.0 0.0 0.0 0.0 0.0 0.0 0.0 0.0 0.0 0.0 0.0 0.0 0.0 0.0 0.0 0.0 0.0 0.0 0.0 0.0 0.0 0.0 0.0 0.0 0.0 0.0 0.0 0.0 0.0 0.0 0.0 0.0 0.0 0.0 0.0 0.0 0.0 0.0 0.0 0.0 0.0 0.0 0.0 0.0 0.0 0.0 0.0 0.0 0.0 0.0 0.0 0.0 0.0 0.0 0.0 0.0 0.0 0.0 0.0 0.0 0.0 0.0 0.0 0.0 0.0 0.0 0.0 0.0 0.0 0.0 0.0 0.0 0.0 0.0 0.0 0.0 0.0 0.0 0.0 0.0 0.0 0.0 0.0 0.0 0.0 0.0 0.0 0.0 0.0 0.0 0.0 0.0 0.0 0.0 0.0 0.0 0.0 0.0 0.0 0.0 0.0 0.0 0.0 0.0 0.0 0.0 0.0 0.0 0.0 0.0 0.0 0.0 0.0 0.0 0.0 0.0 0.0 0.0 0.0 0.0 0.0 0.0 0.0 0.0 0.0 0.0 0.0 0.0 0.0 0.0 0.0 0.0 0.0 0.0 0.0 0.0 0.0 0.0 0.0 0.0 0.0 0.0 0.0 0.0 0.0 0.0 0.0 0.0 0.0 0.0 0.0 0.0 0.0 0.0 0.0 0.0 0.0 0.0 0.0 0.0 0.0 0.0 0.0 0.0 0.0 0.0 0.0 0.0 0.0 0.0 0.0 0.0 0.0 0.0 0.0 0.0 0.0 0.0 0.0 0.0 0.0 0.0 0.0 0.0 0.0 0.0 0.0 0.0 0.0 0.0 0.0 0.0 0.0 0.0 0.0 0.0 0.0 0.0 0.0 0.0 0.0 0.0 0.0 0.0 0.0 0.0 0.0 0.0 0.0 0.0 0.0 0.0 0.0 0.0 0.0 0.0 0.0 0.0 0.0 0.0 0.0 0.0 0.0 0.0 0.0 0.0 0.0 0.0 0.0 0.0 0.0 0.0 0.0 0.0 0.0 0.0 0.0 0.0 0.0 0.0 0.0 0.0 0.0 0.0 0.0 0.0 0.0 0.0 0.0 0.0 0.0 0.0 0.0 0.0 0.0 0.0 0.0 0.0 0.0 0.0 0.0 0.0 0.0 0.0 0.0 0.0 0.0 0.0 0.0 0.0 0.0 0.0 0.0 0.0 0.0 0.0 0.0 0.0 0.0 0.0 0.0 0.0 0.0 0.0 0.0 0.0 0.0 0.0 0.0 0.0 0.0 0.0 0.0 0.0 0.0 0.0 0.0 0.0 0.0 0.0 0.0 0.0 0.0 0.0 0.0 0.0 0.0 0.0 0.0 0.0 0.0 0.0 0.0 0.0 0.0 0.0 0.0 0.0 0.0 0.0 0.0 0.0 0.0 0.0 0.0 0.0 0.0 0.0 0.0 0.0 0.0 0.0 0.0 0.0 0.0 0.0 0.0 0.0 0.0 0.0 0.0 0.0 0.0 0.0 0.0 0.0 0.0 0.0 0.0 0.0 0.0 0.0 0.0 0.0 0.0 0.0 0.0 0.0 0.0 0.0 0.0 0.0 0.0 0.0 0.0 0.0 0.0 0.0 0.0 0.0 0.0 0.0 0.0 0.0 0.0 0.0 0.0 0.0 0.0 0.0 0.0 0.0 0.0 0.0 0.0 0.0 0.0 0.0 0.0 0.0 0.0 0.0 0.0 0.0 0.0 0.0 0.0 0.0 0.0 0.0 0.0 0.0 0.0 0.0 0.0 0.0 0.0 0.0 0.0 0.0 0.0 0.0 0.0 0.0 0.0 0.0 0.0 0.0 0.0 0.0 0.0 0.0 0.0 0.0 0.0 0.0 0.0 0.0 0.0 0.0 0.0 0.0 0.0 0.0 0.0 0.0 0.0 0.0 0.0 0.0 0.0 0.0 0.0 0.0 0.0 0.0 0.0 0.0 0.0 0.0 0.0 0.0 0.0 0.0 0.0 0.0 0.0 0.0 0.0 0.0 0.0 0.0 0.0 0.0 0.0 0.0 0.0 0.0 0.0 0.0 0.0 0.0 0.0 0.0 0.0 0.0 0.0 0.0 0.0 0.0 0.0 0.0 0.0 0.0 0.0 0.0 0.0 0.0 0.0 0.0 0.0 0.0 0.0 0.0 0.0 0.0 0.0 0.0 0.0 0.0 0.0 0.0 0.0 0.0 0.0 0.0 0.0 0.0 0.0 0.0 0.0 0.0 0.0 0.0 0.0 0.0 0.0 0.0 0.0 0.0 0.0 0.0 0.0 0.0 0.0 0.0 0.0 0.0 0.0 0.0 0.0 0.0 0.0 0.0 0.0 0.0 0.0 0.0 0.0 0.0 0.0 0.0 0.0 0.0 0.0 0.0 0.0 0.0 0.0 0.0 0.0 0.0 0.0 0.0 0.0 0.0 0.0 0.0 0.0 0.0 0.0 0.0 0.0 0.0 0.0 0.0 0.0 0.0 0.0 0.0 0.0 0.0 0.0 0.0 0.0 0.0 0.0 0.0 0.0 0.0 0.0 0.0 0.0 0.0 0.0 0.0 0.0 0.0 0.0 0.0 0.0 0.0 0.0 0.0 0.0 0.0 0.0 0.0 0.0 0.0 0.0 0.0 0.0 0.0 0.0 0.0 0.0 0.0 0.0 0.0 0.0 0.0 0.0 0.0 0.0 0.0 0.0 0.0 0.0 0.0 0.0 0.0 0.0 0.0 0.0 0.0 0.0 0.0 0.0 0.0 0.0 0.0 0.0 0.0 0.0 0.0 0.0 0.0 0.0 0.0 0.0 0.0 0.0 0.0 0.0 0.0 0.0 0.0 0.0 0.0 0.0 0.0 0.0 0.0 0.0 0.0 0.0 0.0 0.0 0.0 0.0 0.0 0.0 0.0 0.0 0.0 0.0 0.0 0.0 0.0 0.0 0.0 0.0
        </DataArray>
        <DataArray type="Float64" Name="stress_xy" NumberOfComponents="1" format="ascii">
 0.0 0.0 0.0 0.0  2.3436114E+004 -8.9164422E+002 -5.7315652E+001 0.0 0.0 0.0 0.0 0.0 0.0 0.0 0.0 0.0 0.0 0.0 0.0 0.0 -1.9317261E+002 0.0 0.0 0.0 0.0 0.0 0.0 0.0 0.0 0.0 0.0 0.0 0.0 0.0 0.0 0.0 0.0 0.0 0.0 0.0 0.0 0.0 0.0 0.0 0.0 0.0 0.0 0.0 0.0  9.0412080E+003  1.6145897E+003  5.7028569E+002  7.6141316E+002  3.0049842E+002  2.0500638E+002  1.4053302E+002  1.2130326E+002  9.3523819E+001 -4.8557003E+001  3.3155682E+001 -7.6907899E+001 -4.6166946E+001 -2.1532823E+001 -8.0530021E-001 -5.3032353E+000  6.1316518E-001 -2.7929417E+001 -6.4069091E+001  4.6204056E+001  7.9642413E+001  7.2333268E+001 -9.4228633E+001 -5.3383199E+001  3.2898305E+000 -1.3017872E+001  6.4201333E+001  7.3892916E+001 -8.9261055E+001 -6.1318172E+001 -1.0223695E+001  1.0513627E+001 -2.9088135E+000 -9.9889686E+000  1.5895773E+000  9.8042111E+000  3.6585566E+000 -1.2268049E+001 -1.4957056E+001 -5.2031425E+000 -3.1868828E+001 -5.6878920E+001  4.1604665E+001  1.8068633E+001 -3.7959293E+000 -3.1999749E+001 -4.9129655E+001  3.7155941E+001  2.9716108E+001 -3.3636245E+001 -4.8368724E+001  4.4146716E+001  2.1835960E+001 -7.2824308E+000  2.0133776E+000  4.0207152E+000  2.9124045E+000  2.2275176E+000  7.3056089E+000 -6.1153952E-001 -2.3804058E+000 -4.3487358E+000 -1.3749591E+001 -2.5497978E+000 -1.4314748E+000 -4.6446916E+000  6.3030454E+001  7.5488262E+001 -8.1734620E+001 -5.1075442E+001 -1.6404960E-001  3.6474625E+000  4.2979241E+000 -2.4022788E+001 -4.6917587E+001  3.8772980E+001  3.1444861E+001  6.4535405E+000 -1.4609044E+000  1.1735159E+001 -4.5217853E+000  4.4582059E+001  9.7682376E+001 -3.4591228E+001 -6.2391908E+001 -2.0079554E+001  8.7570230E+000 -1.0351463E+001  2.5367293E+000  4.3250717E+001  2.0543146E+002  7.2074307E+001 -6.9240826E+001 -1.0369148E+001  4.5466385E+001  4.1090003E+001  2.8542330E+001  1.1921343E+002  5.5274907E+002  4.3298212E+002  9.7796682E+001  6.6514720E+001 0.0 0.0 0.0 0.0 0.0 0.0 0.0 0.0 0.0 0.0 0.0 0.0 0.0 0.0 0.0 0.0 0.0 0.0 0.0 0.0 0.0 0.0 0.0 0.0 0.0 0.0 0.0 0.0 0.0 0.0 0.0 0.0 0.0 0.0 0.0 0.0 0.0 0.0 0.0 0.0 0.0 0.0 0.0 0.0 0.0 0.0 0.0 0.0 0.0 0.0 0.0 0.0 0.0 0.0 0.0 0.0 0.0 0.0 0.0 0.0 0.0 0.0 0.0 0.0 0.0 0.0 0.0 0.0 0.0 0.0 0.0 0.0 0.0 0.0 0.0 0.0 0.0 0.0 0.0 0.0 0.0 0.0 0.0 0.0 0.0 0.0 0.0 0.0 0.0 0.0 0.0 0.0 0.0 0.0 0.0 0.0 0.0 0.0 0.0 0.0 0.0 0.0 0.0 0.0 0.0 0.0 0.0 0.0 0.0 0.0 0.0 0.0 0.0 0.0 0.0 0.0 0.0 0.0 0.0 0.0 0.0 0.0 0.0 0.0 0.0 0.0 0.0 0.0 0.0 0.0 0.0 0.0 0.0 0.0 0.0 0.0 0.0 0.0 0.0 0.0 0.0 0.0 0.0 0.0 0.0 0.0 0.0 0.0 0.0 0.0 0.0 0.0 0.0 0.0 0.0 0.0 0.0 0.0 0.0 0.0 0.0 0.0 0.0 0.0 0.0 0.0 0.0 0.0 0.0 0.0 0.0 0.0 0.0 0.0 0.0 0.0 0.0 0.0 0.0 0.0 0.0 0.0 0.0 0.0 0.0 0.0 0.0 0.0 0.0 0.0 0.0 0.0 0.0 0.0 0.0 0.0 0.0 0.0 0.0 0.0 0.0 0.0 0.0 0.0 0.0 0.0 0.0 0.0 0.0 0.0 0.0 0.0 0.0 0.0 0.0 0.0 0.0 0.0 0.0 0.0 0.0 0.0 0.0 0.0 0.0 0.0 0.0 0.0 0.0 0.0 0.0 0.0 0.0 0.0 0.0 0.0 0.0 0.0 0.0 0.0 0.0 0.0 0.0 0.0 0.0 0.0 0.0 0.0 0.0 0.0 0.0 0.0 0.0 0.0 0.0 0.0 0.0 0.0 0.0 0.0 0.0 0.0 0.0 0.0 0.0 0.0 0.0 0.0 0.0 0.0 0.0 0.0 0.0 0.0 0.0 0.0 0.0 0.0 0.0 0.0 0.0 0.0 0.0 0.0 0.0 0.0 0.0 0.0 0.0 0.0 0.0 0.0 0.0 0.0 0.0 0.0 0.0  1.1246505E+004  4.0289048E+003  1.9436817E+003  1.1647734E+003  1.1308019E+003  4.0144373E+002  1.1853048E+002  5.4402467E+002  9.2650336E+001 0.0 0.0 0.0 0.0 0.0 0.0 0.0 0.0 0.0 0.0 0.0 0.0 0.0 0.0 0.0 0.0 0.0 0.0 0.0 0.0 0.0 0.0 0.0 0.0 0.0 0.0 0.0 0.0 0.0 0.0 0.0 0.0 0.0 0.0 0.0 0.0 0.0 0.0 0.0 0.0 0.0 0.0 0.0 0.0 0.0 0.0 0.0 0.0 0.0 -4.5624677E+001  1.6014186E+002 -8.4695042E+001  6.9927233E+001 -1.1587879E+002  1.5138697E-002  8.5176023E+000  6.7305988E+000 -2.0196607E-001  2.7836181E+000  1.2929626E+001 -2.3254811E+001  9.2951782E+001 -1.0116789E+002  4.8330264E+000 -1.2826593E+001 -2.5322570E+001 -4.2916797E+001  3.2427519E+001 -5.8569583E+000  1.2803009E+002  1.9658910E+001 -1.2203693E+002 -8.5152405E+000 -6.5581204E+000 -5.9041031E+001  9.6246066E+001  2.6630740E+001 -1.0060138E+002  2.0009569E+000  7.6629174E+000  1.2698815E+001 -1.3303802E+001  2.4154758E+001 -3.0984631E+001  1.2322912E+002 -1.1668840E+001 -1.2309406E+002  8.0822115E+000 -3.5128320E-001 -2.0622262E+001 -6.5367256E+001  8.5836647E+001 -1.0214322E+001  1.1114960E+002 -5.2724327E+001  4.4909082E+001  3.5892048E+001 -6.0584567E+000  1.0819887E+002 -1.1581918E+002 -3.1739736E+000  1.0867055E+001 -3.0199113E+001  9.4496290E+001 -1.1463691E+002 -1.0066325E+001 -3.7757669E+000 -8.3861633E+001  6.5276107E+001 -9.2960881E+001 -8.6570531E+000 -1.7157687E+001 -1.2755223E+001 -9.8484001E+001  5.9478340E+001 -1.1248374E+002  1.2263055E+001 -1.8398752E+001  1.1960201E+001  1.1692218E+001  2.1223385E+001 -2.5096125E+001  1.1247249E+002 -8.4159703E+001  9.0243568E+000  1.3988922E+001 -8.2513416E+000  5.6213510E+000  2.6993701E+000 -2.6434351E+000 -9.0520900E+001  6.1718946E+001 -1.1589444E+002  1.3805263E+001 -2.1707111E+001  1.1647900E+001  2.1240888E+001  2.6465786E+000  2.7416744E+001  2.8308331E+001  5.6149139E+001  9.3263125E+001  7.3115824E+001  3.3196219E+001  9.1068679E+001  3.0377167E+001 -7.6770909E+001  1.0324402E+002 0.0 0.0 0.0 0.0 0.0 0.0 0.0 0.0 0.0 0.0 0.0 0.0 0.0 0.0 0.0 0.0 0.0 0.0 0.0 0.0 0.0 0.0 0.0 0.0 0.0 0.0 0.0 0.0 0.0 0.0 0.0 0.0 0.0 0.0 0.0 0.0 0.0 0.0 0.0 0.0 0.0 0.0 0.0 0.0 0.0 0.0 0.0 0.0 0.0 0.0 0.0 0.0 0.0 0.0 0.0 0.0 0.0 0.0 0.0 0.0 0.0 0.0 0.0 0.0 0.0 0.0 0.0 0.0 0.0 0.0 0.0 0.0 0.0 0.0 0.0 0.0 0.0 0.0 0.0 0.0 0.0 0.0 0.0 0.0 0.0 0.0 0.0 0.0 0.0 0.0 0.0 0.0 0.0 0.0 0.0 0.0 0.0 0.0 0.0 0.0 0.0 0.0 0.0 0.0 0.0 0.0 0.0 0.0 0.0 0.0 0.0 0.0 0.0 0.0 0.0 0.0 0.0 0.0 0.0 0.0 0.0 0.0 0.0 0.0 0.0 0.0 0.0 0.0 0.0 0.0 0.0 0.0 0.0 0.0 0.0 0.0 0.0 0.0 0.0 0.0 0.0 0.0 0.0 0.0 0.0 0.0 0.0 0.0 0.0 0.0 0.0 0.0 0.0 0.0 0.0 0.0 0.0 0.0 0.0 0.0 0.0 0.0 0.0 0.0 0.0 0.0 0.0 0.0 0.0 0.0 0.0 0.0 0.0 0.0 0.0 0.0 0.0 0.0 0.0 0.0 0.0 0.0 0.0 0.0 0.0 0.0 0.0 0.0 0.0 0.0 0.0 0.0 0.0 0.0 0.0 0.0 0.0 0.0 0.0 0.0 0.0 0.0 0.0 0.0 0.0 0.0 0.0 0.0 0.0 0.0 0.0 0.0 0.0 0.0 0.0 0.0 0.0 0.0 0.0 0.0 0.0 0.0 0.0 0.0 0.0 0.0 0.0 0.0 0.0 0.0 0.0 0.0 0.0 0.0 0.0 0.0 0.0 0.0 0.0 0.0 0.0 0.0 0.0 0.0 0.0 0.0 0.0 0.0 0.0 0.0 0.0 0.0 0.0 0.0 0.0 0.0 0.0 0.0 0.0 0.0 0.0 0.0 0.0 0.0 0.0 0.0 0.0 0.0 0.0 0.0 0.0 0.0 0.0 0.0 0.0 0.0 0.0 0.0 0.0 0.0 0.0 0.0 0.0 0.0 0.0 0.0 0.0 0.0 0.0 0.0 0.0 0.0 0.0 0.0 0.0 0.0 0.0 0.0 0.0 0.0 0.0 0.0 0.0 0.0 0.0 0.0 0.0 0.0 0.0 0.0 0.0 0.0 0.0 0.0 0.0 0.0 0.0 0.0 0.0 0.0 0.0 0.0 0.0 0.0 0.0 0.0 0.0 0.0 0.0 0.0 0.0 0.0 0.0 0.0 0.0 0.0 0.0 0.0 0.0 0.0 0.0 0.0 0.0 0.0 0.0 0.0 0.0 0.0 0.0 0.0 0.0 0.0 0.0 0.0 0.0 0.0 0.0 0.0 0.0 0.0 0.0 0.0 0.0 0.0 0.0 0.0 0.0 0.0 0.0 0.0 0.0 0.0 0.0 0.0 0.0 0.0 0.0 0.0 0.0 0.0 0.0 0.0 0.0 0.0 0.0 0.0 0.0 0.0 0.0 0.0 0.0 0.0 0.0 0.0 0.0 0.0 0.0 0.0 0.0 0.0 0.0 0.0 0.0 0.0 0.0 0.0 0.0 0.0 0.0 0.0 0.0 0.0 0.0 0.0 0.0 0.0 0.0 0.0 0.0 0.0 0.0 0.0 0.0 0.0 0.0 0.0 0.0 0.0 0.0 0.0 0.0 0.0 0.0 0.0 0.0 0.0 0.0 0.0 0.0 0.0 0.0 0.0 0.0 0.0 0.0 0.0 0.0 0.0 0.0 0.0 0.0 0.0 0.0 0.0 0.0 0.0 0.0 0.0 0.0 0.0 0.0 0.0 0.0 0.0 0.0 0.0 0.0 0.0 0.0 0.0 0.0 0.0 0.0 0.0 0.0 0.0 0.0 0.0 0.0 0.0 0.0 0.0 0.0 0.0 0.0 0.0 0.0 0.0 0.0 0.0 0.0 0.0 0.0 0.0 0.0 0.0 0.0 0.0 0.0 0.0 0.0 0.0 0.0 0.0 0.0 0.0 0.0 0.0 0.0 0.0 0.0 0.0 0.0 0.0 0.0 0.0 0.0 0.0 0.0 0.0 0.0 0.0 0.0 0.0 0.0 0.0 0.0 0.0 0.0 0.0 0.0 0.0 0.0 0.0 0.0 0.0 0.0 0.0 0.0 0.0 0.0 0.0 0.0 0.0 0.0 0.0 0.0 0.0 0.0 0.0 0.0 0.0 0.0 0.0 0.0 0.0 0.0 0.0 0.0 0.0 0.0 0.0 0.0 0.0 0.0 0.0 0.0 0.0 0.0 0.0 0.0 0.0 0.0 0.0 0.0 0.0 0.0 0.0 0.0 0.0 0.0 0.0 0.0 0.0 0.0 0.0 0.0 0.0 0.0 0.0 0.0 0.0 0.0 0.0 0.0 0.0 0.0 0.0 0.0 0.0 0.0 0.0 0.0 0.0 0.0 0.0 0.0 0.0 0.0 0.0 0.0 0.0 0.0 0.0 0.0 0.0 0.0 0.0 0.0 0.0 0.0 0.0 0.0 0.0 0.0 0.0 0.0 0.0 0.0 0.0 0.0 0.0 0.0 0.0 0.0 0.0 0.0 0.0 0.0 0.0 0.0 0.0 0.0 0.0 0.0 0.0 0.0 0.0 0.0 0.0 0.0 0.0 0.0 0.0 0.0 0.0 0.0 0.0 0.0 0.0 0.0 0.0 0.0 0.0 0.0 0.0 0.0 0.0 0.0 0.0 0.0 0.0 0.0 0.0 0.0 0.0 0.0 0.0 0.0 0.0 0.0 0.0 0.0 0.0 0.0 0.0 0.0 0.0 0.0 0.0 0.0 0.0 0.0 0.0 0.0 0.0 0.0 0.0 0.0 0.0 0.0 0.0 0.0 0.0 0.0 0.0 0.0 0.0 0.0 0.0 0.0 0.0 0.0 0.0 0.0 0.0 0.0 0.0 0.0 0.0 0.0 0.0 0.0 0.0 0.0 0.0 0.0 0.0 0.0 0.0 0.0 0.0 0.0 0.0 0.0 0.0 0.0 0.0 0.0 0.0 0.0 0.0 0.0 0.0 0.0 0.0 0.0 0.0 0.0 0.0 0.0 0.0 0.0 0.0 0.0 0.0 0.0 0.0 0.0 0.0 0.0 0.0 0.0 0.0 0.0 0.0 0.0 0.0 0.0 0.0 0.0 0.0 0.0 0.0 0.0 0.0 0.0 0.0 0.0 0.0 0.0 0.0 0.0 0.0 0.0 0.0 0.0 0.0 0.0 0.0 0.0 0.0 0.0 0.0 0.0 0.0 0.0 0.0 0.0 0.0 0.0 0.0 0.0 0.0 0.0 0.0 0.0 0.0 0.0 0.0 0.0 0.0 0.0 0.0 0.0 0.0 0.0 0.0 0.0 0.0 0.0 0.0 0.0 0.0 0.0 0.0 0.0 0.0 0.0 0.0 0.0 0.0 0.0 0.0 0.0 0.0 0.0 0.0 0.0 0.0 0.0 0.0 0.0 0.0 0.0 0.0 0.0 0.0 0.0 0.0 0.0 0.0 0.0 0.0 0.0 0.0 0.0 0.0 0.0 0.0 0.0 0.0 0.0 0.0 0.0 0.0 0.0 0.0 0.0 0.0 0.0 0.0 0.0 0.0 0.0 0.0 0.0 0.0 0.0 0.0 0.0 0.0 0.0 0.0 0.0 0.0 0.0 0.0 0.0 0.0 0.0 0.0 0.0 0.0 0.0 0.0 0.0 0.0 0.0 0.0 0.0 0.0 0.0 0.0 0.0 0.0 0.0 0.0 0.0 0.0 0.0 0.0 0.0 0.0 0.0 0.0 0.0 0.0 0.0 0.0 0.0 0.0 0.0 0.0 0.0 0.0 0.0 0.0 0.0 0.0 0.0 0.0 0.0 0.0 0.0 0.0 0.0 0.0 0.0 0.0 0.0 0.0 0.0 0.0 0.0 0.0 0.0 0.0 0.0 0.0 0.0 0.0 0.0 0.0 0.0 0.0 0.0 0.0 0.0 0.0 0.0 0.0 0.0 0.0 0.0 0.0 0.0 0.0 0.0 0.0 0.0 0.0 0.0 0.0 0.0 0.0 0.0 0.0 0.0 0.0 0.0 0.0 0.0 0.0 0.0 0.0 0.0 0.0 0.0 0.0 0.0 0.0 0.0 0.0 0.0 0.0 0.0 0.0 0.0 0.0 0.0 0.0 0.0 0.0 0.0 0.0 0.0 0.0 0.0 0.0 0.0 0.0 0.0 0.0 0.0 0.0 0.0 0.0 0.0 0.0 0.0 0.0 0.0 0.0 0.0 0.0 0.0 0.0 0.0 0.0 0.0 0.0 0.0 0.0 0.0 0.0 0.0 0.0 0.0 0.0 0.0 0.0 0.0 0.0 0.0 0.0 0.0 0.0 0.0 0.0 0.0 0.0 0.0 0.0 0.0 0.0 0.0 0.0 0.0 0.0 0.0 0.0 0.0 0.0 0.0 0.0 0.0 0.0 0.0 0.0 0.0 0.0 0.0 0.0 0.0 0.0 0.0 0.0 0.0 0.0 0.0 0.0 0.0 0.0 0.0 0.0 0.0 0.0 0.0 0.0 0.0 0.0 0.0 0.0 0.0 0.0 0.0 0.0 0.0 0.0 0.0 0.0 0.0 0.0 0.0 0.0 0.0 0.0 0.0 0.0 0.0 0.0 0.0 0.0 0.0 0.0 0.0 0.0 0.0 0.0 0.0 0.0 0.0 0.0 0.0 0.0 0.0 0.0 0.0 0.0 0.0 0.0 0.0 0.0 0.0 0.0 0.0 0.0 0.0 0.0 0.0 0.0 0.0 0.0 0.0 0.0 0.0 0.0 0.0 0.0 0.0 0.0 0.0 0.0 0.0 0.0 0.0 0.0 0.0 0.0 0.0 0.0 0.0 0.0 0.0 0.0 0.0 0.0 0.0 0.0 0.0 0.0 0.0 0.0 0.0 0.0 0.0 0.0 0.0 0.0 0.0 0.0 0.0 0.0 0.0 0.0 0.0 0.0 0.0 0.0 0.0 0.0 0.0 0.0 0.0 0.0 0.0 0.0 0.0 0.0 0.0 0.0 0.0 0.0 0.0 0.0 0.0 0.0 0.0 0.0 0.0 0.0 0.0 0.0 0.0 0.0 0.0 0.0 0.0 0.0 0.0 0.0 0.0 0.0 0.0 0.0 0.0 0.0 0.0 0.0 0.0 0.0 0.0 0.0 0.0 0.0 0.0 0.0 0.0 0.0 0.0 0.0 0.0 0.0 0.0 0.0 0.0 0.0 0.0 0.0 0.0 0.0 0.0 0.0 0.0 0.0 0.0 0.0 0.0 0.0 0.0 0.0 0.0 0.0 0.0 0.0 0.0 0.0 0.0 0.0 0.0 0.0 0.0 0.0 0.0 0.0 0.0 0.0 0.0 0.0 0.0 0.0 0.0 0.0 0.0 0.0 0.0 0.0 0.0 0.0 0.0 0.0 0.0 0.0 0.0 0.0 0.0 0.0 0.0 0.0 0.0 0.0 0.0 0.0 0.0 0.0 0.0 0.0 0.0 0.0 0.0 0.0 0.0 0.0 0.0 0.0 0.0 0.0 0.0 0.0 0.0 0.0 0.0 0.0 0.0 0.0 0.0 0.0 0.0 0.0 0.0 0.0 0.0 0.0 0.0 0.0 0.0 0.0 0.0 0.0 0.0 0.0 0.0 0.0 0.0 0.0 0.0 0.0 0.0 0.0 0.0 0.0 0.0 0.0 0.0 0.0 0.0 0.0 0.0 0.0 0.0 0.0 0.0 0.0 0.0 0.0 0.0 0.0 0.0 0.0 0.0 0.0 0.0 0.0 0.0 0.0 0.0 0.0 0.0 0.0 0.0 0.0 0.0 0.0 0.0 0.0 0.0 0.0 0.0 0.0 0.0 0.0 0.0 0.0 0.0 0.0 0.0 0.0 0.0 0.0 0.0 0.0 0.0 0.0 0.0 0.0 0.0 0.0 0.0 0.0 0.0 0.0 0.0 0.0 0.0 0.0 0.0 0.0 0.0 0.0 0.0 0.0 0.0 0.0 0.0 0.0 0.0 0.0 0.0 0.0 0.0 0.0 0.0 0.0 -3.2406699E+002 -9.9396297E+002 -1.8217837E+003 -5.9609561E+002 -1.0037720E+003  1.7881184E+003 -9.3126395E+002 -1.7936933E+002 -3.3996244E+003  5.8990647E+002  4.5915059E+001  1.3570997E+002  3.5548333E+001 -6.2211422E+002 -4.0695605E+001 -5.6617790E+002 -1.7583286E+002  1.0906810E+001  2.3446169E+002 -4.0327033E+001 -3.9488448E+000 -7.4862782E+001 -1.9461809E+002 -1.7869559E+002  1.6832360E+001  3.4218295E+000 -6.5471497E+001 -6.5264344E+001 -1.0113104E+002 -8.4794426E+001 -1.5117835E+002  2.0466950E+002  3.4734328E+001  1.3521369E+002  3.1362966E+002  1.7055446E+002 -3.0552835E+002 -1.7725387E+002  1.8229610E+002 -1.5856381E+002  3.6512622E+002  3.1885155E+002 -2.0939298E+001  1.4365592E+002  3.2997009E+000  1.7160684E+002 -2.9867564E+002 -8.2809563E+002 -3.9409657E+000  5.2175421E+001 -1.9402835E+002 -4.1936654E+001 -1.4281607E+001  1.4278210E+002 -1.3066130E+003 -4.1762837E+002 -1.0900879E+003  2.9926024E+002  5.9176030E+001 -1.2575557E+002  2.1619364E+002 -6.7160935E+001 -5.9765526E+001 -3.2134666E+002  8.2713392E+001  3.1599153E+002  1.0403274E+002  2.1020292E+002 -4.3204658E+001  1.3965787E+002  1.1943760E+001 -3.2914955E+001  2.0930163E+001 -4.4537621E+002  7.2803458E+001 -4.0839839E+001  8.0527699E+001  3.6167653E+001  1.8354889E+002  1.9098909E+002 -3.0517314E+001  6.5448089E+001 -4.8247283E+001  6.5487344E+002 -2.1928382E+002 -6.1839676E+001  3.2247846E+001  9.3305633E+000 -1.8063982E+001 -2.4789318E+003 -1.4020570E+003 -4.7065519E+002 -1.3085883E+003 -1.8653908E+003 -1.9166461E+003 -2.5598252E+003 -1.2231987E+003 -2.0056065E+003 -2.8444640E+003 -3.1949379E+003 -3.1973880E+003 -2.8797586E+003 -3.0778460E+003 -1.7885366E+003 -2.8048391E+003 -2.5083809E+003 -2.3215865E+003 -2.1452369E+003 -3.0713577E+003 -2.9144772E+003 -3.0930316E+003 -1.7642187E+003 -2.5489552E+003 -1.5986331E+003 -1.8932298E+003 -1.6717192E+003 -3.1064447E+002 -6.3915738E+002  3.1235223E+003 -1.5045410E+003 -1.2276944E+003 -3.7781861E+003 -4.7543959E+003 -2.1269231E+003 -3.6026072E+003 -7.8097049E+001 -1.7336870E+002 -2.9030710E+002  7.9039830E+001 -2.8468354E+002  1.4061839E+002 -8.1392670E+001  6.3290766E+001 -1.5380075E+002 -2.8120704E+001 -2.9743035E+002 -1.5495122E+002 -1.1962573E+002 -1.4768879E+000 -1.2478833E+002 -8.6329259E+001 -2.1876940E+002 -1.2417328E+002  4.3569442E+001 -2.0416493E+002 -9.0119701E+002 -5.7160529E+001  3.4055477E+001 -5.0905198E+001  6.2144830E+001  2.8295854E+002  3.1080274E+002  9.0212930E+001  1.6987349E+002 -3.5096411E+001  5.4257178E+001 -1.3641409E+002 -1.8922947E+001  4.1423367E+001  1.0745730E+002  2.4276517E+002  1.2369937E+002  2.1158980E+002 -4.0808788E+002 -4.8225592E+002  3.2262279E+001 -5.5805201E+001  1.1846358E+002  2.1549941E+002  6.4174402E+002  7.5083120E+002 -5.4208017E+002 -7.3301338E+002 -7.3583201E+002 -4.2225670E+002 -2.6841543E+002  1.1251211E+002  5.5114675E+001 -4.5824782E+001 -1.1809373E+002 -1.2297535E+001  3.5885280E+001  1.1802784E+002 -7.0000369E+001  2.0153582E+001  1.9934319E+002  1.4223805E+002  1.6333335E+002  5.9154397E+001  1.0914791E+002 -8.8246795E+001 -3.2950971E+001  1.3408801E+002 -2.5917991E+001  7.9463813E+001  4.9508812E+000  3.5653924E+001  7.7233670E+000  1.5626869E+002  5.4857963E+001  4.0865455E+001 -2.2924114E+003 -2.3261307E+003 -1.1439684E+003 -1.3316205E+003  3.3126974E+001  2.3403243E+002 -8.6172411E+001 -6.9866079E+000  1.8523278E+002  9.8918833E+001  1.3568537E+001 -1.7897968E+002  1.4191794E+002  2.4830415E+002  2.5559779E+002  3.2368721E+002  2.9978731E+002  7.6691248E+001  6.3506407E+001  8.1743961E+001 -8.8848667E+001  2.0081987E+002 -2.6075026E+001 -3.7280435E+001  2.2103654E+001 -3.3340342E+001  4.2175325E+001  2.8020673E+001  2.1969760E+002 -3.0173499E+002  1.8342885E+002 -1.5308565E+001  5.1007088E+002  3.0737733E+002  4.2387207E+002  6.1955041E+002  1.5596880E+002 -9.1566901E+000  8.7982226E+001 -8.6422950E+000 -3.1324755E+001  2.9801222E+002 -2.3989201E+002 -1.3931473E+002  2.9248155E+001 -4.1282126E+002  1.7305078E+002  2.6496112E+002 -2.0534100E+002 -2.1692352E+002  1.3283657E+002  1.1287101E+002  4.1762984E+001 -1.2085422E+002  8.2999332E+001  1.6723386E+002 -1.7981588E+002  1.8022074E+002 -3.0746223E+002 -3.4765841E+002 -7.4393291E+001 -1.9789457E+002  3.6047122E+000 -1.4131529E+002 -1.1182850E+002 -1.2044021E+002  5.2885777E+002 -5.4421050E+002 -6.3555459E+002 -1.1946420E+002 -7.1460579E+001  5.5347740E+001  7.6877793E+001  1.2224347E+002 -1.2856219E+002  2.2514558E+002  2.9250680E+002 -6.9113180E+001  1.6856212E+002 -1.1370929E+002  7.8736384E+001  1.8573911E+002 -1.0561098E+002  1.0423510E+002  3.3347480E+001 -2.9393231E+001 -5.6738918E+001  2.2165959E+000 -8.9392768E+001  1.1354351E+001  2.0405458E+002  8.4048922E+001  1.7864796E+002  2.3901734E+002 -2.2215609E+002 -3.7793340E+002 -1.4510280E+000 -9.8261263E+001 -5.2857110E+002  1.3915387E+002  8.7743729E+001  4.3775366E+001  5.2318871E+001  7.7381769E+001 -3.6124293E+002  6.6585365E+002 -1.2221888E+002 -1.2283004E+003 -1.2083112E+002 -2.3628470E+003 -2.4082147E+001 -2.4552653E+002  3.5859885E+002 -9.3690676E+002 -4.9261473E+003 -1.2782853E+003 -9.1614771E+002 -3.9702788E+003 -7.0082416E+002  5.0386407E+003 -2.5118752E+003 -6.1627077E+002  3.7187241E+002 -1.7327371E+003  1.6784860E+003 -2.9123929E+003  4.9851662E+002 -1.4712447E+002 -1.5359484E+003 -2.6693402E+002  3.2249334E+002  6.4815603E+002 -2.2322137E+002 -9.0300081E+001 -2.5875187E+002  3.9257541E+002 -2.0413136E+002 -4.0711707E+002  2.2564765E+002 -7.9014746E+002 -4.2802288E+001  1.3818171E+002 -9.2874529E+002  6.2280959E+001  3.5916949E+001 -2.0782758E+002 -8.9462315E+000  3.6698675E+002 -8.2672473E+001 -4.1606465E+002 -4.1893046E+002 -1.3050439E+001 -5.6566972E+001  1.4066172E+002 -3.4205253E+001 -9.3548460E+000  7.1632849E+001 -3.3730963E+001 -9.1626609E+001 -7.4560261E+002  4.8180439E+001 -1.4436903E+002  5.6966677E+002  2.0723484E+002  3.8224355E+001 -8.9815451E+001  7.6842084E+001  1.9733272E+002 -8.1519652E+000 -1.4823172E+002 -1.6403907E+002  1.4404059E+002 -3.2879287E+002 -5.1020847E+002 -2.3877514E+002  1.4799402E+002 -1.7227036E+001  3.4216789E+002 -1.9511669E+002  1.3050491E+002  5.3550973E+002  3.0371488E+001 -1.6815243E+001  5.0313439E+002  1.2898780E+002  3.1166770E+002  3.7715718E+001  1.4745677E+002  3.7390374E+001 -1.8130735E+002 -1.2255969E+002 -3.4581686E+003 -1.1400429E+003 -2.6039903E+003 -7.9877069E+002 -1.5048606E+003  1.7853143E+004 -7.3447436E+002 -1.6866554E+003 -2.3714374E+003 -5.8146068E+002 -4.3336446E+002 -4.9971777E+002 -4.0997692E+002 -2.6794425E+002 -3.4789963E+002 -6.6301463E+002 -9.8227834E+002  5.4144105E+002  6.6247767E+002  4.0523803E+002  7.2868865E+002 -2.6335422E+002  4.6866447E+002  2.5276887E+002 -6.2736036E+002 -2.2320306E+002  6.2909248E+001 -4.6324804E+002  6.5718862E+002  7.7351624E+002  3.1616727E+002  2.2476831E+002  5.0963161E+002  7.8290633E+002  5.2522781E+002 -9.6555522E+002  9.7186452E+002  8.9136541E+002  8.3992980E+002  5.9894384E+002 -1.4117236E+002 -2.6671094E+002 -2.4017059E+002 -3.6459077E+002  3.0446221E+002  2.7343175E+002  1.4502497E+002 -1.8576227E+002 -1.4816886E+003 -3.3179386E+002 -2.9782603E+002 -7.0419785E+002 -6.7606876E+002  2.8940886E+002  3.1476203E+002  9.3099293E+002 -1.3569525E+003 -4.8402653E+003 0.0 0.0 0.0 0.0 0.0 0.0 0.0 0.0 0.0 0.0 0.0 0.0 0.0 0.0 0.0 0.0 0.0 0.0 0.0 0.0 0.0 0.0 0.0 0.0 0.0 0.0 0.0 0.0 0.0 0.0 0.0 0.0 0.0 0.0 0.0 0.0 0.0 0.0 0.0 0.0 0.0 0.0 0.0 0.0 0.0 0.0 0.0 0.0 0.0 0.0 0.0 0.0 0.0 0.0 0.0 0.0 0.0 0.0 0.0 0.0 0.0 0.0 0.0 0.0 0.0 0.0 0.0 0.0 0.0 0.0 0.0 0.0 0.0 0.0 0.0 0.0 0.0 0.0 0.0 0.0 0.0 0.0 0.0 0.0 0.0 0.0 0.0 0.0 0.0 0.0 0.0 0.0 0.0 0.0 0.0 0.0 0.0 0.0 0.0 0.0 0.0 0.0 0.0 0.0 0.0 0.0 0.0 0.0 0.0 0.0 0.0 0.0 0.0 0.0 0.0 0.0 0.0 0.0 0.0 0.0 0.0 0.0 0.0 0.0 0.0 0.0 0.0 0.0 0.0 0.0 0.0 0.0 0.0 0.0 0.0 0.0 0.0 0.0 0.0 0.0 0.0 0.0 0.0 0.0 0.0 0.0 0.0 0.0 0.0 0.0 0.0 0.0 0.0 0.0 0.0 0.0 0.0 0.0 0.0 0.0 0.0 0.0 0.0 0.0 0.0 0.0 0.0 0.0 0.0 0.0 0.0 0.0 0.0 0.0 0.0 0.0 0.0 0.0 0.0 0.0 0.0 0.0 0.0 0.0 0.0 0.0 0.0 0.0 0.0 0.0 0.0 0.0 0.0 0.0 0.0 0.0 0.0 0.0 0.0 0.0 0.0 0.0 0.0 0.0 0.0 0.0 0.0 0.0 0.0 0.0 0.0 0.0 0.0 0.0 0.0 0.0 0.0 0.0 0.0 0.0 0.0 0.0 0.0 0.0 0.0 0.0 0.0 0.0 0.0 0.0 0.0 0.0 0.0 0.0 0.0 0.0 0.0 0.0 0.0 0.0 0.0 0.0 0.0 0.0 0.0 0.0 0.0 0.0 0.0 0.0 0.0 0.0 0.0 0.0 0.0 0.0 0.0 0.0 0.0 0.0 0.0 0.0 0.0 0.0 0.0 0.0 0.0 0.0 0.0 0.0 0.0 0.0 0.0 0.0 0.0 0.0 0.0 0.0 0.0 0.0 0.0 0.0 0.0 0.0 0.0 0.0 0.0 0.0 0.0 0.0 0.0 0.0 0.0 0.0 0.0 0.0 0.0 0.0 0.0 0.0 0.0 0.0 0.0 0.0 0.0 0.0 0.0 0.0 0.0 0.0 0.0 0.0 0.0 0.0 0.0 0.0 0.0 0.0 0.0 0.0 0.0 0.0 0.0 0.0 0.0 0.0 0.0 0.0 0.0 0.0 0.0 0.0 0.0 0.0 0.0 0.0 0.0 0.0 0.0 0.0 0.0 0.0 0.0 0.0 0.0 0.0 0.0 0.0 0.0 0.0 0.0 0.0 0.0 0.0 0.0 0.0 0.0 0.0 0.0 0.0 0.0 0.0 0.0 0.0 0.0 0.0 0.0 0.0 0.0 0.0 0.0 0.0 0.0 0.0 0.0 0.0 0.0 0.0 0.0 0.0 0.0 0.0 0.0 0.0 0.0 0.0 0.0 0.0 0.0 0.0 0.0 0.0 0.0 0.0 0.0 0.0 0.0 0.0 0.0 0.0 0.0 0.0 0.0 0.0 0.0 0.0 0.0 0.0 0.0 0.0 0.0 0.0 0.0 0.0 0.0 0.0 0.0 0.0 0.0 0.0 0.0 0.0 0.0 0.0 0.0 0.0 0.0 0.0 0.0 0.0 0.0 0.0 0.0 0.0 0.0 0.0 0.0 0.0 0.0 0.0 0.0 0.0 0.0 0.0 0.0 0.0 0.0 0.0 0.0 0.0 0.0 0.0 0.0 0.0 0.0 0.0 0.0 0.0 0.0 0.0 0.0 0.0 0.0 0.0 0.0 0.0 0.0 0.0 0.0 0.0 0.0 0.0 0.0 0.0 0.0 0.0 0.0 0.0 0.0 0.0 0.0 0.0 0.0 0.0 0.0 0.0 0.0 0.0 0.0 0.0 0.0 0.0 0.0 0.0 0.0 0.0 0.0 0.0 0.0 0.0 0.0 0.0 0.0 0.0 0.0 0.0 0.0 0.0 0.0 0.0 0.0 0.0 0.0 0.0 0.0 0.0 0.0 0.0 0.0 0.0 0.0 0.0 0.0 0.0 0.0 0.0 0.0 0.0 0.0 0.0 0.0 0.0 0.0 0.0 0.0 0.0 0.0 0.0 0.0 0.0 0.0 0.0 0.0 0.0 0.0 0.0 0.0 0.0 0.0 0.0 0.0 0.0 0.0 0.0 0.0 0.0 0.0 0.0 0.0 0.0 0.0 0.0 0.0 0.0 0.0 0.0 0.0 0.0 0.0 0.0 0.0 0.0 0.0 0.0 0.0 0.0 0.0 0.0 0.0 0.0 0.0 0.0 0.0 0.0 0.0 0.0 0.0 0.0 0.0 0.0 0.0 0.0 0.0 0.0 0.0 0.0 0.0 0.0 0.0 0.0 0.0 0.0 0.0 0.0 0.0 0.0 0.0 0.0 0.0 0.0 0.0 0.0 0.0 0.0 0.0 0.0 0.0 0.0 0.0 0.0 0.0 0.0 0.0 0.0 0.0 0.0 0.0 0.0 0.0 0.0 0.0 0.0 0.0 0.0 0.0 0.0 0.0 0.0 0.0 0.0 0.0 0.0 0.0 0.0 0.0 0.0 0.0 0.0 0.0 0.0 0.0 0.0 0.0 0.0 0.0 0.0 0.0 0.0 0.0 0.0 0.0 0.0 0.0 0.0 0.0 0.0 0.0 0.0 0.0 0.0 0.0 0.0 0.0 0.0 0.0 0.0 0.0 0.0 0.0 0.0 0.0 0.0 0.0 0.0 0.0 0.0 0.0 0.0 0.0 0.0 0.0 0.0 0.0 0.0 0.0 0.0 0.0 0.0 0.0 0.0 0.0 0.0 0.0 0.0 0.0 0.0 0.0 0.0 0.0 0.0 0.0 0.0 0.0 0.0 0.0 0.0 0.0 0.0 0.0 0.0 0.0 0.0 0.0 0.0 0.0 0.0 0.0 0.0 0.0 0.0 0.0 0.0 0.0 0.0 0.0 0.0 0.0 0.0 0.0 0.0 0.0 0.0 0.0 0.0 0.0 0.0 0.0 0.0 0.0 0.0 0.0 0.0 0.0 0.0 0.0 0.0 0.0 0.0 0.0 0.0 0.0 0.0 0.0 0.0 0.0 0.0 0.0 0.0 0.0 0.0 0.0 0.0 0.0 0.0 0.0 0.0 0.0 0.0 0.0 0.0 0.0 0.0 0.0 0.0 0.0 0.0 0.0 0.0 0.0 0.0 0.0 0.0 0.0 0.0 0.0 0.0 0.0 0.0 0.0 0.0 0.0 0.0 0.0 0.0 0.0 0.0 0.0 0.0 0.0 0.0 0.0 0.0 0.0 0.0 0.0 0.0 0.0 0.0 0.0 0.0 0.0 0.0 0.0 0.0 0.0 0.0 0.0 0.0 0.0 0.0 0.0 0.0 0.0 0.0 0.0 0.0 0.0 0.0 0.0 0.0 0.0 0.0 0.0 0.0 0.0 0.0 0.0 0.0 0.0 0.0 0.0 0.0 0.0 0.0 0.0 0.0 0.0 0.0 0.0 0.0 0.0 0.0 0.0 0.0 0.0 0.0 0.0 0.0 0.0 0.0 0.0 0.0 0.0 0.0 0.0 0.0 0.0 0.0 0.0 0.0 0.0 0.0 0.0 0.0 0.0 0.0 0.0 0.0 0.0 0.0 0.0 0.0 0.0 0.0 0.0 0.0 0.0 0.0 0.0 0.0 0.0 0.0 0.0 0.0 0.0 0.0 0.0 0.0 0.0 0.0 0.0 0.0 0.0 0.0 0.0 0.0 0.0 0.0 0.0 0.0 0.0 0.0 0.0 0.0 0.0 0.0 0.0 0.0 0.0 0.0 0.0 0.0 0.0 0.0 0.0 0.0 0.0 0.0 0.0 0.0 0.0 0.0 0.0 0.0 0.0 0.0 0.0 0.0 0.0 0.0 0.0 0.0 0.0 0.0 0.0 0.0 0.0 0.0 0.0 0.0 0.0 0.0 0.0 0.0 0.0 0.0 0.0 0.0 0.0 0.0 0.0 0.0 0.0 0.0 0.0 0.0 0.0 0.0 0.0 0.0 0.0 0.0 0.0 0.0 0.0 0.0 0.0 0.0 0.0 0.0 0.0 0.0 0.0 0.0 0.0 0.0 0.0 0.0 0.0 0.0 0.0 0.0 0.0 0.0 0.0 0.0 0.0 0.0 0.0 0.0 0.0 0.0 0.0 0.0 0.0 0.0 0.0 0.0 0.0 0.0 0.0 0.0 0.0 0.0 0.0 0.0 0.0 0.0 0.0 0.0 0.0 0.0 0.0 0.0 0.0 0.0 0.0 0.0 0.0 0.0 0.0 0.0 0.0 0.0 0.0 0.0 0.0 0.0 0.0 0.0 0.0 0.0 0.0 0.0 0.0 0.0 0.0 0.0 0.0 0.0 0.0 0.0 0.0 0.0 0.0 0.0 0.0 0.0 0.0 0.0 0.0 0.0 0.0 0.0 0.0 0.0 0.0 0.0 0.0 0.0 0.0 0.0 0.0 0.0 0.0 0.0 0.0 0.0 0.0 0.0 0.0 0.0 0.0 0.0 0.0 0.0 0.0 0.0 0.0 0.0 0.0 0.0 0.0 0.0 0.0 0.0 0.0 0.0 0.0 0.0 0.0 0.0 0.0 0.0 0.0 0.0 0.0 0.0 0.0 0.0 0.0 0.0 0.0 0.0 0.0 0.0 0.0 0.0 0.0 0.0 0.0 0.0 0.0 0.0 0.0 0.0 0.0 0.0 0.0 0.0 0.0 0.0 0.0 0.0 0.0 0.0 0.0 0.0 0.0 0.0 0.0 0.0 0.0 0.0 0.0 0.0 0.0 0.0 0.0 0.0 0.0 0.0 0.0 0.0 0.0 0.0 0.0 0.0 0.0 0.0 0.0 0.0 0.0 0.0 0.0 0.0 0.0 0.0 0.0 0.0 0.0 0.0 0.0 0.0 0.0 0.0 0.0 0.0 0.0 0.0 0.0 0.0 0.0 0.0 0.0 0.0 0.0 0.0 0.0 0.0 0.0 0.0 0.0 0.0 0.0 0.0 0.0 0.0 0.0 0.0 0.0 0.0 0.0 0.0 0.0 0.0 0.0 0.0 0.0 0.0 0.0 0.0 0.0 0.0 0.0 0.0 0.0 0.0 0.0 0.0 0.0 0.0 0.0 0.0 0.0 0.0 0.0 0.0 0.0 0.0 0.0 0.0 0.0 0.0 0.0 0.0 0.0 0.0 0.0 0.0 0.0
        </DataArray>
        <DataArray type="Float64" Name="stress_yz" NumberOfComponents="1" format="ascii">
 0.0 0.0 0.0 0.0 0.0 0.0 0.0 0.0 0.0 0.0 0.0 0.0 0.0 0.0 0.0 0.0 0.0 0.0 0.0 0.0 0.0 0.0 0.0 0.0 0.0 0.0 0.0 0.0 0.0 0.0 0.0 0.0 0.0 0.0 0.0 0.0 0.0 0.0 0.0 0.0 0.0 0.0 0.0 0.0 0.0 0.0 0.0 0.0 0.0 0.0 0.0 0.0 0.0 0.0 0.0 0.0 0.0 0.0 0.0 0.0 0.0 0.0 0.0 0.0 0.0 0.0 0.0 0.0 0.0 0.0 0.0 0.0 0.0 0.0 0.0 0.0 0.0 0.0 0.0 0.0 0.0 0.0 0.0 0.0 0.0 0.0 0.0 0.0 0.0 0.0 0.0 0.0 0.0 0.0 0.0 0.0 0.0 0.0 0.0 0.0 0.0 0.0 0.0 0.0 0.0 0.0 0.0 0.0 0.0 0.0 0.0 0.0 0.0 0.0 0.0 0.0 0.0 0.0 0.0 0.0 0.0 0.0 0.0 0.0 0.0 0.0 0.0 0.0 0.0 0.0 0.0 0.0 0.0 0.0 0.0 0.0 0.0 0.0 0.0 0.0 0.0 0.0 0.0 0.0 0.0 0.0 0.0 0.0 0.0 0.0 0.0 0.0 0.0 0.0 0.0 0.0 0.0 0.0 0.0 0.0 0.0 0.0 0.0 0.0 0.0 0.0 0.0 0.0 0.0 0.0 0.0 0.0 0.0 0.0 0.0 0.0 0.0 0.0 0.0 0.0 0.0 0.0 0.0 0.0 0.0 0.0 0.0 0.0 0.0 0.0 0.0 0.0 0.0 0.0 0.0 0.0 0.0 0.0 0.0 0.0 0.0 0.0 0.0 0.0 0.0 0.0 0.0 0.0 0.0 0.0 0.0 0.0 0.0 0.0 0.0 0.0 0.0 0.0 0.0 0.0 0.0 0.0 0.0 0.0 0.0 0.0 0.0 0.0 0.0 0.0 0.0 0.0 0.0 0.0 0.0 0.0 0.0 0.0 0.0 0.0 0.0 0.0 0.0 0.0 0.0 0.0 0.0 0.0 0.0 0.0 0.0 0.0 0.0 0.0 0.0 0.0 0.0 0.0 0.0 0.0 0.0 0.0 0.0 0.0 0.0 0.0 0.0 0.0 0.0 0.0 0.0 0.0 0.0 0.0 0.0 0.0 0.0 0.0 0.0 0.0 0.0 0.0 0.0 0.0 0.0 0.0 0.0 0.0 0.0 0.0 0.0 0.0 0.0 0.0 0.0 0.0 0.0 0.0 0.0 0.0 0.0 0.0 0.0 0.0 0.0 0.0 0.0 0.0 0.0 0.0 0.0 0.0 0.0 0.0 0.0 0.0 0.0 0.0 0.0 0.0 0.0 0.0 0.0 0.0 0.0 0.0 0.0 0.0 0.0 0.0 0.0 0.0 0.0 0.0 0.0 0.0 0.0 0.0 0.0 0.0 0.0 0.0 0.0 0.0 0.0 0.0 0.0 0.0 0.0 0.0 0.0 0.0 0.0 0.0 0.0 0.0 0.0 0.0 0.0 0.0 0.0 0.0 0.0 0.0 0.0 0.0 0.0 0.0 0.0 0.0 0.0 0.0 0.0 0.0 0.0 0.0 0.0 0.0 0.0 0.0 0.0 0.0 0.0 0.0 0.0 0.0 0.0 0.0 0.0 0.0 0.0 0.0 0.0 0.0 0.0 0.0 0.0 0.0 0.0 0.0 0.0 0.0 0.0 0.0 0.0 0.0 0.0 0.0 0.0 0.0 0.0 0.0 0.0 0.0 0.0 0.0 0.0 0.0 0.0 0.0 0.0 0.0 0.0 0.0 0.0 0.0 0.0 0.0 0.0 0.0 0.0 0.0 0.0 0.0 0.0 0.0 0.0 0.0 0.0 0.0 0.0 0.0 0.0 0.0 0.0 0.0 0.0 0.0 0.0 0.0 0.0 0.0 0.0 0.0 0.0 0.0 0.0 0.0 0.0 0.0 0.0 0.0 0.0 0.0 0.0 0.0 0.0 0.0 0.0 0.0 0.0 0.0 0.0 0.0 0.0 0.0 0.0 0.0 0.0 0.0 0.0 0.0 0.0 0.0 0.0 0.0 0.0 0.0 0.0 0.0 0.0 0.0 0.0 0.0 0.0 0.0 0.0 0.0 0.0 0.0 0.0 0.0 0.0 0.0 0.0 0.0 0.0 0.0 0.0 0.0 0.0 0.0 0.0 0.0 0.0 0.0 0.0 0.0 0.0 0.0 0.0 0.0 0.0 0.0 0.0 0.0 0.0 0.0 0.0 0.0 0.0 0.0 0.0 0.0 0.0 0.0 0.0 0.0 0.0 0.0 0.0 0.0 0.0 0.0 0.0 0.0 0.0 0.0 0.0 0.0 0.0 0.0 0.0 0.0 0.0 0.0 0.0 0.0 0.0 0.0 0.0 0.0 0.0 0.0 0.0 0.0 0.0 0.0 0.0 0.0 0.0 0.0 0.0 0.0 0.0 0.0 0.0 0.0 0.0 0.0 0.0 0.0 0.0 0.0 0.0 0.0 0.0 0.0 0.0 0.0 0.0 0.0 0.0 0.0 0.0 0.0 0.0 0.0 0.0 0.0 0.0 0.0 0.0 0.0 0.0 0.0 0.0 0.0 0.0 0.0 0.0 0.0 0.0 0.0 0.0 0.0 0.0 0.0 0.0 0.0 0.0 0.0 0.0 0.0 0.0 0.0 0.0 0.0 0.0 0.0 0.0 0.0 0.0 0.0 0.0 0.0 0.0 0.0 0.0 0.0 0.0 0.0 0.0 0.0 0.0 0.0 0.0 0.0 0.0 0.0 0.0 0.0 0.0 0.0 0.0 0.0 0.0 0.0 0.0 0.0 0.0 0.0 0.0 0.0 0.0 0.0 0.0 0.0 0.0 0.0 0.0 0.0 0.0 0.0 0.0 0.0 0.0 0.0 0.0 0.0 0.0 0.0 0.0 0.0 0.0 0.0 0.0 0.0 0.0 0.0 0.0 0.0 0.0 0.0 0.0 0.0 0.0 0.0 0.0 0.0 0.0 0.0 0.0 0.0 0.0 0.0 0.0 0.0 0.0 0.0 0.0 0.0 0.0 0.0 0.0 0.0 0.0 0.0 0.0 0.0 0.0 0.0 0.0 0.0 0.0 0.0 0.0 0.0 0.0 0.0 0.0 0.0 0.0 0.0 0.0 0.0 0.0 0.0 0.0 0.0 0.0 0.0 0.0 0.0 0.0 0.0 0.0 0.0 0.0 0.0 0.0 0.0 0.0 0.0 0.0 0.0 0.0 0.0 0.0 0.0 0.0 0.0 0.0 0.0 0.0 0.0 0.0 0.0 0.0 0.0 0.0 0.0 0.0 0.0 0.0 0.0 0.0 0.0 0.0 0.0 0.0 0.0 0.0 0.0 0.0 0.0 0.0 0.0 0.0 0.0 0.0 0.0 0.0 0.0 0.0 0.0 0.0 0.0 0.0 0.0 0.0 0.0 0.0 0.0 0.0 0.0 0.0 0.0 0.0 0.0 0.0 0.0 0.0 0.0 0.0 0.0 0.0 0.0 0.0 0.0 0.0 0.0 0.0 0.0 0.0 0.0 0.0 0.0 0.0 0.0 0.0 0.0 0.0 0.0 0.0 0.0 0.0 0.0 0.0 0.0 0.0 0.0 0.0 0.0 0.0 0.0 0.0 0.0 0.0 0.0 0.0 0.0 0.0 0.0 0.0 0.0 0.0 0.0 0.0 0.0 0.0 0.0 0.0 0.0 0.0 0.0 0.0 0.0 0.0 0.0 0.0 0.0 0.0 0.0 0.0 0.0 0.0 0.0 0.0 0.0 0.0 0.0 0.0 0.0 0.0 0.0 0.0 0.0 0.0 0.0 0.0 0.0 0.0 0.0 0.0 0.0 0.0 0.0 0.0 0.0 0.0 0.0 0.0 0.0 0.0 0.0 0.0 0.0 0.0 0.0 0.0 0.0 0.0 0.0 0.0 0.0 0.0 0.0 0.0 0.0 0.0 0.0 0.0 0.0 0.0 0.0 0.0 0.0 0.0 0.0 0.0 0.0 0.0 0.0 0.0 0.0 0.0 0.0 0.0 0.0 0.0 0.0 0.0 0.0 0.0 0.0 0.0 0.0 0.0 0.0 0.0 0.0 0.0 0.0 0.0 0.0 0.0 0.0 0.0 0.0 0.0 0.0 0.0 0.0 0.0 0.0 0.0 0.0 0.0 0.0 0.0 0.0 0.0 0.0 0.0 0.0 0.0 0.0 0.0 0.0 0.0 0.0 0.0 0.0 0.0 0.0 0.0 0.0 0.0 0.0 0.0 0.0 0.0 0.0 0.0 0.0 0.0 0.0 0.0 0.0 0.0 0.0 0.0 0.0 0.0 0.0 0.0 0.0 0.0 0.0 0.0 0.0 0.0 0.0 0.0 0.0 0.0 0.0 0.0 0.0 0.0 0.0 0.0 0.0 0.0 0.0 0.0 0.0 0.0 0.0 0.0 0.0 0.0 0.0 0.0 0.0 0.0 0.0 0.0 0.0 0.0 0.0 0.0 0.0 0.0 0.0 0.0 0.0 0.0 0.0 0.0 0.0 0.0 0.0 0.0 0.0 0.0 0.0 0.0 0.0 0.0 0.0 0.0 0.0 0.0 0.0 0.0 0.0 0.0 0.0 0.0 0.0 0.0 0.0 0.0 0.0 0.0 0.0 0.0 0.0 0.0 0.0 0.0 0.0 0.0 0.0 0.0 0.0 0.0 0.0 0.0 0.0 0.0 0.0 0.0 0.0 0.0 0.0 0.0 0.0 0.0 0.0 0.0 0.0 0.0 0.0 0.0 0.0 0.0 0.0 0.0 0.0 0.0 0.0 0.0 0.0 0.0 0.0 0.0 0.0 0.0 0.0 0.0 0.0 0.0 0.0 0.0 0.0 0.0 0.0 0.0 0.0 0.0 0.0 0.0 0.0 0.0 0.0 0.0 0.0 0.0 0.0 0.0 0.0 0.0 0.0 0.0 0.0 0.0 0.0 0.0 0.0 0.0 0.0 0.0 0.0 0.0 0.0 0.0 0.0 0.0 0.0 0.0 0.0 0.0 0.0 0.0 0.0 0.0 0.0 0.0 0.0 0.0 0.0 0.0 0.0 0.0 0.0 0.0 0.0 0.0 0.0 0.0 0.0 0.0 0.0 0.0 0.0 0.0 0.0 0.0 0.0 0.0 0.0 0.0 0.0 0.0 0.0 0.0 0.0 0.0 0.0 0.0 0.0 0.0 0.0 0.0 0.0 0.0 0.0 0.0 0.0 0.0 0.0 0.0 0.0 0.0 0.0 0.0 0.0 0.0 0.0 0.0 0.0 0.0 0.0 0.0 0.0 0.0 0.0 0.0 0.0 0.0 0.0 0.0 0.0 0.0 0.0 0.0 0.0 0.0 0.0 0.0 0.0 0.0 0.0 0.0 0.0 0.0 0.0 0.0 0.0 0.0 0.0 0.0 0.0 0.0 0.0 0.0 0.0 0.0 0.0 0.0 0.0 0.0 0.0 0.0 0.0 0.0 0.0 0.0 0.0 0.0 0.0 0.0 0.0 0.0 0.0 0.0 0.0 0.0 0.0 0.0 0.0 0.0 0.0 0.0 0.0 0.0 0.0 0.0 0.0 0.0 0.0 0.0 0.0 0.0 0.0 0.0 0.0 0.0 0.0 0.0 0.0 0.0 0.0 0.0 0.0 0.0 0.0 0.0 0.0 0.0 0.0 0.0 0.0 0.0 0.0 0.0 0.0 0.0 0.0 0.0 0.0 0.0 0.0 0.0 0.0 0.0 0.0 0.0 0.0 0.0 0.0 0.0 0.0 0.0 0.0 0.0 0.0 0.0 0.0 0.0 0.0 0.0 0.0 0.0 0.0 0.0 0.0 0.0 0.0 0.0 0.0 0.0 0.0 0.0 0.0 0.0 0.0 0.0 0.0 0.0 0.0 0.0 0.0 0.0 0.0 0.0 0.0 0.0 0.0 0.0 0.0 0.0 0.0 0.0 0.0 0.0 0.0 0.0 0.0 0.0 0.0 0.0 0.0 0.0 0.0 0.0 0.0 0.0 0.0 0.0 0.0 0.0 0.0 0.0 0.0 0.0 0.0 0.0 0.0 0.0 0.0 0.0 0.0 0.0 0.0 0.0 0.0 0.0 0.0 0.0 0.0 0.0 0.0 0.0 0.0 0.0 0.0 0.0 0.0 0.0 0.0 0.0 0.0 0.0 0.0 0.0 0.0 0.0 0.0 0.0 0.0 0.0 0.0 0.0 0.0 0.0 0.0 0.0 0.0 0.0 0.0 0.0 0.0 0.0 0.0 0.0 0.0 0.0 0.0 0.0 0.0 0.0 0.0 0.0 0.0 0.0 0.0 0.0 0.0 0.0 0.0 0.0 0.0 0.0 0.0 0.0 0.0 0.0 0.0 0.0 0.0 0.0 0.0 0.0 0.0 0.0 0.0 0.0 0.0 0.0 0.0 0.0 0.0 0.0 0.0 0.0 0.0 0.0 0.0 0.0 0.0 0.0 0.0 0.0 0.0 0.0 0.0 0.0 0.0 0.0 0.0 0.0 0.0 0.0 0.0 0.0 0.0 0.0 0.0 0.0 0.0 0.0 0.0 0.0 0.0 0.0 0.0 0.0 0.0 0.0 0.0 0.0 0.0 0.0 0.0 0.0 0.0 0.0 0.0 0.0 0.0 0.0 0.0 0.0 0.0 0.0 0.0 0.0 0.0 0.0 0.0 0.0 0.0 0.0 0.0 0.0 0.0 0.0 0.0 0.0 0.0 0.0 0.0 0.0 0.0 0.0 0.0 0.0 0.0 0.0 0.0 0.0 0.0 0.0 0.0 0.0 0.0 0.0 0.0 0.0 0.0 0.0 0.0 0.0 0.0 0.0 0.0 0.0 0.0 0.0 0.0 0.0 0.0 0.0 0.0 0.0 0.0 0.0 0.0 0.0 0.0 0.0 0.0 0.0 0.0 0.0 0.0 0.0 0.0 0.0 0.0 0.0 0.0 0.0 0.0 0.0 0.0 0.0 0.0 0.0 0.0 0.0 0.0 0.0 0.0 0.0 0.0 0.0 0.0 0.0 0.0 0.0 0.0 0.0 0.0 0.0 0.0 0.0 0.0 0.0 0.0 0.0 0.0 0.0 0.0 0.0 0.0 0.0 0.0 0.0 0.0 0.0 0.0 0.0 0.0 0.0 0.0 0.0 0.0 0.0 0.0 0.0 0.0 0.0 0.0 0.0 0.0 0.0 0.0 0.0 0.0 0.0 0.0 0.0 0.0 0.0 0.0 0.0 0.0 0.0 0.0 0.0 0.0 0.0 0.0 0.0 0.0 0.0 0.0 0.0 0.0 0.0 0.0 0.0 0.0 0.0 0.0 0.0 0.0 0.0 0.0 0.0 0.0 0.0 0.0 0.0 0.0 0.0 0.0 0.0 0.0 0.0 0.0 0.0 0.0 0.0 0.0 0.0 0.0 0.0 0.0 0.0 0.0 0.0 0.0 0.0 0.0 0.0 0.0 0.0 0.0 0.0 0.0 0.0 0.0 0.0 0.0 0.0 0.0 0.0 0.0 0.0 0.0 0.0 0.0 0.0 0.0 0.0 0.0 0.0 0.0 0.0 0.0 0.0 0.0 0.0 0.0 0.0 0.0 0.0 0.0 0.0 0.0 0.0 0.0 0.0 0.0 0.0 0.0 0.0 0.0 0.0 0.0 0.0 0.0 0.0 0.0 0.0 0.0 0.0 0.0 0.0 0.0 0.0 0.0 0.0 0.0 0.0 0.0 0.0 0.0 0.0 0.0 0.0 0.0 0.0 0.0 0.0 0.0 0.0 0.0 0.0 0.0 0.0 0.0 0.0 0.0 0.0 0.0 0.0 0.0 0.0 0.0 0.0 0.0 0.0 0.0 0.0 0.0 0.0 0.0 0.0 0.0 0.0 0.0 0.0 0.0 0.0 0.0 0.0 0.0 0.0 0.0 0.0 0.0 0.0 0.0 0.0 0.0 0.0 0.0 0.0 0.0 0.0 0.0 0.0 0.0 0.0 0.0 0.0 0.0 0.0 0.0 0.0 0.0 0.0 0.0 0.0 0.0 0.0 0.0 0.0 0.0 0.0 0.0 0.0 0.0 0.0 0.0 0.0 0.0 0.0 0.0 0.0 0.0 0.0 0.0 0.0 0.0 0.0 0.0 0.0 0.0 0.0 0.0 0.0 0.0 0.0 0.0 0.0 0.0 0.0 0.0 0.0 0.0 0.0 0.0 0.0 0.0 0.0 0.0 0.0 0.0 0.0 0.0 0.0 0.0 0.0 0.0 0.0 0.0 0.0 0.0 0.0 0.0 0.0 0.0 0.0 0.0 0.0 0.0 0.0 0.0 0.0 0.0 0.0 0.0 0.0 0.0 0.0 0.0 0.0 0.0 0.0 0.0 0.0 0.0 0.0 0.0 0.0 0.0 0.0 0.0 0.0 0.0 0.0 0.0 0.0 0.0 0.0 0.0 0.0 0.0 0.0 0.0 0.0 0.0 0.0 0.0 0.0 0.0 0.0 0.0 0.0 0.0 0.0 0.0 0.0 0.0 0.0 0.0 0.0 0.0 0.0 0.0 0.0 0.0 0.0 0.0 0.0 0.0 0.0 0.0 0.0 0.0 0.0 0.0 0.0 0.0 0.0 0.0 0.0 0.0 0.0 0.0 0.0 0.0 0.0 0.0 0.0 0.0 0.0 0.0 0.0 0.0 0.0 0.0 0.0 0.0 0.0 0.0 0.0 0.0 0.0 0.0 0.0 0.0 0.0 0.0 0.0 0.0 0.0 0.0 0.0 0.0 0.0 0.0 0.0 0.0 0.0 0.0 0.0 0.0 0.0 0.0 0.0 0.0 0.0 0.0 0.0 0.0 0.0 0.0 0.0 0.0 0.0 0.0 0.0 0.0 0.0 0.0 0.0 0.0 0.0 0.0 0.0 0.0 0.0 0.0 0.0 0.0 0.0 0.0 0.0 0.0 0.0 0.0 0.0 0.0 0.0 0.0 0.0 0.0 0.0 0.0 0.0 0.0 0.0 0.0 0.0 0.0 0.0 0.0 0.0 0.0 0.0 0.0 0.0 0.0 0.0 0.0 0.0 0.0 0.0 0.0 0.0 0.0 0.0 0.0 0.0 0.0 0.0 0.0 0.0 0.0 0.0 0.0 0.0 0.0 0.0 0.0 0.0 0.0 0.0 0.0 0.0 0.0 0.0 0.0 0.0 0.0 0.0 0.0 0.0 0.0 0.0 0.0 0.0 0.0 0.0 0.0 0.0 0.0 0.0 0.0 0.0 0.0 0.0 0.0 0.0 0.0 0.0 0.0 0.0 0.0 0.0 0.0 0.0 0.0 0.0 0.0 0.0 0.0 0.0 0.0 0.0 0.0 0.0 0.0 0.0 0.0 0.0 0.0 0.0 0.0 0.0 0.0 0.0 0.0 0.0 0.0 0.0 0.0 0.0 0.0 0.0 0.0 0.0 0.0 0.0 0.0 0.0 0.0 0.0 0.0 0.0 0.0 0.0 0.0 0.0 0.0 0.0 0.0 0.0 0.0 0.0 0.0 0.0 0.0 0.0 0.0 0.0 0.0 0.0 0.0 0.0 0.0 0.0 0.0 0.0 0.0 0.0 0.0 0.0 0.0 0.0 0.0 0.0 0.0 0.0 0.0 0.0 0.0 0.0 0.0 0.0 0.0 0.0 0.0 0.0 0.0 0.0 0.0 0.0 0.0 0.0 0.0 0.0 0.0 0.0 0.0 0.0 0.0 0.0 0.0 0.0 0.0 0.0 0.0 0.0 0.0 0.0 0.0 0.0 0.0 0.0 0.0 0.0 0.0 0.0 0.0 0.0 0.0 0.0 0.0 0.0 0.0 0.0 0.0 0.0 0.0 0.0 0.0 0.0 0.0 0.0 0.0 0.0 0.0 0.0 0.0 0.0 0.0 0.0 0.0 0.0 0.0 0.0 0.0 0.0 0.0 0.0 0.0 0.0 0.0 0.0 0.0 0.0 0.0 0.0 0.0 0.0 0.0 0.0 0.0 0.0 0.0 0.0 0.0 0.0 0.0 0.0 0.0 0.0 0.0 0.0 0.0 0.0 0.0 0.0 0.0 0.0 0.0 0.0 0.0 0.0 0.0 0.0 0.0 0.0 0.0 0.0 0.0 0.0 0.0 0.0 0.0 0.0 0.0 0.0 0.0 0.0 0.0 0.0 0.0 0.0 0.0 0.0 0.0 0.0 0.0 0.0 0.0 0.0 0.0 0.0 0.0 0.0 0.0 0.0 0.0 0.0 0.0 0.0 0.0 0.0 0.0 0.0 0.0 0.0 0.0 0.0 0.0 0.0 0.0 0.0 0.0 0.0 0.0 0.0 0.0 0.0 0.0 0.0 0.0 0.0 0.0 0.0 0.0 0.0 0.0 0.0 0.0 0.0 0.0 0.0 0.0 0.0 0.0 0.0 0.0 0.0 0.0 0.0 0.0 0.0 0.0 0.0 0.0 0.0 0.0 0.0 0.0 0.0 0.0 0.0 0.0 0.0 0.0 0.0 0.0 0.0 0.0 0.0 0.0 0.0 0.0 0.0 0.0 0.0 0.0 0.0 0.0 0.0 0.0 0.0 0.0 0.0 0.0 0.0 0.0 0.0 0.0 0.0 0.0 0.0 0.0 0.0 0.0 0.0 0.0 0.0 0.0 0.0 0.0 0.0 0.0 0.0 0.0 0.0 0.0 0.0 0.0 0.0 0.0 0.0 0.0 0.0 0.0 0.0 0.0 0.0 0.0 0.0 0.0 0.0 0.0 0.0 0.0 0.0 0.0 0.0 0.0 0.0 0.0 0.0 0.0 0.0 0.0 0.0 0.0 0.0 0.0 0.0 0.0 0.0 0.0 0.0 0.0 0.0 0.0 0.0 0.0 0.0 0.0 0.0 0.0 0.0 0.0 0.0 0.0 0.0 0.0 0.0 0.0 0.0 0.0 0.0 0.0 0.0 0.0 0.0 0.0 0.0 0.0 0.0 0.0 0.0 0.0 0.0 0.0 0.0 0.0 0.0 0.0 0.0 0.0 0.0 0.0 0.0 0.0 0.0 0.0 0.0 0.0 0.0 0.0 0.0 0.0 0.0 0.0 0.0 0.0 0.0 0.0 0.0 0.0 0.0 0.0 0.0 0.0 0.0 0.0 0.0 0.0 0.0 0.0 0.0 0.0 0.0 0.0 0.0 0.0 0.0 0.0 0.0 0.0 0.0 0.0 0.0 0.0 0.0 0.0 0.0 0.0 0.0 0.0 0.0 0.0 0.0 0.0 0.0 0.0 0.0 0.0 0.0 0.0 0.0 0.0 0.0 0.0 0.0 0.0 0.0 0.0 0.0 0.0 0.0 0.0 0.0 0.0 0.0 0.0 0.0 0.0 0.0 0.0 0.0 0.0 0.0 0.0 0.0 0.0 0.0 0.0 0.0 0.0 0.0 0.0 0.0 0.0 0.0 0.0 0.0 0.0 0.0 0.0 0.0 0.0 0.0 0.0 0.0 0.0 0.0 0.0 0.0 0.0 0.0 0.0 0.0 0.0 0.0 0.0 0.0 0.0 0.0 0.0 0.0 0.0 0.0 0.0 0.0 0.0 0.0 0.0 0.0 0.0 0.0 0.0 0.0 0.0 0.0 0.0 0.0 0.0 0.0 0.0 0.0 0.0 0.0 0.0 0.0 0.0 0.0 0.0 0.0 0.0 0.0 0.0 0.0 0.0 0.0 0.0 0.0 0.0 0.0 0.0 0.0 0.0 0.0 0.0 0.0 0.0 0.0 0.0 0.0 0.0 0.0 0.0 0.0 0.0 0.0 0.0 0.0 0.0 0.0 0.0 0.0 0.0 0.0 0.0 0.0 0.0 0.0 0.0 0.0 0.0 0.0 0.0 0.0 0.0 0.0 0.0 0.0 0.0 0.0 0.0 0.0 0.0 0.0 0.0 0.0 0.0 0.0 0.0 0.0 0.0 0.0 0.0 0.0 0.0 0.0 0.0 0.0 0.0 0.0 0.0 0.0 0.0 0.0 0.0 0.0 0.0 0.0 0.0 0.0 0.0 0.0 0.0 0.0 0.0 0.0 0.0 0.0 0.0 0.0 0.0 0.0 0.0 0.0 0.0 0.0 0.0 0.0 0.0 0.0 0.0 0.0 0.0 0.0 0.0 0.0 0.0 0.0 0.0 0.0 0.0 0.0 0.0 0.0 0.0 0.0 0.0 0.0 0.0 0.0 0.0 0.0 0.0 0.0 0.0 0.0 0.0 0.0 0.0 0.0 0.0 0.0 0.0 0.0 0.0 0.0 0.0 0.0 0.0 0.0 0.0 0.0 0.0 0.0 0.0 0.0 0.0 0.0 0.0 0.0 0.0 0.0 0.0 0.0 0.0 0.0 0.0 0.0 0.0 0.0 0.0 0.0 0.0 0.0 0.0 0.0 0.0 0.0 0.0 0.0 0.0 0.0 0.0 0.0 0.0 0.0 0.0 0.0 0.0 0.0 0.0 0.0 0.0 0.0 0.0 0.0 0.0 0.0 0.0 0.0 0.0 0.0 0.0 0.0 0.0 0.0 0.0 0.0 0.0 0.0 0.0 0.0 0.0 0.0 0.0 0.0 0.0 0.0 0.0 0.0 0.0 0.0 0.0 0.0 0.0 0.0 0.0 0.0 0.0 0.0 0.0 0.0 0.0 0.0 0.0 0.0 0.0 0.0 0.0 0.0 0.0 0.0 0.0 0.0 0.0 0.0 0.0 0.0 0.0 0.0 0.0 0.0 0.0 0.0 0.0 0.0 0.0 0.0 0.0 0.0 0.0 0.0 0.0 0.0 0.0 0.0 0.0 0.0 0.0 0.0 0.0 0.0 0.0 0.0 0.0 0.0 0.0 0.0 0.0 0.0 0.0 0.0 0.0 0.0 0.0 0.0 0.0 0.0 0.0 0.0 0.0 0.0 0.0 0.0 0.0 0.0 0.0 0.0 0.0 0.0 0.0 0.0 0.0 0.0 0.0 0.0 0.0 0.0 0.0 0.0 0.0 0.0 0.0 0.0 0.0 0.0 0.0 0.0 0.0 0.0 0.0 0.0 0.0 0.0 0.0 0.0 0.0 0.0 0.0 0.0 0.0 0.0 0.0 0.0 0.0 0.0 0.0 0.0 0.0 0.0 0.0 0.0 0.0 0.0 0.0 0.0 0.0 0.0 0.0 0.0 0.0 0.0 0.0 0.0 0.0 0.0 0.0 0.0 0.0 0.0 0.0 0.0 0.0 0.0 0.0 0.0 0.0 0.0 0.0 0.0 0.0 0.0 0.0 0.0 0.0 0.0 0.0 0.0 0.0 0.0 0.0 0.0 0.0 0.0 0.0 0.0 0.0 0.0 0.0 0.0 0.0 0.0 0.0 0.0 0.0 0.0 0.0 0.0 0.0 0.0 0.0 0.0 0.0 0.0 0.0 0.0 0.0 0.0 0.0 0.0 0.0 0.0 0.0 0.0 0.0 0.0 0.0 0.0 0.0 0.0 0.0 0.0 0.0 0.0 0.0 0.0 0.0 0.0 0.0 0.0 0.0 0.0 0.0 0.0 0.0 0.0 0.0 0.0 0.0 0.0 0.0 0.0 0.0 0.0 0.0 0.0 0.0 0.0 0.0 0.0 0.0 0.0 0.0 0.0 0.0 0.0 0.0 0.0 0.0 0.0 0.0 0.0 0.0 0.0 0.0 0.0 0.0 0.0 0.0 0.0 0.0 0.0 0.0 0.0 0.0 0.0 0.0 0.0 0.0 0.0 0.0 0.0 0.0 0.0 0.0 0.0 0.0 0.0 0.0 0.0 0.0 0.0 0.0 0.0 0.0 0.0 0.0 0.0 0.0 0.0 0.0 0.0 0.0 0.0 0.0 0.0 0.0 0.0 0.0 0.0 0.0 0.0 0.0 0.0 0.0 0.0 0.0 0.0 0.0 0.0 0.0 0.0 0.0 0.0 0.0 0.0 0.0 0.0 0.0 0.0 0.0 0.0 0.0 0.0 0.0 0.0 0.0 0.0 0.0 0.0 0.0 0.0 0.0 0.0 0.0 0.0 0.0 0.0 0.0 0.0 0.0 0.0 0.0 0.0 0.0 0.0 0.0 0.0 0.0 0.0 0.0 0.0 0.0 0.0 0.0 0.0 0.0 0.0 0.0 0.0 0.0 0.0 0.0 0.0 0.0 0.0 0.0 0.0 0.0 0.0 0.0 0.0 0.0 0.0 0.0 0.0 0.0 0.0 0.0 0.0 0.0 0.0 0.0 0.0 0.0 0.0 0.0 0.0 0.0 0.0 0.0 0.0 0.0 0.0 0.0 0.0 0.0 0.0 0.0 0.0 0.0 0.0 0.0 0.0 0.0 0.0 0.0 0.0 0.0 0.0 0.0 0.0 0.0 0.0 0.0 0.0 0.0 0.0 0.0 0.0 0.0 0.0 0.0 0.0 0.0 0.0 0.0 0.0 0.0 0.0 0.0 0.0 0.0 0.0 0.0 0.0 0.0 0.0 0.0 0.0 0.0 0.0 0.0 0.0 0.0 0.0 0.0 0.0 0.0 0.0 0.0 0.0 0.0 0.0 0.0 0.0 0.0 0.0 0.0 0.0 0.0 0.0 0.0 0.0 0.0 0.0 0.0 0.0 0.0 0.0 0.0 0.0 0.0 0.0 0.0 0.0 0.0 0.0 0.0 0.0 0.0 0.0 0.0 0.0 0.0 0.0 0.0 0.0 0.0 0.0 0.0 0.0 0.0 0.0 0.0 0.0 0.0 0.0 0.0 0.0 0.0 0.0 0.0 0.0 0.0 0.0 0.0 0.0 0.0 0.0 0.0 0.0 0.0 0.0 0.0 0.0 0.0 0.0 0.0 0.0 0.0 0.0 0.0 0.0 0.0 0.0 0.0 0.0 0.0 0.0 0.0 0.0 0.0 0.0 0.0 0.0 0.0 0.0 0.0 0.0 0.0 0.0 0.0 0.0 0.0 0.0 0.0 0.0 0.0 0.0 0.0 0.0 0.0 0.0 0.0 0.0 0.0 0.0 0.0 0.0 0.0 0.0 0.0 0.0 0.0 0.0 0.0 0.0 0.0 0.0 0.0 0.0 0.0 0.0 0.0 0.0 0.0 0.0 0.0 0.0 0.0 0.0 0.0 0.0 0.0 0.0 0.0 0.0 0.0 0.0 0.0 0.0 0.0 0.0 0.0 0.0 0.0 0.0 0.0 0.0 0.0 0.0 0.0 0.0 0.0 0.0 0.0 0.0 0.0 0.0 0.0 0.0 0.0 0.0 0.0 0.0 0.0 0.0 0.0 0.0 0.0 0.0 0.0 0.0 0.0 0.0 0.0 0.0 0.0 0.0 0.0 0.0 0.0 0.0 0.0 0.0 0.0 0.0 0.0 0.0 0.0 0.0 0.0 0.0 0.0 0.0 0.0 0.0 0.0 0.0 0.0 0.0 0.0 0.0 0.0 0.0 0.0 0.0 0.0 0.0 0.0 0.0 0.0 0.0 0.0 0.0 0.0 0.0 0.0 0.0 0.0 0.0 0.0 0.0 0.0 0.0 0.0 0.0 0.0 0.0 0.0 0.0 0.0 0.0 0.0 0.0 0.0 0.0 0.0 0.0 0.0 0.0 0.0 0.0 0.0 0.0 0.0 0.0 0.0 0.0 0.0 0.0 0.0 0.0 0.0 0.0 0.0 0.0 0.0 0.0 0.0 0.0 0.0 0.0 0.0 0.0 0.0 0.0 0.0 0.0 0.0 0.0 0.0 0.0 0.0 0.0 0.0 0.0 0.0 0.0 0.0 0.0 0.0 0.0 0.0 0.0 0.0 0.0 0.0 0.0 0.0 0.0 0.0 0.0 0.0 0.0 0.0 0.0 0.0 0.0 0.0 0.0 0.0 0.0 0.0 0.0 0.0 0.0 0.0 0.0 0.0 0.0 0.0 0.0 0.0 0.0 0.0 0.0 0.0 0.0 0.0 0.0 0.0 0.0 0.0 0.0 0.0 0.0 0.0 0.0 0.0 0.0 0.0 0.0 0.0 0.0 0.0 0.0 0.0 0.0 0.0 0.0 0.0 0.0 0.0 0.0 0.0 0.0 0.0 0.0 0.0 0.0 0.0 0.0 0.0 0.0 0.0 0.0 0.0 0.0 0.0 0.0 0.0 0.0 0.0 0.0 0.0 0.0 0.0 0.0 0.0 0.0 0.0 0.0 0.0 0.0 0.0 0.0 0.0 0.0 0.0 0.0 0.0 0.0 0.0 0.0 0.0 0.0 0.0 0.0 0.0 0.0 0.0 0.0 0.0 0.0 0.0 0.0 0.0 0.0 0.0 0.0 0.0 0.0 0.0 0.0 0.0 0.0 0.0 0.0 0.0
        </DataArray>
        <DataArray type="Float64" Name="stress_xz" NumberOfComponents="1" format="ascii">
 0.0 0.0 0.0 0.0 0.0 0.0 0.0 0.0 0.0 0.0 0.0 0.0 0.0 0.0 0.0 0.0 0.0 0.0 0.0 0.0 0.0 0.0 0.0 0.0 0.0 0.0 0.0 0.0 0.0 0.0 0.0 0.0 0.0 0.0 0.0 0.0 0.0 0.0 0.0 0.0 0.0 0.0 0.0 0.0 0.0 0.0 0.0 0.0 0.0 0.0 0.0 0.0 0.0 0.0 0.0 0.0 0.0 0.0 0.0 0.0 0.0 0.0 0.0 0.0 0.0 0.0 0.0 0.0 0.0 0.0 0.0 0.0 0.0 0.0 0.0 0.0 0.0 0.0 0.0 0.0 0.0 0.0 0.0 0.0 0.0 0.0 0.0 0.0 0.0 0.0 0.0 0.0 0.0 0.0 0.0 0.0 0.0 0.0 0.0 0.0 0.0 0.0 0.0 0.0 0.0 0.0 0.0 0.0 0.0 0.0 0.0 0.0 0.0 0.0 0.0 0.0 0.0 0.0 0.0 0.0 0.0 0.0 0.0 0.0 0.0 0.0 0.0 0.0 0.0 0.0 0.0 0.0 0.0 0.0 0.0 0.0 0.0 0.0 0.0 0.0 0.0 0.0 0.0 0.0 0.0 0.0 0.0 0.0 0.0 0.0 0.0 0.0 0.0 0.0 0.0 0.0 0.0 0.0 0.0 0.0 0.0 0.0 0.0 0.0 0.0 0.0 0.0 0.0 0.0 0.0 0.0 0.0 0.0 0.0 0.0 0.0 0.0 0.0 0.0 0.0 0.0 0.0 0.0 0.0 0.0 0.0 0.0 0.0 0.0 0.0 0.0 0.0 0.0 0.0 0.0 0.0 0.0 0.0 0.0 0.0 0.0 0.0 0.0 0.0 0.0 0.0 0.0 0.0 0.0 0.0 0.0 0.0 0.0 0.0 0.0 0.0 0.0 0.0 0.0 0.0 0.0 0.0 0.0 0.0 0.0 0.0 0.0 0.0 0.0 0.0 0.0 0.0 0.0 0.0 0.0 0.0 0.0 0.0 0.0 0.0 0.0 0.0 0.0 0.0 0.0 0.0 0.0 0.0 0.0 0.0 0.0 0.0 0.0 0.0 0.0 0.0 0.0 0.0 0.0 0.0 0.0 0.0 0.0 0.0 0.0 0.0 0.0 0.0 0.0 0.0 0.0 0.0 0.0 0.0 0.0 0.0 0.0 0.0 0.0 0.0 0.0 0.0 0.0 0.0 0.0 0.0 0.0 0.0 0.0 0.0 0.0 0.0 0.0 0.0 0.0 0.0 0.0 0.0 0.0 0.0 0.0 0.0 0.0 0.0 0.0 0.0 0.0 0.0 0.0 0.0 0.0 0.0 0.0 0.0 0.0 0.0 0.0 0.0 0.0 0.0 0.0 0.0 0.0 0.0 0.0 0.0 0.0 0.0 0.0 0.0 0.0 0.0 0.0 0.0 0.0 0.0 0.0 0.0 0.0 0.0 0.0 0.0 0.0 0.0 0.0 0.0 0.0 0.0 0.0 0.0 0.0 0.0 0.0 0.0 0.0 0.0 0.0 0.0 0.0 0.0 0.0 0.0 0.0 0.0 0.0 0.0 0.0 0.0 0.0 0.0 0.0 0.0 0.0 0.0 0.0 0.0 0.0 0.0 0.0 0.0 0.0 0.0 0.0 0.0 0.0 0.0 0.0 0.0 0.0 0.0 0.0 0.0 0.0 0.0 0.0 0.0 0.0 0.0 0.0 0.0 0.0 0.0 0.0 0.0 0.0 0.0 0.0 0.0 0.0 0.0 0.0 0.0 0.0 0.0 0.0 0.0 0.0 0.0 0.0 0.0 0.0 0.0 0.0 0.0 0.0 0.0 0.0 0.0 0.0 0.0 0.0 0.0 0.0 0.0 0.0 0.0 0.0 0.0 0.0 0.0 0.0 0.0 0.0 0.0 0.0 0.0 0.0 0.0 0.0 0.0 0.0 0.0 0.0 0.0 0.0 0.0 0.0 0.0 0.0 0.0 0.0 0.0 0.0 0.0 0.0 0.0 0.0 0.0 0.0 0.0 0.0 0.0 0.0 0.0 0.0 0.0 0.0 0.0 0.0 0.0 0.0 0.0 0.0 0.0 0.0 0.0 0.0 0.0 0.0 0.0 0.0 0.0 0.0 0.0 0.0 0.0 0.0 0.0 0.0 0.0 0.0 0.0 0.0 0.0 0.0 0.0 0.0 0.0 0.0 0.0 0.0 0.0 0.0 0.0 0.0 0.0 0.0 0.0 0.0 0.0 0.0 0.0 0.0 0.0 0.0 0.0 0.0 0.0 0.0 0.0 0.0 0.0 0.0 0.0 0.0 0.0 0.0 0.0 0.0 0.0 0.0 0.0 0.0 0.0 0.0 0.0 0.0 0.0 0.0 0.0 0.0 0.0 0.0 0.0 0.0 0.0 0.0 0.0 0.0 0.0 0.0 0.0 0.0 0.0 0.0 0.0 0.0 0.0 0.0 0.0 0.0 0.0 0.0 0.0 0.0 0.0 0.0 0.0 0.0 0.0 0.0 0.0 0.0 0.0 0.0 0.0 0.0 0.0 0.0 0.0 0.0 0.0 0.0 0.0 0.0 0.0 0.0 0.0 0.0 0.0 0.0 0.0 0.0 0.0 0.0 0.0 0.0 0.0 0.0 0.0 0.0 0.0 0.0 0.0 0.0 0.0 0.0 0.0 0.0 0.0 0.0 0.0 0.0 0.0 0.0 0.0 0.0 0.0 0.0 0.0 0.0 0.0 0.0 0.0 0.0 0.0 0.0 0.0 0.0 0.0 0.0 0.0 0.0 0.0 0.0 0.0 0.0 0.0 0.0 0.0 0.0 0.0 0.0 0.0 0.0 0.0 0.0 0.0 0.0 0.0 0.0 0.0 0.0 0.0 0.0 0.0 0.0 0.0 0.0 0.0 0.0 0.0 0.0 0.0 0.0 0.0 0.0 0.0 0.0 0.0 0.0 0.0 0.0 0.0 0.0 0.0 0.0 0.0 0.0 0.0 0.0 0.0 0.0 0.0 0.0 0.0 0.0 0.0 0.0 0.0 0.0 0.0 0.0 0.0 0.0 0.0 0.0 0.0 0.0 0.0 0.0 0.0 0.0 0.0 0.0 0.0 0.0 0.0 0.0 0.0 0.0 0.0 0.0 0.0 0.0 0.0 0.0 0.0 0.0 0.0 0.0 0.0 0.0 0.0 0.0 0.0 0.0 0.0 0.0 0.0 0.0 0.0 0.0 0.0 0.0 0.0 0.0 0.0 0.0 0.0 0.0 0.0 0.0 0.0 0.0 0.0 0.0 0.0 0.0 0.0 0.0 0.0 0.0 0.0 0.0 0.0 0.0 0.0 0.0 0.0 0.0 0.0 0.0 0.0 0.0 0.0 0.0 0.0 0.0 0.0 0.0 0.0 0.0 0.0 0.0 0.0 0.0 0.0 0.0 0.0 0.0 0.0 0.0 0.0 0.0 0.0 0.0 0.0 0.0 0.0 0.0 0.0 0.0 0.0 0.0 0.0 0.0 0.0 0.0 0.0 0.0 0.0 0.0 0.0 0.0 0.0 0.0 0.0 0.0 0.0 0.0 0.0 0.0 0.0 0.0 0.0 0.0 0.0 0.0 0.0 0.0 0.0 0.0 0.0 0.0 0.0 0.0 0.0 0.0 0.0 0.0 0.0 0.0 0.0 0.0 0.0 0.0 0.0 0.0 0.0 0.0 0.0 0.0 0.0 0.0 0.0 0.0 0.0 0.0 0.0 0.0 0.0 0.0 0.0 0.0 0.0 0.0 0.0 0.0 0.0 0.0 0.0 0.0 0.0 0.0 0.0 0.0 0.0 0.0 0.0 0.0 0.0 0.0 0.0 0.0 0.0 0.0 0.0 0.0 0.0 0.0 0.0 0.0 0.0 0.0 0.0 0.0 0.0 0.0 0.0 0.0 0.0 0.0 0.0 0.0 0.0 0.0 0.0 0.0 0.0 0.0 0.0 0.0 0.0 0.0 0.0 0.0 0.0 0.0 0.0 0.0 0.0 0.0 0.0 0.0 0.0 0.0 0.0 0.0 0.0 0.0 0.0 0.0 0.0 0.0 0.0 0.0 0.0 0.0 0.0 0.0 0.0 0.0 0.0 0.0 0.0 0.0 0.0 0.0 0.0 0.0 0.0 0.0 0.0 0.0 0.0 0.0 0.0 0.0 0.0 0.0 0.0 0.0 0.0 0.0 0.0 0.0 0.0 0.0 0.0 0.0 0.0 0.0 0.0 0.0 0.0 0.0 0.0 0.0 0.0 0.0 0.0 0.0 0.0 0.0 0.0 0.0 0.0 0.0 0.0 0.0 0.0 0.0 0.0 0.0 0.0 0.0 0.0 0.0 0.0 0.0 0.0 0.0 0.0 0.0 0.0 0.0 0.0 0.0 0.0 0.0 0.0 0.0 0.0 0.0 0.0 0.0 0.0 0.0 0.0 0.0 0.0 0.0 0.0 0.0 0.0 0.0 0.0 0.0 0.0 0.0 0.0 0.0 0.0 0.0 0.0 0.0 0.0 0.0 0.0 0.0 0.0 0.0 0.0 0.0 0.0 0.0 0.0 0.0 0.0 0.0 0.0 0.0 0.0 0.0 0.0 0.0 0.0 0.0 0.0 0.0 0.0 0.0 0.0 0.0 0.0 0.0 0.0 0.0 0.0 0.0 0.0 0.0 0.0 0.0 0.0 0.0 0.0 0.0 0.0 0.0 0.0 0.0 0.0 0.0 0.0 0.0 0.0 0.0 0.0 0.0 0.0 0.0 0.0 0.0 0.0 0.0 0.0 0.0 0.0 0.0 0.0 0.0 0.0 0.0 0.0 0.0 0.0 0.0 0.0 0.0 0.0 0.0 0.0 0.0 0.0 0.0 0.0 0.0 0.0 0.0 0.0 0.0 0.0 0.0 0.0 0.0 0.0 0.0 0.0 0.0 0.0 0.0 0.0 0.0 0.0 0.0 0.0 0.0 0.0 0.0 0.0 0.0 0.0 0.0 0.0 0.0 0.0 0.0 0.0 0.0 0.0 0.0 0.0 0.0 0.0 0.0 0.0 0.0 0.0 0.0 0.0 0.0 0.0 0.0 0.0 0.0 0.0 0.0 0.0 0.0 0.0 0.0 0.0 0.0 0.0 0.0 0.0 0.0 0.0 0.0 0.0 0.0 0.0 0.0 0.0 0.0 0.0 0.0 0.0 0.0 0.0 0.0 0.0 0.0 0.0 0.0 0.0 0.0 0.0 0.0 0.0 0.0 0.0 0.0 0.0 0.0 0.0 0.0 0.0 0.0 0.0 0.0 0.0 0.0 0.0 0.0 0.0 0.0 0.0 0.0 0.0 0.0 0.0 0.0 0.0 0.0 0.0 0.0 0.0 0.0 0.0 0.0 0.0 0.0 0.0 0.0 0.0 0.0 0.0 0.0 0.0 0.0 0.0 0.0 0.0 0.0 0.0 0.0 0.0 0.0 0.0 0.0 0.0 0.0 0.0 0.0 0.0 0.0 0.0 0.0 0.0 0.0 0.0 0.0 0.0 0.0 0.0 0.0 0.0 0.0 0.0 0.0 0.0 0.0 0.0 0.0 0.0 0.0 0.0 0.0 0.0 0.0 0.0 0.0 0.0 0.0 0.0 0.0 0.0 0.0 0.0 0.0 0.0 0.0 0.0 0.0 0.0 0.0 0.0 0.0 0.0 0.0 0.0 0.0 0.0 0.0 0.0 0.0 0.0 0.0 0.0 0.0 0.0 0.0 0.0 0.0 0.0 0.0 0.0 0.0 0.0 0.0 0.0 0.0 0.0 0.0 0.0 0.0 0.0 0.0 0.0 0.0 0.0 0.0 0.0 0.0 0.0 0.0 0.0 0.0 0.0 0.0 0.0 0.0 0.0 0.0 0.0 0.0 0.0 0.0 0.0 0.0 0.0 0.0 0.0 0.0 0.0 0.0 0.0 0.0 0.0 0.0 0.0 0.0 0.0 0.0 0.0 0.0 0.0 0.0 0.0 0.0 0.0 0.0 0.0 0.0 0.0 0.0 0.0 0.0 0.0 0.0 0.0 0.0 0.0 0.0 0.0 0.0 0.0 0.0 0.0 0.0 0.0 0.0 0.0 0.0 0.0 0.0 0.0 0.0 0.0 0.0 0.0 0.0 0.0 0.0 0.0 0.0 0.0 0.0 0.0 0.0 0.0 0.0 0.0 0.0 0.0 0.0 0.0 0.0 0.0 0.0 0.0 0.0 0.0 0.0 0.0 0.0 0.0 0.0 0.0 0.0 0.0 0.0 0.0 0.0 0.0 0.0 0.0 0.0 0.0 0.0 0.0 0.0 0.0 0.0 0.0 0.0 0.0 0.0 0.0 0.0 0.0 0.0 0.0 0.0 0.0 0.0 0.0 0.0 0.0 0.0 0.0 0.0 0.0 0.0 0.0 0.0 0.0 0.0 0.0 0.0 0.0 0.0 0.0 0.0 0.0 0.0 0.0 0.0 0.0 0.0 0.0 0.0 0.0 0.0 0.0 0.0 0.0 0.0 0.0 0.0 0.0 0.0 0.0 0.0 0.0 0.0 0.0 0.0 0.0 0.0 0.0 0.0 0.0 0.0 0.0 0.0 0.0 0.0 0.0 0.0 0.0 0.0 0.0 0.0 0.0 0.0 0.0 0.0 0.0 0.0 0.0 0.0 0.0 0.0 0.0 0.0 0.0 0.0 0.0 0.0 0.0 0.0 0.0 0.0 0.0 0.0 0.0 0.0 0.0 0.0 0.0 0.0 0.0 0.0 0.0 0.0 0.0 0.0 0.0 0.0 0.0 0.0 0.0 0.0 0.0 0.0 0.0 0.0 0.0 0.0 0.0 0.0 0.0 0.0 0.0 0.0 0.0 0.0 0.0 0.0 0.0 0.0 0.0 0.0 0.0 0.0 0.0 0.0 0.0 0.0 0.0 0.0 0.0 0.0 0.0 0.0 0.0 0.0 0.0 0.0 0.0 0.0 0.0 0.0 0.0 0.0 0.0 0.0 0.0 0.0 0.0 0.0 0.0 0.0 0.0 0.0 0.0 0.0 0.0 0.0 0.0 0.0 0.0 0.0 0.0 0.0 0.0 0.0 0.0 0.0 0.0 0.0 0.0 0.0 0.0 0.0 0.0 0.0 0.0 0.0 0.0 0.0 0.0 0.0 0.0 0.0 0.0 0.0 0.0 0.0 0.0 0.0 0.0 0.0 0.0 0.0 0.0 0.0 0.0 0.0 0.0 0.0 0.0 0.0 0.0 0.0 0.0 0.0 0.0 0.0 0.0 0.0 0.0 0.0 0.0 0.0 0.0 0.0 0.0 0.0 0.0 0.0 0.0 0.0 0.0 0.0 0.0 0.0 0.0 0.0 0.0 0.0 0.0 0.0 0.0 0.0 0.0 0.0 0.0 0.0 0.0 0.0 0.0 0.0 0.0 0.0 0.0 0.0 0.0 0.0 0.0 0.0 0.0 0.0 0.0 0.0 0.0 0.0 0.0 0.0 0.0 0.0 0.0 0.0 0.0 0.0 0.0 0.0 0.0 0.0 0.0 0.0 0.0 0.0 0.0 0.0 0.0 0.0 0.0 0.0 0.0 0.0 0.0 0.0 0.0 0.0 0.0 0.0 0.0 0.0 0.0 0.0 0.0 0.0 0.0 0.0 0.0 0.0 0.0 0.0 0.0 0.0 0.0 0.0 0.0 0.0 0.0 0.0 0.0 0.0 0.0 0.0 0.0 0.0 0.0 0.0 0.0 0.0 0.0 0.0 0.0 0.0 0.0 0.0 0.0 0.0 0.0 0.0 0.0 0.0 0.0 0.0 0.0 0.0 0.0 0.0 0.0 0.0 0.0 0.0 0.0 0.0 0.0 0.0 0.0 0.0 0.0 0.0 0.0 0.0 0.0 0.0 0.0 0.0 0.0 0.0 0.0 0.0 0.0 0.0 0.0 0.0 0.0 0.0 0.0 0.0 0.0 0.0 0.0 0.0 0.0 0.0 0.0 0.0 0.0 0.0 0.0 0.0 0.0 0.0 0.0 0.0 0.0 0.0 0.0 0.0 0.0 0.0 0.0 0.0 0.0 0.0 0.0 0.0 0.0 0.0 0.0 0.0 0.0 0.0 0.0 0.0 0.0 0.0 0.0 0.0 0.0 0.0 0.0 0.0 0.0 0.0 0.0 0.0 0.0 0.0 0.0 0.0 0.0 0.0 0.0 0.0 0.0 0.0 0.0 0.0 0.0 0.0 0.0 0.0 0.0 0.0 0.0 0.0 0.0 0.0 0.0 0.0 0.0 0.0 0.0 0.0 0.0 0.0 0.0 0.0 0.0 0.0 0.0 0.0 0.0 0.0 0.0 0.0 0.0 0.0 0.0 0.0 0.0 0.0 0.0 0.0 0.0 0.0 0.0 0.0 0.0 0.0 0.0 0.0 0.0 0.0 0.0 0.0 0.0 0.0 0.0 0.0 0.0 0.0 0.0 0.0 0.0 0.0 0.0 0.0 0.0 0.0 0.0 0.0 0.0 0.0 0.0 0.0 0.0 0.0 0.0 0.0 0.0 0.0 0.0 0.0 0.0 0.0 0.0 0.0 0.0 0.0 0.0 0.0 0.0 0.0 0.0 0.0 0.0 0.0 0.0 0.0 0.0 0.0 0.0 0.0 0.0 0.0 0.0 0.0 0.0 0.0 0.0 0.0 0.0 0.0 0.0 0.0 0.0 0.0 0.0 0.0 0.0 0.0 0.0 0.0 0.0 0.0 0.0 0.0 0.0 0.0 0.0 0.0 0.0 0.0 0.0 0.0 0.0 0.0 0.0 0.0 0.0 0.0 0.0 0.0 0.0 0.0 0.0 0.0 0.0 0.0 0.0 0.0 0.0 0.0 0.0 0.0 0.0 0.0 0.0 0.0 0.0 0.0 0.0 0.0 0.0 0.0 0.0 0.0 0.0 0.0 0.0 0.0 0.0 0.0 0.0 0.0 0.0 0.0 0.0 0.0 0.0 0.0 0.0 0.0 0.0 0.0 0.0 0.0 0.0 0.0 0.0 0.0 0.0 0.0 0.0 0.0 0.0 0.0 0.0 0.0 0.0 0.0 0.0 0.0 0.0 0.0 0.0 0.0 0.0 0.0 0.0 0.0 0.0 0.0 0.0 0.0 0.0 0.0 0.0 0.0 0.0 0.0 0.0 0.0 0.0 0.0 0.0 0.0 0.0 0.0 0.0 0.0 0.0 0.0 0.0 0.0 0.0 0.0 0.0 0.0 0.0 0.0 0.0 0.0 0.0 0.0 0.0 0.0 0.0 0.0 0.0 0.0 0.0 0.0 0.0 0.0 0.0 0.0 0.0 0.0 0.0 0.0 0.0 0.0 0.0 0.0 0.0 0.0 0.0 0.0 0.0 0.0 0.0 0.0 0.0 0.0 0.0 0.0 0.0 0.0 0.0 0.0 0.0 0.0 0.0 0.0 0.0 0.0 0.0 0.0 0.0 0.0 0.0 0.0 0.0 0.0 0.0 0.0 0.0 0.0 0.0 0.0 0.0 0.0 0.0 0.0 0.0 0.0 0.0 0.0 0.0 0.0 0.0 0.0 0.0 0.0 0.0 0.0 0.0 0.0 0.0 0.0 0.0 0.0 0.0 0.0 0.0 0.0 0.0 0.0 0.0 0.0 0.0 0.0 0.0 0.0 0.0 0.0 0.0 0.0 0.0 0.0 0.0 0.0 0.0 0.0 0.0 0.0 0.0 0.0 0.0 0.0 0.0 0.0 0.0 0.0 0.0 0.0 0.0 0.0 0.0 0.0 0.0 0.0 0.0 0.0 0.0 0.0 0.0 0.0 0.0 0.0 0.0 0.0 0.0 0.0 0.0 0.0 0.0 0.0 0.0 0.0 0.0 0.0 0.0 0.0 0.0 0.0 0.0 0.0 0.0 0.0 0.0 0.0 0.0 0.0 0.0 0.0 0.0 0.0 0.0 0.0 0.0 0.0 0.0 0.0 0.0 0.0 0.0 0.0 0.0 0.0 0.0 0.0 0.0 0.0 0.0 0.0 0.0 0.0 0.0 0.0 0.0 0.0 0.0 0.0 0.0 0.0 0.0 0.0 0.0 0.0 0.0 0.0 0.0 0.0 0.0 0.0 0.0 0.0 0.0 0.0 0.0 0.0 0.0 0.0 0.0 0.0 0.0 0.0 0.0 0.0 0.0 0.0 0.0 0.0 0.0 0.0 0.0 0.0 0.0 0.0 0.0 0.0 0.0 0.0 0.0 0.0 0.0 0.0 0.0 0.0 0.0 0.0 0.0 0.0 0.0 0.0 0.0 0.0 0.0 0.0 0.0 0.0 0.0 0.0 0.0 0.0 0.0 0.0 0.0 0.0 0.0 0.0 0.0 0.0 0.0 0.0 0.0 0.0 0.0 0.0 0.0 0.0 0.0 0.0 0.0 0.0 0.0 0.0 0.0 0.0 0.0 0.0 0.0 0.0 0.0 0.0 0.0 0.0 0.0 0.0 0.0 0.0 0.0 0.0 0.0 0.0 0.0 0.0 0.0 0.0 0.0 0.0 0.0 0.0 0.0 0.0 0.0 0.0 0.0 0.0 0.0 0.0 0.0 0.0 0.0 0.0 0.0 0.0 0.0 0.0 0.0 0.0 0.0 0.0 0.0 0.0 0.0 0.0 0.0 0.0 0.0 0.0 0.0 0.0 0.0 0.0 0.0 0.0 0.0 0.0 0.0 0.0 0.0 0.0 0.0 0.0 0.0 0.0 0.0 0.0 0.0 0.0 0.0 0.0 0.0 0.0 0.0 0.0 0.0 0.0 0.0 0.0 0.0 0.0 0.0 0.0 0.0 0.0 0.0 0.0 0.0 0.0 0.0 0.0 0.0 0.0 0.0 0.0 0.0 0.0 0.0 0.0 0.0 0.0 0.0 0.0 0.0 0.0 0.0 0.0 0.0 0.0 0.0 0.0 0.0 0.0 0.0 0.0 0.0 0.0 0.0 0.0 0.0 0.0 0.0 0.0 0.0 0.0 0.0 0.0 0.0 0.0 0.0 0.0 0.0 0.0 0.0 0.0 0.0 0.0 0.0 0.0 0.0 0.0 0.0 0.0 0.0 0.0 0.0 0.0 0.0 0.0 0.0 0.0 0.0 0.0 0.0 0.0 0.0 0.0 0.0 0.0 0.0 0.0 0.0 0.0 0.0 0.0 0.0 0.0 0.0 0.0 0.0 0.0 0.0 0.0 0.0 0.0 0.0 0.0 0.0 0.0 0.0 0.0 0.0 0.0 0.0 0.0 0.0 0.0 0.0 0.0 0.0 0.0 0.0 0.0 0.0 0.0 0.0 0.0 0.0 0.0 0.0 0.0 0.0 0.0 0.0 0.0 0.0 0.0 0.0 0.0 0.0 0.0 0.0 0.0 0.0 0.0 0.0 0.0 0.0 0.0 0.0 0.0 0.0 0.0 0.0 0.0 0.0 0.0 0.0 0.0 0.0 0.0 0.0 0.0 0.0 0.0 0.0 0.0 0.0 0.0 0.0 0.0 0.0 0.0 0.0 0.0 0.0 0.0 0.0 0.0 0.0 0.0 0.0 0.0 0.0 0.0 0.0 0.0 0.0 0.0 0.0 0.0 0.0 0.0 0.0 0.0 0.0 0.0 0.0 0.0 0.0 0.0 0.0 0.0 0.0 0.0 0.0 0.0 0.0 0.0 0.0 0.0 0.0 0.0 0.0 0.0 0.0 0.0 0.0 0.0 0.0 0.0 0.0 0.0 0.0 0.0 0.0 0.0 0.0 0.0 0.0 0.0 0.0 0.0 0.0 0.0 0.0 0.0 0.0 0.0 0.0 0.0 0.0 0.0 0.0 0.0 0.0 0.0 0.0 0.0 0.0 0.0 0.0 0.0 0.0 0.0 0.0 0.0 0.0 0.0 0.0 0.0 0.0 0.0 0.0 0.0 0.0 0.0 0.0 0.0 0.0 0.0 0.0 0.0 0.0 0.0 0.0 0.0 0.0 0.0 0.0 0.0 0.0 0.0 0.0 0.0 0.0 0.0 0.0 0.0 0.0 0.0 0.0 0.0 0.0 0.0 0.0 0.0 0.0 0.0 0.0 0.0 0.0 0.0 0.0 0.0 0.0 0.0 0.0 0.0 0.0 0.0 0.0 0.0 0.0 0.0 0.0 0.0 0.0 0.0 0.0 0.0 0.0 0.0 0.0 0.0 0.0 0.0 0.0 0.0 0.0 0.0 0.0 0.0 0.0 0.0 0.0 0.0 0.0 0.0 0.0 0.0 0.0 0.0 0.0 0.0 0.0 0.0 0.0 0.0 0.0 0.0 0.0 0.0 0.0 0.0 0.0 0.0 0.0 0.0 0.0 0.0 0.0 0.0 0.0 0.0 0.0 0.0 0.0 0.0 0.0 0.0 0.0 0.0 0.0 0.0 0.0 0.0 0.0 0.0 0.0 0.0 0.0 0.0 0.0 0.0 0.0 0.0 0.0 0.0 0.0 0.0 0.0 0.0 0.0 0.0 0.0 0.0 0.0 0.0 0.0 0.0 0.0 0.0 0.0 0.0 0.0 0.0 0.0 0.0 0.0 0.0 0.0 0.0 0.0 0.0 0.0 0.0 0.0 0.0 0.0 0.0 0.0 0.0 0.0 0.0 0.0 0.0 0.0 0.0 0.0 0.0 0.0 0.0 0.0 0.0 0.0 0.0 0.0 0.0 0.0 0.0 0.0 0.0 0.0 0.0 0.0 0.0 0.0 0.0 0.0 0.0 0.0 0.0 0.0 0.0 0.0 0.0 0.0 0.0 0.0 0.0 0.0 0.0 0.0 0.0 0.0 0.0 0.0 0.0 0.0 0.0 0.0 0.0 0.0 0.0 0.0 0.0 0.0 0.0 0.0 0.0 0.0 0.0 0.0 0.0 0.0 0.0 0.0 0.0 0.0 0.0 0.0 0.0 0.0 0.0 0.0 0.0 0.0 0.0 0.0 0.0 0.0 0.0 0.0 0.0 0.0 0.0 0.0 0.0 0.0 0.0 0.0 0.0 0.0 0.0 0.0 0.0 0.0 0.0 0.0 0.0 0.0 0.0 0.0 0.0 0.0 0.0 0.0 0.0 0.0 0.0 0.0 0.0 0.0 0.0 0.0 0.0 0.0 0.0 0.0 0.0 0.0 0.0 0.0 0.0 0.0 0.0 0.0 0.0 0.0 0.0 0.0 0.0 0.0 0.0 0.0 0.0 0.0 0.0 0.0 0.0 0.0 0.0 0.0 0.0 0.0 0.0 0.0 0.0 0.0 0.0 0.0 0.0 0.0 0.0 0.0 0.0 0.0 0.0 0.0 0.0 0.0 0.0 0.0 0.0 0.0 0.0 0.0 0.0 0.0 0.0 0.0 0.0 0.0 0.0 0.0 0.0 0.0 0.0 0.0 0.0 0.0 0.0 0.0 0.0 0.0 0.0 0.0 0.0 0.0 0.0 0.0 0.0 0.0 0.0 0.0 0.0 0.0 0.0 0.0 0.0 0.0 0.0 0.0 0.0 0.0 0.0 0.0 0.0 0.0 0.0 0.0 0.0 0.0 0.0 0.0 0.0 0.0 0.0 0.0 0.0 0.0 0.0 0.0 0.0 0.0 0.0 0.0 0.0 0.0 0.0 0.0 0.0 0.0 0.0 0.0 0.0 0.0 0.0 0.0 0.0 0.0 0.0 0.0 0.0 0.0 0.0 0.0 0.0 0.0 0.0 0.0 0.0 0.0 0.0 0.0 0.0 0.0 0.0 0.0 0.0 0.0 0.0 0.0 0.0 0.0 0.0 0.0 0.0 0.0 0.0 0.0 0.0 0.0 0.0 0.0 0.0 0.0 0.0 0.0 0.0 0.0 0.0 0.0 0.0 0.0 0.0 0.0 0.0 0.0 0.0 0.0 0.0 0.0 0.0 0.0 0.0 0.0 0.0 0.0 0.0 0.0 0.0 0.0 0.0 0.0 0.0 0.0 0.0 0.0 0.0 0.0 0.0 0.0 0.0 0.0 0.0 0.0 0.0 0.0 0.0 0.0 0.0 0.0 0.0 0.0 0.0 0.0 0.0 0.0 0.0 0.0 0.0 0.0 0.0 0.0 0.0 0.0 0.0 0.0 0.0 0.0 0.0 0.0 0.0 0.0 0.0 0.0 0.0 0.0 0.0 0.0 0.0 0.0 0.0 0.0 0.0 0.0 0.0 0.0 0.0 0.0 0.0 0.0 0.0 0.0 0.0 0.0 0.0 0.0 0.0 0.0 0.0 0.0 0.0 0.0 0.0 0.0 0.0 0.0 0.0 0.0 0.0 0.0 0.0 0.0 0.0 0.0 0.0 0.0 0.0 0.0 0.0 0.0 0.0 0.0 0.0 0.0 0.0 0.0 0.0 0.0 0.0 0.0 0.0 0.0 0.0 0.0 0.0 0.0 0.0 0.0 0.0 0.0 0.0 0.0 0.0 0.0 0.0 0.0 0.0 0.0 0.0 0.0 0.0 0.0 0.0 0.0 0.0 0.0 0.0 0.0 0.0 0.0 0.0 0.0 0.0 0.0 0.0 0.0 0.0 0.0 0.0 0.0 0.0 0.0 0.0 0.0 0.0 0.0 0.0 0.0 0.0 0.0 0.0 0.0 0.0 0.0 0.0 0.0 0.0 0.0 0.0 0.0 0.0 0.0 0.0 0.0 0.0 0.0 0.0 0.0 0.0 0.0 0.0 0.0 0.0 0.0 0.0 0.0 0.0 0.0 0.0 0.0 0.0 0.0 0.0 0.0 0.0 0.0 0.0 0.0 0.0 0.0 0.0 0.0 0.0 0.0 0.0 0.0 0.0 0.0 0.0 0.0 0.0 0.0 0.0 0.0 0.0 0.0 0.0 0.0 0.0 0.0 0.0 0.0 0.0 0.0 0.0 0.0 0.0 0.0 0.0 0.0 0.0 0.0 0.0 0.0 0.0 0.0 0.0 0.0 0.0 0.0 0.0 0.0 0.0 0.0 0.0 0.0 0.0 0.0 0.0 0.0 0.0 0.0 0.0 0.0 0.0 0.0 0.0 0.0 0.0 0.0 0.0 0.0 0.0 0.0 0.0 0.0 0.0 0.0 0.0 0.0 0.0 0.0 0.0 0.0 0.0 0.0 0.0 0.0 0.0 0.0 0.0 0.0 0.0 0.0 0.0 0.0 0.0 0.0 0.0 0.0 0.0 0.0 0.0 0.0 0.0 0.0 0.0 0.0 0.0 0.0 0.0 0.0 0.0 0.0 0.0 0.0 0.0 0.0 0.0 0.0 0.0 0.0 0.0 0.0 0.0 0.0 0.0 0.0 0.0 0.0 0.0 0.0 0.0 0.0 0.0 0.0 0.0 0.0 0.0 0.0 0.0 0.0 0.0 0.0 0.0 0.0 0.0 0.0 0.0 0.0 0.0 0.0 0.0 0.0 0.0 0.0 0.0 0.0 0.0 0.0 0.0 0.0 0.0 0.0 0.0 0.0 0.0 0.0 0.0 0.0 0.0 0.0 0.0 0.0 0.0 0.0 0.0 0.0 0.0 0.0 0.0 0.0 0.0 0.0 0.0 0.0 0.0 0.0 0.0 0.0 0.0 0.0 0.0 0.0 0.0 0.0 0.0 0.0 0.0 0.0 0.0 0.0 0.0 0.0 0.0 0.0 0.0 0.0 0.0 0.0 0.0 0.0 0.0 0.0 0.0 0.0 0.0 0.0 0.0 0.0 0.0 0.0 0.0 0.0 0.0 0.0 0.0 0.0 0.0 0.0 0.0 0.0 0.0 0.0 0.0 0.0 0.0 0.0 0.0 0.0 0.0 0.0 0.0 0.0 0.0 0.0 0.0 0.0 0.0 0.0 0.0 0.0 0.0 0.0 0.0 0.0 0.0 0.0 0.0 0.0 0.0 0.0 0.0 0.0 0.0 0.0 0.0 0.0 0.0 0.0 0.0 0.0 0.0 0.0 0.0 0.0 0.0 0.0 0.0 0.0 0.0 0.0 0.0 0.0 0.0 0.0 0.0 0.0 0.0 0.0 0.0 0.0 0.0 0.0 0.0 0.0 0.0 0.0 0.0 0.0 0.0 0.0 0.0 0.0 0.0 0.0 0.0 0.0 0.0 0.0 0.0 0.0 0.0 0.0 0.0 0.0 0.0 0.0 0.0 0.0 0.0 0.0 0.0 0.0 0.0 0.0 0.0 0.0 0.0 0.0 0.0 0.0 0.0 0.0 0.0 0.0 0.0 0.0 0.0 0.0 0.0 0.0 0.0 0.0 0.0 0.0 0.0 0.0 0.0 0.0 0.0 0.0 0.0 0.0 0.0 0.0 0.0 0.0 0.0 0.0 0.0 0.0 0.0 0.0 0.0 0.0 0.0 0.0 0.0 0.0 0.0 0.0 0.0 0.0 0.0 0.0 0.0 0.0 0.0 0.0
        </DataArray>
        <DataArray type="Float64" Name="vonmises" NumberOfComponents="1" format="ascii">
 0.0 0.0 0.0 0.0  6.2153219E+005  8.2923415E+004  3.1939157E+004 0.0 0.0 0.0 0.0 0.0 0.0 0.0 0.0 0.0 0.0 0.0 0.0 0.0  1.6825292E+005 0.0 0.0 0.0 0.0 0.0 0.0 0.0 0.0 0.0 0.0 0.0 0.0 0.0 0.0 0.0 0.0 0.0 0.0 0.0 0.0 0.0 0.0 0.0 0.0 0.0 0.0 0.0 0.0  2.4767665E+005  1.2201608E+005  5.6863316E+004  2.1378170E+004  1.7301022E+004  2.7806919E+004  3.5191771E+004  3.8981435E+004  4.0798269E+004  4.0910866E+004  4.0966430E+004  4.1281112E+004  4.0853304E+004  4.0643462E+004  4.0287681E+004  3.9869856E+004  4.0025331E+004  4.0407563E+004  4.0125023E+004  3.9965055E+004  3.9855509E+004  3.9818890E+004  3.9648646E+004  3.9137457E+004  3.9207030E+004  3.8920874E+004  3.8546153E+004  3.8773728E+004  3.8626371E+004  3.8167246E+004  3.8234266E+004  3.8151412E+004  3.8009228E+004  3.7870446E+004  3.7746921E+004  3.7591002E+004  3.7075615E+004  3.6788943E+004  3.6660529E+004  3.6980487E+004  3.7444032E+004  3.7398285E+004  3.7432397E+004  3.7550310E+004  3.7237847E+004  3.7288155E+004  3.7083265E+004  3.7038392E+004  3.7080930E+004  3.7066563E+004  3.6872963E+004  3.6783512E+004  3.6853233E+004  3.6600047E+004  3.6502626E+004  3.6602119E+004  3.6367996E+004  3.6320858E+004  3.6362542E+004  3.6201751E+004  3.6291094E+004  3.6196817E+004  3.6084255E+004  3.6139536E+004  3.6081115E+004  3.6006487E+004  3.5746440E+004  3.6125105E+004  3.6117221E+004  3.5773808E+004  3.5957115E+004  3.5793880E+004  3.5804407E+004  3.5911952E+004  3.5552391E+004  3.5334969E+004  3.5663305E+004  3.5790163E+004  3.5783566E+004  3.5506603E+004  3.5224666E+004  3.5054295E+004  3.5115628E+004  3.4578885E+004  3.4116392E+004  3.4527680E+004  3.4963029E+004  3.5605550E+004  3.6093631E+004  3.6346190E+004  3.6717246E+004  3.6943357E+004  3.7155632E+004  3.7058670E+004  3.7722237E+004  3.8683987E+004  4.1175474E+004  4.5786619E+004  5.5631917E+004  2.2647548E+004  1.4926556E+004  2.8977753E+004 0.0 0.0 0.0 0.0 0.0 0.0 0.0 0.0 0.0 0.0 0.0 0.0 0.0 0.0 0.0 0.0 0.0 0.0 0.0 0.0 0.0 0.0 0.0 0.0 0.0 0.0 0.0 0.0 0.0 0.0 0.0 0.0 0.0 0.0 0.0 0.0 0.0 0.0 0.0 0.0 0.0 0.0 0.0 0.0 0.0 0.0 0.0 0.0 0.0 0.0 0.0 0.0 0.0 0.0 0.0 0.0 0.0 0.0 0.0 0.0 0.0 0.0 0.0 0.0 0.0 0.0 0.0 0.0 0.0 0.0 0.0 0.0 0.0 0.0 0.0 0.0 0.0 0.0 0.0 0.0 0.0 0.0 0.0 0.0 0.0 0.0 0.0 0.0 0.0 0.0 0.0 0.0 0.0 0.0 0.0 0.0 0.0 0.0 0.0 0.0 0.0 0.0 0.0 0.0 0.0 0.0 0.0 0.0 0.0 0.0 0.0 0.0 0.0 0.0 0.0 0.0 0.0 0.0 0.0 0.0 0.0 0.0 0.0 0.0 0.0 0.0 0.0 0.0 0.0 0.0 0.0 0.0 0.0 0.0 0.0 0.0 0.0 0.0 0.0 0.0 0.0 0.0 0.0 0.0 0.0 0.0 0.0 0.0 0.0 0.0 0.0 0.0 0.0 0.0 0.0 0.0 0.0 0.0 0.0 0.0 0.0 0.0 0.0 0.0 0.0 0.0 0.0 0.0 0.0 0.0 0.0 0.0 0.0 0.0 0.0 0.0 0.0 0.0 0.0 0.0 0.0 0.0 0.0 0.0 0.0 0.0 0.0 0.0 0.0 0.0 0.0 0.0 0.0 0.0 0.0 0.0 0.0 0.0 0.0 0.0 0.0 0.0 0.0 0.0 0.0 0.0 0.0 0.0 0.0 0.0 0.0 0.0 0.0 0.0 0.0 0.0 0.0 0.0 0.0 0.0 0.0 0.0 0.0 0.0 0.0 0.0 0.0 0.0 0.0 0.0 0.0 0.0 0.0 0.0 0.0 0.0 0.0 0.0 0.0 0.0 0.0 0.0 0.0 0.0 0.0 0.0 0.0 0.0 0.0 0.0 0.0 0.0 0.0 0.0 0.0 0.0 0.0 0.0 0.0 0.0 0.0 0.0 0.0 0.0 0.0 0.0 0.0 0.0 0.0 0.0 0.0 0.0 0.0 0.0 0.0 0.0 0.0 0.0 0.0 0.0 0.0 0.0 0.0 0.0 0.0 0.0 0.0 0.0 0.0 0.0 0.0 0.0 0.0 0.0 0.0 0.0 0.0  3.3663788E+005  2.1541678E+005  1.4918930E+005  1.2106848E+005  1.2060517E+005  1.3412821E+005  1.4833977E+005  1.5914456E+005  1.6704195E+005 0.0 0.0 0.0 0.0 0.0 0.0 0.0 0.0 0.0 0.0 0.0 0.0 0.0 0.0 0.0 0.0 0.0 0.0 0.0 0.0 0.0 0.0 0.0 0.0 0.0 0.0 0.0 0.0 0.0 0.0 0.0 0.0 0.0 0.0 0.0 0.0 0.0 0.0 0.0 0.0 0.0 0.0 0.0 0.0 0.0 0.0 0.0 0.0 0.0  4.1613976E+004  4.2033854E+004  3.8847308E+004  3.5611205E+004  3.2132418E+004  2.9830389E+004  2.8180684E+004  2.7474513E+004  2.6986209E+004  2.6442589E+004  2.6139057E+004  2.6810521E+004  2.6477044E+004  2.5776769E+004  2.6057097E+004  2.6010096E+004  2.5680459E+004  2.5692832E+004  2.6204000E+004  2.6523971E+004  2.6647103E+004  2.7539820E+004  2.6951703E+004  2.7327971E+004  2.6862930E+004  2.7203007E+004  2.7807770E+004  2.7664391E+004  2.7340412E+004  2.7553199E+004  2.7273311E+004  2.7241576E+004  2.7355565E+004  2.7685777E+004  2.7596989E+004  2.7135519E+004  2.7994165E+004  2.7796612E+004  2.7498711E+004  2.7912053E+004  2.7439039E+004  2.7764597E+004  2.7900806E+004  2.7653041E+004  2.7655513E+004  2.8597259E+004  2.8184346E+004  2.7712338E+004  2.8417953E+004  2.8004541E+004  2.8045519E+004  2.8427527E+004  2.8429605E+004  2.8657936E+004  2.8275376E+004  2.8043413E+004  2.8231865E+004  2.7281559E+004  2.7544671E+004  2.8083611E+004  2.8250170E+004  2.8620608E+004  2.7801154E+004  2.6832497E+004  2.7619186E+004  2.8679225E+004  2.7969641E+004  2.8528673E+004  2.8431855E+004  2.8911388E+004  2.8413894E+004  2.8347387E+004  2.9251288E+004  2.9314819E+004  2.9400570E+004  2.9673315E+004  2.9640585E+004  2.9919983E+004  3.0313828E+004  3.0506991E+004  3.0076452E+004  3.0589139E+004  3.0984656E+004  3.0069529E+004  3.0882987E+004  3.0789323E+004  3.0852351E+004  3.0455571E+004  3.0284947E+004  3.0173260E+004  2.8979965E+004  2.5979216E+004  1.9131455E+004  8.7444435E+003  6.4596902E+003  2.6486652E+004  5.3209194E+004  8.5122934E+004  1.2418586E+005 0.0 0.0 0.0 0.0 0.0 0.0 0.0 0.0 0.0 0.0 0.0 0.0 0.0 0.0 0.0 0.0 0.0 0.0 0.0 0.0 0.0 0.0 0.0 0.0 0.0 0.0 0.0 0.0 0.0 0.0 0.0 0.0 0.0 0.0 0.0 0.0 0.0 0.0 0.0 0.0 0.0 0.0 0.0 0.0 0.0 0.0 0.0 0.0 0.0 0.0 0.0 0.0 0.0 0.0 0.0 0.0 0.0 0.0 0.0 0.0 0.0 0.0 0.0 0.0 0.0 0.0 0.0 0.0 0.0 0.0 0.0 0.0 0.0 0.0 0.0 0.0 0.0 0.0 0.0 0.0 0.0 0.0 0.0 0.0 0.0 0.0 0.0 0.0 0.0 0.0 0.0 0.0 0.0 0.0 0.0 0.0 0.0 0.0 0.0 0.0 0.0 0.0 0.0 0.0 0.0 0.0 0.0 0.0 0.0 0.0 0.0 0.0 0.0 0.0 0.0 0.0 0.0 0.0 0.0 0.0 0.0 0.0 0.0 0.0 0.0 0.0 0.0 0.0 0.0 0.0 0.0 0.0 0.0 0.0 0.0 0.0 0.0 0.0 0.0 0.0 0.0 0.0 0.0 0.0 0.0 0.0 0.0 0.0 0.0 0.0 0.0 0.0 0.0 0.0 0.0 0.0 0.0 0.0 0.0 0.0 0.0 0.0 0.0 0.0 0.0 0.0 0.0 0.0 0.0 0.0 0.0 0.0 0.0 0.0 0.0 0.0 0.0 0.0 0.0 0.0 0.0 0.0 0.0 0.0 0.0 0.0 0.0 0.0 0.0 0.0 0.0 0.0 0.0 0.0 0.0 0.0 0.0 0.0 0.0 0.0 0.0 0.0 0.0 0.0 0.0 0.0 0.0 0.0 0.0 0.0 0.0 0.0 0.0 0.0 0.0 0.0 0.0 0.0 0.0 0.0 0.0 0.0 0.0 0.0 0.0 0.0 0.0 0.0 0.0 0.0 0.0 0.0 0.0 0.0 0.0 0.0 0.0 0.0 0.0 0.0 0.0 0.0 0.0 0.0 0.0 0.0 0.0 0.0 0.0 0.0 0.0 0.0 0.0 0.0 0.0 0.0 0.0 0.0 0.0 0.0 0.0 0.0 0.0 0.0 0.0 0.0 0.0 0.0 0.0 0.0 0.0 0.0 0.0 0.0 0.0 0.0 0.0 0.0 0.0 0.0 0.0 0.0 0.0 0.0 0.0 0.0 0.0 0.0 0.0 0.0 0.0 0.0 0.0 0.0 0.0 0.0 0.0 0.0 0.0 0.0 0.0 0.0 0.0 0.0 0.0 0.0 0.0 0.0 0.0 0.0 0.0 0.0 0.0 0.0 0.0 0.0 0.0 0.0 0.0 0.0 0.0 0.0 0.0 0.0 0.0 0.0 0.0 0.0 0.0 0.0 0.0 0.0 0.0 0.0 0.0 0.0 0.0 0.0 0.0 0.0 0.0 0.0 0.0 0.0 0.0 0.0 0.0 0.0 0.0 0.0 0.0 0.0 0.0 0.0 0.0 0.0 0.0 0.0 0.0 0.0 0.0 0.0 0.0 0.0 0.0 0.0 0.0 0.0 0.0 0.0 0.0 0.0 0.0 0.0 0.0 0.0 0.0 0.0 0.0 0.0 0.0 0.0 0.0 0.0 0.0 0.0 0.0 0.0 0.0 0.0 0.0 0.0 0.0 0.0 0.0 0.0 0.0 0.0 0.0 0.0 0.0 0.0 0.0 0.0 0.0 0.0 0.0 0.0 0.0 0.0 0.0 0.0 0.0 0.0 0.0 0.0 0.0 0.0 0.0 0.0 0.0 0.0 0.0 0.0 0.0 0.0 0.0 0.0 0.0 0.0 0.0 0.0 0.0 0.0 0.0 0.0 0.0 0.0 0.0 0.0 0.0 0.0 0.0 0.0 0.0 0.0 0.0 0.0 0.0 0.0 0.0 0.0 0.0 0.0 0.0 0.0 0.0 0.0 0.0 0.0 0.0 0.0 0.0 0.0 0.0 0.0 0.0 0.0 0.0 0.0 0.0 0.0 0.0 0.0 0.0 0.0 0.0 0.0 0.0 0.0 0.0 0.0 0.0 0.0 0.0 0.0 0.0 0.0 0.0 0.0 0.0 0.0 0.0 0.0 0.0 0.0 0.0 0.0 0.0 0.0 0.0 0.0 0.0 0.0 0.0 0.0 0.0 0.0 0.0 0.0 0.0 0.0 0.0 0.0 0.0 0.0 0.0 0.0 0.0 0.0 0.0 0.0 0.0 0.0 0.0 0.0 0.0 0.0 0.0 0.0 0.0 0.0 0.0 0.0 0.0 0.0 0.0 0.0 0.0 0.0 0.0 0.0 0.0 0.0 0.0 0.0 0.0 0.0 0.0 0.0 0.0 0.0 0.0 0.0 0.0 0.0 0.0 0.0 0.0 0.0 0.0 0.0 0.0 0.0 0.0 0.0 0.0 0.0 0.0 0.0 0.0 0.0 0.0 0.0 0.0 0.0 0.0 0.0 0.0 0.0 0.0 0.0 0.0 0.0 0.0 0.0 0.0 0.0 0.0 0.0 0.0 0.0 0.0 0.0 0.0 0.0 0.0 0.0 0.0 0.0 0.0 0.0 0.0 0.0 0.0 0.0 0.0 0.0 0.0 0.0 0.0 0.0 0.0 0.0 0.0 0.0 0.0 0.0 0.0 0.0 0.0 0.0 0.0 0.0 0.0 0.0 0.0 0.0 0.0 0.0 0.0 0.0 0.0 0.0 0.0 0.0 0.0 0.0 0.0 0.0 0.0 0.0 0.0 0.0 0.0 0.0 0.0 0.0 0.0 0.0 0.0 0.0 0.0 0.0 0.0 0.0 0.0 0.0 0.0 0.0 0.0 0.0 0.0 0.0 0.0 0.0 0.0 0.0 0.0 0.0 0.0 0.0 0.0 0.0 0.0 0.0 0.0 0.0 0.0 0.0 0.0 0.0 0.0 0.0 0.0 0.0 0.0 0.0 0.0 0.0 0.0 0.0 0.0 0.0 0.0 0.0 0.0 0.0 0.0 0.0 0.0 0.0 0.0 0.0 0.0 0.0 0.0 0.0 0.0 0.0 0.0 0.0 0.0 0.0 0.0 0.0 0.0 0.0 0.0 0.0 0.0 0.0 0.0 0.0 0.0 0.0 0.0 0.0 0.0 0.0 0.0 0.0 0.0 0.0 0.0 0.0 0.0 0.0 0.0 0.0 0.0 0.0 0.0 0.0 0.0 0.0 0.0 0.0 0.0 0.0 0.0 0.0 0.0 0.0 0.0 0.0 0.0 0.0 0.0 0.0 0.0 0.0 0.0 0.0 0.0 0.0 0.0 0.0 0.0 0.0 0.0 0.0 0.0 0.0 0.0 0.0 0.0 0.0 0.0 0.0 0.0 0.0 0.0 0.0 0.0 0.0 0.0 0.0 0.0 0.0 0.0 0.0 0.0 0.0 0.0 0.0 0.0 0.0 0.0 0.0 0.0 0.0 0.0 0.0 0.0 0.0 0.0 0.0 0.0 0.0 0.0 0.0 0.0 0.0 0.0 0.0 0.0 0.0 0.0 0.0 0.0 0.0 0.0 0.0 0.0 0.0 0.0 0.0 0.0 0.0 0.0 0.0 0.0 0.0 0.0 0.0 0.0 0.0 0.0 0.0 0.0 0.0 0.0 0.0 0.0 0.0 0.0 0.0 0.0 0.0 0.0 0.0 0.0 0.0 0.0 0.0 0.0 0.0 0.0 0.0 0.0 0.0 0.0 0.0 0.0 0.0 0.0 0.0 0.0 0.0 0.0 0.0 0.0 0.0 0.0 0.0 0.0 0.0 0.0 0.0 0.0 0.0 0.0 0.0 0.0 0.0 0.0 0.0 0.0 0.0 0.0 0.0 0.0 0.0 0.0 0.0 0.0 0.0 0.0 0.0 0.0 0.0 0.0 0.0 0.0 0.0 0.0 0.0 0.0 0.0 0.0 0.0 0.0 0.0 0.0 0.0 0.0 0.0 0.0 0.0 0.0 0.0 0.0 0.0 0.0 0.0 0.0 0.0 0.0 0.0 0.0 0.0 0.0 0.0 0.0 0.0 0.0 0.0 0.0 0.0 0.0 0.0 0.0 0.0 0.0 0.0 0.0 0.0 0.0 0.0 0.0 0.0 0.0 0.0 0.0 0.0 0.0 0.0 0.0 0.0 0.0 0.0 0.0 0.0 0.0 0.0 0.0 0.0 0.0 0.0 0.0 0.0 0.0 0.0 0.0 0.0 0.0 0.0 0.0 0.0 0.0 0.0 0.0 0.0 0.0 0.0 0.0 0.0 0.0 0.0 0.0 0.0 0.0 0.0 0.0 0.0 0.0 0.0 0.0 0.0 0.0 0.0 0.0 0.0 0.0 0.0 0.0 0.0 0.0 0.0 0.0 0.0 0.0 0.0 0.0 0.0 0.0 0.0 0.0 0.0 0.0 0.0 0.0 0.0 0.0 0.0 0.0 0.0 0.0 0.0 0.0 0.0 0.0 0.0 0.0 0.0 0.0 0.0 0.0 0.0 0.0 0.0 0.0 0.0 0.0 0.0 0.0 0.0 0.0 0.0 0.0 0.0 0.0 0.0 0.0 0.0 0.0 0.0 0.0 0.0 0.0 0.0 0.0 0.0 0.0 0.0 0.0 0.0 0.0 0.0 0.0 0.0 0.0 0.0 0.0 0.0 0.0 0.0 0.0 0.0 0.0 0.0 0.0 0.0 0.0 0.0 0.0 0.0 0.0 0.0 0.0 0.0 0.0 0.0 0.0 0.0 0.0 0.0 0.0 0.0 0.0 0.0 0.0 0.0 0.0 0.0 0.0 0.0 0.0 0.0 0.0 0.0 0.0 0.0 0.0 0.0 0.0 0.0 0.0 0.0 0.0 0.0 0.0 0.0 0.0 0.0 0.0 0.0 0.0 0.0 0.0 0.0 0.0 0.0 0.0 0.0 0.0 0.0 0.0 0.0 0.0 0.0 0.0 0.0 0.0 0.0 0.0 0.0 0.0 0.0 0.0 0.0 0.0 0.0 0.0 0.0 0.0 0.0 0.0 0.0 0.0 0.0 0.0 0.0 0.0 0.0 0.0 0.0 0.0 0.0 0.0 0.0 0.0 0.0 0.0 0.0 0.0 0.0 0.0 0.0 0.0 0.0 0.0 0.0 0.0 0.0 0.0 0.0 0.0 0.0 0.0 0.0 0.0 0.0 0.0 0.0 0.0 0.0 0.0 0.0 0.0 0.0 0.0 0.0 0.0 0.0 0.0 0.0 0.0 0.0 0.0 0.0 0.0 0.0 0.0 0.0 0.0 0.0 0.0 0.0 0.0 0.0 0.0 0.0 0.0 0.0 0.0 0.0 0.0 0.0 0.0 0.0 0.0 0.0 0.0 0.0 0.0 0.0 0.0 0.0 0.0 0.0 0.0 0.0 0.0 0.0 0.0 0.0 0.0 0.0 0.0 0.0 0.0 0.0 0.0 0.0 0.0 0.0 0.0 0.0 0.0 0.0 0.0 0.0 0.0 0.0 0.0 0.0 0.0 0.0 0.0 0.0 0.0 0.0 0.0 0.0 0.0 0.0 0.0 0.0 0.0 0.0 0.0 0.0 0.0 0.0 0.0 0.0 0.0 0.0 0.0 0.0 0.0 0.0 0.0 0.0 0.0 0.0 0.0 0.0 0.0 0.0 0.0 0.0 0.0 0.0 0.0 0.0 0.0 0.0 0.0 0.0 0.0 0.0 0.0 0.0 0.0 0.0 0.0 0.0 0.0 0.0 0.0 0.0 0.0 0.0 0.0 0.0 0.0 0.0 0.0 0.0 0.0 0.0 0.0 0.0 0.0 0.0 0.0 0.0 0.0 0.0 0.0 0.0 0.0 0.0 0.0 0.0 0.0 0.0 0.0 0.0 0.0 0.0 0.0 0.0 0.0 0.0 0.0 0.0 0.0 0.0 0.0 0.0 0.0 0.0 0.0 0.0 0.0 0.0 0.0 0.0 0.0 0.0 0.0 0.0 0.0 0.0 0.0 0.0 0.0 0.0 0.0 0.0 0.0 0.0 0.0 0.0 0.0 0.0 0.0 0.0 0.0 0.0 0.0 0.0 0.0 0.0 0.0 0.0 0.0 0.0 0.0 0.0 0.0 0.0 0.0 0.0 0.0 0.0 0.0 0.0 0.0 0.0 0.0 0.0 0.0 0.0 0.0 0.0 0.0 0.0 0.0 0.0 0.0 0.0 0.0 0.0 0.0 0.0 0.0 0.0 0.0 0.0  8.6794265E+004  1.5192769E+004  1.8599583E+004  1.4560515E+004  1.0378665E+005  1.5609314E+005  1.2848212E+004  1.5507051E+004  1.6980191E+004  1.3917833E+004  1.3734168E+004  2.5603317E+004  1.3625478E+004  2.8161049E+004  2.5728972E+004  1.4529922E+004  2.2987837E+004  1.2314905E+004  2.3876584E+004  1.3771452E+004  1.3807319E+004  2.5901888E+004  1.4103214E+004  2.5378124E+004  1.2844863E+004  2.5118988E+004  2.4573925E+004  2.8200038E+004  2.4431227E+004  2.4562390E+004  2.5259861E+004  2.5090586E+004  2.7976954E+004  2.8958976E+004  2.5168192E+004  2.5912777E+004  2.5673407E+004  2.5351101E+004  2.6858534E+004  2.5231356E+004  1.5765387E+004  2.6719607E+004  2.6792644E+004  2.7763571E+004  2.6025011E+004  2.7494385E+004  2.7275109E+004  6.7541431E+004  1.5823718E+004  1.4013176E+004  1.3263350E+004  1.4600502E+004  1.2946103E+004  2.3797982E+004  3.3444499E+004  2.4571196E+004  1.4349020E+004  2.3879843E+004  2.3960868E+004  2.4895247E+004  1.4464316E+004  1.4091072E+004  2.4313444E+004  1.4356314E+004  1.4166829E+004  1.4391722E+004  1.4680967E+004  2.4676298E+004  1.3929300E+004  2.5442401E+004  1.4014063E+004  1.3475069E+004  1.4264428E+004  1.4799270E+004  1.4905446E+004  1.5144020E+004  1.5602684E+004  1.4804765E+004  1.5214106E+004  1.4924676E+004  1.5757743E+004  1.4976293E+004  1.5234937E+004  1.0466386E+005  2.5769023E+004  1.6377293E+004  2.5379212E+004  2.4979743E+004  1.3707691E+004  3.0663856E+004  1.2866005E+005  1.5460859E+004  4.4224175E+003  5.7611514E+003  9.1863460E+003  1.0584324E+004  1.3520063E+004  7.5136406E+003  1.1897091E+004  2.0604400E+004  2.6546036E+004  3.6592238E+004  3.5463531E+004  6.3956035E+004  4.7264313E+004  4.4141253E+004  5.7022668E+004  9.3571538E+004  5.9789837E+004  8.4105784E+004  1.8608351E+004  7.3003157E+004  2.3692414E+004  4.3517557E+004  6.9537625E+004  6.6829122E+003  2.0782691E+004  2.6217647E+003  1.8753885E+005  9.2051012E+003  5.0831158E+004  1.4248722E+004  2.3561037E+004  3.8843056E+004  2.8593704E+004  2.7548033E+004  1.9417713E+004  2.0045570E+004  1.9866140E+004  8.6182764E+003  2.8223954E+004  1.8704624E+004  8.9752997E+003  2.5263224E+004  1.7469419E+004  1.7103314E+004  1.6401929E+004  8.0937021E+003  8.6526596E+003  1.5340761E+004  1.1333275E+004  1.0917316E+004  1.1348621E+004  2.3418810E+004  2.4116438E+004  1.5975805E+004  2.6427814E+004  1.8276167E+004  1.7613959E+004  8.8102475E+003  2.7796909E+004  1.8255640E+004  1.7877622E+004  8.9300324E+003  2.5352827E+004  1.7460132E+004  1.6739419E+004  7.8472429E+003  1.4904339E+004  1.0799373E+004  1.0413844E+004  1.0910661E+004  2.1682794E+004  1.5145707E+004  1.0390696E+004  9.8696390E+003  2.0219970E+004  2.3888626E+004  1.6554767E+004  1.5353685E+004  8.3200435E+003  1.4726739E+004  1.0705174E+004  1.0248108E+004  1.1236902E+004  2.1236174E+004  1.4768320E+004  1.0337941E+004  1.0512185E+004  2.0885562E+004  2.0989709E+004  1.0365412E+004  1.4802298E+004  1.0095834E+004  1.3704722E+004  1.0306303E+004  1.0263076E+004  1.0179145E+004  2.0381973E+004  2.0524488E+004  2.5547863E+004  1.7312090E+004  1.4430150E+004  1.0805095E+004  1.0578365E+004  2.1839914E+004  1.3713207E+004  1.0023788E+004  1.0552846E+004  2.0568102E+004  1.9939673E+004  1.5161420E+004  1.2880885E+004  1.1527763E+004  2.5075340E+004  2.4890718E+004  1.8738773E+004  1.8688914E+004  2.6018638E+004  1.9191099E+004  1.7932336E+004  2.5752203E+004  1.9423463E+004  1.9270047E+004  1.6178264E+004  1.1687933E+004  1.1161327E+004  2.2525954E+004  1.3973754E+004  1.0341925E+004  1.0516778E+004  2.1488882E+004  1.0046127E+004  1.4782983E+004  1.0060384E+004  1.0002479E+004  1.4802809E+004  1.0224984E+004  1.3692340E+004  1.4653174E+004  1.4903355E+004  2.5498421E+004  1.7116199E+004  1.3901506E+004  9.6695307E+003  1.5842615E+004  1.0658937E+004  1.4569999E+004  1.4229357E+004  1.0509401E+004  1.0751332E+004  2.1587931E+004  1.6031035E+004  1.5200593E+004  2.5502256E+004  1.9356244E+004  1.9069678E+004  2.5882678E+004  1.7711518E+004  2.6644689E+004  2.8415407E+004  1.9002188E+004  2.5753576E+004  1.7229675E+004  2.5535819E+004  1.7611338E+004  2.6131144E+004  1.4790949E+004  1.5310732E+004  2.5321038E+004  1.4422340E+004  2.5111763E+004  2.5112776E+004  2.8324935E+004  1.9297550E+004  2.0200536E+004  1.5774600E+004  2.3615365E+004  1.5139984E+004  1.0509283E+004  1.4549028E+004  1.4631878E+004  1.4900599E+004  1.4969639E+004  1.3963210E+004  9.8143775E+003  2.5037529E+004  1.6805597E+004  2.6112572E+004  1.7396691E+004  1.3907933E+004  1.5897512E+004  1.1455084E+004  1.4997234E+004  2.5840572E+004  1.3696777E+004  2.7908668E+004  1.5609135E+004  1.1473518E+004  2.7113849E+004  2.4443390E+004  1.6576900E+004  1.6021542E+004  1.6717518E+004  1.1964083E+004  1.5419012E+004  2.6384942E+004  2.4672623E+004  1.3962784E+004  1.7671006E+004  1.6956876E+004  1.0524350E+004  1.0608994E+004  1.8785272E+004  1.6319168E+004  2.0697395E+004  9.9645175E+003  1.9060326E+004  1.0633490E+005  2.8331026E+004  7.0698073E+004  9.7641414E+003  1.1364022E+004  1.1639525E+004  8.2008603E+003  1.6217276E+004  1.3735349E+004  1.0366470E+005  1.3881952E+004  3.6575555E+004  2.1974327E+005  3.0996654E+004  1.7997735E+004  1.1029473E+005  3.8696343E+004  1.3709996E+005  2.4493774E+004  2.2890742E+004  2.2361040E+004  1.0192451E+005  2.6464704E+004  2.6207582E+004  1.8067042E+004  1.0681155E+004  1.0147574E+004  1.0127604E+004  9.2192418E+003  2.1622296E+004  8.7012910E+003  2.0880891E+004  9.8876860E+003  2.1448583E+004  1.1965929E+004  1.8234450E+004  1.0714588E+004  1.9872356E+004  1.1154480E+004  1.1069414E+004  1.8677385E+004  1.1084943E+004  1.9060558E+004  2.0358654E+004  2.7914319E+004  2.7139341E+004  2.6880043E+004  1.8812023E+004  2.7922744E+004  2.0737612E+004  2.7906214E+004  2.5949592E+004  3.2839830E+004  2.7560033E+004  2.7505973E+004  1.8855848E+004  2.6058306E+004  2.0447927E+004  3.0018469E+004  1.6969311E+004  2.9067176E+004  1.9732053E+004  1.7900322E+004  8.8948256E+003  2.6666264E+004  2.0103546E+004  8.9647413E+003  9.4475225E+003  2.3093347E+004  2.1808960E+004  8.7468955E+003  9.8724650E+003  9.9689835E+003  9.4185181E+003  9.0095135E+003  2.0615430E+004  1.9796479E+004  8.7291674E+003  2.0434431E+004  2.0580131E+004  8.7871678E+003  2.3347408E+004  1.1302453E+004  2.1972893E+004  2.5391573E+004  3.9130012E+004  1.4262771E+004  1.3629361E+005  9.5739790E+004  2.9006346E+005  1.0800203E+004  2.4308291E+004  8.0157125E+004  1.0194570E+004  1.1125281E+004  2.1512224E+004  1.9971571E+004  1.9668571E+004  1.0406798E+004  1.9746454E+004  1.9066721E+004  1.9295629E+004  1.0341549E+004  1.8703348E+004  1.9738571E+004  1.0002823E+004  9.8906075E+003  2.0855139E+004  2.0032297E+004  2.1544965E+004  9.1364304E+003  1.9134297E+004  9.4210559E+003  1.8174787E+004  1.9548845E+004  1.9487601E+004  9.7972081E+003  2.0431410E+004  2.0344507E+004  9.6564121E+003  1.0361062E+004  1.0396831E+004  2.0551993E+004  2.2016540E+004  2.0733066E+004  2.0532209E+004  9.4529519E+003  9.4337136E+003  9.5702940E+003  9.9406929E+003  1.0041653E+004  1.9178804E+004  8.8127209E+003  2.1309669E+004  1.0624084E+004  1.9208593E+004  9.9960697E+003  1.9582267E+004  9.7888134E+003  1.0844840E+004  1.0541187E+005  1.5062504E+004 0.0 0.0 0.0 0.0 0.0 0.0 0.0 0.0 0.0 0.0 0.0 0.0 0.0 0.0 0.0 0.0 0.0 0.0 0.0 0.0 0.0 0.0 0.0 0.0 0.0 0.0 0.0 0.0 0.0 0.0 0.0 0.0 0.0 0.0 0.0 0.0 0.0 0.0 0.0 0.0 0.0 0.0 0.0 0.0 0.0 0.0 0.0 0.0 0.0 0.0 0.0 0.0 0.0 0.0 0.0 0.0 0.0 0.0 0.0 0.0 0.0 0.0 0.0 0.0 0.0 0.0 0.0 0.0 0.0 0.0 0.0 0.0 0.0 0.0 0.0 0.0 0.0 0.0 0.0 0.0 0.0 0.0 0.0 0.0 0.0 0.0 0.0 0.0 0.0 0.0 0.0 0.0 0.0 0.0 0.0 0.0 0.0 0.0 0.0 0.0 0.0 0.0 0.0 0.0 0.0 0.0 0.0 0.0 0.0 0.0 0.0 0.0 0.0 0.0 0.0 0.0 0.0 0.0 0.0 0.0 0.0 0.0 0.0 0.0 0.0 0.0 0.0 0.0 0.0 0.0 0.0 0.0 0.0 0.0 0.0 0.0 0.0 0.0 0.0 0.0 0.0 0.0 0.0 0.0 0.0 0.0 0.0 0.0 0.0 0.0 0.0 0.0 0.0 0.0 0.0 0.0 0.0 0.0 0.0 0.0 0.0 0.0 0.0 0.0 0.0 0.0 0.0 0.0 0.0 0.0 0.0 0.0 0.0 0.0 0.0 0.0 0.0 0.0 0.0 0.0 0.0 0.0 0.0 0.0 0.0 0.0 0.0 0.0 0.0 0.0 0.0 0.0 0.0 0.0 0.0 0.0 0.0 0.0 0.0 0.0 0.0 0.0 0.0 0.0 0.0 0.0 0.0 0.0 0.0 0.0 0.0 0.0 0.0 0.0 0.0 0.0 0.0 0.0 0.0 0.0 0.0 0.0 0.0 0.0 0.0 0.0 0.0 0.0 0.0 0.0 0.0 0.0 0.0 0.0 0.0 0.0 0.0 0.0 0.0 0.0 0.0 0.0 0.0 0.0 0.0 0.0 0.0 0.0 0.0 0.0 0.0 0.0 0.0 0.0 0.0 0.0 0.0 0.0 0.0 0.0 0.0 0.0 0.0 0.0 0.0 0.0 0.0 0.0 0.0 0.0 0.0 0.0 0.0 0.0 0.0 0.0 0.0 0.0 0.0 0.0 0.0 0.0 0.0 0.0 0.0 0.0 0.0 0.0 0.0 0.0 0.0 0.0 0.0 0.0 0.0 0.0 0.0 0.0 0.0 0.0 0.0 0.0 0.0 0.0 0.0 0.0 0.0 0.0 0.0 0.0 0.0 0.0 0.0 0.0 0.0 0.0 0.0 0.0 0.0 0.0 0.0 0.0 0.0 0.0 0.0 0.0 0.0 0.0 0.0 0.0 0.0 0.0 0.0 0.0 0.0 0.0 0.0 0.0 0.0 0.0 0.0 0.0 0.0 0.0 0.0 0.0 0.0 0.0 0.0 0.0 0.0 0.0 0.0 0.0 0.0 0.0 0.0 0.0 0.0 0.0 0.0 0.0 0.0 0.0 0.0 0.0 0.0 0.0 0.0 0.0 0.0 0.0 0.0 0.0 0.0 0.0 0.0 0.0 0.0 0.0 0.0 0.0 0.0 0.0 0.0 0.0 0.0 0.0 0.0 0.0 0.0 0.0 0.0 0.0 0.0 0.0 0.0 0.0 0.0 0.0 0.0 0.0 0.0 0.0 0.0 0.0 0.0 0.0 0.0 0.0 0.0 0.0 0.0 0.0 0.0 0.0 0.0 0.0 0.0 0.0 0.0 0.0 0.0 0.0 0.0 0.0 0.0 0.0 0.0 0.0 0.0 0.0 0.0 0.0 0.0 0.0 0.0 0.0 0.0 0.0 0.0 0.0 0.0 0.0 0.0 0.0 0.0 0.0 0.0 0.0 0.0 0.0 0.0 0.0 0.0 0.0 0.0 0.0 0.0 0.0 0.0 0.0 0.0 0.0 0.0 0.0 0.0 0.0 0.0 0.0 0.0 0.0 0.0 0.0 0.0 0.0 0.0 0.0 0.0 0.0 0.0 0.0 0.0 0.0 0.0 0.0 0.0 0.0 0.0 0.0 0.0 0.0 0.0 0.0 0.0 0.0 0.0 0.0 0.0 0.0 0.0 0.0 0.0 0.0 0.0 0.0 0.0 0.0 0.0 0.0 0.0 0.0 0.0 0.0 0.0 0.0 0.0 0.0 0.0 0.0 0.0 0.0 0.0 0.0 0.0 0.0 0.0 0.0 0.0 0.0 0.0 0.0 0.0 0.0 0.0 0.0 0.0 0.0 0.0 0.0 0.0 0.0 0.0 0.0 0.0 0.0 0.0 0.0 0.0 0.0 0.0 0.0 0.0 0.0 0.0 0.0 0.0 0.0 0.0 0.0 0.0 0.0 0.0 0.0 0.0 0.0 0.0 0.0 0.0 0.0 0.0 0.0 0.0 0.0 0.0 0.0 0.0 0.0 0.0 0.0 0.0 0.0 0.0 0.0 0.0 0.0 0.0 0.0 0.0 0.0 0.0 0.0 0.0 0.0 0.0 0.0 0.0 0.0 0.0 0.0 0.0 0.0 0.0 0.0 0.0 0.0 0.0 0.0 0.0 0.0 0.0 0.0 0.0 0.0 0.0 0.0 0.0 0.0 0.0 0.0 0.0 0.0 0.0 0.0 0.0 0.0 0.0 0.0 0.0 0.0 0.0 0.0 0.0 0.0 0.0 0.0 0.0 0.0 0.0 0.0 0.0 0.0 0.0 0.0 0.0 0.0 0.0 0.0 0.0 0.0 0.0 0.0 0.0 0.0 0.0 0.0 0.0 0.0 0.0 0.0 0.0 0.0 0.0 0.0 0.0 0.0 0.0 0.0 0.0 0.0 0.0 0.0 0.0 0.0 0.0 0.0 0.0 0.0 0.0 0.0 0.0 0.0 0.0 0.0 0.0 0.0 0.0 0.0 0.0 0.0 0.0 0.0 0.0 0.0 0.0 0.0 0.0 0.0 0.0 0.0 0.0 0.0 0.0 0.0 0.0 0.0 0.0 0.0 0.0 0.0 0.0 0.0 0.0 0.0 0.0 0.0 0.0 0.0 0.0 0.0 0.0 0.0 0.0 0.0 0.0 0.0 0.0 0.0 0.0 0.0 0.0 0.0 0.0 0.0 0.0 0.0 0.0 0.0 0.0 0.0 0.0 0.0 0.0 0.0 0.0 0.0 0.0 0.0 0.0 0.0 0.0 0.0 0.0 0.0 0.0 0.0 0.0 0.0 0.0 0.0 0.0 0.0 0.0 0.0 0.0 0.0 0.0 0.0 0.0 0.0 0.0 0.0 0.0 0.0 0.0 0.0 0.0 0.0 0.0 0.0 0.0 0.0 0.0 0.0 0.0 0.0 0.0 0.0 0.0 0.0 0.0 0.0 0.0 0.0 0.0 0.0 0.0 0.0 0.0 0.0 0.0 0.0 0.0 0.0 0.0 0.0 0.0 0.0 0.0 0.0 0.0 0.0 0.0 0.0 0.0 0.0 0.0 0.0 0.0 0.0 0.0 0.0 0.0 0.0 0.0 0.0 0.0 0.0 0.0 0.0 0.0 0.0 0.0 0.0 0.0 0.0 0.0 0.0 0.0 0.0 0.0 0.0 0.0 0.0 0.0 0.0 0.0 0.0 0.0 0.0 0.0 0.0 0.0 0.0 0.0 0.0 0.0 0.0 0.0 0.0 0.0 0.0 0.0 0.0 0.0 0.0 0.0 0.0 0.0 0.0 0.0 0.0 0.0 0.0 0.0 0.0 0.0 0.0 0.0 0.0 0.0 0.0 0.0 0.0 0.0 0.0 0.0 0.0 0.0 0.0 0.0 0.0 0.0 0.0 0.0 0.0 0.0 0.0 0.0 0.0 0.0 0.0 0.0 0.0 0.0 0.0 0.0 0.0 0.0 0.0 0.0 0.0 0.0 0.0 0.0 0.0 0.0 0.0 0.0 0.0 0.0 0.0 0.0 0.0 0.0 0.0 0.0 0.0 0.0 0.0 0.0 0.0 0.0 0.0 0.0 0.0 0.0 0.0 0.0 0.0 0.0 0.0 0.0 0.0 0.0 0.0 0.0 0.0 0.0 0.0 0.0 0.0 0.0 0.0 0.0 0.0 0.0 0.0 0.0 0.0 0.0 0.0 0.0 0.0 0.0 0.0 0.0 0.0 0.0 0.0 0.0 0.0 0.0 0.0 0.0 0.0 0.0 0.0 0.0 0.0 0.0 0.0 0.0 0.0 0.0 0.0 0.0 0.0 0.0 0.0 0.0 0.0 0.0 0.0 0.0 0.0 0.0 0.0 0.0 0.0 0.0 0.0 0.0 0.0 0.0 0.0 0.0 0.0 0.0 0.0 0.0 0.0 0.0 0.0 0.0 0.0 0.0 0.0 0.0 0.0 0.0 0.0 0.0 0.0 0.0 0.0 0.0 0.0 0.0 0.0 0.0 0.0 0.0 0.0 0.0 0.0 0.0 0.0 0.0 0.0 0.0 0.0 0.0 0.0 0.0 0.0 0.0 0.0 0.0 0.0 0.0 0.0 0.0 0.0 0.0 0.0 0.0 0.0 0.0 0.0 0.0 0.0 0.0 0.0 0.0 0.0 0.0 0.0 0.0 0.0 0.0 0.0 0.0 0.0 0.0 0.0 0.0 0.0 0.0 0.0 0.0 0.0 0.0 0.0 0.0 0.0 0.0 0.0 0.0 0.0 0.0 0.0 0.0 0.0 0.0 0.0 0.0 0.0 0.0 0.0 0.0 0.0 0.0 0.0 0.0 0.0 0.0 0.0 0.0 0.0 0.0 0.0 0.0 0.0 0.0 0.0 0.0 0.0 0.0 0.0 0.0 0.0 0.0 0.0 0.0 0.0 0.0 0.0 0.0 0.0 0.0 0.0 0.0 0.0 0.0 0.0 0.0 0.0 0.0 0.0 0.0 0.0 0.0 0.0 0.0 0.0 0.0 0.0 0.0 0.0 0.0 0.0 0.0 0.0 0.0 0.0 0.0 0.0 0.0 0.0 0.0 0.0 0.0 0.0 0.0 0.0 0.0 0.0 0.0 0.0 0.0 0.0 0.0 0.0 0.0 0.0 0.0 0.0 0.0 0.0 0.0 0.0 0.0 0.0 0.0 0.0 0.0 0.0 0.0 0.0 0.0 0.0 0.0 0.0 0.0 0.0 0.0 0.0 0.0 0.0 0.0 0.0 0.0 0.0 0.0 0.0 0.0 0.0 0.0 0.0 0.0 0.0 0.0 0.0 0.0 0.0 0.0 0.0 0.0 0.0 0.0 0.0 0.0 0.0 0.0 0.0 0.0 0.0 0.0 0.0 0.0 0.0 0.0 0.0 0.0 0.0 0.0 0.0 0.0 0.0 0.0 0.0 0.0 0.0 0.0 0.0 0.0 0.0 0.0 0.0 0.0
        </DataArray>
        <DataArray type="Float64" Name="magnetic flux density re" NumberOfComponents="3" format="ascii">
 -4.0096997E-004 -4.6978785E-005 0.0 -3.1103962E-004 -8.5669837E-005 0.0  1.9650436E-004  1.2180468E-003 0.0  3.6928133E-003  2.2051191E-003 0.0  7.6253755E-006 -3.8756023E-005 0.0 -2.4955972E-005  9.5340440E-005 0.0 -7.8042661E-006  2.5757846E-005 0.0  1.3773744E-004  4.5200673E-003 0.0  2.0549279E-003 -1.1332008E-003 0.0  1.6393904E-003 -2.1332338E-004 0.0 -1.7113705E-003  9.0801354E-003 0.0 -1.8314144E-003 -3.2426826E-003 0.0  1.8670234E-003 -3.2528372E-003 0.0  2.3930986E-003  9.0070472E-003 0.0 -2.1816445E-004  2.9736189E-004 0.0 -4.6153321E-006 -6.6410589E-006 0.0  3.5930710E-007 -2.6223077E-007 0.0  8.9337926E-007 -6.3634531E-006 0.0  1.3313958E-005 -3.8517928E-005 0.0  1.3182857E-003  6.2969415E-004 0.0 -9.4206652E-007 -4.9925484E-006 0.0  2.5289901E-004  2.4624245E-003 0.0  1.3267061E-005  1.1411551E-003 0.0 -1.7317982E-004  1.0681165E-003 0.0 -2.8182375E-004  9.2838718E-004 0.0 -3.4227670E-004  8.2442192E-004 0.0 -4.0966786E-004  7.1099679E-004 0.0 -4.3244913E-004  5.8936938E-004 0.0 -4.4580500E-004  4.8316926E-004 0.0 -4.6373504E-004  3.7632962E-004 0.0 -4.3399762E-004  2.8840554E-004 0.0 -4.3291622E-004  2.0279279E-004 0.0 -4.1223732E-004  1.3642080E-004 0.0 -3.9549495E-004  7.7648079E-005 0.0 -3.8546056E-004  3.6722166E-005 0.0 -3.6675428E-004  1.1413517E-006 0.0 -3.5286507E-004 -2.9618842E-005 0.0 -3.3623163E-004 -5.6334142E-005 0.0  3.3087787E-003  2.3064523E-003 0.0  2.8590784E-003  2.3450149E-003 0.0  2.5004498E-003  2.3282105E-003 0.0  2.1153403E-003  2.3154165E-003 0.0  1.8116573E-003  2.2499324E-003 0.0  1.5024422E-003  2.1413618E-003 0.0  1.1646420E-003  2.0629758E-003 0.0  9.5935123E-004  1.9523721E-003 0.0  7.2170853E-004  1.8135299E-003 0.0  5.0968219E-004  1.6456313E-003 0.0  3.5554038E-004  1.4523952E-003 0.0  1.1332538E-005 -4.1598432E-005 0.0  1.3711233E-005 -4.2215300E-005 0.0  1.5722132E-005 -4.2868122E-005 0.0  1.6986771E-005 -4.2330332E-005 0.0  1.6774608E-005 -4.1465687E-005 0.0  1.5688713E-005 -3.9513558E-005 0.0  1.3651115E-005 -3.9159687E-005 0.0  1.0690689E-005 -3.6245418E-005 0.0  9.1832601E-006 -2.9575568E-005 0.0  4.6972003E-006 -2.2246570E-005 0.0  1.0543914E-006 -1.0786924E-005 0.0  6.9110842E-007 -6.6415779E-006 0.0 -9.5037138E-007  3.5261548E-007 0.0 -3.6988363E-006  1.0948646E-005 0.0 -6.7793593E-006  2.3424135E-005 0.0 -4.4338563E-006  2.5413614E-005 0.0 -7.8052950E-006  4.4643016E-005 0.0 -7.6513955E-006  5.3185627E-005 0.0 -1.0463956E-005  6.8311330E-005 0.0 -1.0051907E-005  7.3594598E-005 0.0 -9.1942316E-006  7.6380127E-005 0.0 -9.9569661E-006  1.0483048E-004 0.0 -1.0952396E-005  1.1208996E-004 0.0 -7.9490495E-006  1.0464713E-004 0.0 -1.2621364E-005  1.2152490E-004 0.0 -8.4090631E-006  1.1963889E-004 0.0 -7.8458460E-006  1.3349059E-004 0.0 -9.4529400E-006  1.5050289E-004 0.0 -1.0016863E-005  1.5645351E-004 0.0 -6.3466154E-006  1.3417607E-004 0.0 -8.4071850E-006  1.6050628E-004 0.0 -5.3967983E-006  1.4286649E-004 0.0 -6.3705253E-006  1.6505019E-004 0.0 -5.3962075E-006  1.6026826E-004 0.0 -5.7508450E-006  1.6849023E-004 0.0 -5.1302633E-006  1.7475360E-004 0.0 -4.7466943E-006  1.6250781E-004 0.0 -4.9288762E-006  1.7642764E-004 0.0 -4.2857468E-006  1.7554840E-004 0.0 -4.0346443E-006  1.7601035E-004 0.0 -2.8366094E-006  1.6557061E-004 0.0 -3.8440761E-006  1.7948993E-004 0.0 -2.4553037E-006  1.7080005E-004 0.0 -2.9299863E-006  1.8129303E-004 0.0 -2.3050657E-006  1.6409580E-004 0.0 -2.3749497E-006  1.8003084E-004 0.0 -2.1534882E-006  1.7276021E-004 0.0 -1.5579598E-006  1.7334662E-004 0.0 -2.2062918E-006  1.6843121E-004 0.0 -1.0255583E-006  1.7322284E-004 0.0 -1.1761329E-006  1.6914957E-004 0.0 -5.9003790E-007  1.6801109E-004 0.0 -1.4903137E-006  1.6293889E-004 0.0 -7.0149003E-007  1.6980596E-004 0.0  4.7425444E-008  1.6215766E-004 0.0 -1.5324945E-007  1.6809724E-004 0.0 -8.4685725E-007  1.5700186E-004 0.0 -1.7486602E-008  1.6214764E-004 0.0  4.7996847E-007  1.6150513E-004 0.0 -9.0695507E-007  1.5260964E-004 0.0  3.8315353E-007  1.5705237E-004 0.0  3.9357455E-007  1.4679298E-004 0.0 -2.5089276E-007  1.5273837E-004 0.0  7.4172595E-007  1.4595864E-004 0.0 -1.9704996E-007  1.4906951E-004 0.0  1.0168736E-006  1.4412403E-004 0.0 -2.9785129E-007  1.3864027E-004 0.0  1.1412309E-006  1.4710955E-004 0.0  2.4364218E-007  1.4408300E-004 0.0  1.9695015E-007  1.2707498E-004 0.0  9.6314034E-007  1.3685698E-004 0.0  7.6737811E-007  1.2456040E-004 0.0  4.2071463E-007  1.3226294E-004 0.0  1.1169424E-006  1.2507493E-004 0.0 -1.1584667E-008  1.2594226E-004 0.0  1.3452015E-006  1.2162928E-004 0.0  2.5159381E-007  1.1931435E-004 0.0  9.4948763E-007  1.2132356E-004 0.0  1.4690550E-006  1.1802725E-004 0.0  5.3381040E-007  1.1481847E-004 0.0  1.1073078E-006  1.1647906E-004 0.0  1.1221115E-006  1.1179143E-004 0.0  1.4772020E-006  1.0932161E-004 0.0 -7.3909447E-008  1.1501925E-004 0.0  1.0188590E-006  1.0547187E-004 0.0  7.2592403E-007  1.0724705E-004 0.0  5.7247904E-007  9.9159627E-005 0.0  4.7959429E-007  1.0484306E-004 0.0  1.1882607E-006  1.0011993E-004 0.0  1.5413418E-007  9.6920256E-005 0.0  8.4383556E-007  1.0133463E-004 0.0  7.3879498E-007  1.0156657E-004 0.0 -4.2784445E-007  9.9038584E-005 0.0  9.3270966E-007  9.3300186E-005 0.0 -4.1665424E-007  9.5490035E-005 0.0 -6.6293960E-007  9.1106550E-005 0.0 -3.1912690E-006  9.8076496E-005 0.0 -8.7539782E-006  9.5560656E-005 0.0 -1.9836977E-005  9.6225998E-005 0.0 -3.9557031E-005  5.8732961E-005 0.0 -3.1982903E-005  2.6718917E-005 0.0 -1.7525134E-005  8.4782851E-006 0.0  2.9616417E-004  4.9043159E-003 0.0  5.9048941E-004  4.7692087E-003 0.0  8.8145187E-004  4.8591330E-003 0.0  1.2016903E-003  4.9415951E-003 0.0  1.5861536E-003  4.9824430E-003 0.0  1.9552427E-003  5.0249425E-003 0.0  2.4464855E-003  5.0961629E-003 0.0  2.8322929E-003  4.8957423E-003 0.0  3.1129134E-003  4.9171478E-003 0.0  3.5123633E-003  4.6296487E-003 0.0  3.8040811E-003  4.4881248E-003 0.0  4.0822815E-003  4.3349020E-003 0.0  4.2693520E-003  4.0402509E-003 0.0  4.4280232E-003  3.8601744E-003 0.0  4.6251094E-003  3.7087927E-003 0.0  4.7078041E-003  3.5278147E-003 0.0  4.7283454E-003  3.3385612E-003 0.0  4.7819900E-003  3.1847439E-003 0.0  4.7846525E-003  3.0215250E-003 0.0  4.7226016E-003  2.8831930E-003 0.0  4.7107943E-003  2.7120002E-003 0.0  4.6756627E-003  2.5421113E-003 0.0  4.5532344E-003  2.3423029E-003 0.0  4.4939532E-003  2.1408395E-003 0.0  4.3445664E-003  1.8545194E-003 0.0  4.2323218E-003  1.6637786E-003 0.0  4.1342930E-003  1.3838207E-003 0.0  3.9111993E-003  1.1403027E-003 0.0  3.8080257E-003  8.0391475E-004 0.0  3.6630030E-003  5.1154356E-004 0.0  3.5345465E-003  1.9447206E-004 0.0  3.2769095E-003 -1.5575901E-004 0.0  3.0999843E-003 -3.6185382E-004 0.0  2.9146473E-003 -6.9051157E-004 0.0  2.4133125E-003 -9.8814156E-004 0.0  1.9027450E-003 -7.3266029E-004 0.0  1.8166905E-003 -5.1328344E-004 0.0  1.7676417E-003 -3.7343653E-004 0.0 -2.4390336E-003  8.6426297E-003 0.0 -2.5333547E-003  8.0276190E-003 0.0 -2.8873713E-003  7.1129122E-003 0.0 -2.5722537E-003  6.6764668E-003 0.0 -2.9363081E-003  6.2341647E-003 0.0 -2.6860723E-003  5.8196763E-003 0.0 -3.0244255E-003  5.4247345E-003 0.0 -2.6873987E-003  5.0684803E-003 0.0 -2.8389657E-003  4.7667995E-003 0.0 -3.0712197E-003  4.4484190E-003 0.0 -3.1008619E-003  4.0792607E-003 0.0 -2.4325755E-003  3.8465754E-003 0.0 -3.2004335E-003  3.5597359E-003 0.0 -3.2935170E-003  3.2191793E-003 0.0 -2.6765101E-003  2.9462759E-003 0.0 -3.2029576E-003  2.6312213E-003 0.0 -3.0646499E-003  2.3181071E-003 0.0 -3.3178589E-003  1.9817380E-003 0.0 -3.1721087E-003  1.6242968E-003 0.0 -3.0673564E-003  1.3589934E-003 0.0 -3.3419641E-003  8.9216122E-004 0.0 -3.4089776E-003  5.2556646E-004 0.0 -2.8593796E-003  5.4656092E-005 0.0 -3.2328589E-003 -4.7373824E-004 0.0 -2.8904737E-003 -1.0436395E-003 0.0 -3.1090350E-003 -1.7480377E-003 0.0 -2.6027894E-003 -2.7116767E-003 0.0 -2.3702335E-005 -3.8326154E-003 0.0  3.0019910E-003 -2.4824169E-003 0.0  2.7650097E-003 -1.8375092E-003 0.0  3.4559144E-003 -1.0600577E-003 0.0  3.6624134E-003 -3.5213630E-004 0.0  3.6850420E-003  8.9496618E-005 0.0  3.4513108E-003  5.4420287E-004 0.0  3.6709049E-003  9.9439461E-004 0.0  3.5940320E-003  1.3247445E-003 0.0  3.8362345E-003  1.7043398E-003 0.0  3.8792618E-003  2.0624266E-003 0.0  4.0280419E-003  2.3556926E-003 0.0  3.4882156E-003  2.6741947E-003 0.0  4.3362140E-003  2.9439976E-003 0.0  4.3412422E-003  3.2743840E-003 0.0  4.0760551E-003  3.5404549E-003 0.0  4.1495328E-003  3.7829681E-003 0.0  4.3074602E-003  4.1258717E-003 0.0  4.2269990E-003  4.3915649E-003 0.0  4.2102585E-003  4.6702265E-003 0.0  3.9571627E-003  5.0455599E-003 0.0  4.0974293E-003  5.3172369E-003 0.0  3.9435941E-003  5.7307440E-003 0.0  4.2197349E-003  6.0627906E-003 0.0  3.7779005E-003  6.5880458E-003 0.0  3.9922911E-003  7.0205207E-003 0.0  3.5129020E-003  7.7778982E-003 0.0  3.5361952E-003  8.4743909E-003 0.0  5.4333141E-004  9.8195340E-003 0.0  1.7960576E-003 -7.5629823E-005 0.0  1.9916912E-003  2.2005860E-005 0.0  2.1645051E-003  1.7834885E-004 0.0  2.3159153E-003  3.9687695E-004 0.0  2.4784786E-003  5.6522349E-004 0.0  2.6479894E-003  7.3840092E-004 0.0  2.7481983E-003  9.7807217E-004 0.0  2.8252317E-003  1.2241058E-003 0.0  3.0667055E-003  1.4977952E-003 0.0  3.2437306E-003  1.7014262E-003 0.0  3.4926198E-003  1.9535767E-003 0.0 -3.9497068E-004 -1.0710905E-004 0.0 -3.6430282E-004 -1.3585743E-004 0.0 -3.4148608E-004 -1.5200832E-004 0.0 -3.2852106E-004 -1.6056017E-004 0.0 -3.1729443E-004 -1.5548646E-004 0.0 -3.1391916E-004 -1.4355266E-004 0.0 -3.1189518E-004 -1.2419682E-004 0.0 -4.6402629E-004 -1.5097742E-004 0.0 -4.5244792E-004 -2.6054427E-004 0.0 -4.2861399E-004 -3.3847910E-004 0.0 -3.7952166E-004 -3.9175984E-004 0.0 -3.2848793E-004 -4.2457317E-004 0.0 -2.7601623E-004 -4.4084551E-004 0.0 -2.1980634E-004 -4.4201401E-004 0.0 -1.7647098E-004 -4.3274410E-004 0.0 -1.2980106E-004 -4.1767952E-004 0.0 -8.6206943E-005 -3.9745930E-004 0.0 -5.5730623E-005 -3.7306757E-004 0.0 -2.9663668E-005 -3.4299035E-004 0.0 -8.6901900E-006 -3.1447803E-004 0.0  8.2440789E-006 -2.8461460E-004 0.0  2.0788512E-005 -2.5878900E-004 0.0  3.2110454E-005 -2.2893386E-004 0.0  3.5774609E-005 -2.0617647E-004 0.0  4.4651189E-005 -1.8145343E-004 0.0  4.3902850E-005 -1.6239102E-004 0.0  4.3576444E-005 -1.4283400E-004 0.0  4.4727964E-005 -1.2612209E-004 0.0  4.1774027E-005 -1.1128069E-004 0.0  3.8147538E-005 -9.8279496E-005 0.0  3.4935772E-005 -8.8449876E-005 0.0  3.2366736E-005 -7.7984180E-005 0.0  2.9033842E-005 -7.1087432E-005 0.0  2.6677690E-005 -6.3259693E-005 0.0  2.3196115E-005 -5.8820892E-005 0.0  2.0921853E-005 -5.3677279E-005 0.0  1.8694783E-005 -5.0049506E-005 0.0  1.6377627E-005 -4.7220148E-005 0.0  1.5036654E-005 -4.4613059E-005 0.0  1.3823183E-005 -4.2801702E-005 0.0  1.2839727E-005 -4.1131432E-005 0.0  1.1852103E-005 -3.9957667E-005 0.0  1.1391423E-005 -3.9159052E-005 0.0  1.0921864E-005 -3.8645933E-005 0.0  1.0564330E-005 -3.8503757E-005 0.0  9.7189437E-006 -3.8685098E-005 0.0  2.9514431E-004  5.2844465E-003 0.0  2.8432786E-004  6.4253228E-003 0.0  3.3964312E-005  7.0114021E-003 0.0  2.0212526E-005  6.8748393E-003 0.0 -1.0241506E-003  5.3427231E-003 0.0 -3.9962305E-004  5.0534773E-003 0.0 -4.2187048E-004  2.0416159E-003 0.0 -2.6726470E-004  1.7584069E-003 0.0 -1.7688792E-004  6.6465585E-004 0.0 -3.1139310E-004  6.1347637E-005 0.0 -5.1991498E-004  7.3246558E-005 0.0 -6.5592234E-004  8.9952675E-006 0.0 -6.4320028E-004 -1.2920819E-006 0.0 -5.7160721E-004 -2.7593239E-005 0.0 -4.6506288E-004 -4.3077861E-005 0.0 -3.2591439E-004 -4.5277806E-005 0.0 -2.3173176E-004 -2.6857480E-005 0.0 -1.6214128E-004 -1.7854128E-005 0.0 -1.1369164E-004 -1.4879460E-005 0.0 -8.0767267E-005 -1.2122034E-005 0.0 -4.9412132E-005 -8.9139330E-006 0.0 -3.0309757E-005 -6.9513636E-006 0.0 -1.5316310E-005 -4.6600332E-006 0.0 -3.8729287E-006 -1.5861298E-005 0.0 -3.9675378E-006 -2.8195895E-005 0.0 -2.9374063E-006 -3.9110055E-005 0.0 -2.2182969E-006 -4.7661617E-005 0.0 -1.3689559E-006 -5.3214546E-005 0.0 -1.0678571E-007 -5.5495782E-005 0.0  5.2999056E-007 -5.4611061E-005 0.0  4.6346158E-007 -5.1900440E-005 0.0  2.2200778E-006 -4.7961037E-005 0.0  2.2394853E-006 -4.2789209E-005 0.0  2.3543185E-006 -3.6278022E-005 0.0  2.1271107E-006 -3.1184792E-005 0.0  1.9571979E-006 -2.5359868E-005 0.0  1.6692051E-006 -2.1212482E-005 0.0  1.3463622E-006 -1.6683268E-005 0.0  1.1489092E-006 -1.3661419E-005 0.0  9.8038456E-007 -1.0911462E-005 0.0  7.4643411E-007 -8.2272166E-006 0.0  5.9958753E-007 -6.3542266E-006 0.0  4.9882464E-007 -4.9687401E-006 0.0  4.5470759E-007 -3.5475940E-006 0.0  3.8626972E-007 -2.5898255E-006 0.0  3.1993308E-007 -1.5487309E-006 0.0  2.4613620E-007 -8.3604761E-007 0.0  7.3707626E-007  4.2485259E-006 0.0  6.4466161E-007  2.1639858E-006 0.0  9.3197536E-007  7.5619953E-006 0.0  8.6919185E-007  7.6321706E-006 0.0  1.0209083E-006  1.3643936E-005 0.0  1.4767328E-006  1.5575181E-005 0.0  1.2667709E-006  2.0421891E-005 0.0  3.3653391E-006  3.6212873E-005 0.0  2.2610441E-006  3.6216426E-005 0.0  4.1408570E-006  4.6704954E-005 0.0  3.1066071E-006  5.7546811E-005 0.0  3.3329434E-006  6.8508285E-005 0.0  2.4791881E-006  7.7252788E-005 0.0 -9.2689337E-008  8.4301230E-005 0.0  9.0088767E-007  8.3325977E-005 0.0 -4.1170011E-006  7.6429872E-005 0.0 -4.7670599E-006  5.8431359E-005 0.0  9.0445741E-007 -2.2633452E-007 0.0  1.5647557E-006 -2.8649707E-007 0.0  2.4515851E-006 -2.6426591E-007 0.0  3.0493013E-006 -2.3043995E-007 0.0  3.6766734E-006 -2.0281323E-007 0.0  4.1143232E-006 -1.5271555E-007 0.0  4.4254730E-006 -8.7508408E-008 0.0  4.5373354E-006  7.2688498E-009 0.0  4.4256666E-006  6.9732904E-008 0.0  4.0918104E-006  6.9654513E-008 0.0  3.5522720E-006  2.8024036E-007 0.0  2.8856273E-006  2.5416371E-007 0.0  1.8932936E-006  4.1575666E-007 0.0  1.0832291E-006  1.1761421E-007 0.0  2.3081044E-005 -2.9410601E-005 0.0  4.4439186E-005 -2.8845661E-005 0.0  6.4552321E-005 -2.8048991E-005 0.0  8.9095436E-005 -2.9061733E-005 0.0  1.0909803E-004 -3.0069935E-005 0.0  1.3111398E-004 -2.9090448E-005 0.0  1.5300515E-004 -2.8959005E-005 0.0  1.7375387E-004 -2.9415831E-005 0.0  1.9455283E-004 -3.0963410E-005 0.0  2.1356813E-004 -3.0590040E-005 0.0  2.3802086E-004 -3.0422333E-005 0.0  2.5405806E-004 -3.0650593E-005 0.0  2.7744129E-004 -3.4151614E-005 0.0  2.9873402E-004 -3.3464682E-005 0.0  3.1778277E-004 -3.6721245E-005 0.0  3.3653440E-004 -3.7727232E-005 0.0  3.6160972E-004 -3.7248466E-005 0.0  3.7370100E-004 -4.3817939E-005 0.0  3.9278411E-004 -4.4314357E-005 0.0  4.1815756E-004 -4.9239571E-005 0.0  4.4393710E-004 -4.8497208E-005 0.0  4.4887213E-004 -6.2105382E-005 0.0  4.5998712E-004 -6.4402375E-005 0.0  4.9817158E-004 -6.7291772E-005 0.0  5.1448771E-004 -8.0836166E-005 0.0  5.3783989E-004 -8.7076551E-005 0.0  5.4788670E-004 -1.0153334E-004 0.0  5.7452713E-004 -1.0919194E-004 0.0  5.7410016E-004 -1.2824795E-004 0.0  6.0659822E-004 -1.4347381E-004 0.0  6.2834727E-004 -1.5944658E-004 0.0  6.5155702E-004 -1.7906428E-004 0.0  6.8905089E-004 -1.9822492E-004 0.0  7.0730736E-004 -2.2004055E-004 0.0  7.3307091E-004 -2.4666674E-004 0.0  7.9638148E-004 -2.6243840E-004 0.0  8.5058918E-004 -2.7938233E-004 0.0  8.6657956E-004 -3.0591507E-004 0.0  9.2155340E-004 -3.1864176E-004 0.0  9.8661169E-004 -3.2522078E-004 0.0  1.0509682E-003 -3.2899531E-004 0.0  1.1090208E-003 -3.1819339E-004 0.0  1.2021370E-003 -2.9933353E-004 0.0  1.2591934E-003 -2.4558892E-004 0.0  1.3507913E-003 -1.7886019E-004 0.0  1.4401460E-003 -8.4896807E-005 0.0  1.4614440E-003  4.7670070E-005 0.0  1.4948137E-003  2.0504560E-004 0.0  1.4757661E-003  4.1766571E-004 0.0  1.0939999E-003  7.3113326E-004 0.0  8.3021663E-004  7.4047180E-004 0.0  6.2755192E-004  6.8591778E-004 0.0  4.5075624E-004  6.1619489E-004 0.0  3.1917536E-004  5.6604891E-004 0.0  2.1153065E-004  4.6997595E-004 0.0  1.2622490E-004  3.8193731E-004 0.0  6.4838143E-005  3.1799484E-004 0.0  1.8886993E-005  2.3600836E-004 0.0 -1.5848572E-005  1.8866095E-004 0.0 -4.2202265E-005  1.3160400E-004 0.0 -5.7249317E-005  1.0464668E-004 0.0 -7.4230574E-005  6.8859227E-005 0.0 -9.0385113E-005  5.5192895E-005 0.0 -1.1511524E-004  3.4334885E-005 0.0 -1.4306146E-004  3.3839319E-005 0.0 -1.9249077E-004  2.7162086E-005 0.0 -2.5010990E-004  2.7319097E-005 0.0 -3.2691143E-004  1.6461802E-005 0.0  4.8641045E-006 -3.7076548E-005 0.0  2.1997277E-006 -3.4070943E-005 0.0 -7.0847652E-007 -2.9198378E-005 0.0 -2.1912158E-006 -2.4470651E-005 0.0 -4.0111647E-006 -1.8900181E-005 0.0 -4.2133847E-006 -1.4209287E-005 0.0 -3.6049547E-006 -9.7809921E-006 0.0 -2.7477832E-006 -7.0832546E-006 0.0 -1.6981511E-006 -4.9606677E-006 0.0 -9.3373935E-007 -9.2679001E-006 0.0 -8.8694330E-007 -1.0202421E-005 0.0 -1.3286103E-006 -1.6546842E-005 0.0 -1.0251605E-006 -1.6649629E-005 0.0 -4.0493990E-006 -3.1826077E-005 0.0 -3.9938985E-006 -3.3400235E-005 0.0 -5.9999408E-006 -5.2833413E-005 0.0 -5.4308487E-006 -7.5556362E-005 0.0 -3.0863925E-006 -9.6848593E-005 0.0 -2.0429255E-006 -1.0699081E-004 0.0 -1.6803930E-007 -1.1324738E-004 0.0  4.8504671E-006 -1.0901252E-004 0.0  5.3448683E-006 -9.5556826E-005 0.0  8.0444588E-006 -7.8257612E-005 0.0  2.1049612E-005  3.0410002E-005 0.0  1.2590361E-005  3.3299548E-005 0.0  1.8124388E-005  1.2600403E-004 0.0  2.0969213E-005  1.3861174E-004 0.0  2.4009301E-005  2.7040007E-004 0.0  2.1570507E-005  2.8849950E-004 0.0  4.6602621E-005  4.9386217E-004 0.0  5.8393756E-005  6.0152827E-004 0.0  5.4347064E-005  6.9436434E-004 0.0  7.9927400E-005  1.0402978E-003 0.0  1.4607266E-004  1.5369973E-003 0.0  1.2444835E-004  1.5642429E-003 0.0  3.2169562E-004  2.3658300E-003 0.0  6.0186549E-004  2.3401042E-003 0.0  9.1096611E-004  2.3573643E-003 0.0  1.2319566E-003  2.3413007E-003 0.0  1.5039268E-003  2.3495076E-003 0.0  1.8275895E-003  2.2991451E-003 0.0  2.0943259E-003  2.2402850E-003 0.0  2.4145403E-003  2.2578008E-003 0.0  2.7385480E-003  2.2292866E-003 0.0  3.0114871E-003  2.1852362E-003 0.0  3.2535245E-003  2.1527833E-003 0.0  3.4897646E-003  2.1006155E-003 0.0  3.6964734E-003  2.0693809E-003 0.0  3.8595193E-003  2.0205419E-003 0.0  4.0193430E-003  2.0082990E-003 0.0  4.1592485E-003  2.0141999E-003 0.0  4.2723238E-003  2.0253602E-003 0.0  4.3304995E-003  2.0445237E-003 0.0  4.3271262E-003  2.0816967E-003 0.0  4.3247306E-003  2.1089308E-003 0.0  4.2237149E-003  2.1693547E-003 0.0  4.1257165E-003  2.2104024E-003 0.0  3.9591069E-003  2.2218375E-003 0.0 -3.9408368E-006 -2.8488116E-005 0.0 -1.3813508E-006 -3.2004298E-005 0.0 -6.4129074E-007 -3.1942097E-005 0.0  3.6107204E-007 -3.6474818E-005 0.0 -9.1644603E-008 -3.2703834E-005 0.0  2.3899837E-007 -3.3637298E-005 0.0  6.7959427E-008 -3.2192488E-005 0.0 -1.1268833E-007 -3.4729245E-005 0.0 -2.3293551E-007 -3.4528169E-005 0.0 -2.0865196E-007 -3.3849772E-005 0.0 -1.1369182E-007 -3.6657354E-005 0.0 -5.6549502E-007 -3.4255892E-005 0.0 -1.6378786E-007 -3.7651826E-005 0.0 -9.1395754E-008 -3.5868376E-005 0.0 -3.0450666E-007 -3.9526847E-005 0.0 -2.0878178E-007 -3.7166964E-005 0.0 -2.7826374E-007 -4.1029971E-005 0.0 -3.9521340E-007 -3.8701825E-005 0.0 -6.0769089E-008 -4.2936369E-005 0.0 -4.2642210E-007 -4.0976256E-005 0.0 -2.6625935E-007 -4.4766327E-005 0.0 -1.3375157E-007 -4.5383701E-005 0.0 -1.3148282E-007 -4.3800275E-005 0.0 -2.5691642E-007 -4.6975354E-005 0.0 -3.7600655E-007 -4.7483246E-005 0.0 -3.9779058E-007 -4.7274657E-005 0.0 -2.1293982E-007 -5.0999954E-005 0.0 -1.2344049E-007 -5.0885986E-005 0.0 -5.4557422E-007 -5.0521959E-005 0.0 -2.5586853E-008 -5.2574570E-005 0.0 -9.1838365E-008 -5.1800353E-005 0.0 -3.4804418E-007 -5.6089135E-005 0.0 -4.8161483E-007 -5.3363849E-005 0.0 -7.2007018E-008 -5.9150845E-005 0.0 -6.1329061E-007 -5.6880406E-005 0.0 -3.3582853E-007 -6.0416439E-005 0.0 -5.7534741E-007 -5.6633082E-005 0.0 -1.4668810E-007 -6.2036148E-005 0.0 -5.1098335E-007 -6.3939954E-005 0.0 -2.0172997E-007 -6.3788506E-005 0.0 -4.1066254E-007 -6.7345544E-005 0.0 -6.4552287E-007 -6.5331233E-005 0.0 -1.0661010E-007 -7.0427405E-005 0.0 -6.1422187E-007 -6.9676761E-005 0.0 -4.7993213E-007 -7.2001919E-005 0.0 -5.1321455E-007 -7.1948544E-005 0.0 -3.1388133E-007 -7.5933509E-005 0.0 -3.2975672E-007 -7.5998693E-005 0.0 -7.5464667E-007 -7.8926237E-005 0.0 -5.0876313E-007 -7.9804365E-005 0.0 -1.1897704E-007 -8.1188216E-005 0.0 -3.4676446E-007 -8.4049530E-005 0.0 -4.1030994E-007 -8.5130402E-005 0.0 -8.3885126E-007 -8.6909809E-005 0.0 -4.0027129E-007 -8.7108363E-005 0.0 -3.7173553E-008 -8.9670211E-005 0.0 -2.9187882E-007 -9.1702835E-005 0.0 -3.8673969E-007 -9.2092350E-005 0.0 -6.5029072E-007 -9.5945614E-005 0.0 -3.3438123E-007 -9.3797637E-005 0.0  1.8012712E-008 -9.7938119E-005 0.0 -2.9559465E-007 -9.7640288E-005 0.0 -3.5177637E-007 -1.0034634E-004 0.0 -2.3782808E-007 -9.9946051E-005 0.0 -5.0445383E-007 -1.0493846E-004 0.0 -3.1997620E-007 -1.0051393E-004 0.0 -2.7339835E-008 -1.0645821E-004 0.0  9.8224885E-008 -1.0581913E-004 0.0 -2.6491819E-007 -1.0895335E-004 0.0 -1.5321363E-007 -1.0513088E-004 0.0 -1.6776027E-008 -1.1219266E-004 0.0  2.4013488E-008 -1.0740425E-004 0.0 -3.4792739E-008 -1.1462327E-004 0.0 -3.0880222E-007 -1.0412419E-004 0.0  6.7840784E-007 -1.1314468E-004 0.0  3.5653379E-007 -1.0615541E-004 0.0  7.3281730E-008 -1.1536753E-004 0.0  5.3894701E-007 -1.0347404E-004 0.0  2.1665147E-007 -1.0994098E-004 0.0  7.3418319E-007 -1.0231172E-004 0.0  7.3646336E-007 -1.0007517E-004 0.0  1.4418537E-006 -1.0861190E-004 0.0  2.5379831E-007 -8.8686088E-005 0.0  1.9479264E-006 -1.0126888E-004 0.0  1.7121591E-006 -8.5618648E-005 0.0  1.1335395E-006 -9.0694532E-005 0.0  1.3065617E-006 -7.3217350E-005 0.0  2.7633682E-006 -8.2028994E-005 0.0  1.9615923E-006 -6.9542731E-005 0.0  1.9132896E-006 -5.3755548E-005 0.0  2.1077020E-006 -5.6476721E-005 0.0  2.6422008E-006 -3.5237366E-005 0.0  1.9666665E-006 -3.5211570E-005 0.0  7.1254149E-007 -1.5837773E-005 0.0  1.5696325E-006 -1.5182359E-005 0.0  6.1082921E-007 -5.6438388E-006 0.0  6.7541414E-007 -5.7678541E-006 0.0 -8.7397802E-008 -1.4864739E-006 0.0 -3.8973495E-007 -1.6881076E-006 0.0  1.3989242E-004  2.8738832E-003 0.0  2.1399441E-004  3.7370243E-003 0.0  1.6314304E-004  3.8682526E-003 0.0  4.6262299E-004 -2.0941623E-004 0.0  2.8827860E-004 -7.6949973E-005 0.0  3.6889910E-004 -1.1156734E-004 0.0  3.4399292E-005 -3.1462193E-004 0.0  2.2123237E-004 -6.5531386E-005 0.0  6.9752321E-004 -4.0265280E-004 0.0  6.5546575E-006 -3.5975646E-005 0.0  5.4627228E-005 -1.1377610E-004 0.0  2.7163517E-005 -5.1744978E-005 0.0  1.3809388E-005 -3.8879629E-005 0.0 -7.3515427E-005 -3.9552954E-005 0.0  6.0512018E-005 -1.9602980E-004 0.0  5.3107192E-004 -3.1311998E-004 0.0 -6.3342201E-005 -4.5025135E-004 0.0  1.5184324E-004 -6.7918050E-005 0.0  9.1374956E-004 -3.7891538E-004 0.0 -1.1042733E-005 -6.6651573E-005 0.0  8.9334557E-005  1.9527755E-004 0.0 -1.1459151E-004 -1.5247171E-004 0.0  4.2929465E-005 -7.7631284E-005 0.0  1.1204147E-004 -6.2965805E-005 0.0 -1.6976258E-004 -5.0397087E-004 0.0  1.8819897E-005 -4.3046414E-005 0.0  4.0465145E-004 -1.5300306E-004 0.0 -1.3925340E-006 -2.8655452E-005 0.0  3.2343304E-004 -9.1198848E-005 0.0 -4.6284956E-006 -1.7049596E-005 0.0 -1.2417973E-006 -1.1315066E-004 0.0  4.7653575E-004  4.2073743E-004 0.0 -2.9685115E-006 -2.2306017E-005 0.0 -3.1941195E-004 -4.2271355E-004 0.0  1.1583355E-003 -9.2888715E-005 0.0  5.7657400E-005 -6.6207095E-005 0.0  6.0809723E-005 -1.4960144E-004 0.0  3.4369096E-005 -6.1072779E-005 0.0 -2.8296770E-005  5.7955903E-005 0.0  5.2858358E-005 -2.5024360E-004 0.0 -1.7206322E-004 -1.3817169E-004 0.0 -9.3005318E-005 -9.1253669E-005 0.0 -5.4923378E-006 -3.8367182E-004 0.0  8.2197566E-004 -4.1437094E-004 0.0  1.8619718E-004 -6.8746758E-005 0.0  2.2200188E-004 -7.8416971E-005 0.0  1.0972429E-005 -3.7234559E-005 0.0  6.2255218E-004 -3.5627869E-004 0.0  5.0154934E-004 -2.5445813E-004 0.0  3.9389725E-004 -1.2726883E-004 0.0 -3.5858377E-006 -1.0753514E-005 0.0  9.2487056E-006 -1.0262737E-004 0.0 -1.7435750E-006 -1.3082889E-005 0.0  1.2086723E-003  3.1570210E-004 0.0 -3.7771332E-004 -2.3447858E-004 0.0  2.6662255E-005 -6.2957543E-005 0.0 -7.9758769E-006 -4.4867948E-005 0.0 -1.8459707E-005 -5.3157584E-005 0.0 -1.8083533E-005 -8.1340974E-005 0.0 -2.9705467E-005 -6.9349933E-005 0.0 -2.3417795E-005 -4.7088459E-005 0.0 -3.5688903E-005 -5.6328380E-005 0.0 -3.6165332E-005 -8.2524084E-005 0.0 -4.8505296E-005 -7.1112141E-005 0.0 -3.8855575E-005 -4.9733275E-005 0.0 -5.5092059E-005 -6.2558916E-005 0.0 -3.9897890E-005 -4.3721073E-005 0.0 -5.6655737E-005 -5.2604380E-005 0.0 -6.5165650E-005 -7.3506180E-005 0.0 -7.3775826E-005 -6.3313294E-005 0.0 -5.2349534E-005 -4.3531430E-005 0.0 -7.2772273E-005 -5.0765660E-005 0.0 -8.4751176E-005 -7.4685101E-005 0.0 -9.3909205E-005 -6.4025190E-005 0.0 -6.8264109E-005 -4.3193580E-005 0.0 -9.6607978E-005 -5.6858410E-005 0.0 -6.0132418E-005 -3.7751421E-005 0.0 -9.0675811E-005 -5.0185321E-005 0.0 -1.1510768E-004 -7.2104194E-005 0.0 -1.2138247E-004 -6.8450311E-005 0.0 -7.7544649E-005 -4.8860750E-005 0.0 -1.1846190E-004 -7.1294532E-005 0.0 -6.4919162E-005 -5.8046986E-005 0.0 -1.0538845E-004 -8.0685594E-005 0.0 -1.4542316E-004 -9.4137284E-005 0.0 -1.4924631E-004 -1.2007312E-004 0.0 -8.5122856E-005 -1.0170107E-004 0.0 -1.3148653E-004 -1.4710346E-004 0.0 -1.7828292E-004 -1.6737592E-004 0.0 -1.7855620E-004 -2.1428906E-004 0.0 -1.0602160E-004 -1.9034860E-004 0.0 -1.7221791E-004 -2.7061414E-004 0.0 -8.8401384E-005 -2.6632451E-004 0.0 -1.4912404E-004 -3.4458959E-004 0.0 -2.0886035E-004 -3.5130535E-004 0.0 -1.9978638E-004 -4.4100374E-004 0.0 -1.2288786E-004 -4.3346272E-004 0.0 -1.7885667E-004 -5.2779916E-004 0.0 -2.2076664E-004 -5.2329910E-004 0.0 -2.1107795E-004 -6.0665849E-004 0.0 -1.5685257E-004 -6.0161611E-004 0.0 -1.2616185E-004 -9.2156202E-005 0.0 -1.0467877E-004 -9.2607117E-005 0.0 -1.9021844E-004 -2.2622985E-004 0.0 -1.9762681E-004 -5.9182142E-004 0.0 -2.0423261E-004 -6.4095606E-004 0.0 -4.0900754E-005 -9.3417133E-005 0.0 -1.6388466E-004 -1.8151428E-004 0.0 -1.9837923E-004 -5.1489763E-004 0.0 -2.7359172E-005 -9.9809880E-005 0.0 -3.9526991E-005 -3.4792662E-005 0.0 -2.7307768E-005 -3.7494424E-005 0.0 -2.4916595E-005 -3.4143794E-005 0.0 -1.3472767E-004 -6.1736753E-004 0.0 -4.0554553E-005 -1.8897210E-004 0.0 -2.4594472E-005 -2.6594858E-004 0.0 -2.5213923E-005 -3.2372942E-005 0.0 -1.5080551E-004 -6.1413420E-004 0.0 -1.9294568E-004 -6.3783654E-004 0.0 -9.1373451E-005 -1.1123612E-004 0.0 -5.9021923E-005 -1.0790393E-004 0.0 -2.9591848E-005 -5.8445334E-004 0.0 -1.4708834E-004 -2.3741597E-004 0.0 -2.3030832E-005 -1.0858065E-004 0.0 -1.4610484E-005 -3.1494157E-005 0.0 -9.0919631E-005 -2.0079990E-004 0.0 -1.0658828E-005 -3.3002776E-005 0.0 -5.8522226E-006 -1.1038163E-004 0.0 -1.1126869E-005 -3.0995023E-005 0.0 -6.6353146E-005 -5.3495422E-004 0.0  1.1034335E-004 -4.9659564E-004 0.0  6.2415533E-006 -5.8458169E-004 0.0  2.1548296E-005 -2.0439434E-004 0.0 -7.0724124E-008 -3.3812263E-005 0.0 -1.6962643E-005 -1.0747191E-004 0.0  3.9632808E-006 -1.1150007E-004 0.0  3.4368928E-005 -2.5402640E-004 0.0 -5.6037833E-006 -1.2252523E-004 0.0 -5.6402701E-005 -1.2250882E-004 0.0 -3.3745572E-005 -4.5220407E-005 0.0 -2.1795028E-005 -5.5675369E-005 0.0  1.2348929E-006 -4.8452095E-005 0.0  1.7206480E-005 -5.9078665E-005 0.0 -4.7490600E-006 -1.5083739E-004 0.0  7.0246010E-005 -3.7449107E-004 0.0  2.2684925E-005 -1.1469852E-004 0.0 -3.5514117E-005 -1.1314917E-004 0.0 -2.3157941E-005 -3.1251284E-005 0.0 -8.6084050E-007 -3.3294341E-005 0.0 -1.1054370E-005 -3.1406792E-005 0.0 -2.0137009E-005 -3.3228634E-005 0.0  1.1001721E-005 -1.1214767E-004 0.0 -1.0096351E-005 -1.0969382E-004 0.0 -1.8726297E-005 -3.2091194E-005 0.0 -1.4210184E-004 -1.6767316E-004 0.0 -5.0623690E-005 -1.7812885E-004 0.0 -6.5933312E-005 -4.1327492E-004 0.0 -1.0445995E-004 -1.5501625E-004 0.0  4.5276703E-005 -1.7261794E-004 0.0  2.6880702E-005 -1.3128121E-004 0.0 -2.3895251E-006 -7.0321005E-005 0.0  3.2179006E-005 -7.5221517E-005 0.0 -3.2084872E-005 -2.4717196E-004 0.0 -9.5443391E-005 -2.7298041E-004 0.0 -9.4801909E-006 -2.9032094E-005 0.0 -1.2107686E-005 -2.7957371E-005 0.0 -5.9075936E-006 -3.1627635E-005 0.0 -5.7324640E-006 -3.1360308E-004 0.0  2.9277440E-004 -3.4038460E-004 0.0  4.3651544E-005 -3.0774164E-004 0.0  9.5715243E-006 -3.6525883E-004 0.0  6.9105057E-007 -1.6009276E-004 0.0  5.0765988E-005 -1.3066311E-004 0.0  3.3374177E-004 -4.5198611E-004 0.0  5.7217092E-005 -2.7496852E-004 0.0  1.7357255E-005 -3.1271000E-004 0.0 -1.3386906E-004 -3.1967485E-004 0.0 -3.5318896E-005 -3.5532331E-004 0.0  2.8068911E-005 -5.5988207E-005 0.0  1.4036428E-005 -4.3909849E-005 0.0  4.2218708E-005 -3.6082380E-004 0.0  2.0690125E-005 -4.1149265E-004 0.0 -6.7855551E-006 -1.1122364E-004 0.0  1.3068548E-005 -1.0960443E-004 0.0  6.4943063E-005 -1.1103271E-004 0.0  1.1409871E-005 -1.1424876E-004 0.0 -6.3569990E-005 -1.0298502E-004 0.0 -2.8743968E-005 -1.1008455E-004 0.0  5.4378282E-005 -1.0822679E-004 0.0  8.6659277E-006 -1.1205719E-004 0.0 -4.4783251E-006 -1.3191064E-004 0.0 -6.3665083E-006 -2.6541726E-005 0.0 -8.4973677E-006 -2.4569842E-005 0.0 -4.0605985E-006 -2.8689662E-005 0.0 -4.9927932E-006 -2.3731594E-005 0.0 -5.9367255E-006 -2.1021424E-005 0.0 -9.0392487E-006 -2.3523539E-005 0.0 -5.5925775E-006 -1.9491525E-005 0.0  5.3570378E-006 -3.3993835E-005 0.0 -1.2429947E-006 -3.1890366E-005 0.0 -9.4557538E-005 -1.2875547E-004 0.0 -1.7751263E-005 -3.2022296E-005 0.0 -7.8552894E-006 -2.3390334E-005 0.0 -1.7054205E-004 -3.6975026E-004 0.0 -8.9369207E-005 -4.0741520E-004 0.0  7.9193813E-005 -3.8965244E-004 0.0  1.3533885E-005 -4.3730288E-004 0.0  4.0910459E-005 -1.0860683E-004 0.0  2.1498465E-005 -1.0891018E-004 0.0 -2.5746047E-005 -1.0874731E-004 0.0  8.0304865E-006 -1.0912918E-004 0.0  4.9940313E-005 -1.0206963E-004 0.0 -4.1699859E-005 -1.0483499E-004 0.0 -2.0330046E-005 -1.0705167E-004 0.0  4.2124048E-005 -1.1044823E-004 0.0 -1.2067069E-006 -3.2397456E-005 0.0 -5.6376077E-005 -9.9114949E-005 0.0  5.8441247E-005 -1.4690265E-004 0.0  4.2990660E-005 -1.1562526E-004 0.0  9.8372075E-006 -1.0205554E-004 0.0  3.1174911E-005 -1.0584704E-004 0.0  1.0463391E-004 -2.2940869E-004 0.0  1.1464999E-005 -3.5016357E-005 0.0  8.5472194E-005 -1.8772379E-004 0.0 -5.2337967E-005 -1.0347798E-004 0.0  6.0370071E-005 -2.5740829E-004 0.0  3.5423578E-006 -3.3188853E-005 0.0  2.4310818E-004 -1.4361135E-004 0.0  4.5969915E-004 -1.2670622E-004 0.0  7.7098843E-006 -1.0910966E-004 0.0 -1.4582269E-005 -3.6722217E-005 0.0 -2.1781499E-005 -4.2052953E-004 0.0 -1.5543759E-005 -4.7567925E-004 0.0  1.6436126E-005 -4.5725953E-004 0.0 -1.1859685E-005 -5.1635786E-004 0.0 -4.9863564E-005 -5.3757168E-004 0.0 -4.4152401E-005 -5.7506559E-004 0.0 -2.4009164E-005 -5.4324747E-004 0.0 -5.7468374E-005 -5.8943649E-004 0.0 -6.9335401E-005 -6.1531275E-004 0.0 -7.8858248E-005 -6.1391252E-004 0.0 -9.7719309E-005 -6.3286306E-004 0.0 -1.0340111E-004 -5.9543821E-004 0.0 -1.1644722E-004 -6.1444752E-004 0.0 -1.0086727E-004 -5.8024968E-004 0.0 -1.1932252E-004 -5.2391409E-004 0.0 -1.5373527E-004 -5.1189039E-004 0.0 -1.4720045E-004 -5.4449235E-004 0.0 -6.0979258E-005 -5.5337433E-004 0.0 -1.3185065E-004 -6.5116934E-004 0.0 -1.4618444E-004 -6.1410186E-004 0.0 -1.2466700E-004 -5.4153340E-004 0.0 -1.4541065E-004 -5.2260184E-004 0.0 -1.8934718E-004 -4.1786317E-004 0.0  9.2835528E-005 -1.0229277E-004 0.0  6.3866746E-005 -1.7903181E-004 0.0  7.3750314E-005 -1.0256478E-004 0.0 -1.4942553E-004 -4.2102331E-004 0.0 -1.2138577E-004 -4.3420338E-004 0.0 -1.2658802E-005 -2.8743824E-005 0.0 -1.9963827E-005 -3.3746510E-005 0.0  1.4925595E-004 -1.5783313E-004 0.0  1.4301060E-007 -1.1267465E-004 0.0 -1.1183195E-005 -1.0645333E-004 0.0  1.8093193E-005 -1.0519314E-004 0.0  5.7251059E-005 -1.5781083E-004 0.0  3.2489601E-005 -5.3372824E-005 0.0  2.1797882E-005 -4.4001227E-005 0.0  1.2604774E-004 -1.1681428E-004 0.0  2.2898016E-004 -4.0761763E-004 0.0  2.0940342E-004 -4.4581704E-004 0.0 -3.6508867E-005 -4.9546305E-004 0.0  1.8080610E-004 -4.9246185E-004 0.0 -4.0870739E-005 -5.4011729E-004 0.0  1.2872854E-004 -5.3458098E-004 0.0 -1.6419109E-004 -6.5299719E-004 0.0 -2.0870695E-004 -4.1595702E-004 0.0  1.1381514E-004 -1.3599374E-004 0.0  1.6569505E-004 -1.1723887E-004 0.0  8.7407496E-005 -1.0427902E-004 0.0 -1.9794137E-004 -3.1542870E-004 0.0 -4.8930302E-005 -9.8836558E-005 0.0 -6.3472167E-007 -3.2842560E-005 0.0  1.7147264E-004 -2.8417501E-004 0.0  1.0565767E-004 -9.7450481E-005 0.0 -4.6658396E-006 -1.9055929E-005 0.0 -4.1629370E-006 -1.5709563E-005 0.0  6.2975142E-005 -1.3011174E-004 0.0  5.3977379E-005 -1.0781095E-004 0.0  3.9830212E-005 -6.3289212E-005 0.0  3.4656332E-004 -4.9224530E-004 0.0  3.5604768E-004 -5.1661272E-004 0.0 -9.9485513E-006 -2.9537556E-005 0.0 -1.1587861E-004 -3.9232449E-004 0.0 -1.1683213E-004 -4.2343836E-004 0.0 -1.2434120E-004 -3.7004335E-004 0.0 -1.4925031E-004 -5.2862365E-004 0.0 -1.1783501E-004 -3.4014182E-004 0.0 -1.3892570E-004 -4.7404323E-004 0.0  1.3836434E-005 -3.7044353E-005 0.0  1.7203277E-004 -9.9786280E-005 0.0  1.5183667E-004 -1.0396766E-004 0.0 -4.3998871E-005 -5.0413742E-004 0.0 -1.5636643E-004 -1.3380389E-004 0.0 -9.0951795E-005 -8.4602451E-005 0.0  4.1261059E-006 -1.1095515E-004 0.0  3.3462224E-005 -5.3223528E-005 0.0  2.4158113E-005 -4.4356164E-005 0.0 -1.3343754E-004 -5.8976191E-004 0.0 -8.4763170E-005 -2.8337176E-004 0.0  5.9039603E-005 -1.0494763E-004 0.0  7.2219000E-005 -1.0417802E-004 0.0 -3.9958603E-005 -3.9365459E-005 0.0  2.7904610E-004 -3.4972277E-004 0.0  1.2021766E-004 -3.4571839E-004 0.0  2.9580338E-004 -3.0774495E-004 0.0  1.4554147E-004 -9.2659348E-005 0.0 -9.6480750E-005 -5.7022892E-004 0.0  7.4891495E-006 -3.5550674E-005 0.0  1.7090834E-005 -3.8090171E-005 0.0  1.4810059E-005 -3.7318172E-005 0.0  2.2261328E-005 -4.2411088E-005 0.0  1.2015905E-004 -1.0589421E-004 0.0 -4.9481656E-005 -1.3802908E-004 0.0  9.5075652E-005 -9.1313065E-005 0.0  9.0727392E-005 -8.5323997E-005 0.0  4.6373596E-005 -1.0179124E-004 0.0  8.9221278E-006 -3.8231926E-005 0.0  5.6034973E-005 -3.0839936E-004 0.0  4.2576781E-005 -3.4992645E-004 0.0  3.5220273E-005 -9.7849599E-005 0.0  5.8350637E-005 -8.7197011E-005 0.0 -2.6501206E-006 -2.7492583E-005 0.0  8.9548426E-008 -3.0978947E-005 0.0 -1.0291425E-006 -3.1321448E-005 0.0 -4.9101024E-006 -3.0633664E-005 0.0 -9.9330700E-005 -8.0322199E-005 0.0  2.2231262E-004 -2.5143525E-004 0.0 -3.3507139E-006 -2.4797639E-005 0.0  6.6761362E-005 -1.5993609E-004 0.0 -7.7532212E-006 -4.8790831E-004 0.0  4.8217816E-006 -4.3708582E-004 0.0  2.4456806E-005 -4.0524426E-004 0.0  3.9782466E-005 -2.0133206E-004 0.0  1.6549518E-004 -1.9711899E-004 0.0  5.2596257E-006 -3.4406796E-005 0.0  8.1871697E-006 -3.5389969E-005 0.0  7.3124707E-005 -1.7895394E-004 0.0  2.1364902E-004  6.1227887E-005 0.0 -2.7940318E-005 -2.1230939E-004 0.0 -9.8934129E-005 -5.1351454E-004 0.0  3.9624335E-005 -6.9853893E-005 0.0  4.7304735E-005 -8.3412714E-005 0.0  9.6802773E-006 -3.5234613E-005 0.0 -3.8833550E-005 -3.8618006E-005 0.0  5.4605148E-005 -2.1836795E-004 0.0  6.9183230E-005 -2.3235622E-004 0.0 -4.4802507E-005 -3.6549777E-005 0.0 -1.3508197E-004 -5.4318604E-004 0.0  1.1634153E-004 -1.1846597E-004 0.0  1.5402835E-004 -5.5727516E-004 0.0  4.2459577E-004 -4.7781012E-004 0.0  6.6571428E-004 -3.8152863E-004 0.0  2.3223096E-004 -5.4180391E-004 0.0  6.0890759E-004 -4.6627439E-004 0.0 -1.1411332E-004 -5.3058081E-004 0.0 -7.7767700E-005 -3.5554137E-004 0.0 -4.4648095E-006 -2.0989257E-005 0.0 -4.7582817E-006 -1.7780777E-005 0.0  1.7665002E-005 -3.9734556E-005 0.0 -1.8630070E-004 -6.4544460E-004 0.0 -1.7220381E-004 -5.8204843E-004 0.0  6.2882057E-004 -2.8410761E-004 0.0 -1.3877111E-004 -5.3918504E-004 0.0 -1.9860043E-004 -5.1222402E-004 0.0 -2.3482411E-004 -4.6585450E-004 0.0  4.7301224E-004 -3.5257662E-004 0.0 -5.1300589E-005 -7.7731806E-005 0.0  4.1026648E-004 -4.4024306E-004 0.0  8.1890495E-004 -8.6746552E-005 0.0  6.5915434E-004  1.1821222E-004 0.0 -4.1606112E-006 -1.4655121E-005 0.0  2.7700665E-005 -1.0744011E-004 0.0 -1.9239347E-004 -2.8956825E-004 0.0 -2.4504210E-005 -9.1127408E-005 0.0 -6.5802639E-005 -1.4577964E-004 0.0 -8.7475989E-006 -4.1366096E-005 0.0 -1.3046409E-005 -3.2064045E-005 0.0  6.3688345E-006 -3.4006660E-005 0.0  1.0472169E-005 -3.6244550E-005 0.0 -1.0120256E-004 -2.2761764E-004 0.0 -9.2509150E-005 -3.5588190E-004 0.0 -1.6187919E-005 -1.1172176E-004 0.0 -6.1005524E-005 -9.8353181E-005 0.0  2.8895819E-006 -3.4085723E-005 0.0 -2.1541115E-004 -4.2626872E-004 0.0  2.3370653E-004 -1.0087116E-004 0.0  3.2893364E-004 -1.0933101E-004 0.0  1.8579210E-004 -8.5136911E-005 0.0  1.9734184E-005 -9.8810562E-005 0.0  5.9246430E-005 -2.7075566E-004 0.0  1.9837073E-005 -8.5666733E-005 0.0  1.5767747E-005 -3.9936858E-005 0.0 -2.7226434E-004 -2.7290743E-004 0.0 -2.4207644E-004 -1.0213906E-004 0.0  2.5647908E-004 -7.9840818E-005 0.0 -1.3581815E-004 -3.1455882E-004 0.0  2.1446604E-004 -1.4254111E-004 0.0 -9.3811695E-006 -8.6758156E-005 0.0 -5.7235130E-006 -1.0566869E-004 0.0 -6.2538135E-006 -3.0762063E-005 0.0 -1.4616476E-006 -9.5554164E-006 0.0 -2.9072067E-006 -1.2321808E-005 0.0 -1.0419625E-004 -5.2268483E-004 0.0 -1.1296834E-004 -5.9972023E-004 0.0  1.2104039E-004 -8.7541578E-005 0.0 -1.3291670E-004 -1.3089397E-004 0.0 -1.3698675E-004 -1.0758174E-004 0.0 -2.3476488E-006 -1.7275370E-005 0.0  4.7161783E-005 -7.8094863E-005 0.0  5.1794083E-005 -9.0096515E-005 0.0  5.5584293E-005 -1.0040354E-004 0.0  8.7352878E-004 -2.6722711E-004 0.0  9.8743576E-004 -3.0714323E-004 0.0  4.1213174E-004  1.4673176E-004 0.0  1.1416903E-003  1.2114216E-004 0.0 -2.8319433E-005 -1.0461930E-004 0.0  2.4073660E-004 -1.7512682E-004 0.0  3.2373567E-004 -1.4500643E-004 0.0  2.7788644E-004 -1.3080735E-004 0.0  1.2575604E-004 -1.4044718E-004 0.0  2.4408507E-004 -9.9060827E-005 0.0 -1.9795342E-004 -2.7879534E-004 0.0  1.8259388E-004  2.2154239E-004 0.0  6.2583514E-005 -1.7234034E-004 0.0  5.9430606E-005 -1.3014116E-004 0.0  5.9373669E-005 -2.1983872E-004 0.0  3.9530554E-005 -6.5088376E-005 0.0  8.0102750E-005 -6.3548254E-005 0.0  7.3111737E-004  3.8756088E-004 0.0  2.9986874E-005 -5.5750211E-005 0.0  2.1501743E-005 -3.5386875E-004 0.0  3.8748818E-005 -6.8733272E-005 0.0  4.6000330E-005 -2.8316104E-004 0.0 -1.3185338E-004 -1.8862238E-004 0.0 -1.0018654E-004 -1.6291679E-004 0.0 -1.1258185E-004 -3.1819919E-004 0.0 -5.7226601E-005 -5.8601923E-005 0.0  2.3771381E-005 -4.7651152E-005 0.0 -1.5685938E-005 -4.1931632E-004 0.0  8.0878094E-004 -3.9699925E-004 0.0  2.1036357E-005  7.5353752E-005 0.0 -1.0136889E-004 -4.7045381E-004 0.0  7.2978406E-004 -4.0221612E-004 0.0  1.6099212E-004 -6.6323437E-005 0.0  5.7827013E-004 -3.8907376E-004 0.0  1.7897246E-004 -6.8478137E-005 0.0  2.0321219E-004 -7.1839210E-005 0.0 -3.4318689E-004 -3.5191893E-004 0.0  4.6842591E-004 -2.2566506E-004 0.0  2.8934359E-004 -7.7814740E-005 0.0  4.1310293E-004 -1.8706291E-004 0.0  2.6569230E-004 -2.1646224E-004 0.0  4.0340091E-004 -1.6702096E-004 0.0  1.5151225E-006 -1.1148649E-004 0.0  2.3630857E-006 -4.0399661E-005 0.0 -6.9339950E-005 -8.3980206E-005 0.0 -4.7154260E-005 -4.6313369E-004 0.0  3.4418485E-005 -8.9476281E-005 0.0  4.0005194E-004 -4.0397147E-004 0.0  5.1856798E-006 -3.3783982E-005 0.0 -3.5290366E-005 -3.5017603E-005 0.0 -2.6517450E-005 -4.0307022E-005 0.0  6.0863187E-005 -1.2158330E-004 0.0 -5.2028151E-005 -8.6069525E-005 0.0 -1.1613767E-004 -4.6261234E-004 0.0 -3.7719802E-006 -2.2315867E-005 0.0 -1.3862758E-004 -9.2209246E-005 0.0  3.4762797E-004  3.2351481E-004 0.0 -1.1998762E-005 -1.2733054E-004 0.0 -3.2673150E-005 -3.3892103E-005 0.0  4.7282292E-004 -2.7534460E-004 0.0  5.5488249E-004 -4.6457952E-004 0.0  8.6515692E-005 -5.7015471E-004 0.0  1.2857632E-004 -6.7063445E-005 0.0 -1.6352262E-004 -1.4338862E-004 0.0 -1.5159408E-004 -1.1434935E-004 0.0 -1.6998998E-005 -9.6470211E-005 0.0 -8.7734957E-005 -9.8177150E-005 0.0  2.0858586E-005 -4.5041846E-005 0.0 -4.1073374E-005 -3.7502795E-004 0.0  8.4111879E-005  2.3304041E-005 0.0  9.7744269E-004  4.5470210E-004 0.0  1.4556662E-005 -7.8958309E-005 0.0  8.9345264E-006 -3.6693007E-005 0.0 -1.5855610E-005 -3.6656410E-005 0.0 -1.6915070E-004 -6.1845524E-004 0.0  1.1439194E-004 -6.4836962E-005 0.0  3.3803845E-004 -2.6280347E-004 0.0 -6.3810008E-006 -2.3317724E-005 0.0  3.9287253E-005 -9.0374880E-005 0.0  6.7799655E-005 -1.8904700E-004 0.0 -2.8904201E-004 -4.5778587E-004 0.0  9.5177493E-005 -6.1441609E-005 0.0 -1.3589273E-005 -2.8426632E-005 0.0  1.8946027E-006 -3.3152662E-005 0.0 -1.4152529E-004 -5.1267754E-004 0.0  2.0237708E-006 -3.3139318E-005 0.0  2.7361063E-004 -1.1082732E-004 0.0 -2.3926710E-006 -8.6900051E-006 0.0 -3.5473574E-005 -1.0177021E-004 0.0  2.6689403E-005 -3.8457847E-004 0.0 -1.6472026E-004 -2.7085001E-004 0.0  1.2078781E-005 -3.7756678E-005 0.0  1.1267709E-004 -1.0127567E-004 0.0 -3.3360089E-006 -1.6129715E-005 0.0 -1.0155447E-004 -6.2724662E-004 0.0 -1.9970443E-004 -3.5718990E-004 0.0 -5.7743024E-005 -9.0113568E-005 0.0 -1.1937590E-004 -3.4885644E-004 0.0 -4.0704710E-005 -1.0471850E-004 0.0  4.7601692E-005 -9.9087127E-005 0.0 -7.7752802E-005 -4.3752054E-004 0.0  1.1782946E-004 -8.4836488E-005 0.0 -1.7809602E-004 -6.2884475E-004 0.0 -3.3151376E-005 -4.7098565E-004 0.0  4.7172212E-005 -3.0710549E-004 0.0  7.2846504E-004 -4.0399717E-004 0.0 -7.6719231E-005 -9.7498500E-005 0.0 -1.4668143E-004 -6.2979800E-004 0.0 -1.0414319E-004 -2.9068079E-004 0.0  3.9471150E-005 -6.1792449E-005 0.0  2.2989890E-004 -1.2696577E-004 0.0  2.6161219E-005 -4.5758386E-005 0.0  1.6289464E-005 -4.1925330E-005 0.0  1.9121788E-004 -9.6276662E-005 0.0  6.8547922E-005 -2.1052782E-004 0.0 -1.3438573E-005 -3.8965243E-005 0.0  2.7002925E-004 -6.5289644E-005 0.0 -1.5393483E-004 -4.7413859E-004 0.0  2.4660538E-004 -2.0210051E-004 0.0 -3.1244552E-004 -8.2207756E-005 0.0  5.9960118E-005 -9.3275713E-005 0.0 -6.3157372E-006 -1.1066379E-004 0.0 -7.9486280E-005 -9.1364435E-005 0.0  1.5499214E-004 -8.7226170E-005 0.0  2.2008603E-005 -1.4059593E-004 0.0  1.1555083E-003 -1.9175168E-004 0.0 -3.8252488E-006 -1.3654934E-005 0.0 -1.0362647E-004 -1.1220841E-004 0.0 -8.5021232E-005 -9.1861935E-005 0.0 -5.0266479E-006 -3.2292545E-005 0.0 -1.7553993E-004 -4.6516458E-004 0.0 -2.5896084E-005 -3.3867343E-005 0.0  1.1246905E-005 -3.6565428E-005 0.0  1.5508948E-005 -1.3715815E-005 0.0  6.1040796E-005 -2.3957241E-004 0.0  4.3894543E-005 -8.8938646E-005 0.0  9.9543601E-006 -3.7314699E-005 0.0 -2.7325885E-004 -3.8235148E-004 0.0  6.0480766E-004 -4.5823540E-004 0.0 -7.7517421E-005 -1.6554799E-004 0.0 -9.2510115E-005 -2.0453485E-004 0.0 -2.3779720E-004 -4.7810526E-004 0.0 -1.1278891E-004 -4.5232096E-004 0.0 -7.8488220E-005 -8.2022487E-005 0.0  2.8784624E-007 -3.2369880E-005 0.0  1.2842091E-004 -8.6871542E-005 0.0  3.2991348E-005 -1.0104502E-004 0.0  9.2516910E-004  2.0513782E-004 0.0  5.4159295E-004 -4.4179132E-004 0.0 -4.3253331E-005 -1.5542717E-004 0.0  6.2380208E-005 -1.3957531E-004 0.0  4.1610274E-005 -6.9663574E-005 0.0 -4.8834501E-005 -3.9607321E-005 0.0  3.3940961E-004 -7.4226335E-005 0.0 -2.1002622E-006 -2.6279271E-005 0.0 -1.1691978E-004 -5.5511933E-004 0.0  3.8651515E-004 -9.3669204E-005 0.0 -1.6958458E-005 -1.0213338E-004 0.0 -1.2718547E-005 -9.7543581E-005 0.0  3.0017694E-004 -1.7995410E-004 0.0 -1.5263902E-004 -1.2032858E-004 0.0  1.3100383E-005 -3.7629181E-005 0.0  3.0031325E-004 -2.9669876E-004 0.0  3.5949728E-004 -8.7290801E-005 0.0  4.4030518E-004 -1.2827395E-004 0.0  1.9751285E-004 -9.3006973E-005 0.0  5.2893717E-005 -8.2812145E-005 0.0 -1.9566577E-005 -3.5228323E-005 0.0 -2.6247542E-005 -4.2100266E-005 0.0 -2.0980637E-005 -5.6421803E-004 0.0  2.6685694E-005 -8.5836258E-005 0.0  1.8549126E-005 -4.1314448E-005 0.0 -1.2258623E-005 -8.9213854E-005 0.0 -3.8228029E-004 -1.0190169E-004 0.0  1.2137635E-003  5.2076025E-004 0.0  6.4353320E-004 -3.1320401E-004 0.0  1.1111113E-004 -2.2176540E-004 0.0 -1.7927407E-006 -7.3416146E-006 0.0 -4.1704872E-006 -1.3780972E-005 0.0  4.0919230E-004 -1.0888933E-004 0.0 -6.0693034E-005 -4.7492139E-004 0.0  1.9374179E-005 -4.1594228E-005 0.0  7.7083033E-005 -8.4723464E-005 0.0  1.9750462E-005 -5.9622064E-005 0.0 -4.2819563E-006 -1.9605994E-005 0.0 -3.4580943E-005 -3.6683159E-005 0.0  4.9966064E-005 -1.0778431E-004 0.0  5.7154878E-004  2.6266516E-004 0.0  1.9984433E-004 -1.0707089E-004 0.0 -1.1352466E-004 -5.1464603E-004 0.0 -7.3493179E-005 -8.8097693E-005 0.0 -7.7949172E-005 -5.9153564E-004 0.0 -1.3259494E-004 -4.8450133E-004 0.0 -9.8767230E-005 -2.1875095E-004 0.0 -1.1460187E-004 -5.3535006E-004 0.0  5.5664992E-006 -4.0824009E-004 0.0  2.8377329E-005 -5.0362861E-005 0.0  6.4298324E-005 -2.0769624E-004 0.0 -6.9546917E-006 -3.0086678E-005 0.0  1.7561088E-005 -2.1929428E-004 0.0 -1.8603394E-004 -5.0835741E-004 0.0  3.4632754E-004 -2.3310208E-004 0.0  2.3103325E-005 -1.0819550E-004 0.0  7.9114718E-005 -7.9020279E-005 0.0 -6.0312354E-005 -9.5157011E-005 0.0 -4.1557307E-005 -1.3711288E-004 0.0  1.6946907E-004 -3.1040134E-004 0.0  9.1000962E-004  7.3355118E-004 0.0  1.6802790E-004  4.0846263E-004 0.0 -3.0277264E-005  1.5090571E-004 0.0  3.4222241E-004  4.6087623E-006 0.0  4.5447778E-004 -5.6443970E-006 0.0  5.5990065E-004 -3.6354308E-005 0.0  6.6973214E-004 -9.5418391E-005 0.0  8.1578269E-004 -1.7306534E-004 0.0  1.0657492E-003 -2.3462526E-004 0.0  1.4061847E-003 -1.1953424E-004 0.0 -1.5491139E-004  8.2707308E-005 0.0 -3.3385753E-004 -4.7201899E-005 0.0  1.5184262E-003  2.8572644E-004 0.0  2.4958108E-004  1.1117661E-005 0.0 -3.1886810E-004  2.8750720E-004 0.0  3.7027062E-003  1.6876590E-003 0.0  8.9642446E-005  8.3950932E-004 0.0  1.5484602E-004  1.4909015E-005 0.0 -3.2166713E-004 -1.3225466E-004 0.0  1.5980983E-003  2.1037267E-003 0.0  4.7776634E-004  6.2323169E-004 0.0 -3.1900542E-004  6.2381952E-005 0.0  4.4582046E-005  3.7721348E-004 0.0 -2.8145707E-004  6.7649431E-004 0.0  3.2815645E-003  1.6555757E-003 0.0  3.9016758E-003  1.8509195E-003 0.0  2.3147814E-003  1.7032123E-003 0.0  9.9735196E-004  1.8098942E-003 0.0  8.5794953E-005  1.4213301E-005 0.0 -3.4500837E-004 -6.5494106E-006 0.0  7.4486038E-004  1.7670777E-003 0.0 -3.1624482E-004 -1.2646376E-004 0.0  3.1818630E-005  2.0857398E-004 0.0  2.3288027E-003  2.2420592E-003 0.0  1.5486137E-003  1.8295041E-003 0.0  2.8186546E-003  1.6803720E-003 0.0  3.8915615E-003  2.0326781E-003 0.0 -2.5486184E-004  4.9441952E-005 0.0  1.2586523E-003 -2.0029880E-004 0.0  1.5145699E-003  4.3055785E-005 0.0 -8.5239044E-005  1.0681568E-004 0.0  5.6557481E-005  2.7751676E-004 0.0  2.0318797E-004  1.2309691E-005 0.0  9.5062443E-004 -2.2369479E-004 0.0  2.9784314E-004  1.2485567E-005 0.0  3.8682632E-004  2.1754669E-006 0.0  7.5334070E-004 -1.3962617E-004 0.0  4.9875036E-004 -1.4276087E-005 0.0  6.2574660E-004 -6.7239198E-005 0.0 -1.8107127E-004  9.6841661E-004 0.0  2.1920496E-005  8.4201707E-005 0.0  4.4139381E-004  1.8066046E-003 0.0  2.6272546E-004  1.4524232E-003 0.0  3.6345861E-003  2.2322013E-003 0.0 -3.3184251E-004 -7.4200692E-005 0.0  3.5737419E-005  1.2282992E-005 0.0 -3.2800588E-004 -4.2896938E-005 0.0 -2.9749443E-004 -3.6919817E-005 0.0 -2.9980468E-004 -4.4744214E-006 0.0 -2.5333573E-004 -2.8077823E-005 0.0 -2.6841480E-004 -5.2370090E-005 0.0 -2.1599218E-004 -3.3644215E-005 0.0 -1.9807376E-004 -1.6561168E-005 0.0 -1.5700786E-004 -1.6710610E-005 0.0 -1.3817509E-004 -5.2708280E-006 0.0 -8.6336292E-005  4.4403523E-006 0.0 -6.1258518E-005  1.4052138E-005 0.0 -4.4922869E-006  2.8214896E-005 0.0  2.3645273E-005  3.3799760E-005 0.0  9.7842558E-005  5.7076348E-005 0.0  1.3208003E-004  6.3175501E-005 0.0  2.2280106E-004  9.1292002E-005 0.0  2.5243423E-004  9.1437419E-005 0.0  3.7477867E-004  1.3068838E-004 0.0  4.0554872E-004  1.4090934E-004 0.0  5.6502692E-004  1.8374708E-004 0.0  5.8731651E-004  1.9391173E-004 0.0  7.8086913E-004  2.4687411E-004 0.0  7.9387943E-004  2.7325387E-004 0.0  1.0389883E-003  3.3158465E-004 0.0  1.1489696E-003  3.9359319E-004 0.0  8.1456141E-004  3.4241903E-004 0.0  1.2227129E-003  4.8850247E-004 0.0  8.6370911E-004  4.5607876E-004 0.0  1.3085649E-003  6.1424413E-004 0.0  9.2783482E-004  5.9493497E-004 0.0  1.3759231E-003  7.7155798E-004 0.0  9.7103125E-004  7.6614710E-004 0.0  1.4601813E-003  9.4295565E-004 0.0  9.3146146E-004  2.8555296E-004 0.0  1.2051463E-003  3.8689242E-004 0.0  1.1314106E-003  3.6198869E-004 0.0  1.3408512E-003  4.4275114E-004 0.0  1.3170139E-003  4.3532150E-004 0.0  1.5227570E-003  5.1259551E-004 0.0  1.4601256E-003  4.8923427E-004 0.0  1.5793008E-003  5.2489028E-004 0.0  1.6797514E-003  5.8344302E-004 0.0  1.5823705E-003  5.4313995E-004 0.0  4.2571855E-005  5.9161118E-005 0.0  1.0431461E-003  9.4932172E-004 0.0  8.9841017E-004  3.0503501E-004 0.0  1.3955876E-003  4.7287796E-004 0.0  1.5104191E-003  5.0536804E-004 0.0  3.0182607E-004  1.2045251E-004 0.0  1.6866043E-003  6.1145863E-004 0.0  1.6215723E-003  5.6317113E-004 0.0  1.4705325E-003  4.8353876E-004 0.0  1.5670026E-003  5.2116537E-004 0.0  1.4539433E-003  4.4513564E-004 0.0  1.4951884E-003  4.5401447E-004 0.0  1.6170804E-003  5.7741456E-004 0.0  1.5403872E-003  5.1318754E-004 0.0  1.4418969E-003  3.9889326E-004 0.0  1.4650486E-003  4.4490348E-004 0.0  1.3939311E-003  3.3395118E-004 0.0  1.3732643E-003  3.5733045E-004 0.0  1.4844045E-003  5.1504103E-004 0.0  1.3861120E-003  4.4135793E-004 0.0  1.6746547E-003  6.6550140E-004 0.0  1.2924356E-003  2.9613313E-004 0.0  1.2746485E-003  3.6897258E-004 0.0  1.3953809E-003  5.3407612E-004 0.0  1.2402366E-003  4.3293879E-004 0.0  1.3916818E-003  6.3899165E-004 0.0  1.2458692E-003  5.5203401E-004 0.0  1.1293966E-003  3.8055841E-004 0.0  1.1303525E-003  4.7939760E-004 0.0  1.0243681E-003  3.1978406E-004 0.0  9.8818733E-004  3.9248820E-004 0.0  1.4809629E-003  1.1567785E-003 0.0  1.4016918E-003  4.3078916E-004 0.0  1.2161572E-003  2.3519749E-004 0.0  1.9345262E-005  3.7894914E-005 0.0  1.1070680E-003  5.7930367E-004 0.0  9.6300030E-004  4.7730374E-004 0.0  1.4047022E-003  7.8987449E-004 0.0  8.9197159E-004  3.1407900E-004 0.0  8.4637890E-004  3.9855848E-004 0.0  9.4943535E-004  5.7052058E-004 0.0  8.0381319E-004  4.7365970E-004 0.0  9.0315917E-004  6.7098600E-004 0.0  7.6788539E-004  5.5647473E-004 0.0  7.2049376E-004  3.9914897E-004 0.0  6.5872023E-004  4.6247329E-004 0.0  7.2987099E-004  6.3196847E-004 0.0  6.1410847E-004  5.2663949E-004 0.0  5.8837652E-004  3.7462948E-004 0.0  5.2228289E-004  4.3335915E-004 0.0  5.6829630E-004  5.7909441E-004 0.0  4.6231399E-004  4.7225166E-004 0.0  5.1111737E-004  6.4039010E-004 0.0  4.0062623E-004  5.1748129E-004 0.0  8.0285785E-004  2.7197700E-004 0.0  4.0012999E-004  3.6974284E-004 0.0  3.4248860E-004  4.1667535E-004 0.0  1.6976387E-003  7.9485774E-004 0.0  6.4919655E-004  5.9378851E-004 0.0  1.1259908E-003  1.1917307E-003 0.0  8.2459917E-004  1.9501602E-004 0.0  5.1357438E-004  3.0715251E-004 0.0  5.5970699E-004  2.7644566E-004 0.0  4.3925176E-004  6.7483002E-004 0.0 -1.3524726E-004 -1.3999152E-005 0.0  1.8529741E-003  1.1298025E-003 0.0  6.0276363E-004  7.4230777E-004 0.0  7.4773651E-004  9.5942060E-004 0.0  1.8603600E-003  1.3478072E-003 0.0  1.8156428E-003  6.9656145E-004 0.0  1.4017730E-003  3.9101913E-004 0.0  3.4063070E-004  2.8902368E-004 0.0  2.8745867E-004  3.2918916E-004 0.0  1.0498389E-003  7.6652682E-004 0.0  9.8555457E-004  9.0742374E-004 0.0  2.9912196E-004  4.3748243E-004 0.0  2.4343290E-004  3.5330223E-004 0.0  1.5304262E-003  7.1444581E-004 0.0  1.2400539E-003  1.7231341E-004 0.0  5.6644859E-004  3.1933247E-004 0.0  1.1627389E-003  1.1472081E-004 0.0  1.3580051E-003  4.0377572E-004 0.0  1.9172331E-003  7.3350640E-004 0.0  4.9643903E-004  2.1389286E-004 0.0  7.5940407E-004  1.6966036E-004 0.0  2.5198455E-004  2.5152411E-004 0.0  2.0292180E-004  2.6541957E-004 0.0  2.0249922E-004  3.6465833E-004 0.0 -2.4247650E-004 -5.3278812E-005 0.0  5.2313802E-004  1.7940786E-004 0.0  1.5819595E-004  2.8590113E-004 0.0  1.1907365E-003  5.2938275E-005 0.0  7.7082806E-004  1.0007974E-004 0.0  8.8182841E-004  1.2355800E-003 0.0  2.6722617E-004  1.2924573E-004 0.0  5.3010734E-004  1.0019664E-003 0.0 -1.2095729E-004  1.6694360E-005 0.0  2.2818776E-003  1.3337465E-003 0.0  2.3217749E-003  1.5648700E-003 0.0  3.8754688E-004  2.7153160E-004 0.0  3.4520520E-004  2.0809153E-004 0.0  3.7728618E-004  1.9181728E-004 0.0  1.3820953E-003  3.5033278E-004 0.0  1.7411513E-004  1.9997556E-004 0.0  1.3421928E-004  2.1881712E-004 0.0  1.1204692E-003 -6.6997330E-006 0.0  1.0922535E-003  6.2560432E-005 0.0  1.5028947E-003  5.6345874E-004 0.0  1.2728645E-003  1.3172016E-004 0.0  1.3448658E-003  3.9770719E-004 0.0  1.3010392E-003  4.1531062E-004 0.0  2.0391623E-003  8.7472040E-004 0.0  2.1830360E-003  9.0195139E-004 0.0  8.4939689E-004  1.4515807E-004 0.0  7.9381376E-004  5.5519217E-005 0.0  8.6848538E-004  9.3376969E-005 0.0  1.9032231E-003  1.5976943E-003 0.0  4.8024838E-004  1.2958525E-004 0.0  7.1540588E-004  8.7244344E-005 0.0  7.0105626E-004  1.3510082E-004 0.0  5.9080944E-004  2.3063384E-004 0.0  5.4797759E-004  1.4777414E-004 0.0  6.0735371E-004  1.9202012E-004 0.0  5.7255886E-004  1.1471287E-004 0.0  1.3967000E-003  2.9764269E-004 0.0 -2.8535571E-004 -7.1109481E-005 0.0 -2.6888460E-004 -6.9427526E-005 0.0  6.2919779E-004  1.2716500E-003 0.0  9.6931380E-004  1.4595662E-003 0.0  1.2830370E-003  4.4735556E-004 0.0  1.2194310E-003  4.3613279E-004 0.0  1.1924585E-003  4.8323592E-004 0.0  1.1321292E-003  4.4280475E-004 0.0  1.0692557E-003  5.0362509E-004 0.0  1.0351855E-003  4.3457454E-004 0.0  9.4724501E-004  4.8523687E-004 0.0  1.1407252E-003  4.2186719E-004 0.0  9.4347371E-004  4.1008594E-004 0.0  8.3210403E-004  4.4808208E-004 0.0  8.3608417E-004  3.7636522E-004 0.0  7.3292273E-004  3.7679628E-004 0.0  9.8317205E-004  3.7831813E-004 0.0  7.1552030E-004  4.6713123E-004 0.0  6.1977868E-004  3.8633107E-004 0.0  6.4285220E-004  3.2480530E-004 0.0  5.2298537E-004  3.2613032E-004 0.0  5.6973591E-004  2.7237877E-004 0.0  4.4175640E-004  2.4924342E-004 0.0  3.9488581E-004  3.1023217E-004 0.0  3.4210481E-004  2.2585762E-004 0.0  2.8337042E-004  2.8145845E-004 0.0  2.5362369E-004  1.9949644E-004 0.0  3.4921756E-004  3.4703936E-004 0.0  4.7973324E-004  2.2152170E-004 0.0 -2.2841327E-004 -4.2449035E-005 0.0  1.2825387E-003  4.2055048E-004 0.0  1.2277361E-003  1.3096604E-005 0.0  1.3018172E-003  9.2270327E-005 0.0  3.3903789E-004  1.4059375E-004 0.0  3.0874343E-004  1.5861521E-004 0.0  1.4676939E-004  1.4243536E-004 0.0  1.0862979E-004  1.5397938E-004 0.0  1.7877110E-004  1.4320208E-004 0.0  1.8669562E-004  2.4245609E-004 0.0  1.6357322E-004  1.7868042E-004 0.0  2.1877338E-004  1.6174230E-004 0.0  1.2906279E-004  1.2945216E-004 0.0  8.6092055E-005  1.6035908E-004 0.0  6.5604809E-005  1.0673621E-004 0.0  3.6896114E-004  1.2458969E-004 0.0  2.7658390E-003  1.5505878E-003 0.0  2.6319806E-003  1.3672924E-003 0.0  2.7727953E-003  1.7629982E-003 0.0  4.4846882E-004  1.6701446E-004 0.0  6.6732970E-004  5.8478312E-005 0.0  6.4881826E-004  9.8552577E-005 0.0  6.8395002E-004  1.7362800E-004 0.0  1.4373043E-004  3.7285107E-004 0.0  1.9231984E-004  4.7574178E-004 0.0  1.0457006E-003 -3.6584686E-005 0.0  1.0110884E-003  1.4872614E-005 0.0  1.0749047E-003  1.2182800E-004 0.0  9.8592704E-004  7.3687030E-005 0.0  9.6064511E-004 -2.7752698E-005 0.0  1.6988540E-004  1.2176958E-004 0.0  6.3227392E-004  2.4125284E-004 0.0  8.1048762E-004  4.6308567E-006 0.0  4.4065470E-004  9.9419462E-005 0.0  3.0008860E-004  1.0491489E-003 0.0  2.4171240E-004  8.3603126E-004 0.0  5.8088049E-004  4.6675644E-004 0.0  1.2308043E-004  9.3583504E-005 0.0  1.2457725E-004  4.7290471E-004 0.0  9.9093763E-005  2.2061255E-004 0.0  4.3827701E-004  1.3060569E-003 0.0  8.8227283E-004  3.7436228E-005 0.0  7.5589726E-005  1.6376813E-004 0.0  1.7865993E-004  6.0775658E-004 0.0  6.2517244E-004  3.1551538E-005 0.0  2.1276327E-005  1.3303108E-004 0.0  4.7330724E-007  9.2781618E-005 0.0  5.0060978E-005  1.7655065E-004 0.0  4.0355115E-005  8.0742286E-005 0.0 -2.5165426E-005  5.8840950E-005 0.0 -5.9793362E-005  8.1294967E-005 0.0 -8.2375739E-005  4.6889746E-005 0.0 -5.4775349E-005  3.6638550E-005 0.0 -1.0842627E-004  1.9619632E-005 0.0  7.6147870E-004 -1.2487521E-005 0.0  6.8464184E-004  2.1482595E-005 0.0  1.3936871E-003  3.3337428E-004 0.0  1.4011349E-003  2.9034614E-004 0.0  1.4275143E-003  2.5762403E-004 0.0  1.4034785E-003  2.0972906E-004 0.0 -1.4191643E-004  4.1233810E-005 0.0 -1.6116236E-004  5.6055787E-006 0.0 -2.6577655E-004 -5.5984620E-005 0.0  1.2350123E-003  1.0778719E-003 0.0  1.1204064E-003  1.2489617E-003 0.0  7.0962594E-004  5.5042281E-004 0.0  5.3235629E-004  8.1241339E-005 0.0  5.5390195E-004  5.8136564E-005 0.0  9.2791549E-004  1.2539562E-004 0.0  6.0757692E-004  6.5023013E-005 0.0  4.2479465E-004  2.3773627E-004 0.0  1.2701008E-003 -2.4224185E-005 0.0  1.3335010E-003  5.2000776E-005 0.0  1.2147973E-003 -8.6468651E-005 0.0  8.2594479E-004 -4.6194293E-005 0.0  1.3347440E-003  1.5290398E-004 0.0  3.3946100E-004  8.2566957E-005 0.0  1.0776231E-003 -9.2910588E-005 0.0  4.5878303E-004  7.2978169E-005 0.0  4.3096942E-004  4.1082461E-005 0.0  1.0362302E-003  3.5897397E-004 0.0  1.1935519E-003  4.0414624E-004 0.0  8.6540724E-004  3.3906529E-004 0.0  7.6723748E-004  2.6756513E-004 0.0  2.3579782E-003  1.1265352E-003 0.0  2.1078078E-003  9.8758826E-004 0.0  1.0658626E-003  1.9144947E-004 0.0  4.1648281E-004  1.2968334E-004 0.0  1.0922137E-004  5.8179918E-004 0.0 -2.9632502E-004 -9.1467861E-005 0.0 -3.0484138E-004 -8.5536900E-005 0.0  8.3975037E-004  1.0051102E-003 0.0  5.2549048E-004  1.9653223E-004 0.0  6.3456358E-005  8.8401247E-004 0.0 -2.1611216E-004 -2.4656194E-005 0.0 -2.6124684E-004 -2.9969109E-005 0.0  1.1301293E-003  2.2353884E-004 0.0  1.1465237E-003  5.4328484E-004 0.0  2.5708016E-003  1.1742243E-003 0.0  2.2855286E-003  9.3499971E-004 0.0  6.2401259E-004  1.5444060E-004 0.0  6.5096151E-004  2.2753359E-004 0.0  2.5671896E-004  5.7991160E-004 0.0  2.4080365E-004  7.5027445E-004 0.0  1.2500230E-003  8.4436307E-004 0.0  1.4419207E-003  1.2178134E-003 0.0 -1.9556210E-004  2.6648326E-005 0.0  1.3724851E-003  1.3047335E-004 0.0  1.3681005E-003  2.2079338E-005 0.0  1.4396417E-003  1.5117962E-004 0.0  3.2214689E-003  1.7347579E-003 0.0  3.3600703E-003  1.9438234E-003 0.0  2.7549796E-003  1.9707707E-003 0.0  1.0120790E-003 -1.2513022E-004 0.0  1.5688254E-004  8.5142991E-005 0.0  1.7623631E-003  6.8582158E-004 0.0  1.4044705E-003  4.5761871E-004 0.0  1.3096501E-003  4.3732276E-004 0.0  8.9191746E-004 -1.6251946E-005 0.0  2.5709542E-004  1.3808337E-004 0.0  1.4400839E-003  3.7572798E-004 0.0  5.0928167E-004  1.0875387E-004 0.0  5.0151925E-004  5.4609366E-005 0.0  4.7186037E-004  3.5186935E-004 0.0 -1.8640584E-004 -2.6897231E-005 0.0 -1.2671794E-004  3.3430761E-006 0.0  3.6479736E-004  7.2067040E-005 0.0  3.2958837E-003  2.1202139E-003 0.0  8.4265685E-004 -1.0183745E-004 0.0 -5.4614997E-005  1.6097680E-005 0.0  2.9673664E-004  2.3773000E-004 0.0  2.5953196E-004  1.7830381E-004 0.0  2.2380205E-004  1.8689684E-004 0.0  2.3048784E-004  1.2613604E-004 0.0  2.6283774E-004  1.2280380E-004 0.0  2.3732867E-004  7.2564322E-005 0.0  2.0740400E-004  8.6139334E-005 0.0  1.3937753E-003  2.5855400E-004 0.0 -4.1082640E-005  6.9530418E-004 0.0  2.1685683E-004  6.5725877E-004 0.0 -8.6156934E-005  5.3540444E-004 0.0  1.8663506E-004  4.8930096E-004 0.0 -9.7238797E-005  4.0368388E-004 0.0  1.3214983E-004  3.5623171E-004 0.0  2.2343131E-004  3.1525693E-004 0.0  1.4144745E-004  2.7239141E-004 0.0  2.7843267E-004  3.8860593E-004 0.0  3.9737031E-004  4.3577269E-004 0.0  4.5469034E-004  3.8113461E-004 0.0  3.1049878E-004  4.6819073E-004 0.0  1.0170203E-004  2.0874358E-004 0.0  8.4025072E-004  5.5213174E-004 0.0  6.1316633E-005  2.2864609E-004 0.0  7.5050286E-004  3.2245789E-004 0.0 -2.9983690E-004 -9.1044541E-005 0.0  7.7691686E-004 -5.9428244E-005 0.0  7.3381042E-004 -7.4799879E-005 0.0  7.1390043E-004 -3.1360647E-005 0.0  7.4143431E-004  2.3572681E-005 0.0  1.6231073E-004  9.1883126E-005 0.0  9.5249533E-004  2.6843569E-004 0.0  6.4539839E-004 -3.4865229E-007 0.0  6.0877714E-004 -2.0451618E-005 0.0  9.8190612E-004  5.8912740E-004 0.0  5.3594311E-004  5.4022505E-004 0.0  6.3284416E-004  6.5256569E-004 0.0  5.8370252E-004  1.0694355E-006 0.0  9.7391132E-004 -8.5963230E-005 0.0  9.2569467E-004 -1.0690772E-004 0.0  3.0992599E-004  9.5266394E-005 0.0  1.3628469E-003  4.1168413E-004 0.0 -3.0921577E-004 -7.2922489E-005 0.0  4.0762738E-004  7.0829217E-005 0.0 -3.2313725E-004 -1.0919456E-004 0.0  1.1633576E-003 -4.9253833E-005 0.0  1.1523846E-003 -1.4049065E-004 0.0  1.1945965E-003 -1.7919204E-004 0.0  6.5649846E-004  3.3402436E-004 0.0  5.5927227E-006  1.8256324E-004 0.0  1.2837090E-003  5.1537593E-004 0.0  4.5700379E-004  2.3526682E-004 0.0  1.8526706E-003  8.2390791E-004 0.0  2.0611975E-003  1.0676472E-003 0.0  1.7255927E-003  7.8629073E-004 0.0  1.8842998E-003  1.0397519E-003 0.0  1.4732637E-003  2.3344792E-004 0.0  1.3751078E-004  4.3008727E-005 0.0  1.0133684E-004  5.4002249E-005 0.0  9.1625907E-005  9.2331473E-005 0.0  6.3441585E-005  1.0520806E-004 0.0  1.3226997E-003  2.4153278E-004 0.0  5.6950423E-004  3.4353078E-005 0.0  9.5816975E-004  1.4181627E-003 0.0  7.0602846E-004  1.1099243E-003 0.0 -2.8718970E-004  4.7244466E-004 0.0  2.8862756E-003  1.2931769E-003 0.0  2.4167615E-003  1.0102160E-003 0.0  3.0970349E-003  1.3292990E-003 0.0  2.6124088E-003  1.0854538E-003 0.0  2.0448041E-003  7.7401008E-004 0.0  2.2226557E-003  9.0546442E-004 0.0  2.8457465E-003  1.1640436E-003 0.0  2.3141898E-003  1.0030155E-003 0.0  2.9930934E-003  1.2576527E-003 0.0  2.4642457E-003  1.1255098E-003 0.0  3.0156970E-003  1.3663475E-003 0.0  3.4645470E-003  1.5334343E-003 0.0  1.8735003E-003  7.5445104E-004 0.0  1.9339913E-003  7.4816906E-004 0.0 -3.2270032E-004  1.3068915E-004 0.0 -1.9064534E-004  7.0668666E-005 0.0 -1.9695150E-004  1.4427367E-004 0.0 -3.1099340E-005  1.0091761E-004 0.0 -3.6720138E-005  1.7903946E-004 0.0 -2.4507632E-004  2.3227460E-005 0.0  1.4732125E-004  1.5263759E-004 0.0  1.5178235E-004  2.4632368E-004 0.0  5.0074467E-005  1.5118133E-004 0.0  2.6721481E-004  6.5827687E-005 0.0  9.5253225E-004 -1.6733970E-004 0.0  8.9512438E-004 -1.8131820E-004 0.0  1.3896576E-003  4.2767237E-004 0.0  1.4973602E-004  1.1654015E-003 0.0 -1.2295012E-004  2.9398339E-004 0.0  3.8012783E-004  3.2852224E-004 0.0  1.3258835E-003 -4.6659163E-005 0.0  7.7934303E-004  6.5120874E-004 0.0 -1.1130259E-004  6.4974233E-005 0.0 -2.4135964E-004 -1.4805407E-006 0.0 -3.2505288E-005  1.0941371E-004 0.0 -8.8741477E-005  8.8210977E-005 0.0  1.3510847E-003  4.3014793E-004 0.0  4.1100931E-004  1.6957122E-004 0.0  2.3555921E-004  1.6201935E-003 0.0  3.5806631E-004  1.2412541E-003 0.0  6.0026927E-004  1.5317620E-003 0.0  5.4711541E-004  1.1115625E-003 0.0  7.4208000E-005  5.0931182E-004 0.0  4.0524163E-004  1.6153760E-004 0.0  6.0189826E-005  2.3614008E-004 0.0  8.6510705E-005  2.8710792E-004 0.0 -5.2679092E-006  1.4119929E-004 0.0  3.4169681E-004  6.9038427E-004 0.0  3.5975034E-004  9.1267456E-004 0.0 -3.0762050E-004 -6.0673838E-005 0.0  4.2064218E-005  2.8270928E-004 0.0 -1.6938816E-004  5.6153133E-005 0.0  1.4263642E-003  3.2447691E-004 0.0  3.2664734E-003  1.3883763E-003 0.0  1.3688449E-003  2.1424571E-004 0.0 -3.3986799E-004  2.5023214E-005 0.0  1.8350216E-003  9.3220058E-004 0.0  4.3776565E-004  6.2343135E-004 0.0  2.1676109E-003  1.1471245E-003 0.0  1.5114745E-003  1.4007823E-003 0.0  1.5135781E-003  1.6301473E-003 0.0  1.9971671E-003  1.8307956E-003 0.0  1.5946751E-003  1.8772191E-003 0.0  2.0442934E-003  2.0525995E-003 0.0  1.2631238E-003  1.8841804E-003 0.0  1.2508043E-003  1.4564846E-003 0.0  6.9418672E-004  8.0353484E-004 0.0  2.3848882E-003  1.8102289E-003 0.0  7.4765901E-004  1.5094981E-003 0.0  3.1242543E-003  1.5652537E-003 0.0  1.6528721E-004  1.1015360E-003 0.0  2.7458324E-004  1.3048958E-003 0.0  4.7569069E-004  8.1274397E-004 0.0  3.7940764E-003  1.7852613E-003 0.0  1.7576255E-003  1.6837232E-003 0.0  3.7309081E-003  2.1207542E-003 0.0  3.1204369E-003  2.2919040E-003 0.0  3.0298355E-003  1.6934605E-003 0.0  1.3220238E-003  1.7675409E-003 0.0  2.0147744E-003  1.7317824E-003 0.0  1.9430459E-003  1.2766471E-003 0.0  2.5401879E-003  1.7162681E-003 0.0  4.7506794E-004  1.5887134E-003 0.0  1.0222991E-003  1.8819661E-003 0.0  3.8710424E-003  1.9355246E-003 0.0  2.4655174E-003  2.0090696E-003 0.0  5.5495467E-004  1.5240748E-003 0.0 -3.1040322E-004 -1.0928149E-004 0.0 -3.1801105E-004 -9.5305701E-005 0.0  5.2472141E-004  2.8380853E-005 0.0  5.4228926E-004  2.7353330E-006 0.0 -2.0962743E-004 -4.9346634E-006 0.0 -2.5622812E-004  5.0305150E-006 0.0  1.0819301E-003  6.2701318E-004 0.0  5.9374411E-005  1.4952469E-005 0.0  4.6668541E-005  5.6040841E-005 0.0  1.4273079E-003 -6.1604145E-005 0.0 -2.0111692E-004  5.3267025E-005 0.0  1.3066532E-003 -1.8435076E-004 0.0 -1.1358051E-004  7.8412838E-005 0.0 -5.7616761E-005  1.1297600E-004 0.0  1.0492858E-004  3.2521666E-004 0.0  1.7724101E-004  3.4564934E-004 0.0  1.7611926E-004  1.2132816E-005 0.0  2.2153608E-004  9.1120886E-006 0.0  1.1345228E-003 -2.3409399E-004 0.0  2.7111676E-004  1.9612788E-005 0.0  2.9206897E-004  6.0435338E-005 0.0  9.9344053E-004 -2.3450253E-004 0.0  3.1624603E-004  7.9979933E-006 0.0  4.1074353E-004 -2.2808859E-007 0.0  3.5996302E-004  3.3791442E-006 0.0  3.8439813E-004  4.7796223E-005 0.0  7.0784250E-004 -1.2483655E-004 0.0  7.7276197E-004 -1.5038734E-004 0.0  4.2694202E-004  1.5330674E-006 0.0  4.6929248E-004 -1.3391116E-005 0.0  6.4344754E-004 -7.8276766E-005 0.0  1.7075224E-003  1.3127631E-003 0.0 -3.2347457E-004 -1.0427110E-004 0.0 -7.5093191E-005  1.7966550E-005 0.0 -6.3524799E-005  1.1201010E-003 0.0 -2.1510567E-004  8.0569552E-004 0.0  1.3568465E-003  2.3373389E-004 0.0  3.6810657E-004  1.9270231E-004 0.0 -2.0139649E-004 -3.2868159E-005 0.0  1.0812077E-005  5.3214262E-005 0.0  7.3981915E-005  7.3228288E-005 0.0  3.4932957E-003  1.6748915E-003 0.0  2.8332257E-003  2.1836871E-003 0.0  1.2254523E-003  1.6915227E-003 0.0 -3.0267606E-004 -1.4340220E-006 0.0  1.6592128E-003  5.8672081E-004 0.0  9.8598299E-004  1.7075472E-003 0.0  1.4710637E-003  9.5395684E-004 0.0  1.0135015E-005  2.0564174E-004 0.0  5.3300794E-004  2.4441417E-004 0.0  3.4608594E-003  1.6165496E-003 0.0  9.4332422E-004  7.2616948E-005 0.0  8.7295147E-004 -1.3447013E-004 0.0  1.0557132E-003 -1.5449232E-004 0.0  9.8377347E-004  1.5530632E-004 0.0  6.6121391E-004 -2.9151876E-005 0.0  8.0999279E-005  5.4984983E-005 0.0  3.2327785E-004  5.0438131E-005 0.0  3.4537561E-004  5.3389268E-004 0.0  7.8308159E-004 -1.0236328E-004 0.0  4.5495864E-004  1.5971476E-004 0.0  1.7229783E-004  5.7951649E-005 0.0  7.2732940E-004  2.1837309E-004 0.0  5.2658365E-004 -3.1842964E-005 0.0  1.3508698E-003  4.2282412E-004 0.0  2.4219443E-003  1.3168288E-003 0.0  7.4396437E-004  2.7997922E-004 0.0  1.1310393E-004  9.6661884E-005 0.0  9.0600676E-004  1.7974735E-004 0.0  4.7214743E-005  1.2597842E-003 0.0  1.2725579E-003 -1.0052950E-004 0.0  2.8450420E-004  1.1462680E-004 0.0  2.6045722E-004  9.0551573E-004 0.0  6.0174743E-004  9.7692449E-005 0.0 -3.0349007E-004  2.0080711E-004 0.0  1.1161278E-004  3.7194133E-004 0.0  1.8519130E-003  7.2235878E-004 0.0  2.2245410E-003  1.3606632E-003 0.0  3.1232597E-004  1.7977792E-004 0.0  3.5638085E-003  1.6717118E-003 0.0  4.2381776E-004  5.0358209E-004 0.0  3.0729907E-005  3.3841036E-005 0.0 -6.1995175E-005  5.0409803E-005 0.0  6.3972049E-004  2.7302735E-004 0.0  5.8492459E-004 -4.7638961E-005 0.0  1.1505598E-003  1.8344632E-004 0.0  1.4081133E-003  3.3691063E-004 0.0  3.9268337E-004  1.0066126E-004 0.0  4.6115240E-004  3.8749821E-005 0.0  9.8330023E-004  3.6228682E-004 0.0  1.0738226E-003  3.9264068E-004 0.0  1.2063821E-003  4.2200358E-004 0.0 -3.1542377E-004 -1.2772208E-004 0.0  1.2060792E-003  4.2045205E-004 0.0  1.6874476E-003  9.5973911E-004 0.0  1.4354430E-003  5.0243396E-005 0.0  1.2962249E-003  7.1042585E-004 0.0  1.2996051E-003  4.3115405E-004 0.0  7.0324144E-004  7.0792197E-004 0.0  6.7854371E-004 -1.0976871E-004 0.0  1.3127339E-004  2.9129425E-004 0.0  1.3234940E-003  1.9531629E-004 0.0  2.5249662E-004  4.6657087E-004 0.0  7.7591284E-004  3.2598617E-004 0.0  4.6487650E-004  8.4233779E-004 0.0 -3.1939189E-004 -7.0755010E-005 0.0  1.0558905E-003  2.5734765E-004 0.0  1.5708244E-003  5.7906710E-004 0.0  9.0344117E-004 -5.2865981E-005 0.0  1.0599489E-003  4.0401520E-004 0.0  3.4498377E-003  1.4776267E-003 0.0  1.1840991E-003  2.9097509E-004 0.0  5.8917923E-004  4.6910284E-004 0.0  1.7328245E-003  6.4047668E-004 0.0  6.3331104E-004  8.5996508E-004 0.0  3.8054415E-005  1.4694168E-004 0.0  8.2247529E-004  7.3619606E-004 0.0  6.8819451E-004 -4.8348216E-005 0.0  3.9595180E-004  4.7538715E-004 0.0  1.3968236E-003  1.2668151E-004 0.0 -3.4229161E-004 -9.7628334E-005 0.0  9.8262005E-004  2.1928460E-004 0.0  2.1059371E-003  1.0031194E-003 0.0  1.2056216E-004  1.2006345E-005 0.0  3.4687113E-004  4.2303312E-005 0.0  5.9526974E-004 -5.8504898E-005 0.0  6.9146547E-004  2.4071178E-004 0.0  6.7461703E-004  6.9273453E-004 0.0  7.4844967E-004  8.8786301E-004 0.0  1.5273503E-003  6.2234045E-004 0.0  2.4381465E-004  4.9034030E-004 0.0  7.0359421E-004  2.9109166E-004 0.0  1.0853948E-003  6.5183942E-004 0.0  1.8099321E-003  6.6283680E-004 0.0  6.9740494E-004  3.0444919E-004 0.0  8.9289840E-004 -2.2035807E-004 0.0  1.3396876E-004  3.4959254E-006 0.0  1.5020037E-003  4.9186900E-004 0.0 -1.2522979E-004  7.3330794E-005 0.0 -2.9617971E-004  2.2518826E-005 0.0  1.6670739E-003  7.8814826E-004 0.0  1.6513482E-003  6.7822825E-004 0.0  1.7703434E-003  6.1748400E-004 0.0  3.4290753E-004  5.2246250E-004 0.0  3.7989565E-003  1.7537490E-003 0.0  3.4343563E-004  2.1073538E-004 0.0  2.7272135E-003  2.2714707E-003 0.0  6.3597082E-004  1.3213522E-004 0.0 -1.7749810E-004  9.2316905E-006 0.0 -1.6433577E-004 -9.8931140E-006 0.0  1.5000669E-003  1.2629542E-004 0.0  1.6432330E-004  7.0766517E-004 0.0 -4.3503134E-005  3.4031927E-005 0.0  1.4018539E-003 -5.5262844E-005 0.0  4.7921746E-004  2.9066297E-005 0.0 -5.8239523E-005  1.1416711E-004 0.0  5.1202729E-004  4.4233587E-004 0.0 -2.9207418E-004 -3.2209063E-005 0.0  1.8555440E-003  7.1339141E-004 0.0  6.8285131E-005  8.5993831E-005 0.0  8.2015271E-004  3.1544669E-004 0.0  7.7662019E-004  7.9241481E-004 0.0 -2.7708868E-005  3.0581714E-005 0.0  2.7509318E-003  1.4140920E-003 0.0  1.9842465E-003  2.1887797E-003 0.0  1.4279095E-003  1.4576258E-003 0.0  6.7690533E-004  2.1860389E-004 0.0  6.0556566E-004  2.0234152E-004 0.0  1.5189244E-003  8.2491558E-004 0.0  1.3882382E-003  1.9295199E-004 0.0  2.0118518E-004  1.3437087E-004 0.0  1.9065205E-004  9.1074501E-005 0.0 -3.1059168E-004 -1.1129572E-004 0.0  2.8915518E-004  1.7814449E-004 0.0  7.0292299E-004  3.5871263E-006 0.0  7.6741669E-004  1.9044060E-003 0.0  7.9390340E-004  1.4618188E-003 0.0 -3.4312028E-004  3.8383204E-004 0.0  4.9508318E-004  1.5835035E-005 0.0  5.0031061E-004 -3.2601725E-005 0.0  1.1830101E-004  6.6137272E-004 0.0  2.0053880E-004  5.0134356E-005 0.0  4.0826877E-004  1.8237476E-004 0.0  1.3155629E-003  2.0119523E-003 0.0  8.8577275E-004  3.1805647E-004 0.0  8.0498425E-004  1.6765976E-003 0.0  5.5905805E-004 -5.7474920E-006 0.0  1.1776757E-004  1.2633570E-003 0.0  2.6214516E-003  1.2309665E-003 0.0 -3.2346338E-004 -8.7541144E-005 0.0  1.2240438E-003  4.2031345E-004 0.0  1.2454085E-003  5.4783910E-004 0.0  2.2452026E-004  4.6314050E-005 0.0 -2.0051776E-004  2.2462824E-004 0.0  1.9173128E-004  9.8431514E-005 0.0  1.2768170E-004  8.2386404E-005 0.0  5.7569386E-004  6.5485419E-004 0.0 -2.1601891E-004  3.6530839E-005 0.0  4.3244864E-004  1.8822014E-004 0.0  1.0580076E-004  2.8513984E-004 0.0  4.3566122E-004  3.2587216E-004 0.0  2.0078190E-003  8.8771285E-004 0.0 -1.7915399E-005  1.0778423E-003 0.0  3.5266589E-003  2.2526309E-003 0.0  2.4075447E-004  4.1223407E-005 0.0  1.3431458E-003  4.2938466E-004 0.0 -3.4596170E-005  1.2560556E-004 0.0  1.1568721E-003 -2.4865652E-004 0.0  4.9585425E-005  1.0250721E-004 0.0 -2.4195112E-004  5.9212406E-004 0.0 -1.0146020E-004  9.1107115E-004 0.0  1.1478161E-003  3.0804434E-004 0.0  8.2125631E-004 -2.0310161E-004 0.0  6.5960730E-004  1.8628540E-004 0.0  9.9595267E-004 -1.7974228E-004 0.0  1.7866105E-004  1.2993179E-003 0.0 -2.2407974E-005  1.5485497E-004 0.0  7.2824222E-004  4.7368714E-005 0.0  3.2949724E-004  1.9161407E-003 0.0  1.5253599E-004  8.6721661E-005 0.0  1.1018885E-003 -1.7063429E-004 0.0 -1.2214199E-004  7.8535173E-004 0.0  1.2847924E-003  4.3314647E-004 0.0  2.6792419E-005  2.0885860E-006 0.0  6.2905710E-004 -3.5577223E-005 0.0  4.0631980E-004  3.2406798E-005 0.0  1.6858980E-003  1.0411367E-003 0.0  9.1014678E-004  6.2158134E-004 0.0  1.7664019E-003  6.2897317E-004 0.0  3.3919485E-004  1.4293116E-003 0.0  6.9835772E-004 -7.2071511E-005 0.0 -1.6588720E-004  3.6768467E-005 0.0 -1.4020548E-004 -7.2722066E-006 0.0  9.4044858E-004  1.0031776E-005 0.0  3.5855904E-003  1.7796961E-003 0.0  1.1159911E-003 -9.6437363E-005 0.0  4.8343730E-004  7.4406466E-005 0.0  1.1438866E-003  4.0857857E-004 0.0  2.0343850E-003  7.9198639E-004 0.0  1.3144920E-003 -1.1276406E-004 0.0  7.5297496E-004 -9.9452677E-005 0.0  3.6150751E-004  3.4134341E-005 0.0  2.9902518E-003  1.4300341E-003 0.0  1.3587586E-003 -7.5199251E-005 0.0  5.3313344E-004  3.9756228E-004 0.0  7.9442273E-005  3.1317008E-004 0.0  2.8925237E-003  1.4423209E-003 0.0  3.0935303E-004  5.4341240E-004 0.0  1.6068237E-003  6.6124345E-004 0.0 -3.4584618E-004  5.5345347E-004 0.0  4.4575926E-004  3.8362298E-004 0.0  1.4725409E-003  1.1961714E-004 0.0  1.4432369E-003  4.0112579E-004 0.0  1.1839356E-003  3.9190963E-004 0.0  3.2213034E-004  1.5599548E-004 0.0  7.2206369E-004  2.3035504E-004 0.0  1.4101089E-003  3.1734918E-004 0.0  2.0052082E-004  1.8769164E-004 0.0 -2.2872759E-004  3.7138242E-004 0.0  3.5520034E-003  1.8912107E-003 0.0  1.3588056E-003  2.7741246E-004 0.0  1.4010822E-003  4.6133228E-004 0.0  8.6080791E-005  6.3133775E-005 0.0  4.6635266E-004  2.8852774E-004 0.0  8.9268185E-004  2.2365227E-004 0.0 -1.0209816E-004  2.3802114E-006 0.0  1.9169424E-003  7.9264659E-004 0.0  3.2112050E-004  2.1661413E-004 0.0  2.3140990E-004  4.1467513E-004 0.0 -1.6681791E-004 -2.0629723E-005 0.0  1.1827239E-006 -2.2789247E-005 0.0  1.6425152E-006 -7.9044921E-006 0.0  1.9191653E-005 -5.1392779E-005 0.0  2.9261374E-006 -1.9882647E-005 0.0 -1.2120424E-006 -1.1665709E-005 0.0  5.9682024E-006 -3.5163617E-005 0.0  1.8126247E-005 -6.2308157E-005 0.0  1.4070387E-005 -7.4261243E-005 0.0 -4.4562708E-006  4.5513342E-005 0.0  4.4913434E-007  4.6049348E-005 0.0 -8.5494425E-007  4.8334750E-005 0.0 -7.4600440E-007 -5.5715328E-005 0.0 -8.2391547E-007  4.7100829E-005 0.0  1.8018812E-007 -3.4495997E-005 0.0 -3.0670843E-007 -3.5044639E-005 0.0 -2.9746464E-007  4.5587115E-005 0.0 -1.1927623E-007 -3.8684724E-005 0.0 -8.4916696E-007  4.4255381E-005 0.0 -7.9847773E-007 -4.2985799E-005 0.0 -1.8126481E-006  5.1436238E-005 0.0 -1.5631767E-006  5.0727562E-005 0.0 -2.8494073E-007 -6.5883890E-005 0.0  5.3327250E-007  4.1812388E-005 0.0 -2.4792093E-007 -8.2097612E-005 0.0 -2.3003439E-006  4.6747712E-005 0.0 -6.0964236E-007 -5.5410753E-005 0.0 -9.0737192E-007 -9.3830825E-005 0.0  6.6653302E-007 -9.8895024E-005 0.0 -5.4423241E-007 -4.9606047E-005 0.0 -2.7732487E-007 -6.2778739E-005 0.0 -5.4233883E-007 -7.3837862E-005 0.0 -1.2410977E-006 -7.0369032E-005 0.0  2.9583555E-006 -5.6022654E-005 0.0  2.7380634E-006 -7.4279038E-005 0.0 -7.2312137E-007 -1.0084596E-004 0.0 -1.1347321E-006 -8.6077672E-005 0.0 -1.8589841E-007 -9.5809586E-005 0.0 -2.2663816E-007 -8.9485390E-005 0.0 -3.0444031E-007 -1.0251897E-004 0.0 -1.2991130E-007 -1.0241419E-004 0.0 -4.7835035E-006  2.9794559E-005 0.0 -1.1765411E-007 -1.0486096E-004 0.0  6.5872854E-007 -1.0418777E-004 0.0  6.9439114E-007 -1.0343876E-004 0.0 -2.4552373E-008 -1.0587063E-004 0.0  1.8794357E-006 -9.2237978E-005 0.0  2.0121433E-006 -8.5266519E-005 0.0  5.6964974E-007 -2.4515105E-006 0.0  6.9869877E-006 -8.2173964E-005 0.0 -1.2437331E-006 -5.7222993E-005 0.0 -3.1294682E-006  3.6264771E-005 0.0 -2.0782556E-006  5.5503632E-005 0.0 -2.7933624E-006  4.6313116E-005 0.0 -4.1735405E-007 -3.8890129E-005 0.0 -1.1145651E-008 -3.5155048E-005 0.0 -1.7666374E-007 -3.6055804E-005 0.0  1.9472684E-007  4.0972117E-005 0.0 -3.9454489E-007 -4.0925669E-005 0.0 -6.5741049E-007 -3.6426146E-005 0.0 -4.0397520E-007 -5.2604431E-005 0.0 -1.3101300E-006  4.8925587E-005 0.0 -4.8565158E-007  4.1752024E-005 0.0 -1.4389213E-007 -4.6345984E-005 0.0 -4.5604577E-007  4.0635350E-005 0.0 -3.0212851E-007  5.6632400E-005 0.0 -3.9160454E-007  4.7256460E-005 0.0 -1.0484247E-006  5.5009956E-005 0.0 -1.0200137E-006 -5.8406769E-005 0.0 -2.1546704E-006  5.0747698E-005 0.0 -1.4065906E-006 -7.8370934E-005 0.0 -2.9610967E-006  4.9227223E-005 0.0 -1.2665980E-006  5.3200238E-005 0.0 -2.5656370E-006  4.3986539E-005 0.0 -3.0516067E-006  3.2331850E-005 0.0 -3.7273015E-006  1.2118910E-005 0.0 -4.3508790E-006  1.5598887E-005 0.0 -3.0942259E-006 -1.7030848E-006 0.0 -4.8060437E-006  9.0826576E-007 0.0 -4.0525127E-006 -2.4663622E-005 0.0 -8.5207303E-007 -4.1568513E-005 0.0  3.7410887E-006 -7.5115469E-005 0.0 -3.4906292E-006 -3.1432748E-005 0.0  1.5673794E-006 -7.5102799E-005 0.0  1.5632683E-005 -4.4677255E-005 0.0  4.2157838E-006 -4.0252353E-005 0.0  1.0452694E-005 -7.9054408E-005 0.0 -3.4763310E-007 -9.7991729E-005 0.0 -6.7769391E-007 -6.7526841E-005 0.0 -1.0879290E-006  4.8993994E-005 0.0 -1.4440807E-005 -1.1448117E-005 0.0 -1.3379502E-006 -3.5835329E-006 0.0  1.5637625E-005 -7.2659131E-005 0.0  1.3897313E-005 -6.8219568E-005 0.0  1.6196185E-005 -5.9323362E-005 0.0  1.0114620E-005 -4.9418705E-005 0.0  1.1554717E-005 -4.2324072E-005 0.0  9.7583708E-006 -5.5227587E-005 0.0  6.6897710E-006 -3.1235136E-005 0.0  6.9276910E-006 -2.4812297E-005 0.0  1.0910334E-005 -3.6409269E-005 0.0  6.0827299E-006 -2.0712952E-005 0.0  8.5089244E-006 -2.9851865E-005 0.0  1.4431564E-005 -4.2823135E-005 0.0  1.0299066E-005 -3.5938031E-005 0.0  4.1008535E-006 -1.7701223E-005 0.0  3.0476710E-006 -1.2302582E-005 0.0  1.5732899E-005 -4.5948717E-005 0.0  1.2167329E-005 -4.0697821E-005 0.0  4.6579319E-006 -2.4317885E-005 0.0  5.2189903E-006 -2.9509380E-005 0.0  1.5392377E-005 -4.9812656E-005 0.0  1.3512298E-006 -1.6138673E-005 0.0  4.1382232E-006 -1.4869719E-005 0.0  1.9646262E-006 -7.5247708E-006 0.0  7.8780795E-007 -6.2282920E-006 0.0  4.2372410E-006 -1.8158656E-005 0.0  4.8549893E-006 -3.4523663E-005 0.0  3.5363217E-006 -1.5030017E-005 0.0  1.2432125E-005 -4.2593722E-005 0.0  1.7738905E-005 -5.6613985E-005 0.0  1.7724245E-005 -4.9313706E-005 0.0 -2.3412181E-005  1.9745478E-005 0.0 -7.5654254E-006 -9.3250392E-006 0.0 -5.0486774E-006 -2.7853491E-005 0.0 -1.2136340E-006 -2.5460413E-005 0.0  3.9758731E-006 -5.0978749E-005 0.0  8.3453044E-006 -7.0590233E-005 0.0  7.3470748E-006 -8.3340073E-005 0.0  6.3316419E-006 -8.8555915E-005 0.0  1.1358308E-005 -9.2339104E-005 0.0  4.2877734E-006 -6.6167922E-005 0.0  5.6015038E-006 -9.7658732E-005 0.0  8.4343885E-006 -1.0407678E-004 0.0 -1.4820015E-007 -3.3017970E-005 0.0 -3.0858936E-007 -1.9345466E-005 0.0  1.4430413E-007 -2.1130232E-005 0.0 -1.0070519E-006 -2.2263670E-005 0.0 -6.0676410E-007  1.0295064E-005 0.0 -6.4297307E-007  8.7983567E-006 0.0 -7.6319904E-007 -6.5240292E-005 0.0  2.7742803E-006 -1.1949525E-004 0.0  7.1558367E-007 -1.1704233E-004 0.0  3.2895375E-006 -1.2060849E-004 0.0  1.9238379E-006 -1.0675848E-004 0.0 -3.9575565E-007 -3.4475353E-005 0.0 -5.8744340E-007 -2.3607007E-005 0.0 -2.1762156E-007 -1.0647764E-004 0.0 -1.4214403E-006 -1.0769161E-004 0.0 -1.1755589E-007 -1.0896365E-004 0.0 -4.5116050E-006 -7.1188606E-005 0.0  7.9742667E-007 -1.0293438E-004 0.0 -4.3983394E-007 -1.1733000E-004 0.0  9.2140263E-007 -1.1898650E-004 0.0 -3.5219368E-006 -9.4344073E-005 0.0 -6.2217047E-007 -5.3045112E-005 0.0 -1.4782814E-006 -3.7258031E-005 0.0 -2.7787226E-007 -3.7990125E-005 0.0 -2.2302787E-006  4.6416471E-006 0.0 -3.7810087E-006  1.6286788E-005 0.0 -1.7159077E-006 -7.8076596E-005 0.0 -2.9820085E-006 -7.0141141E-005 0.0 -2.7075080E-006 -8.5474286E-005 0.0 -4.2581700E-007 -1.0056708E-004 0.0 -4.4057028E-008  3.1595184E-005 0.0 -2.3281327E-007 -7.5227320E-006 0.0 -4.6768063E-007 -9.9984805E-006 0.0 -3.3003195E-007 -2.9572485E-005 0.0 -4.7649128E-007 -3.8247657E-005 0.0 -2.0023259E-007 -2.6093444E-005 0.0 -1.3101908E-006 -2.6654703E-005 0.0 -1.6101139E-006  8.7349108E-006 0.0 -3.1018962E-006  3.4540068E-005 0.0 -1.7014664E-006 -6.1286491E-005 0.0 -3.2370018E-006 -5.0322548E-005 0.0 -2.0386601E-006 -6.5722953E-005 0.0 -4.6555298E-007 -8.9609380E-005 0.0 -7.1071501E-007  3.9696351E-005 0.0 -5.4910864E-007 -2.0634682E-005 0.0 -1.4336304E-006 -2.4649085E-005 0.0 -9.4298579E-007 -5.2232107E-005 0.0 -6.7331592E-007 -5.3773119E-005 0.0 -1.0748789E-006 -1.5243109E-005 0.0  3.7872165E-007  3.9947971E-005 0.0 -4.4427951E-007 -1.5118049E-005 0.0 -5.6290095E-007  4.3191660E-005 0.0 -8.5345607E-007 -1.3924823E-005 0.0 -9.8302723E-007 -1.2696986E-005 0.0 -8.4086517E-007 -9.4997558E-006 0.0 -8.0842567E-007 -3.5686192E-005 0.0 -5.9978816E-007 -3.8455359E-005 0.0 -2.0435268E-007 -5.7595794E-005 0.0 -1.7156197E-006 -4.3061073E-005 0.0 -7.1649315E-007  3.2662787E-005 0.0 -1.3604886E-006 -3.7733517E-005 0.0 -1.9081752E-006 -4.1965198E-005 0.0 -9.3525061E-007 -7.2305753E-005 0.0 -9.2486940E-007  3.3374663E-005 0.0 -1.3294824E-006 -1.4706990E-005 0.0 -6.1264997E-007 -1.6103617E-005 0.0 -5.7244231E-007 -4.3720180E-005 0.0 -1.0809421E-006 -4.1376913E-005 0.0 -1.5327995E-006  3.2114951E-005 0.0  4.9140174E-007 -5.4695620E-006 0.0 -4.8883836E-008 -6.8753632E-006 0.0  5.5335201E-007 -2.6088050E-005 0.0 -5.2979429E-007 -4.5966756E-005 0.0 -8.4470840E-007 -3.3465859E-005 0.0 -8.9253533E-007 -3.5695119E-005 0.0 -7.5396289E-007 -8.2258834E-005 0.0 -1.4607065E-006 -7.0624466E-005 0.0 -2.2423159E-006 -7.3243350E-005 0.0 -6.7109093E-007 -7.7814116E-005 0.0 -1.6915564E-006 -6.3809911E-005 0.0 -1.3052603E-006 -6.2889393E-005 0.0 -3.5156112E-006 -3.3088860E-005 0.0 -3.7030967E-007 -1.0036058E-004 0.0 -1.1061692E-006 -1.0836806E-004 0.0 -1.3516373E-007 -1.1219813E-004 0.0 -2.0474869E-006  4.2736960E-005 0.0 -2.0196252E-006 -3.2731593E-005 0.0 -1.5886823E-006 -3.0620434E-005 0.0 -1.2232911E-006 -6.3620505E-005 0.0 -1.4521423E-006 -3.0778724E-005 0.0 -1.9656115E-006  4.6106819E-005 0.0 -1.2739863E-006 -2.6211500E-005 0.0 -2.0525038E-006 -2.3777911E-005 0.0 -2.4384615E-006  4.6499300E-005 0.0 -7.0385469E-007 -1.9569751E-005 0.0 -1.0274326E-006  5.3529755E-005 0.0  6.3616630E-007  4.8352294E-005 0.0 -1.6583525E-006  3.9003321E-005 0.0 -1.0117555E-006 -6.4554042E-005 0.0 -1.7052569E-006 -5.0902882E-005 0.0  4.8431059E-007  3.1509344E-005 0.0 -4.5981540E-007 -9.6377219E-006 0.0 -3.1036944E-006  2.7029850E-005 0.0 -1.4700121E-006 -6.2460220E-005 0.0 -1.4480067E-006  3.4363656E-005 0.0 -3.0437987E-006  1.8037946E-005 0.0 -1.8436952E-006 -5.0490345E-005 0.0 -2.2833121E-006 -5.1775086E-005 0.0 -7.4614690E-007 -8.1036002E-005 0.0 -2.4412537E-006  3.0472370E-005 0.0 -6.8555398E-007  3.8593054E-005 0.0 -7.0321603E-007 -8.9669153E-005 0.0 -1.3930493E-006 -7.9940282E-005 0.0 -1.4345115E-006 -8.2469622E-005 0.0 -8.5158673E-007 -9.5492500E-005 0.0 -2.2882255E-006 -8.9608221E-005 0.0 -3.6339059E-007 -1.0413732E-004 0.0  2.3283148E-006 -8.3630622E-005 0.0  4.5220764E-006 -1.0653423E-004 0.0 -9.4647136E-007 -6.1818458E-005 0.0 -1.9192130E-006 -4.8471772E-005 0.0 -2.9654642E-007 -6.9156860E-005 0.0 -2.2475236E-006 -5.4564107E-005 0.0 -1.0390413E-006 -8.3895048E-005 0.0 -5.0758540E-006  3.6486700E-005 0.0 -4.6858724E-006 -4.5128180E-005 0.0 -8.5154102E-007 -9.1081014E-005 0.0 -9.6953129E-008  3.1023208E-005 0.0 -7.7332008E-007 -4.6722046E-005 0.0  1.2528328E-007 -4.9130287E-005 0.0  1.1618477E-006 -9.9555658E-005 0.0  1.3845598E-006 -1.1953558E-004 0.0  1.1817184E-006 -1.1593977E-004 0.0 -5.4715516E-006  2.6375600E-005 0.0 -6.3552791E-007 -3.8977700E-005 0.0 -5.0638026E-007  3.4631656E-005 0.0 -6.6042182E-007 -3.7122582E-006 0.0 -4.5139468E-006  4.1403311E-005 0.0 -3.7751591E-006  4.4804616E-005 0.0  1.4367232E-007  5.7086793E-005 0.0  2.1058090E-007  5.7541838E-005 0.0  2.2730489E-007  3.6480392E-005 0.0 -9.5703971E-007 -9.9568445E-006 0.0 -6.7521173E-007 -9.8406483E-005 0.0 -1.9366428E-006 -9.4004656E-005 0.0 -2.5819282E-007 -1.0493821E-004 0.0 -2.2324295E-006 -1.0301754E-004 0.0 -1.9478898E-006  4.2865430E-005 0.0 -4.2254979E-006 -1.3530173E-005 0.0 -4.8438670E-007 -8.4940147E-005 0.0 -4.6696723E-006 -4.0556539E-006 0.0 -6.7718830E-007 -7.2560665E-005 0.0 -3.4387023E-007  4.4832216E-005 0.0  1.7581843E-006 -9.8558183E-005 0.0 -4.2541633E-006 -6.2229044E-005 0.0 -2.1422583E-007 -1.1156921E-004 0.0  2.0011542E-008 -1.0650155E-004 0.0 -1.2017839E-007 -4.1961590E-005 0.0 -1.3450084E-006 -2.8582256E-005 0.0 -1.0698410E-006 -5.9097985E-005 0.0  3.7789188E-006 -8.9395464E-005 0.0  6.0292856E-006 -1.0959190E-004 0.0  8.1393514E-007 -8.4166945E-005 0.0  5.6104686E-007 -3.0476422E-005 0.0 -6.2852998E-007 -3.3077946E-005 0.0 -1.9985833E-006  4.8622508E-005 0.0 -8.3065788E-007 -2.4258061E-005 0.0 -1.7578833E-006 -4.0743646E-005 0.0 -4.0063686E-007 -1.9155185E-005 0.0 -1.3281893E-006 -4.2725209E-005 0.0 -2.0091039E-006 -1.1330376E-004 0.0 -4.0046230E-007 -2.1907518E-005 0.0  4.5586997E-006 -1.1388136E-004 0.0 -1.0302591E-006 -4.9197979E-006 0.0 -9.6898828E-007 -1.0257542E-004 0.0 -6.1709382E-007 -7.2720952E-006 0.0  3.2486387E-006 -7.6083584E-005 0.0  1.5690084E-006 -1.2367309E-005 0.0 -4.2496359E-007 -3.6456965E-006 0.0  3.5984534E-007 -7.5834206E-006 0.0 -2.2752462E-007 -1.0884888E-004 0.0  1.2298767E-005 -7.5991848E-005 0.0 -1.4762267E-005  4.4871248E-005 0.0  6.7289196E-006 -3.5942293E-005 0.0 -4.1900919E-007 -1.7634988E-006 0.0 -2.1772070E-006  1.9492500E-006 0.0  1.7908611E-006 -5.3641193E-006 0.0  8.6726516E-006 -3.9265085E-005 0.0  1.7817659E-005 -5.0754797E-005 0.0  9.4637983E-006 -6.4513419E-005 0.0  4.0381336E-006 -3.0047431E-005 0.0 -2.3393387E-006 -2.9370064E-005 0.0  1.2132506E-005 -4.1228888E-005 0.0 -5.5005735E-007 -1.4764767E-005 0.0  2.3862152E-007 -1.1537133E-004 0.0  6.9015368E-007 -2.1694041E-005 0.0 -8.3926267E-007 -1.7145518E-005 0.0 -6.5502207E-007 -5.8703128E-005 0.0 -4.3414914E-007 -4.8871827E-005 0.0 -4.1262326E-007 -2.8584408E-005 0.0  4.0355615E-006 -1.1427265E-004 0.0 -2.0167296E-006 -7.3408320E-005 0.0 -4.5296999E-006 -7.0612757E-005 0.0 -4.0837383E-007  2.2009641E-006 0.0 -1.9629464E-006 -7.9633230E-005 0.0 -2.2569557E-006  7.5972965E-006 0.0  3.4032997E-008 -3.7881266E-005 0.0 -6.4978160E-007  9.0855292E-006 0.0  9.7436087E-006 -6.0689488E-005 0.0  6.6737746E-007 -1.2116138E-004 0.0 -1.7064768E-006 -7.7919747E-005 0.0 -7.5392495E-007 -1.2871577E-005 0.0 -1.3727007E-006 -5.3686840E-005 0.0 -1.8891631E-006 -5.4324239E-005 0.0 -1.6627801E-006 -3.6018799E-005 0.0 -1.3880786E-006 -6.0649332E-005 0.0 -1.2152535E-006 -4.2121777E-005 0.0 -2.1274345E-006 -9.2012095E-005 0.0  1.9017091E-006 -1.1697751E-004 0.0 -9.5097113E-007 -7.5273056E-005 0.0 -8.8849660E-007 -5.5481459E-005 0.0 -4.5226001E-007 -4.7095261E-005 0.0 -3.3329269E-007  8.5184941E-005 0.0 -5.2178733E-007 -9.8336886E-005 0.0 -6.5459997E-006  1.4781467E-005 0.0 -7.6559101E-007 -8.2953145E-005 0.0 -4.0738285E-007 -3.3889118E-005 0.0  3.0169232E-007 -3.0865850E-005 0.0 -1.0992513E-006 -6.7022680E-005 0.0 -5.9756466E-007 -9.0355880E-005 0.0  4.2878960E-008  6.8328985E-005 0.0 -3.9134295E-007 -4.2988147E-005 0.0 -6.8914385E-006  5.2278846E-005 0.0  1.7217030E-006 -9.1940351E-005 0.0 -2.5900001E-007  6.3822287E-005 0.0 -1.3524412E-007 -1.0381422E-004 0.0 -6.5454151E-008  6.4816084E-005 0.0 -9.0539946E-007 -2.8234056E-005 0.0 -1.5007971E-006  1.0551207E-005 0.0 -3.9285414E-007 -4.1596450E-005 0.0 -6.9790617E-007 -1.9209956E-005 0.0 -3.8005332E-007  1.4243475E-005 0.0 -3.1948117E-006 -4.6391361E-005 0.0  2.2996905E-007 -1.1071931E-004 0.0 -8.0338776E-007 -9.7807370E-005 0.0 -6.4659099E-007  1.4560598E-005 0.0  4.1524331E-006 -9.7803649E-005 0.0 -3.1430453E-006 -2.5690890E-005 0.0 -2.9211919E-006 -2.6449155E-005 0.0 -1.3923429E-006  5.0639279E-006 0.0 -1.1957022E-006 -4.2906838E-005 0.0 -4.8119042E-007 -2.4656611E-005 0.0 -1.3031667E-006  7.3556864E-006 0.0 -1.6058502E-006 -8.2532221E-005 0.0 -1.0478439E-006 -3.6392944E-005 0.0 -1.2047096E-006  7.9109397E-006 0.0  4.8484430E-006 -9.7028295E-005 0.0  9.1460847E-006 -8.8924673E-005 0.0  4.9962652E-006 -5.5873484E-005 0.0 -2.5557824E-005  6.4064092E-005 0.0 -1.2522332E-005 -1.3259573E-005 0.0  1.7160184E-005 -5.4248563E-005 0.0 -9.5127340E-007 -2.9291650E-006 0.0  2.8974335E-008 -4.9982644E-006 0.0  9.1198688E-006 -3.9788181E-005 0.0  1.1524850E-005 -7.7163578E-005 0.0  3.3206693E-006 -1.2388224E-005 0.0  1.5033088E-005 -4.4822073E-005 0.0 -1.5773624E-006 -8.7260883E-005 0.0 -3.2164962E-006 -6.9429932E-005 0.0 -7.8914425E-007 -1.0648838E-004 0.0 -1.6773561E-006 -6.0801017E-005 0.0 -3.7596012E-006 -5.8891316E-005 0.0 -1.5919832E-006  1.7815203E-006 0.0 -1.1448768E-006 -4.0030659E-005 0.0 -4.8518740E-007 -2.1455823E-005 0.0 -5.9119963E-007 -2.9420991E-005 0.0 -4.6913753E-007  9.4185882E-006 0.0 -2.7648654E-008 -2.9710313E-005 0.0 -7.2379111E-007 -3.9736958E-005 0.0 -2.2250044E-006 -6.8979502E-006 0.0 -9.4519455E-007 -9.0850990E-005 0.0 -1.2020448E-006 -4.7119980E-005 0.0 -1.7831389E-006 -5.0857914E-005 0.0  4.0464010E-007 -1.6431005E-005 0.0 -8.4143082E-007  8.5561247E-006 0.0 -1.0560627E-006 -2.6699682E-005 0.0 -4.1290572E-007  5.8634804E-006 0.0 -5.0688421E-008 -2.1917179E-005 0.0 -3.5304761E-007 -6.4868970E-005 0.0 -2.3569034E-007 -7.4387296E-005 0.0  3.1660219E-007  9.7086929E-006 0.0 -1.2351269E-006 -9.6154372E-005 0.0 -1.2692325E-006 -8.1840879E-005 0.0 -3.5108123E-007  1.0226212E-005 0.0 -1.3476321E-006 -8.3066281E-005 0.0 -2.0600086E-006 -5.9663160E-005 0.0 -2.7968826E-007 -1.0925869E-004 0.0  2.5174099E-006 -1.0945517E-004 0.0 -1.9177134E-006 -8.8432084E-005 0.0 -1.4722557E-006 -4.8622763E-005 0.0 -1.2546961E-006 -9.6997274E-006 0.0 -2.3931344E-006 -4.2693694E-006 0.0 -9.8804802E-007  8.5887921E-006 0.0 -2.2993841E-006 -8.9344475E-006 0.0 -2.6557847E-006 -1.7187248E-005 0.0 -8.7501178E-007 -2.5609639E-005 0.0  5.5177998E-006 -2.7013876E-005 0.0  1.2567677E-006 -1.1575593E-004 0.0 -5.2142398E-007 -8.8743435E-005 0.0 -2.6845072E-006 -7.5621995E-005 0.0 -2.5715550E-006 -1.6962517E-005 0.0 -9.8675294E-007 -5.7990337E-005 0.0 -2.0731411E-006 -4.6194320E-006 0.0  6.8611640E-006 -9.7067043E-005 0.0  8.6812404E-006 -3.5759747E-005 0.0 -7.2650792E-006  1.6000806E-005 0.0  2.2278782E-003 -3.4056407E-005 0.0  4.1968043E-003  2.1893960E-003 0.0  3.7899607E-003  1.2958392E-003 0.0  4.6142834E-003  2.9839431E-003 0.0  3.5472121E-003  1.7546055E-003 0.0  3.5177002E-003  3.9626526E-003 0.0  3.9996869E-003  3.6661871E-003 0.0  4.2401192E-003  2.3744392E-003 0.0  4.5999607E-003  2.6470008E-003 0.0  2.9090127E-003  8.0236361E-004 0.0  2.6282315E-003  3.5061377E-004 0.0  2.6798330E-003  2.8331281E-003 0.0  7.3601408E-004  4.2719713E-003 0.0  2.0997368E-003  4.3136001E-003 0.0  1.4107690E-003  4.3182538E-003 0.0  4.2077842E-003  1.9917836E-003 0.0  4.4783854E-003  2.2890660E-003 0.0  4.3286047E-003  3.3755955E-003 0.0  2.9351605E-003 -1.0391137E-004 0.0  3.9567963E-003  2.4836194E-003 0.0  3.5067050E-003  2.6372018E-003 0.0  1.0620360E-003  2.9178139E-003 0.0  1.7552875E-003  2.9156136E-003 0.0  3.3040047E-003  4.1790143E-004 0.0  4.4499242E-003  2.3685287E-003 0.0  4.4246465E-003  2.2597274E-003 0.0  3.2048030E-003  1.2712181E-003 0.0  2.8938887E-003  4.1791139E-003 0.0  2.4273845E-003 -5.1945117E-004 0.0  2.6389707E-004  3.2272166E-003 0.0  2.0488484E-003 -3.4088086E-004 0.0  2.5013965E-003  1.6748967E-004 0.0  2.5031154E-003 -5.6307288E-005 0.0  2.2691419E-003 -2.1853886E-004 0.0  2.5515946E-003 -2.6687799E-004 0.0  2.7349512E-003  1.6975116E-004 0.0  2.8840818E-003  4.2641508E-004 0.0  2.9598758E-003  1.8648628E-004 0.0  3.8178812E-003  2.0173644E-003 0.0  3.8420660E-003  1.8328153E-003 0.0  3.6653715E-003  1.6110549E-003 0.0  4.0163217E-003  2.0681907E-003 0.0  3.9489504E-003  1.7331159E-003 0.0  3.7705477E-003  1.4995585E-003 0.0  4.4141270E-003  2.3129547E-003 0.0  4.5003675E-003  2.5368290E-003 0.0  4.5133691E-003  2.4827497E-003 0.0  4.4324386E-003  2.5975154E-003 0.0  4.5731998E-003  2.7367452E-003 0.0  4.5687261E-003  2.6284194E-003 0.0  3.5871089E-003  9.5408708E-004 0.0  3.4640352E-003  1.1146733E-003 0.0  3.3161929E-003  8.4678220E-004 0.0  3.1962999E-003  1.0079242E-003 0.0  4.4808353E-003  3.2268128E-003 0.0  4.2922740E-003  2.9530006E-003 0.0  4.1492786E-003  3.0909837E-003 0.0  4.1592922E-003  2.6166003E-003 0.0  4.4189227E-003  2.8655518E-003 0.0  2.5647829E-003  4.2812110E-003 0.0  2.3036619E-003  3.6888590E-003 0.0  1.8739925E-003  3.7955511E-003 0.0  2.1169529E-003  3.1404206E-003 0.0  2.4613967E-003  3.2132430E-003 0.0  3.7324323E-003  2.5430299E-003 0.0  3.7025981E-003  3.0272375E-003 0.0  3.4607481E-003  3.0741927E-003 0.0  3.6812177E-003  3.5730230E-003 0.0  3.9194421E-003  2.9087211E-003 0.0  4.2910192E-003  2.1807106E-003 0.0  4.2703191E-003  2.2358316E-003 0.0  4.3817377E-003  2.3599196E-003 0.0  4.3173443E-003  2.3227971E-003 0.0  1.1079178E-003  4.2934538E-003 0.0  1.2673789E-003  3.7385899E-003 0.0  9.2162294E-004  3.7380032E-003 0.0  5.8423166E-004  3.8122782E-003 0.0  7.6720614E-004  3.2024849E-003 0.0  4.4225958E-004  4.2169859E-003 0.0  4.1916042E-003  3.5104994E-003 0.0  1.3891972E-003  2.8978479E-003 0.0  1.5520064E-003  3.4700378E-003 0.0  3.0201975E-003  2.7498261E-003 0.0  2.9450468E-003  3.3113988E-003 0.0  3.2231782E-003  3.1727175E-003 0.0  3.1694541E-003  3.8169561E-003 0.0  1.7977095E-003  4.3253902E-003 0.0  3.4260399E-003  6.5240968E-004 0.0  3.1582683E-003  6.1861594E-004 0.0  4.4852708E-003  2.4225785E-003 0.0  4.5191287E-003  2.5210158E-003 0.0  4.4522781E-003  2.4419757E-003 0.0  4.3569578E-003  2.3034284E-003 0.0  2.7903648E-003  6.0970464E-004 0.0  4.0101820E-003  2.1507815E-003 0.0  4.5679368E-003  3.1136175E-003 0.0  3.4162682E-003  1.5028244E-003 0.0  4.4229326E-003  2.2739936E-003 0.0  3.5181745E-003  1.3676943E-003 0.0  3.2546317E-003  2.6540333E-003 0.0  2.7143139E-003  3.7332802E-003 0.0  2.0136247E-003 -1.7785678E-004 0.0  2.1410555E-003 -5.5592227E-004 0.0  3.4547242E-004  3.9314275E-003 0.0  4.9686771E-004  2.9042506E-003 0.0  4.0073266E-003  1.5851401E-003 0.0  2.7851588E-003 -3.7100429E-004 0.0  4.0242171E-003  1.9802852E-003 0.0  2.2728123E-003  2.6954615E-003 0.0  4.2622333E-003  2.2277461E-003 0.0  4.2607547E-003  2.2201617E-003 0.0  3.8127407E-003  3.9934412E-003 0.0  4.5070412E-003  2.7485723E-003 0.0  4.6865107E-003  2.9374350E-003 0.0  3.8978930E-003  3.2817945E-003 0.0  4.3157721E-003  2.5686049E-003 0.0  4.1496211E-003  1.7767363E-003 0.0  2.7360593E-003 -2.7312711E-005 0.0  3.4297077E-003  3.5166524E-003 0.0  3.1850753E-003  1.1738213E-004 0.0  4.0581511E-003  2.2986604E-003 0.0  4.6454638E-003  2.8024886E-003 0.0  2.9741419E-003  1.0393343E-003 0.0  2.0394437E-003  2.6618592E-003 0.0  1.6079211E-003  3.9216339E-003 0.0  1.2379877E-003  3.2544789E-003 0.0  3.2528255E-003  4.2823384E-003 0.0  3.1257505E-003  7.3606985E-004 0.0  8.3564133E-004  2.7413002E-003 0.0  5.6872261E-004  3.3637213E-003 0.0  3.5347252E-004  4.3490348E-003 0.0  1.8424210E-003 -2.2904274E-004 0.0  2.1747832E-003 -8.0017885E-004 0.0  3.6019268E-004  2.7887815E-003 0.0  2.2921518E-003 -3.7870933E-004 0.0  2.7240779E-003  3.3750773E-003 0.0  4.1586049E-003  2.1279216E-003 0.0  4.4657883E-003  2.3704184E-003 0.0  4.5116207E-003  2.8643509E-003 0.0  4.0263832E-003  2.8338957E-003 0.0  4.1645533E-003  2.0880712E-003 0.0  1.8448268E-003  3.3255236E-003 0.0  3.0308622E-003  4.8427731E-004 0.0  4.5140247E-003  2.5198669E-003 0.0  4.0431326E-003  3.2219775E-003 0.0  3.5346256E-003  1.2952631E-003 0.0  3.3775344E-003  1.1985144E-003 0.0  4.2867874E-003  2.6800800E-003 0.0  2.9115913E-003  3.7110108E-003 0.0  2.9759344E-003  6.2305328E-004 0.0  1.0769388E-003  3.3762656E-003 0.0  1.1626932E-004 -2.4087836E-003 0.0  1.6987474E-004 -7.2944407E-004 0.0  4.9949366E-004  7.8336768E-003 0.0  4.8570605E-004  6.6575017E-003 0.0  2.4519657E-004  1.1700298E-003 0.0  2.0819575E-004  3.4167776E-004 0.0  3.2872041E-004  1.9245734E-003 0.0  5.3759987E-004  5.7918548E-003 0.0  5.5979701E-004  5.0745449E-003 0.0  3.7850467E-004  2.5940506E-003 0.0  6.2626024E-004  4.1271263E-003 0.0  5.3791489E-004  3.2211668E-003 0.0  1.1485311E-003  3.5394069E-003 0.0  1.1993135E-003  4.4405438E-003 0.0  6.4761495E-004  5.3862727E-003 0.0  6.7726311E-004  6.1583983E-003 0.0  3.1960142E-004 -1.3198789E-004 0.0  4.8787504E-004  2.9003539E-003 0.0  9.2297790E-004  8.8359036E-003 0.0  3.9506818E-004  2.2655425E-003 0.0  6.1117598E-004  7.1043934E-003 0.0  1.3587738E-004  7.9277343E-004 0.0  1.4498824E-004 -1.4284443E-003 0.0  2.8899258E-004  1.5708104E-003 0.0  7.4861615E-004  4.7182144E-003 0.0  7.5300340E-004  3.8075648E-003 0.0  7.0514030E-005  9.4940462E-003 0.0  5.3782015E-004 -3.3332213E-003 0.0 -8.6117419E-004 -3.0808491E-003 0.0  1.6522984E-003  9.1301611E-003 0.0 -1.7964072E-006  1.1037717E-004 0.0  3.2380772E-006  1.3503606E-004 0.0  3.6349668E-006  1.6041862E-004 0.0  3.2213467E-006  1.9142841E-004 0.0  2.3614468E-006  2.1166717E-004 0.0 -8.4599004E-007  2.2480638E-004 0.0 -5.4769965E-006  2.2920944E-004 0.0 -7.4132955E-005  9.6688413E-004 0.0 -1.5618685E-005  2.0636448E-004 0.0  6.2146229E-006  5.6374220E-005 0.0  2.1040978E-006  1.2274611E-004 0.0  2.1203609E-005 -1.8900368E-004 0.0 -2.1334404E-005  1.4679156E-004 0.0 -3.9400586E-004  4.8864983E-004 0.0  2.6657192E-005 -1.0928364E-004 0.0 -3.5323764E-004  1.2549585E-005 0.0  1.5774287E-003 -9.5366821E-004 0.0  7.1603798E-004 -3.2453460E-003 0.0  4.8617510E-006  1.4973696E-004 0.0  3.8923984E-006  1.7670605E-004 0.0 -9.0808087E-006  2.1343601E-004 0.0 -2.0754196E-005  8.3343054E-005 0.0  5.3553257E-004  1.2341384E-003 0.0  2.9989828E-004  9.6504177E-004 0.0 -1.3844755E-005  3.0397191E-005 0.0 -5.0508272E-005 -3.0332479E-004 0.0  2.0173055E-005 -7.0371117E-005 0.0  5.6147747E-006 -2.6860995E-005 0.0  1.6877366E-003  1.3545873E-004 0.0  4.9834153E-006 -4.9611287E-005 0.0  1.3694375E-006  2.2342970E-004 0.0  2.7994498E-006  2.0272813E-004 0.0 -2.9899620E-006  2.2593686E-004 0.0  2.3041490E-006 -8.9789545E-006 0.0  3.2365230E-006  2.6622801E-005 0.0  1.3757734E-005 -5.1345629E-005 0.0 -1.7803680E-004 -3.7640563E-004 0.0 -2.1306295E-006 -5.3691536E-005 0.0  4.5960629E-006  4.2546618E-007 0.0  2.3478754E-003  7.7077714E-004 0.0 -4.1204979E-003  3.9232450E-003 0.0 -4.1035273E-003  2.7038501E-003 0.0 -4.1394620E-003  1.1797148E-003 0.0 -3.4250129E-003 -1.1931921E-003 0.0 -3.8664052E-003  5.3770882E-003 0.0 -3.2121275E-003  6.6006588E-003 0.0 -1.1052438E-006 -1.0919239E-005 0.0 -3.8570449E-004  1.5658315E-004 0.0  5.8776355E-004  9.7187540E-004 0.0  3.7580727E-004  7.3463160E-004 0.0 -2.8966634E-004 -1.1781641E-004 0.0 -2.8120657E-004 -7.1451747E-005 0.0  1.0802839E-005 -4.3472555E-005 0.0 -1.8969037E-004 -4.6719249E-005 0.0  1.4543176E-006  8.2745841E-005 0.0 -2.6018659E-004 -1.1053868E-004 0.0 -2.5041682E-004 -5.9973192E-005 0.0 -2.2736359E-004 -9.9862496E-005 0.0 -2.1915731E-004 -4.8013368E-005 0.0 -1.9255891E-004 -8.5983758E-005 0.0 -1.8334811E-004 -3.6273266E-005 0.0 -2.0627927E-004  7.4994827E-007 0.0 -1.7107271E-004  7.9769574E-006 0.0 -1.9519241E-004  5.3723714E-005 0.0 -1.5777815E-004 -6.6341398E-005 0.0  1.4125836E-003  1.8481323E-003 0.0  3.9965443E-006  1.3040550E-006 0.0  1.2776008E-006 -4.0322375E-006 0.0 -1.5294234E-004  5.9885742E-005 0.0 -1.7702918E-004  1.1394033E-004 0.0  1.4281158E-003 -4.2944970E-004 0.0  1.4154192E-003 -1.3810503E-004 0.0  1.1610663E-003 -4.2646249E-004 0.0  1.0372184E-003 -1.0400700E-004 0.0  6.8633004E-004 -4.1367312E-004 0.0  6.3997667E-004 -7.5943930E-005 0.0  3.3795177E-004 -3.0802508E-004 0.0  3.8871496E-004 -7.4922091E-005 0.0 -3.2671518E-004  7.0365927E-004 0.0 -3.6470092E-004 -3.4869043E-004 0.0  2.6546594E-006  1.2529892E-004 0.0  1.1405119E-006  1.1878203E-004 0.0  4.9831726E-006  1.4028448E-004 0.0 -1.7497262E-005  1.8541518E-004 0.0  1.1031807E-005 -3.2698895E-005 0.0  1.9282333E-004 -1.8952080E-004 0.0  2.2993076E-004 -7.4387639E-005 0.0  1.1790538E-004 -1.3952389E-004 0.0  1.3654767E-004 -6.3938966E-005 0.0  1.9111466E-004 -1.4971556E-005 0.0  1.1825536E-004 -3.3101182E-005 0.0  1.4132439E-004  1.5231006E-005 0.0  9.6433752E-005 -1.4160609E-005 0.0  1.0708684E-004  2.1730911E-005 0.0  7.4963336E-005 -1.7929388E-006 0.0  7.8042231E-005  2.3595066E-005 0.0  5.8861898E-005  1.7942352E-006 0.0  1.0753725E-004  4.7853069E-005 0.0  5.9625591E-005  2.0297117E-005 0.0  4.5147995E-005  4.5924910E-006 0.0  4.4836457E-005  1.7265930E-005 0.0  3.5332288E-005  4.8381910E-006 0.0  3.4305208E-005  1.5704114E-005 0.0  2.7182931E-005  4.9043518E-006 0.0  2.5981610E-005  1.1790604E-005 0.0  2.1223545E-005  3.8207827E-006 0.0  1.9633029E-005  9.4952419E-006 0.0  1.6278460E-005  3.4128341E-006 0.0  1.5100719E-005  7.2585806E-006 0.0  1.2892103E-005  2.5634238E-006 0.0  3.4815176E-006 -3.7912102E-007 0.0 -1.3318737E-004  1.0753090E-004 0.0 -1.4965885E-004  1.7471181E-004 0.0  1.6242038E-006  1.1485880E-005 0.0 -5.5174627E-004 -3.3632662E-005 0.0  1.3592804E-003  5.7200098E-003 0.0  2.2484641E-003  2.0428632E-003 0.0  1.1981994E-005  5.5140577E-006 0.0  6.8698521E-005 -2.2596035E-005 0.0  2.8229157E-005 -1.2864667E-006 0.0 -3.2447273E-004 -1.7667973E-004 0.0 -6.4460986E-005 -2.2319922E-005 0.0  2.3167332E-005  1.6206040E-005 0.0  1.0594297E-005 -3.9663639E-005 0.0  7.9975853E-005 -9.4856914E-005 0.0  6.6225968E-005 -1.4368060E-004 0.0  1.0025694E-005  2.2087299E-006 0.0 -6.8467763E-004  2.8524173E-004 0.0  1.0958357E-005  2.4616148E-007 0.0 -1.0685078E-004  8.8864600E-003 0.0 -2.4713311E-005  8.0619807E-005 0.0  1.5810025E-004 -3.5428895E-004 0.0  4.4723124E-005 -9.8141260E-005 0.0  2.0731539E-005 -1.2794523E-004 0.0  9.2167347E-006  4.1558087E-006 0.0  1.0875775E-005  6.8106937E-006 0.0  8.4648751E-006  3.3124657E-007 0.0 -1.0326575E-004  1.5661457E-004 0.0 -9.9206003E-005  2.1456420E-004 0.0 -1.6580184E-004 -1.0925650E-004 0.0 -1.3535740E-004 -8.8781664E-005 0.0  8.7015394E-006 -1.5259222E-006 0.0 -1.3990024E-004 -1.3290233E-004 0.0 -1.0864644E-004 -1.0639692E-004 0.0 -1.2086098E-004 -6.8469235E-005 0.0 -9.2115429E-005 -8.4720496E-005 0.0 -1.0254542E-004 -4.9063586E-005 0.0 -7.5718802E-005 -6.3063609E-005 0.0 -8.7025660E-005 -3.1106707E-005 0.0 -6.0372728E-005 -4.5875004E-005 0.0 -7.0741753E-005 -1.3516371E-005 0.0 -7.3460355E-005 -9.3962389E-005 0.0 -7.9386419E-004  3.0719016E-003 0.0 -2.4824744E-004 -1.4814552E-004 0.0 -1.0670665E-004 -1.4124438E-004 0.0  8.2209033E-006  5.1416540E-006 0.0  9.2725202E-006  7.7792173E-006 0.0  5.7729546E-005  3.0559243E-005 0.0  4.4787862E-005 -5.5443239E-006 0.0  1.7521239E-005  2.9123577E-007 0.0  4.0989268E-006 -1.8030521E-005 0.0  6.4254908E-006 -3.8062156E-005 0.0 -8.3362395E-006 -4.3299849E-005 0.0  1.2902584E-005 -3.8429385E-005 0.0  6.7588460E-006 -1.0244915E-006 0.0  3.0575262E-006 -2.3361561E-004 0.0  2.9365650E-005 -1.3542806E-004 0.0  2.4699485E-005 -8.6563873E-005 0.0  1.6243918E-005 -5.9998549E-005 0.0 -1.0218185E-004 -3.4876566E-004 0.0 -2.6961563E-004 -3.8626281E-004 0.0 -5.5994450E-006  9.5431540E-005 0.0 -1.2354780E-004 -1.6964816E-004 0.0  2.0698749E-006 -6.4427777E-007 0.0  2.2464580E-004  4.3429006E-005 0.0 -4.3736117E-004 -2.6186970E-004 0.0  1.5616952E-005 -8.9074710E-005 0.0 -3.8431394E-006 -9.9420162E-005 0.0  3.7416841E-005 -7.3320116E-005 0.0 -1.8003632E-005 -1.4986124E-004 0.0  2.3487475E-006  1.8189748E-006 0.0 -3.6731726E-005 -9.8743623E-005 0.0 -1.3517141E-003  7.6652540E-003 0.0  6.6422056E-006  4.8203331E-007 0.0 -4.8916680E-005 -2.5465351E-005 0.0 -4.3493231E-005 -4.8424394E-005 0.0 -1.6186064E-004  2.4597409E-004 0.0 -7.8494460E-005  3.0217352E-004 0.0 -4.9159876E-005  2.4838585E-004 0.0 -1.9355280E-005  3.0373190E-004 0.0 -9.5468273E-005 -1.7243850E-004 0.0  2.1926711E-003  6.0163449E-003 0.0  6.3810148E-006 -2.4924358E-006 0.0  8.7964950E-006 -3.6300690E-006 0.0  5.1886045E-006 -1.8554403E-006 0.0  7.0884957E-006  5.8117903E-006 0.0  7.2456900E-006  8.1719853E-006 0.0  9.8137954E-006  1.1127539E-005 0.0 -5.9035700E-005  2.2874663E-006 0.0  2.6092114E-003  1.4159546E-003 0.0  1.2629524E-005 -7.2917138E-005 0.0  2.5148140E-005 -5.8692571E-005 0.0 -1.0988166E-004 -2.0733157E-004 0.0 -1.4729213E-004 -1.9356179E-004 0.0 -3.4441194E-005 -3.2480672E-005 0.0 -2.9097271E-005 -4.9039969E-005 0.0 -3.2559202E-005 -6.5195025E-005 0.0 -2.1152610E-005 -6.1089180E-005 0.0 -1.8464939E-005 -4.8620736E-005 0.0 -2.2186328E-005 -7.5875984E-005 0.0 -1.2532905E-005 -5.8123640E-005 0.0 -9.3290448E-006 -4.9657560E-005 0.0 -1.6518941E-005 -4.0110171E-005 0.0 -7.3845687E-006 -4.1315562E-005 0.0 -3.0746097E-006 -4.7589176E-005 0.0 -1.2142143E-006 -4.1746864E-005 0.0 -4.9817081E-006 -3.6202652E-005 0.0  5.8377177E-004  5.3751937E-003 0.0 -4.2560606E-003  1.9247565E-003 0.0 -3.7960290E-003  2.0586829E-003 0.0  1.6450013E-003 -1.5247479E-003 0.0 -3.9964783E-003  3.1525379E-003 0.0  9.8953741E-004  1.7086511E-003 0.0  1.1681642E-003  1.4406842E-003 0.0  2.0388637E-003  3.9914919E-004 0.0  1.5401684E-003  3.5484243E-004 0.0 -3.2873802E-003  6.0473570E-003 0.0 -3.0938041E-003  5.0687022E-003 0.0 -2.2636409E-003 -1.6665132E-003 0.0 -1.4534072E-003 -2.2343082E-003 0.0 -2.7317506E-003 -9.5820387E-004 0.0 -1.4609786E-003 -1.0825988E-003 0.0 -2.2108588E-003 -1.7707038E-004 0.0 -1.1587356E-003 -3.4670700E-004 0.0 -4.8704459E-004 -8.1582316E-004 0.0 -1.5528653E-003  1.5948839E-004 0.0 -3.9780065E-003  1.4153683E-005 0.0 -3.8077147E-003  4.7732386E-003 0.0 -3.5804539E-003  3.9887309E-003 0.0 -6.4606847E-005 -1.3520527E-004 0.0 -4.1001334E-004  3.0078380E-004 0.0 -3.3045939E-004  3.8577595E-004 0.0 -7.1182873E-004 -3.2585275E-004 0.0  3.7269290E-006  1.5987951E-004 0.0  5.3835170E-006  1.6114777E-004 0.0  3.8826608E-006  1.6201095E-004 0.0 -5.6054144E-006  2.3357958E-004 0.0 -9.9053726E-006  2.2675361E-004 0.0 -1.1637196E-005  2.0145231E-004 0.0  3.3614001E-006  2.1235435E-004 0.0  6.4811767E-006  2.1464409E-004 0.0  2.7263907E-006  2.0272480E-004 0.0  5.7538587E-006  2.0619370E-004 0.0 -2.2715033E-005  1.2097613E-004 0.0 -1.9834032E-005  5.7756753E-005 0.0 -3.8639106E-005  7.9917028E-005 0.0  3.1378958E-006  1.8995606E-004 0.0  6.9717020E-006  1.9100682E-004 0.0  4.1743265E-006  1.8756261E-004 0.0 -1.7491081E-006  2.2699690E-004 0.0 -3.7975322E-006  2.3168135E-004 0.0  7.0957052E-007  2.2616036E-004 0.0  1.5343440E-006  2.2999537E-004 0.0 -2.3108500E-008  2.2666387E-004 0.0 -4.6514353E-007  2.3386836E-004 0.0  3.8889842E-006  1.2742152E-004 0.0  3.7103918E-006  1.3309333E-004 0.0 -1.0311488E-005  6.3701902E-006 0.0 -9.2660530E-005 -4.3745733E-007 0.0  5.8522349E-006 -4.0979154E-006 0.0  7.8749246E-006 -5.8898848E-006 0.0 -2.2668266E-004  8.7477350E-005 0.0  3.0403301E-003 -1.0541304E-003 0.0  4.9606357E-003  1.7545640E-003 0.0  3.5317132E-003  7.1073407E-003 0.0  4.1166971E-003 -7.3758504E-004 0.0  5.1342913E-003  2.5441509E-003 0.0  4.6056438E-003  6.5641371E-003 0.0  4.2988858E-003  1.0925089E-003 0.0  4.4746880E-003  4.7015809E-003 0.0  4.8807222E-003  3.7495835E-003 0.0  4.6196279E-003  3.5148814E-004 0.0  4.9267877E-003  2.9967758E-003 0.0  4.6868117E-003  4.2490605E-003 0.0  4.9967369E-003  3.2886720E-003 0.0  6.8059820E-006  3.3618977E-006 0.0  7.0075296E-006  1.1189043E-005 0.0  5.8007481E-006  8.1115804E-006 0.0  9.6491926E-006  1.5053584E-005 0.0  8.0570717E-004  7.2150262E-004 0.0  4.2907761E-004  4.3894981E-004 0.0 -1.5062750E-005 -8.1607235E-005 0.0 -4.0394116E-005 -7.5684912E-005 0.0 -1.3071200E-004 -2.3286880E-004 0.0 -1.6564323E-004 -2.1784359E-004 0.0 -8.0875801E-005 -2.0001805E-004 0.0 -6.8987629E-005 -1.7101835E-004 0.0  7.3752791E-004  6.1574041E-003 0.0  2.0093187E-006 -4.5785193E-005 0.0  2.9042308E-006 -4.1361092E-005 0.0  1.6698263E-006 -5.1088477E-005 0.0  1.8137058E-004  5.0379121E-004 0.0  2.3811844E-004  3.1330272E-004 0.0 -1.5317518E-004 -2.6184186E-004 0.0 -1.9062010E-004 -2.4822660E-004 0.0 -7.6914712E-006  8.0186882E-005 0.0  2.2731911E-006  9.0689447E-005 0.0  4.4710732E-006  8.1163340E-005 0.0  1.2187023E-005  9.4587122E-005 0.0  1.3652150E-005  7.7083023E-005 0.0  2.6655474E-005  9.8781610E-005 0.0  2.4231306E-005  7.3077667E-005 0.0  4.1478095E-005  9.2478093E-005 0.0  3.7825279E-005  6.6327767E-005 0.0  2.2962136E-005  5.3559800E-005 0.0  3.8272589E-005  1.3004045E-004 0.0  5.9437902E-005  1.1753482E-004 0.0  5.7374598E-005  1.6954001E-004 0.0  3.0860907E-005  4.6499793E-005 0.0  2.1842805E-005  3.7622450E-005 0.0  6.4456264E-006  1.4464358E-005 0.0  9.4353715E-007 -2.0165526E-006 0.0  4.3513127E-005 -6.2152632E-005 0.0  2.8257996E-005 -4.8563470E-005 0.0  1.2430724E-005  1.4330109E-005 0.0  5.5281263E-006  1.0164862E-004 0.0  5.8822241E-006  4.0917751E-006 0.0  1.1347632E-006  5.0581955E-006 0.0 -3.0993347E-004 -3.1763699E-005 0.0 -1.8935747E-004 -2.0315991E-004 0.0 -2.2133203E-004 -2.2692768E-004 0.0 -2.1028498E-004 -2.7489449E-004 0.0 -2.4670365E-004 -2.4559959E-004 0.0  9.0013311E-005  1.4512753E-004 0.0 -3.7101123E-004 -1.7797058E-004 0.0  7.5066141E-005  9.7144956E-005 0.0 -5.0281691E-005 -1.9705431E-004 0.0 -4.4191006E-005 -1.7223857E-004 0.0 -6.4553266E-005 -1.4956336E-004 0.0 -4.0500310E-005 -1.4872549E-004 0.0 -5.8352514E-005 -2.2788605E-004 0.0 -1.8879866E-005 -6.4734563E-005 0.0 -3.3529318E-005 -5.6981029E-005 0.0 -5.9250019E-005 -6.9315601E-005 0.0  1.1659866E-005 -6.0929802E-005 0.0  5.2970344E-006 -4.7457629E-005 0.0 -3.8028896E-005  3.7368398E-004 0.0  3.5274550E-005  3.3558015E-004 0.0  1.4300602E-005  1.0858048E-004 0.0  2.5352636E-005  2.7134940E-004 0.0  9.4174857E-006  2.0095441E-005 0.0 -1.2425110E-004 -3.7143593E-005 0.0 -2.5740694E-005 -1.6680119E-004 0.0 -2.0376069E-005 -1.4432688E-004 0.0 -4.0650963E-005 -1.3000160E-004 0.0 -1.9173192E-005 -1.2696432E-004 0.0 -3.4865895E-005 -1.1335521E-004 0.0 -1.7675499E-005 -1.0951004E-004 0.0 -4.8948642E-006 -1.2075805E-004 0.0 -3.2566726E-006 -1.0500900E-004 0.0 -6.0401114E-006 -1.5600546E-004 0.0 -1.1992882E-004 -2.6408693E-004 0.0 -3.7892740E-005 -7.7719117E-005 0.0  1.3959210E-005  4.4453831E-005 0.0  9.5407630E-006  7.6704583E-003 0.0  5.6376306E-006  2.3514391E-006 0.0 -1.3147596E-005 -2.2914850E-005 0.0  2.9226792E-003  2.0437005E-003 0.0  1.0853391E-005 -3.9459414E-005 0.0 -4.0445594E-005 -1.9605560E-004 0.0 -1.2206501E-004 -1.7415022E-004 0.0 -1.0602460E-005  6.1773139E-005 0.0 -1.2165001E-004 -2.7837265E-004 0.0 -2.2310418E-004 -2.1821228E-004 0.0  4.3134311E-005 -4.4305030E-005 0.0  2.9945306E-005 -3.9948707E-005 0.0  1.7173134E-005 -4.6174376E-005 0.0  1.8699129E-005 -3.6274599E-005 0.0  2.7906985E-005 -3.2398908E-005 0.0  1.7357352E-005 -2.9942682E-005 0.0  2.4383561E-005 -2.4419621E-005 0.0  1.5393072E-005 -2.3984853E-005 0.0  2.1002164E-005 -1.9278142E-005 0.0  1.3206013E-005 -1.9494517E-005 0.0  1.7421633E-005 -1.4420377E-005 0.0  1.1002869E-005 -1.5295941E-005 0.0  1.4440054E-005 -1.1389543E-005 0.0  9.0830109E-006 -1.2368912E-005 0.0  2.5506042E-005 -1.3687320E-005 0.0  3.5790277E-005 -2.5019839E-005 0.0  1.1475563E-005 -8.4684897E-006 0.0  7.8613196E-006 -9.5684277E-006 0.0  1.7044841E-005 -7.8778629E-006 0.0  3.8803383E-006 -6.8479671E-005 0.0  3.5992872E-006 -5.8466233E-005 0.0 -1.1114086E-004 -1.0723519E-004 0.0  1.0815063E-005 -4.2061965E-006 0.0  6.3648077E-006  1.9616656E-006 0.0  4.7611797E-005  5.5535710E-005 0.0  3.5685131E-005  3.7542493E-005 0.0  4.7302154E-006 -5.9735935E-006 0.0  4.0648427E-006 -4.3860568E-006 0.0 -6.7763664E-004  6.7426658E-003 0.0 -1.5931800E-003  6.1301419E-003 0.0  6.5542597E-006 -5.2301986E-005 0.0  1.6399136E-006 -5.5514124E-005 0.0 -2.8095936E-005  2.3295097E-005 0.0  8.2763070E-004  2.2093343E-004 0.0 -2.4847564E-004 -2.9477631E-004 0.0 -2.8401737E-004 -2.6604888E-004 0.0 -2.6446602E-004 -2.2021124E-004 0.0 -3.0286190E-004 -2.3120000E-004 0.0 -2.8376909E-004 -1.9432055E-004 0.0  1.3009606E-003 -1.0526587E-003 0.0  1.1746285E-004  1.1562646E-004 0.0  4.8343879E-003  2.5409238E-003 0.0  4.6687003E-003  1.9997620E-003 0.0  5.2127937E-003  3.1756036E-003 0.0  5.0875420E-003  5.4651043E-003 0.0  5.2453607E-003  4.8410058E-003 0.0  5.3426067E-003  3.6974720E-003 0.0  3.5637955E-003  5.5168760E-003 0.0  3.7837791E-003 -1.2550300E-004 0.0  2.5971858E-003 -2.0358952E-003 0.0  5.3580357E-003  4.2604525E-003 0.0  8.2496758E-006 -5.6406630E-005 0.0  3.5383631E-006 -6.0556577E-005 0.0 -3.9500175E-004  8.2950304E-004 0.0 -3.1742104E-004 -2.7956631E-004 0.0 -3.3016412E-004 -2.3359901E-004 0.0  8.9877791E-006 -4.8255702E-005 0.0 -8.3068678E-005  1.0741583E-004 0.0 -5.8857140E-005  1.8330286E-004 0.0  5.0965254E-006 -1.2433630E-005 0.0 -3.0177483E-004  2.9017454E-004 0.0  1.4801279E-005  3.1039264E-005 0.0  1.9753604E-005  2.7623050E-005 0.0 -2.4159723E-004  5.1416761E-004 0.0  5.0215236E-006  2.6730831E-006 0.0  4.8460362E-006  3.9354793E-006 0.0 -4.6471538E-005 -4.2184311E-005 0.0 -7.8128625E-004  5.3394803E-003 0.0  7.7566153E-006 -4.5777558E-005 0.0 -2.3646180E-003  7.0928159E-003 0.0 -1.9001314E-005 -9.5654921E-005 0.0 -6.1506551E-006 -9.1241411E-005 0.0  5.0341055E-006 -9.5543050E-005 0.0  3.4982113E-006 -8.5963403E-005 0.0 -7.4951495E-006 -8.0421006E-005 0.0  1.9065652E-006 -7.5950883E-005 0.0 -3.2457802E-005  2.2304138E-004 0.0 -1.4181551E-004 -2.9960594E-004 0.0  2.6919523E-006 -5.7692371E-006 0.0  6.5461343E-005 -5.4967883E-005 0.0  9.4285131E-006  3.4013221E-005 0.0  1.9541598E-004  7.7703883E-004 0.0 -2.0827262E-005  6.3084696E-004 0.0 -7.9982456E-006 -7.1640521E-005 0.0 -2.0912371E-004 -3.1708635E-004 0.0  3.1330549E-005  1.6089319E-004 0.0  4.1205275E-004  2.5503960E-004 0.0  2.3529577E-004  1.6323743E-004 0.0  4.5362386E-003  1.5551007E-003 0.0  4.8226730E-003  1.1033148E-003 0.0  9.9112396E-006 -7.9604359E-005 0.0  7.7771892E-006 -7.1640952E-005 0.0 -6.1101175E-006  1.0665454E-004 0.0  5.4865013E-006  1.8279344E-005 0.0 -3.2806231E-005 -2.1586322E-004 0.0 -3.9022947E-005 -2.4989173E-004 0.0  7.6788917E-004 -1.5526920E-003 0.0  4.7272655E-004 -8.5442191E-004 0.0 -1.0643903E-004 -2.9519032E-004 0.0 -8.7689863E-005 -2.6403043E-004 0.0 -2.1554512E-004 -1.8794996E-004 0.0 -1.9650733E-004 -1.5788856E-004 0.0 -3.5352276E-004 -2.6732804E-004 0.0  2.3227735E-003  7.3109108E-003 0.0 -5.8090563E-005 -7.1924780E-005 0.0  1.8423390E-003  1.4779351E-003 0.0  1.3823627E-003  1.0384130E-003 0.0 -3.5325005E-003  3.1874020E-003 0.0 -2.9120627E-003  3.3691254E-003 0.0 -3.6639299E-003  1.3609997E-003 0.0 -2.9856872E-003  1.6598811E-003 0.0 -1.6889279E-005 -1.4150765E-007 0.0 -2.4374214E-004 -4.6628378E-004 0.0 -2.4123168E-005 -4.4504020E-005 0.0 -3.5099615E-005 -3.1331623E-005 0.0  4.5000351E-006  1.3486555E-005 0.0  5.3192192E-006  1.3261995E-006 0.0  5.5940736E-006  8.3955493E-007 0.0 -2.7114211E-004 -2.3392138E-005 0.0 -2.9792197E-004  1.6120945E-005 0.0  8.9102891E-005  2.2172957E-004 0.0 -4.9665344E-005 -1.1763786E-004 0.0 -4.6069670E-005 -1.0180914E-004 0.0 -2.0999434E-006 -6.1371826E-005 0.0 -3.6418939E-004 -2.3059892E-004 0.0  9.0746296E-005  7.0477300E-005 0.0 -7.1677754E-006 -1.8236652E-004 0.0  9.3088371E-006 -5.3095550E-005 0.0  1.0022301E-005 -6.1257825E-005 0.0  4.8132960E-006  5.0825330E-007 0.0  4.8959246E-006  5.6941876E-008 0.0  4.3300593E-006  4.8171345E-008 0.0 -2.7980342E-004 -1.4880821E-004 0.0 -7.3946639E-005 -4.5250267E-005 0.0 -2.5896385E-004  2.6095918E-005 0.0 -2.8453023E-004  7.2973537E-005 0.0 -2.4556904E-004  1.3890747E-004 0.0 -3.0932739E-004  1.1536021E-004 0.0 -2.7941361E-004  1.7406308E-004 0.0  1.0357849E-004  6.9937354E-003 0.0  6.9326449E-006  1.9960029E-004 0.0  1.1415677E-005  2.0406846E-004 0.0  6.1399043E-006  1.5449849E-004 0.0  7.1139139E-006  1.4571189E-004 0.0 -5.9150199E-006  2.2984426E-004 0.0 -1.0532389E-005  2.3960687E-004 0.0 -2.1220796E-005  2.3051080E-004 0.0  6.9559874E-006  1.3641126E-004 0.0  1.1385640E-005  1.3548640E-004 0.0  3.9790707E-006 -3.4401633E-007 0.0  4.7986979E-006 -6.7054883E-007 0.0  3.7574382E-006 -9.3947612E-007 0.0 -1.7163518E-004 -2.9355901E-004 0.0 -1.6058722E-004 -3.3371359E-004 0.0  1.0529778E-005 -4.1505190E-005 0.0  2.4358445E-003  1.6375518E-003 0.0  2.1227118E-003  1.2126277E-003 0.0 -1.7688837E-003  4.3248173E-003 0.0 -1.2373060E-003  2.3135440E-003 0.0  1.0737493E-005 -1.6769272E-004 0.0  9.0336948E-006 -1.4732449E-004 0.0 -2.1422254E-004  3.7124389E-004 0.0 -2.5364386E-005 -1.8972971E-004 0.0 -5.7852243E-006 -2.0089380E-004 0.0 -8.7449068E-005 -2.3269145E-004 0.0 -8.1385363E-005 -1.1636515E-004 0.0  1.2724176E-003  3.1564173E-004 0.0  2.7734323E-006 -5.5189586E-005 0.0  1.3708003E-005  2.3111670E-005 0.0  9.9247831E-006 -2.9182560E-005 0.0 -2.0602065E-004 -1.3170188E-004 0.0 -1.3437197E-004  2.3957399E-005 0.0 -2.5830773E-004 -1.8647505E-004 0.0 -1.8937311E-006 -5.9271639E-005 0.0  7.5415006E-006  2.4168885E-005 0.0  3.2982513E-006  1.6461329E-005 0.0  7.5409596E-006 -1.9348887E-005 0.0  1.3275057E-005  5.6862270E-005 0.0  3.1996117E-004  5.6969798E-003 0.0 -4.0665131E-004 -2.6759733E-004 0.0 -5.6512641E-004 -1.6027357E-004 0.0 -3.8008484E-004 -1.3434971E-004 0.0 -2.5892939E-004 -1.0298948E-004 0.0 -3.4742784E-004 -7.0759609E-005 0.0  4.9218612E-006 -4.3812873E-005 0.0  6.3915421E-006 -4.1284671E-005 0.0  3.6943055E-006 -3.8443894E-005 0.0  7.9172767E-006 -3.8766563E-005 0.0  8.4255041E-006 -4.0495451E-005 0.0  9.9314533E-006 -3.9136170E-005 0.0  7.6366953E-006 -4.3214546E-005 0.0  6.9655979E-006 -3.6287176E-005 0.0  2.8621400E-006 -3.4728761E-005 0.0  9.7578060E-006 -4.0152687E-005 0.0  1.0844182E-005 -3.9367345E-005 0.0  9.5586233E-006 -4.1192792E-005 0.0 -2.4842068E-003  8.3501756E-004 0.0 -1.6782622E-003  8.5876599E-004 0.0 -1.0845860E-003  2.7701135E-004 0.0 -1.1532175E-003  7.2188278E-004 0.0 -8.2901762E-004  3.1512094E-004 0.0 -7.1394065E-004  3.7556382E-005 0.0 -2.9865725E-004 -1.4869175E-004 0.0  1.5283381E-004  2.3582139E-004 0.0 -8.7096340E-005  4.9349303E-004 0.0  6.3192100E-006  1.2686669E-004 0.0  1.4574826E-005  1.2676051E-004 0.0  9.4520064E-005  4.4641651E-004 0.0 -2.4161733E-004 -3.4502260E-004 0.0 -2.8747265E-004 -3.1842889E-004 0.0 -3.3252177E-004 -1.9749918E-004 0.0 -1.5561714E-004 -1.6183834E-004 0.0 -1.6039217E-005 -3.5266818E-005 0.0 -4.6974356E-006 -1.3537179E-004 0.0  6.8400615E-006 -1.2905148E-004 0.0  7.6401309E-006 -1.1462613E-004 0.0  1.3333699E-005 -8.9446790E-005 0.0  1.7516394E-005 -9.9752195E-005 0.0  4.5258560E-006 -9.5774394E-006 0.0  1.2289677E-005 -4.0361702E-005 0.0  2.2606911E-005 -2.7540739E-004 0.0  5.1122215E-005  4.0162004E-005 0.0  3.6783393E-005  2.5480530E-005 0.0  2.9022482E-005  2.5226214E-005 0.0  1.3193287E-005  1.5755975E-004 0.0  1.8409086E-005  1.4962219E-004 0.0  2.3872232E-005  1.8525940E-004 0.0  4.4435040E-005  2.0498129E-004 0.0  1.0075775E-005  1.6937005E-004 0.0  1.2342121E-003  6.7490537E-003 0.0 -3.8814630E-005 -1.0081518E-005 0.0 -2.4883232E-005 -1.8827563E-005 0.0  6.2971725E-005  6.4417838E-005 0.0  1.1049116E-005 -4.8672308E-005 0.0  1.0316503E-005 -3.6947723E-005 0.0  1.1886762E-004  3.0855281E-004 0.0  1.0329305E-005 -4.5584684E-005 0.0  7.4171473E-006 -2.8973655E-005 0.0  3.8080545E-006 -2.7286990E-005 0.0 -6.6736955E-006 -2.1143671E-005 0.0  1.9617388E-006 -3.0061236E-005 0.0  3.1802870E-003  5.9345578E-003 0.0  1.6343152E-005  1.9125476E-005 0.0  1.5432942E-005  1.3444687E-005 0.0 -1.5118568E-007 -6.8271824E-005 0.0 -2.9619937E-004 -1.7543470E-004 0.0  8.5036354E-006  4.2585834E-005 0.0  5.3996039E-006  3.6376393E-005 0.0 -6.7505777E-006  2.6159307E-004 0.0  1.2217032E-005  2.5007157E-004 0.0  2.6082435E-005  2.3436693E-004 0.0  1.2201096E-005 -3.7376076E-005 0.0  1.1518333E-005 -5.4877228E-005 0.0  1.3498094E-005 -6.6604327E-005 0.0 -3.6475884E-004  9.7231156E-005 0.0 -3.3798501E-004  1.5881956E-004 0.0  1.9304591E-005 -1.2146080E-004 0.0  2.9367345E-006 -1.2294639E-005 0.0 -1.2476014E-005 -3.3216030E-005 0.0 -2.0627097E-004  1.6556784E-004 0.0  3.0071836E-004  3.7581548E-005 0.0  5.9963049E-006 -4.4975159E-005 0.0  9.6376791E-006 -3.4301193E-005 0.0  5.8177191E-006 -3.2748856E-005 0.0  7.9261212E-006 -2.3460168E-005 0.0 -4.3167272E-005  1.6193317E-005 0.0 -6.4054906E-005  3.4167782E-005 0.0 -4.6045697E-005  4.8173493E-005 0.0 -6.5270855E-005  7.4164714E-005 0.0 -9.1992154E-005  4.4554026E-005 0.0  5.4845931E-005  7.8136436E-005 0.0 -1.8442199E-005 -8.5525473E-005 0.0  4.6687713E-006 -2.2450836E-005 0.0  5.7068187E-006 -1.5417467E-005 0.0  6.3727836E-006 -7.5222281E-006 0.0  1.0134728E-005 -6.7984115E-006 0.0  5.6420666E-005 -3.4928776E-005 0.0  1.3088007E-005 -4.7286041E-006 0.0  1.7921417E-005 -3.4750236E-006 0.0  2.2301584E-005 -5.0830952E-006 0.0  2.4108477E-006 -4.3247990E-006 0.0  3.1889135E-006 -3.1133096E-006 0.0  8.5960658E-005 -4.5133016E-005 0.0  4.8472115E-005 -2.3444277E-005 0.0  2.2101260E-005  2.2978348E-005 0.0  1.2479982E-005  9.8215428E-006 0.0 -7.1366226E-006 -2.9740646E-005 0.0 -1.4496409E-005 -2.4274210E-005 0.0  2.6662066E-005  3.1607513E-005 0.0  7.8125861E-005 -1.9792153E-004 0.0  8.7914692E-005 -6.6334624E-005 0.0  1.4591772E-004  6.3130466E-005 0.0  5.2480169E-005 -1.2164175E-005 0.0  3.6871860E-005 -1.5092300E-005 0.0  3.3064275E-005 -1.1103438E-005 0.0  2.8988826E-005 -1.8444990E-005 0.0 -5.7510733E-006 -6.9667564E-005 0.0 -9.9714437E-006 -5.9567447E-005 0.0 -1.8194326E-005 -5.0487435E-005 0.0 -8.0219819E-006 -5.1860953E-005 0.0  5.8584548E-005 -7.4881331E-005 0.0  1.3293088E-006 -7.9964748E-005 0.0  7.1537617E-005  3.9224349E-005 0.0  2.0539653E-005 -1.7925932E-004 0.0 -9.2523090E-005 -7.5184730E-005 0.0 -1.1316065E-004 -5.2419105E-005 0.0 -1.3813358E-004 -9.0427394E-005 0.0  1.6713391E-005 -5.2654892E-005 0.0 -6.5767524E-005 -9.2884111E-005 0.0 -6.6229597E-007 -5.6778983E-005 0.0  3.9486236E-005 -3.3687236E-005 0.0  1.3310289E-005 -2.1126249E-006 0.0  4.9143659E-006  1.4876804E-006 0.0  4.5664425E-006  1.4894819E-006 0.0  3.3847707E-006  1.5414392E-006 0.0  3.1470507E-006  3.2408300E-006 0.0  1.9880288E-006  3.4642343E-006 0.0  3.0483368E-006  5.4342016E-006 0.0  4.1419524E-006  4.6192091E-006 0.0  4.1887809E-006  7.6377208E-006 0.0  2.7890460E-006  7.4328577E-006 0.0  4.2500126E-006  2.6957193E-006 0.0  8.1665955E-007 -1.0027723E-006 0.0  1.6355956E-006 -1.4492380E-006 0.0  1.7861277E-006 -2.3760144E-006 0.0  2.5643524E-006 -1.5712466E-006 0.0  2.8550345E-006 -2.3774193E-006 0.0  4.9899269E-006  1.0360824E-005 0.0  5.7247087E-006  5.7725375E-006 0.0  7.7764803E-006  1.7292864E-006 0.0 -3.6137640E-005 -1.9008588E-005 0.0  2.9463926E-006 -5.1041506E-007 0.0  1.4746682E-006  1.7851031E-006 0.0  7.4813992E-006  2.7094299E-006 0.0  1.1377830E-005 -1.5892288E-006 0.0  1.3003211E-006 -2.9671836E-006 0.0  1.3587405E-005  2.5471177E-007 0.0  4.5285644E-006 -2.8978992E-006 0.0  6.5160158E-006  1.1382790E-006 0.0  5.8017498E-006 -9.0834584E-008 0.0  5.3671744E-006 -8.5914567E-007 0.0  4.3978082E-006 -1.5560102E-006 0.0  2.2198209E-005 -5.7924262E-007 0.0  3.4020993E-005 -3.4275332E-006 0.0  2.5194933E-005 -1.5234229E-004 0.0  2.1484764E-005 -9.8846807E-006 0.0  1.7087646E-005  1.1606575E-005 0.0  2.7084081E-005 -7.7713085E-006 0.0  1.0219762E-005 -5.1224507E-005 0.0  2.4981906E-005 -9.5575373E-005 0.0 -1.5286779E-005 -2.5932296E-004 0.0 -3.5303776E-005 -2.8266914E-004 0.0 -6.3582434E-005 -2.7478013E-004 0.0  2.0877518E-005 -7.8426574E-005 0.0 -7.7424704E-005 -3.3227143E-004 0.0 -1.3800714E-004 -3.5603388E-004 0.0  1.1910905E-005 -4.7645400E-005 0.0 -2.2167525E-004 -3.7862722E-004 0.0  1.0282152E-005 -4.1661924E-005 0.0 -3.9510246E-004 -3.1368896E-004 0.0 -3.1303863E-004 -3.7788561E-004 0.0  1.0729461E-005 -3.9231795E-005 0.0  1.0410842E-005 -4.0298087E-005 0.0 -4.3923778E-004 -1.8987761E-004 0.0  3.1283358E-006 -7.4671364E-006 0.0  1.3686344E-005  8.7263535E-006 0.0 -3.2236622E-004 -3.2966389E-004 0.0 -3.0991712E-004 -1.6668229E-004 0.0  1.5244228E-006 -6.6842144E-006 0.0  1.6574551E-003  7.1141262E-004 0.0  9.9500277E-004  5.2226506E-004 0.0 -3.0849221E-003  4.2540152E-003 0.0 -2.2803096E-003  3.6323200E-003 0.0 -2.0459006E-003  2.3135572E-003 0.0 -3.4455372E-003  2.5062630E-003 0.0 -3.3944619E-003 -4.8333528E-004 0.0 -3.3286504E-003  1.2808128E-004 0.0 -2.6284381E-003  5.3135079E-003 0.0 -7.6141574E-006 -6.3888281E-005 0.0  2.0946711E-006 -3.2243272E-006 0.0 -5.0662560E-005  1.2707950E-004 0.0 -3.6627309E-005  1.4675403E-004 0.0 -1.2177205E-004  3.3688053E-004 0.0  4.6871629E-004  1.3555216E-004 0.0  1.6937162E-006  7.9605537E-006 0.0 -2.3970781E-005 -3.5865697E-005 0.0  2.3564651E-005 -6.9567899E-004 0.0  4.6040450E-006  6.3381663E-007 0.0 -3.7137917E-004  2.1021753E-004 0.0 -3.4444685E-004 -1.8389211E-004 0.0  1.4123849E-004  9.0091321E-005 0.0  1.4708673E-006 -5.4001163E-006 0.0  3.7333853E-006 -2.0780812E-006 0.0  5.6240881E-006 -2.1110947E-004 0.0 -3.1287453E-004 -2.0170137E-004 0.0 -5.9247814E-004  1.8152298E-003 0.0 -7.9993466E-004  1.0996212E-003 0.0 -2.5425483E-005  2.0488068E-004 0.0 -3.5223910E-004  5.6652569E-005 0.0 -3.9650948E-004 -2.0816095E-004 0.0  3.3273019E-006 -1.4794195E-005 0.0 -3.2735435E-004  4.7333569E-005 0.0  3.2592850E-006 -1.4912419E-006 0.0 -8.2542730E-005 -1.4476611E-004 0.0  1.0579065E-005  6.3926385E-005 0.0 -1.7749367E-004 -1.2045572E-004 0.0  1.2747350E-006 -7.0697954E-007 0.0 -1.8757115E-005 -1.4785430E-005 0.0 -3.2502627E-004 -5.0575401E-006 0.0 -1.2756425E-004 -3.1247294E-005 0.0 -2.0807376E-004  2.7294409E-004 0.0  1.3034432E-006  2.5918821E-006 0.0  9.8336490E-004 -4.6796812E-004 0.0 -2.7164220E-003  2.3526070E-003 0.0 -5.5839183E-004  4.0209335E-004 0.0 -3.1644389E-005 -9.8640555E-005 0.0 -4.1005410E-004 -1.6375013E-004 0.0  1.1585207E-005 -4.0691347E-005 0.0  6.9480294E-006 -3.2254446E-005 0.0 -3.6078800E-006 -5.4404141E-005 0.0  2.5949903E-006 -9.3923588E-007 0.0  8.2103988E-004  1.0212649E-003 0.0  8.0991791E-006 -4.3058467E-004 0.0  2.9408132E-005  1.8170352E-005 0.0 -6.0568058E-005 -1.3359060E-004 0.0  7.9480355E-006  1.1798694E-004 0.0  4.4650082E-006  1.1466977E-004 0.0 -3.9596418E-007  1.0824404E-004 0.0  4.3031898E-006  8.9782685E-008 0.0 -4.5382528E-005 -6.5048629E-005 0.0 -6.7329653E-004  4.6533685E-005 0.0  5.6295805E-006  1.2729437E-004 0.0 -2.6047550E-006  2.3498114E-004 0.0  1.6195300E-006  2.2641420E-004 0.0  1.0155164E-005  2.3155527E-004 0.0  7.0077104E-006  1.6880710E-004 0.0 -1.2510713E-005  2.3041323E-004 0.0  1.2427967E-006  2.3416065E-004 0.0 -3.3444435E-005  1.1954032E-004 0.0  6.2442317E-006  2.0926887E-004 0.0  1.8690694E-005  2.1866367E-004 0.0  5.4151479E-006  1.8519138E-004 0.0  8.4896778E-006  1.7851600E-004 0.0  1.4239743E-005  1.9002257E-004 0.0  4.3688575E-003  6.4798080E-004 0.0  4.7899265E-003  1.8484475E-003 0.0  4.6278311E-003  1.3472084E-003 0.0 -9.3940487E-005 -3.1816229E-005 0.0 -2.4119228E-004 -2.0345600E-004 0.0  2.7715366E-004  6.5348902E-003 0.0 -4.3282728E-007 -3.7207105E-005 0.0 -2.0103254E-004 -3.4881493E-004 0.0 -1.2730698E-005 -6.8156828E-005 0.0  5.9578528E-004  3.5331367E-004 0.0  6.5645462E-006  4.2859583E-005 0.0 -6.6394107E-005 -1.1623699E-004 0.0 -2.1416915E-005 -2.3320278E-004 0.0 -3.9646814E-006  7.5359485E-005 0.0  3.3959816E-006 -8.3092217E-007 0.0  3.2784610E-005  2.0733610E-004 0.0 -1.7375751E-004 -1.7473959E-004 0.0 -2.9266324E-005 -8.9208353E-005 0.0 -8.8129324E-004 -6.9877815E-005 0.0  1.6602563E-005 -7.5918957E-005 0.0 -1.2098906E-004 -3.2227222E-004 0.0 -2.3841199E-004 -7.1349447E-006 0.0 -4.9340943E-004 -8.2691704E-005 0.0 -4.6637502E-004  6.3676449E-003 0.0  4.5696247E-006  2.3612634E-006 0.0  1.1267161E-005 -3.8727453E-005 0.0  9.4501100E-004  7.9361935E-003 0.0 -5.5462658E-004 -2.3249715E-003 0.0  2.7856794E-004 -1.9295866E-003 0.0  2.4712257E-003 -1.6975015E-003 0.0  3.1814194E-003 -1.1774167E-003 0.0  9.2005166E-006 -4.2775107E-005 0.0 -1.1614456E-004  1.9210413E-005 0.0 -1.1364590E-004  6.6578689E-005 0.0 -4.5520197E-004 -1.4028450E-003 0.0 -1.8971058E-005 -1.0927828E-005 0.0 -1.4783503E-004 -2.3274474E-005 0.0  6.2634374E-005  8.7676551E-004 0.0  1.1539877E-005  2.1796386E-004 0.0  2.8787110E-005 -1.6936913E-004 0.0  1.1349722E-005  2.5579622E-005 0.0  4.9498976E-006  5.8174880E-006 0.0  2.3357032E-006  5.5732581E-006 0.0  3.4370950E-006  1.0031961E-005 0.0 -3.1449491E-004 -1.8435052E-004 0.0  1.6007484E-005 -5.4267784E-005 0.0  6.6627757E-005  4.7213959E-005 0.0  4.9399642E-006 -6.5967504E-005 0.0 -5.0661765E-005 -3.1855587E-005 0.0  9.3341459E-006 -3.4979360E-005 0.0  1.9511862E-005 -6.3705370E-005 0.0 -8.5269232E-006 -4.1138303E-007 0.0  3.9622101E-006 -1.9493004E-007 0.0 -6.7834414E-005 -2.4977828E-004 0.0  1.7716792E-006  2.4575472E-004 0.0 -7.0474787E-004  1.2140092E-004 0.0 -1.6567899E-005  2.1814922E-004 0.0 -1.8324655E-006 -3.3337522E-005 0.0 -1.3791231E-004 -5.4128390E-005 0.0 -1.4243379E-005 -7.5892293E-005 0.0  1.7297417E-006  8.4364171E-005 0.0 -4.2256652E-004 -6.1161777E-005 0.0 -2.8532643E-004 -3.5114261E-004 0.0 -2.3866727E-004 -5.6957524E-005 0.0  3.5707427E-003 -5.2392347E-004 0.0  4.7854452E-006  1.2118203E-004 0.0  6.9553542E-006  1.7124492E-004 0.0 -1.7434949E-004 -1.4271137E-004 0.0 -7.9995850E-005 -3.0138986E-004 0.0 -2.6563497E-005  5.4689042E-005 0.0  1.4318665E-005 -1.1081075E-004 0.0 -2.4239692E-004  2.0796544E-004 0.0  4.7601355E-006  1.1485255E-004 0.0  1.8867657E-005  1.6336680E-005 0.0  2.3965048E-004 -4.3676029E-004 0.0 -1.1265009E-004 -2.1125635E-005 0.0  1.9948631E-004  1.1045835E-004 0.0  1.4282454E-003 -1.8803801E-003 0.0  3.1647041E-005 -1.2008878E-004 0.0 -3.7828556E-004 -2.7339491E-004 0.0 -3.7518451E-003  2.2992923E-003 0.0  1.4698521E-003 -5.7138970E-004 0.0  5.0412118E-003  4.5115008E-003 0.0  4.8370089E-003  2.1942070E-003 0.0  1.8698188E-003  2.4469594E-004 0.0  1.5173503E-003  8.9530934E-005 0.0  2.3676638E-003  9.4549986E-004 0.0  2.4174453E-003  1.0901283E-003 0.0  1.7057755E-003  2.0466551E-003 0.0  2.5364360E-003  2.0426665E-003 0.0  4.1091055E-003  5.3623735E-004 0.0  7.0561977E-004  1.4666385E-003 0.0  5.9291484E-004  1.3182886E-003 0.0  5.0062071E-003  3.5753373E-003 0.0  4.9769293E-003  2.8152199E-003 0.0  4.6301597E-003  4.3818201E-003 0.0  2.8827271E-003  1.7756808E-003 0.0  4.1680059E-003  5.2019140E-003 0.0  4.4674562E-003  5.7532830E-003 0.0  1.7359784E-003  5.7524324E-003 0.0  1.9205492E-003  1.9551965E-003 0.0 -2.7388130E-003  7.4213960E-003 0.0  4.0757795E-003  7.2038610E-003 0.0  4.2426510E-003  7.5848479E-004 0.0 -3.5748094E-003  4.3342139E-003 0.0 -3.5623905E-003  3.5541337E-003 0.0  5.0316472E-003  3.4599011E-003 0.0 -3.7757443E-003  1.5507508E-003 0.0  4.9434743E-003  5.0369765E-003 0.0 -3.8728387E-003  6.4585560E-004 0.0  4.4306103E-003  1.4639955E-003 0.0 -3.4022464E-003 -6.3160568E-004 0.0  3.9687467E-003  2.1519789E-004 0.0  4.8341244E-003  2.3204105E-003 0.0  1.0641052E-003  5.4679792E-003 0.0  3.8231634E-003  5.1434252E-003 0.0  2.2895601E-006  1.9493230E-005 0.0  1.8969145E-005 -8.4362044E-005 0.0 -7.2078098E-005 -1.3055296E-004 0.0 -1.9248653E-004 -7.0926710E-005 0.0  1.4923179E-004  1.4177184E-004 0.0 -1.9052284E-005 -2.9486179E-005 0.0  3.0341265E-004  1.1149607E-004 0.0  3.9558025E-003 -7.5821767E-005 0.0  5.0391854E-003  3.8075783E-003 0.0  4.8963558E-003  2.7018212E-003 0.0  4.9616419E-003  4.2767042E-003 0.0 -1.3758749E-004  8.3345630E-004 0.0 -3.3598706E-004  6.0946492E-004 0.0 -3.9473060E-004  3.7001093E-004 0.0  1.7515493E-004 -1.0012654E-003 0.0  2.6404615E-005  1.3392035E-004 0.0 -7.6748118E-005  1.7350195E-005 0.0 -9.0818912E-006 -3.3638513E-005 0.0 -1.0383686E-003  6.2041864E-004 0.0 -3.3307108E-005  1.9410682E-004 0.0 -2.5144961E-005  1.8216313E-004 0.0 -5.2725987E-005 -8.9415766E-005 0.0  1.0995592E-005 -3.9858961E-005 0.0 -1.9377766E-005  6.3220317E-005 0.0 -1.5195175E-005  4.4825080E-005 0.0 -1.8015324E-004 -3.2780380E-004 0.0 -1.4586316E-006  2.1576324E-004 0.0  2.8766508E-006  1.1736020E-004 0.0  3.6993907E-006  1.5206741E-004 0.0  2.2679972E-006  1.1520463E-004 0.0 -7.9409054E-006  2.0916449E-004 0.0  3.6367553E-006  1.9371097E-004 0.0 -2.4572628E-005  9.5882040E-005 0.0  1.9366936E-006  1.1003312E-004 0.0  2.3160757E-006  1.1227312E-004 0.0 -3.8599342E-006  1.0515765E-004 0.0  3.6067673E-006  1.7771249E-004 0.0  3.9052988E-006  1.8777385E-004 0.0 -5.9197383E-006  2.1766763E-004 0.0  4.0362827E-006  1.4734273E-004 0.0 -3.8081781E-006  2.1592530E-004 0.0  5.1330293E-006  1.3883881E-004 0.0  1.3729028E-009  2.1401519E-004 0.0  4.1115755E-006  1.3213858E-004 0.0  2.9574177E-006  1.2595304E-004 0.0  5.4705995E-006  2.0562172E-004 0.0 -1.7575340E-005  4.0025890E-005 0.0  4.2448510E-006  1.6268139E-004 0.0 -2.5479268E-005  1.2801448E-004 0.0 -1.3921968E-005  1.9712254E-004 0.0 -1.4012655E-005  1.8782233E-004 0.0  4.4731187E-006  1.7299489E-004 0.0 -1.7114638E-005  1.5553137E-004 0.0 -1.7985920E-005  1.5908205E-004 0.0 -2.0711239E-005  1.7143591E-004 0.0 -3.5347994E-004 -3.0115444E-004 0.0 -1.4064266E-005 -4.5215161E-005 0.0 -1.6089294E-003  1.1078158E-003 0.0  2.7704614E-005  1.1619064E-004 0.0  6.9704397E-006 -1.0414228E-004 0.0 -2.1949377E-004 -1.6437231E-004 0.0  7.1263152E-007 -5.7898145E-007 0.0 -1.0413857E-005 -1.3175321E-005 0.0  2.6644197E-006  1.2362207E-005 0.0  1.2237176E-005 -4.4898490E-005 0.0 -2.7102697E-004 -1.6888023E-004 0.0  4.8295091E-006  8.8628858E-007 0.0 -4.6809574E-006 -4.9970911E-005 0.0  1.0128403E-005 -3.9973087E-005 0.0  7.2330699E-006  7.2075878E-005 0.0 -2.3656548E-004 -1.7562593E-004 0.0  3.1073242E-003  1.9671629E-003 0.0 -2.8985095E-004  2.1815322E-004 0.0  1.0453426E-005 -3.9841432E-005 0.0  6.6149523E-004  7.2072172E-003 0.0 -2.3527130E-005 -2.5005915E-005 0.0  1.2676381E-005  1.7754052E-005 0.0  9.0267069E-006  2.4066535E-004 0.0 -2.2143483E-004  3.6647487E-005 0.0  4.4709452E-005  2.4431401E-005 0.0 -3.3567297E-004  9.7732876E-005 0.0 -5.8945239E-005 -1.0288381E-004 0.0  3.0604298E-006 -1.1626608E-006 0.0  1.1134584E-006  1.8469848E-006 0.0  7.0390449E-005  2.5360294E-004 0.0  6.0828500E-006  2.7737699E-005 0.0 -4.3430132E-006 -5.6006601E-005 0.0 -3.6138699E-004 -2.0044283E-004 0.0 -2.1275962E-004  6.2261359E-004 0.0 -3.2903385E-004  2.1360100E-004 0.0  5.1771044E-006  2.1325980E-005 0.0  2.4303330E-006  1.4314512E-005 0.0  1.6418230E-005  1.7727149E-004 0.0  8.0955263E-006 -4.1721986E-005 0.0 -1.2690976E-004 -4.3473783E-006 0.0  1.9889062E-005 -9.1307736E-005 0.0  4.3769897E-006  6.6569250E-007 0.0  1.8291482E-005 -1.3773841E-004 0.0  5.0987118E-006 -1.9026120E-004 0.0 -4.4796210E-004  4.0647305E-004 0.0  3.2932023E-007 -5.3884771E-005 0.0 -4.2398194E-005 -8.8275714E-005 0.0 -9.6445342E-005 -3.1994430E-004 0.0  4.8543685E-003  2.2592095E-003 0.0  5.0552576E-003  3.3231550E-003 0.0  4.7803177E-003  4.8193873E-003 0.0  5.0361946E-003  4.0121233E-003 0.0  3.9674860E-003  5.9992189E-003 0.0 -4.2052520E-004 -1.2758010E-004 0.0 -1.0588742E-004 -2.3907153E-004 0.0 -2.4087290E-003  5.7815663E-003 0.0  1.0144140E-005 -4.0302483E-005 0.0 -1.7940705E-004  6.9847297E-004 0.0  1.4183258E-005  1.3877998E-004 0.0  2.6110747E-006  9.4162204E-006 0.0  9.1896471E-006 -4.4154469E-005 0.0  1.9003325E-006 -5.3444120E-005 0.0  2.3940417E-005  1.6323055E-004 0.0 -3.3087265E-003  8.0305982E-004 0.0 -1.8724724E-004 -1.2211603E-004 0.0 -6.3326255E-004 -7.4656061E-005 0.0 -1.1189400E-005  4.1415565E-005 0.0 -9.2573557E-006 -2.1833367E-004 0.0 -7.3492698E-006 -5.6648150E-005 0.0  2.0804153E-003  7.9742145E-004 0.0  1.8780686E-003  1.0638981E-003 0.0  1.9793360E-006 -1.0595810E-006 0.0  2.5907073E-004  5.2633048E-003 0.0 -5.4618726E-007 -6.3790387E-005 0.0 -2.1844746E-003  1.3420621E-003 0.0 -4.7365255E-005 -7.8037437E-005 0.0  1.2332886E-004  1.6669865E-004 0.0 -1.4904592E-004 -5.9355937E-005 0.0 -2.4405853E-006 -8.5554823E-006 0.0 -2.9343564E-005  2.1650140E-006 0.0  3.3316535E-003  2.1095588E-003 0.0
        </DataArray>
        <DataArray type="Float64" Name="magnetic flux density im" NumberOfComponents="3" format="ascii">
  4.6230085E-004 -1.3385646E-003 0.0  1.4653763E-004 -7.9457132E-004 0.0 -5.8875781E-004  1.8949455E-005 0.0  8.1587520E-004  6.0747150E-004 0.0  2.9883852E-005 -1.7028907E-005 0.0 -7.0074841E-006 -4.0667460E-005 0.0  2.2861102E-006 -4.3883983E-005 0.0  1.6114445E-005 -1.1368716E-003 0.0  9.5057801E-005  1.0142545E-004 0.0  5.3769937E-005  1.4113201E-004 0.0  2.2094474E-004 -6.1286991E-004 0.0  1.1205113E-004  4.6978766E-005 0.0  1.0874168E-004  6.8343967E-005 0.0  2.5376575E-004 -7.5261502E-004 0.0  1.5657233E-005 -2.1426910E-005 0.0  5.5765621E-007  7.9784911E-007 0.0 -8.5493548E-008  6.2480041E-008 0.0 -2.3575011E-007  1.6538995E-006 0.0 -1.7325223E-005 -3.0797225E-004 0.0 -1.4037375E-003 -1.7918875E-003 0.0  2.6187633E-007  2.9394962E-005 0.0  1.9676245E-005 -1.3552031E-003 0.0 -6.6790976E-004 -1.2108875E-004 0.0 -7.3348632E-004 -2.4480403E-004 0.0 -7.1781356E-004 -3.7443530E-004 0.0 -6.9159533E-004 -4.8734076E-004 0.0 -6.6172714E-004 -5.7634232E-004 0.0 -6.0663565E-004 -6.4544582E-004 0.0 -5.6135835E-004 -7.3082890E-004 0.0 -4.9995100E-004 -7.7351490E-004 0.0 -4.2935078E-004 -8.2318933E-004 0.0 -3.5710933E-004 -8.5935607E-004 0.0 -2.7521415E-004 -8.8621214E-004 0.0 -1.9143468E-004 -9.0180201E-004 0.0 -1.1601922E-004 -9.0181075E-004 0.0 -3.7500090E-005 -8.9703445E-004 0.0  3.1394717E-005 -8.7380396E-004 0.0  8.6456101E-005 -8.3056312E-004 0.0  4.7716887E-004  8.0787855E-004 0.0  1.2167445E-004  8.3799039E-004 0.0 -1.0490196E-004  7.8915888E-004 0.0 -2.9792330E-004  7.0800009E-004 0.0 -4.1832566E-004  6.2033899E-004 0.0 -4.7959121E-004  5.1298963E-004 0.0 -5.3243264E-004  4.2149866E-004 0.0 -5.7810984E-004  3.1072855E-004 0.0 -5.7018825E-004  2.5145537E-004 0.0 -5.9782562E-004  1.6778089E-004 0.0 -5.9627361E-004  1.1638161E-004 0.0  3.2834104E-005 -3.5862571E-005 0.0  3.4403441E-005 -5.0108427E-005 0.0  3.4288207E-005 -6.5600676E-005 0.0  3.2412688E-005 -8.4126615E-005 0.0  3.2588085E-005 -1.0395450E-004 0.0  3.1967431E-005 -1.2747820E-004 0.0  3.0650648E-005 -1.4932075E-004 0.0  3.0176963E-005 -1.7545037E-004 0.0  2.5519650E-005 -2.0432060E-004 0.0  2.6260143E-005 -2.3160158E-004 0.0  2.5511642E-005 -2.5247149E-004 0.0  2.1438100E-005 -2.7209346E-004 0.0  1.8054929E-005 -2.8194953E-004 0.0  1.6884911E-005 -2.9579821E-004 0.0  1.4548875E-005 -3.0545250E-004 0.0  1.1216881E-005 -3.1200626E-004 0.0  1.0555057E-005 -3.2209877E-004 0.0  7.1076439E-006 -3.2209992E-004 0.0  6.4170093E-006 -3.2844728E-004 0.0  3.4808669E-006 -3.2360650E-004 0.0  4.3968647E-006 -3.2442741E-004 0.0  2.3076077E-006 -3.3099602E-004 0.0  2.9442632E-006 -3.2985869E-004 0.0 -8.5922662E-007 -3.1422945E-004 0.0  2.0536618E-006 -3.1665530E-004 0.0 -1.6043387E-006 -3.0985937E-004 0.0 -3.6970295E-006 -3.0559341E-004 0.0 -3.0621541E-006 -3.0131386E-004 0.0 -3.5950818E-006 -2.9695222E-004 0.0 -1.7650541E-006 -2.8653716E-004 0.0 -4.4703481E-006 -2.8471489E-004 0.0 -3.3845842E-006 -2.7504604E-004 0.0 -4.0937204E-006 -2.7341273E-004 0.0 -4.6071588E-006 -2.6308199E-004 0.0 -4.8579524E-006 -2.5795362E-004 0.0 -6.0598340E-006 -2.5241773E-004 0.0 -4.1435123E-006 -2.4604342E-004 0.0 -4.7633839E-006 -2.4026278E-004 0.0 -5.2364993E-006 -2.3349972E-004 0.0 -5.7784889E-006 -2.2564200E-004 0.0 -4.5329537E-006 -2.2200573E-004 0.0 -4.8375663E-006 -2.1809570E-004 0.0 -5.1855167E-006 -2.0910328E-004 0.0 -6.0209457E-006 -2.0372258E-004 0.0 -4.7199158E-006 -2.0001426E-004 0.0 -5.1115450E-006 -1.9510416E-004 0.0 -5.2769817E-006 -1.8904723E-004 0.0 -5.7294777E-006 -1.8177000E-004 0.0 -4.8156958E-006 -1.8036488E-004 0.0 -5.8739007E-006 -1.7276930E-004 0.0 -6.0711494E-006 -1.6751362E-004 0.0 -5.8095849E-006 -1.6135538E-004 0.0 -4.6796125E-006 -1.6044519E-004 0.0 -5.2149904E-006 -1.5474682E-004 0.0 -5.0838603E-006 -1.4859693E-004 0.0 -5.2738323E-006 -1.4346243E-004 0.0 -4.1225662E-006 -1.4358184E-004 0.0 -4.6203470E-006 -1.3688922E-004 0.0 -5.0641925E-006 -1.3236090E-004 0.0 -3.8384971E-006 -1.3190485E-004 0.0 -4.8622953E-006 -1.2464089E-004 0.0 -3.9209137E-006 -1.2492244E-004 0.0 -4.0314646E-006 -1.1988776E-004 0.0 -4.2031719E-006 -1.1522612E-004 0.0 -4.0903832E-006 -1.1183699E-004 0.0 -4.3342213E-006 -1.0833090E-004 0.0 -3.7229683E-006 -1.0843975E-004 0.0 -3.8614493E-006 -1.0188085E-004 0.0 -4.0706924E-006 -9.8952884E-005 0.0 -2.8839953E-006 -1.0058827E-004 0.0 -3.7071008E-006 -9.4710764E-005 0.0 -3.0788259E-006 -9.5429719E-005 0.0 -3.2014588E-006 -9.0960106E-005 0.0 -3.1322090E-006 -8.8254695E-005 0.0 -3.1168975E-006 -8.6300119E-005 0.0 -3.2159577E-006 -8.3532142E-005 0.0 -2.9445764E-006 -8.2935426E-005 0.0 -3.1766147E-006 -7.8555612E-005 0.0 -3.3095692E-006 -7.5788817E-005 0.0 -2.8491456E-006 -7.6094367E-005 0.0 -2.9597918E-006 -7.1530556E-005 0.0 -2.9066182E-006 -7.0628425E-005 0.0 -2.3806119E-006 -7.0300383E-005 0.0 -2.6147710E-006 -6.6669844E-005 0.0 -2.1319287E-006 -6.6216794E-005 0.0 -2.3944275E-006 -6.3546441E-005 0.0 -1.9302850E-006 -6.5034473E-005 0.0 -2.1029019E-006 -6.1211071E-005 0.0 -2.0695722E-006 -5.9907010E-005 0.0 -1.9561490E-006 -6.0902127E-005 0.0 -2.0498509E-006 -5.7178531E-005 0.0 -1.5886317E-006 -5.5567201E-005 0.0 -1.4492639E-006 -5.5153681E-005 0.0 -1.0107431E-006 -5.3946485E-005 0.0 -9.5741704E-007 -5.1479278E-005 0.0  8.3168589E-007 -5.3818056E-005 0.0  1.9492732E-006 -4.9920494E-005 0.0  2.4006369E-006 -4.7484214E-005 0.0  3.5415845E-007 -4.4683612E-005 0.0 -6.3179533E-006 -5.2797012E-005 0.0  5.2470484E-007 -5.4341222E-005 0.0  2.8346017E-006 -4.7456952E-005 0.0  4.0797052E-005 -1.0881898E-003 0.0  7.7130406E-005 -1.1077183E-003 0.0  1.1464460E-004 -1.0996257E-003 0.0  1.5471640E-004 -1.0925793E-003 0.0  2.0088240E-004 -1.0884632E-003 0.0  2.4252833E-004 -1.0808366E-003 0.0  2.9742107E-004 -1.0592349E-003 0.0  3.4319583E-004 -1.0646639E-003 0.0  3.7642499E-004 -1.0304275E-003 0.0  4.4058842E-004 -1.0191893E-003 0.0  4.8682348E-004 -9.8272819E-004 0.0  5.3731300E-004 -9.3801780E-004 0.0  6.0753313E-004 -9.0015555E-004 0.0  6.4778912E-004 -8.4800915E-004 0.0  6.7992467E-004 -7.6993193E-004 0.0  7.0605259E-004 -6.9480414E-004 0.0  7.5967235E-004 -6.1865009E-004 0.0  7.6942624E-004 -5.2185422E-004 0.0  7.8405466E-004 -4.2165539E-004 0.0  8.1224899E-004 -3.2843041E-004 0.0  7.6980554E-004 -2.1947630E-004 0.0  7.2433937E-004 -1.2313453E-004 0.0  6.6572683E-004 -2.0786226E-005 0.0  5.9160676E-004  4.4246218E-005 0.0  5.0510691E-004  9.8144735E-005 0.0  4.3581946E-004  1.3953113E-004 0.0  3.8008206E-004  1.4487874E-004 0.0  3.1287275E-004  1.6809531E-004 0.0  2.6777574E-004  1.5666254E-004 0.0  2.2554298E-004  1.5407543E-004 0.0  1.9665677E-004  1.4412676E-004 0.0  1.6380386E-004  1.3198413E-004 0.0  1.4661767E-004  1.3204572E-004 0.0  1.3269038E-004  1.2080501E-004 0.0  1.0821729E-004  1.1027658E-004 0.0  8.3621511E-005  1.1557464E-004 0.0  7.5847690E-005  1.2611965E-004 0.0  6.7435743E-005  1.3528848E-004 0.0  2.4980983E-004 -5.9972793E-004 0.0  2.7428927E-004 -5.8105917E-004 0.0  3.0613806E-004 -5.4674126E-004 0.0  3.3040651E-004 -5.3007306E-004 0.0  3.4304995E-004 -4.9032809E-004 0.0  3.6938604E-004 -4.6556853E-004 0.0  3.8171134E-004 -4.1963602E-004 0.0  3.9453899E-004 -3.9050082E-004 0.0  4.0161969E-004 -3.4477019E-004 0.0  3.9769097E-004 -3.0535481E-004 0.0  4.0028320E-004 -2.6127737E-004 0.0  4.0516073E-004 -2.1942007E-004 0.0  3.8290943E-004 -1.8676372E-004 0.0  3.6860875E-004 -1.4826879E-004 0.0  3.5997712E-004 -1.0750151E-004 0.0  3.3960862E-004 -7.9822317E-005 0.0  3.1408351E-004 -5.1911365E-005 0.0  2.9297594E-004 -2.8586924E-005 0.0  2.6732478E-004 -1.1425318E-005 0.0  2.4962557E-004  9.4647061E-006 0.0  2.2499844E-004  1.6763601E-005 0.0  2.0493356E-004  2.5447700E-005 0.0  1.8593352E-004  3.9072977E-005 0.0  1.6994020E-004  4.1825881E-005 0.0  1.5151321E-004  4.6054430E-005 0.0  1.3550363E-004  4.5705675E-005 0.0  1.2342236E-004  4.9151561E-005 0.0  1.0958867E-004  5.2267867E-005 0.0  1.2760678E-004  7.3989206E-005 0.0  1.3829119E-004  6.7911048E-005 0.0  1.5110504E-004  7.2335402E-005 0.0  1.7894335E-004  7.5612017E-005 0.0  1.9578817E-004  6.7314068E-005 0.0  2.2194755E-004  5.6301718E-005 0.0  2.4680611E-004  5.0479346E-005 0.0  2.7575698E-004  3.6698153E-005 0.0  3.0676210E-004  2.2009537E-005 0.0  3.4388959E-004  1.3460094E-006 0.0  3.7529914E-004 -2.5351151E-005 0.0  3.9612934E-004 -6.9352268E-005 0.0  4.4382691E-004 -9.1558431E-005 0.0  4.6930735E-004 -1.3706450E-004 0.0  4.7951000E-004 -2.0077116E-004 0.0  4.8943539E-004 -2.4806415E-004 0.0  5.0746974E-004 -3.0356222E-004 0.0  5.0906780E-004 -3.5859563E-004 0.0  4.9107665E-004 -4.1252900E-004 0.0  4.7726315E-004 -4.6300814E-004 0.0  4.6081966E-004 -5.1111513E-004 0.0  4.4459745E-004 -5.5525933E-004 0.0  4.1896607E-004 -6.0722530E-004 0.0  3.9599803E-004 -6.3410455E-004 0.0  3.7673759E-004 -6.7048561E-004 0.0  3.2784372E-004 -6.9349979E-004 0.0  3.0550753E-004 -7.2646227E-004 0.0  2.3151241E-004 -6.9739725E-004 0.0  5.6756388E-005  1.5665365E-004 0.0  6.9990791E-005  1.7396508E-004 0.0  8.2504129E-005  1.9272896E-004 0.0  9.7481397E-005  2.2400044E-004 0.0  1.1798787E-004  2.4671534E-004 0.0  1.4860305E-004  2.7087029E-004 0.0  1.7386470E-004  3.1141336E-004 0.0  2.0309384E-004  3.6193962E-004 0.0  2.9421945E-004  4.4310458E-004 0.0  3.9420337E-004  4.9615180E-004 0.0  5.8590875E-004  5.7912552E-004 0.0  4.3710275E-004 -1.2102855E-003 0.0  3.9177474E-004 -1.1254439E-003 0.0  3.4795745E-004 -1.0516621E-003 0.0  3.1345060E-004 -9.8334620E-004 0.0  2.7005438E-004 -9.3052057E-004 0.0  2.2840579E-004 -8.7870787E-004 0.0  1.9451376E-004 -8.3415138E-004 0.0  6.0743262E-004 -1.2312535E-003 0.0  6.8564363E-004 -1.0923684E-003 0.0  7.5176949E-004 -9.5847297E-004 0.0  7.7870304E-004 -8.2911399E-004 0.0  7.9972645E-004 -7.0460466E-004 0.0  7.9594347E-004 -6.0122004E-004 0.0  7.8014785E-004 -4.9730086E-004 0.0  7.5854794E-004 -4.1616054E-004 0.0  7.2909736E-004 -3.3854108E-004 0.0  6.8450327E-004 -2.6646696E-004 0.0  6.5492355E-004 -2.1174112E-004 0.0  6.1180969E-004 -1.6464717E-004 0.0  5.7617007E-004 -1.2705190E-004 0.0  5.3306849E-004 -9.6791428E-005 0.0  4.9955226E-004 -7.0891193E-005 0.0  4.5684561E-004 -5.1183294E-005 0.0  4.2874667E-004 -3.9195887E-005 0.0  3.8851374E-004 -2.0932366E-005 0.0  3.6150370E-004 -1.6363289E-005 0.0  3.3260585E-004 -1.3054442E-005 0.0  3.0558081E-004 -6.0347686E-006 0.0  2.7965299E-004 -6.1288532E-006 0.0  2.5786043E-004 -7.2206595E-006 0.0  2.4065263E-004 -7.3563235E-006 0.0  2.1775566E-004 -8.4388381E-006 0.0  2.0335215E-004 -9.8963066E-006 0.0  1.8380450E-004 -1.0076496E-005 0.0  1.7189362E-004 -1.3940967E-005 0.0  1.5726970E-004 -1.4907404E-005 0.0  1.4420543E-004 -1.6347886E-005 0.0  1.3337771E-004 -1.9550101E-005 0.0  1.2187271E-004 -1.9511182E-005 0.0  1.1046277E-004 -2.0200886E-005 0.0  1.0015306E-004 -2.1843399E-005 0.0  8.7884683E-005 -2.2764376E-005 0.0  7.8137656E-005 -2.2395608E-005 0.0  6.6806724E-005 -2.3046077E-005 0.0  5.6807869E-005 -2.3245804E-005 0.0  4.4499312E-005 -2.1025004E-005 0.0  6.2844435E-005 -1.0385320E-003 0.0  3.8391402E-005 -8.7667216E-004 0.0  7.3197955E-005 -7.1959083E-004 0.0  2.4694316E-005 -6.2093328E-004 0.0  9.1779133E-005 -4.0271023E-004 0.0  3.3279604E-005 -3.9281511E-004 0.0  3.1616594E-005 -1.4678796E-004 0.0  1.9570820E-005 -1.2816399E-004 0.0  1.2670299E-005 -4.7443137E-005 0.0  2.2365074E-005 -4.3943978E-006 0.0  3.7292691E-005 -5.2252295E-006 0.0  4.7302557E-005 -8.1646617E-007 0.0  4.7285022E-005 -1.6172275E-007 0.0  4.3568442E-005  1.4114825E-006 0.0  3.7461641E-005  2.5749438E-006 0.0  2.8552150E-005  3.0417710E-006 0.0  2.1876827E-005  2.0189679E-006 0.0  1.6378816E-005  1.4935329E-006 0.0  1.2119518E-005  1.3743330E-006 0.0  8.9756964E-006  1.1819504E-006 0.0  5.7280905E-006  9.6875836E-007 0.0  3.5944121E-006  8.0113637E-007 0.0  1.8398507E-006  5.5441427E-007 0.0  4.7010240E-007  1.9148510E-006 0.0  5.1162089E-007  3.4560920E-006 0.0  3.9499349E-007  4.9114909E-006 0.0  3.6362450E-007  6.1800122E-006 0.0  2.5727796E-007  7.2004952E-006 0.0  1.3546369E-007  7.8695209E-006 0.0  2.5001755E-008  8.1404522E-006 0.0  2.0968248E-008  8.1436130E-006 0.0 -1.8664322E-007  7.9368376E-006 0.0 -2.3309396E-007  7.4144584E-006 0.0 -3.0851955E-007  6.6435097E-006 0.0 -3.0275126E-007  5.9312358E-006 0.0 -3.1585074E-007  5.0453622E-006 0.0 -2.8547335E-007  4.3473881E-006 0.0 -2.4936978E-007  3.5405948E-006 0.0 -2.2133134E-007  2.9641728E-006 0.0 -1.9701967E-007  2.4194366E-006 0.0 -1.5820905E-007  1.8626510E-006 0.0 -1.3111756E-007  1.4597131E-006 0.0 -1.1099066E-007  1.1533667E-006 0.0 -1.0421995E-007  8.3243726E-007 0.0 -8.9568882E-008  6.1135426E-007 0.0 -7.5450413E-008  3.6750506E-007 0.0 -5.8436698E-008  1.9894935E-007 0.0 -1.9285531E-007 -1.1084439E-006 0.0 -1.7075626E-007 -5.6238261E-007 0.0 -2.5265054E-007 -2.0017994E-006 0.0 -2.3914226E-007 -2.0191529E-006 0.0 -2.9318970E-007 -3.6968959E-006 0.0 -4.3831419E-007 -4.2749922E-006 0.0 -3.9603063E-007 -5.6454635E-006 0.0 -1.1230395E-006 -1.0778057E-005 0.0 -7.6902963E-007 -1.0816086E-005 0.0 -1.5582888E-006 -1.4532309E-005 0.0 -1.3312344E-006 -1.8742996E-005 0.0 -1.3865063E-006 -2.3568405E-005 0.0 -1.5684712E-006 -2.8219977E-005 0.0 -6.3651118E-007 -3.4473241E-005 0.0 -1.5022137E-006 -3.5792689E-005 0.0 -9.9235810E-007 -4.0117234E-005 0.0 -7.7258823E-007 -4.5697280E-005 0.0 -2.1547750E-007  5.3972993E-008 0.0 -3.7366209E-007  6.8841864E-008 0.0 -5.8839698E-007  6.4648895E-008 0.0 -7.3585834E-007  5.7143096E-008 0.0 -8.9425598E-007  5.1972944E-008 0.0 -1.0096154E-006  4.0533862E-008 0.0 -1.0957068E-006  2.4927178E-008 0.0 -1.1359097E-006  2.4326575E-009 0.0 -1.1175589E-006 -1.4114084E-008 0.0 -1.0430909E-006 -1.5293295E-008 0.0 -9.1372924E-007 -6.9089321E-008 0.0 -7.4682727E-007 -6.3894470E-008 0.0 -4.9275037E-007 -1.0753721E-007 0.0 -2.8281200E-007 -3.0687970E-008 0.0 -2.9555657E-005 -3.2505877E-004 0.0 -5.7916834E-005 -3.2529464E-004 0.0 -8.3534248E-005 -3.2588662E-004 0.0 -1.1648328E-004 -3.2484776E-004 0.0 -1.4408966E-004 -3.2356708E-004 0.0 -1.7120823E-004 -3.2519087E-004 0.0 -2.0106773E-004 -3.2563546E-004 0.0 -2.2756918E-004 -3.2520803E-004 0.0 -2.5747479E-004 -3.2316309E-004 0.0 -2.8624189E-004 -3.2436284E-004 0.0 -3.1652579E-004 -3.2546129E-004 0.0 -3.4609096E-004 -3.2468455E-004 0.0 -3.7443291E-004 -3.2322761E-004 0.0 -4.0535329E-004 -3.2345342E-004 0.0 -4.3623714E-004 -3.1994857E-004 0.0 -4.6489738E-004 -3.2171666E-004 0.0 -4.9942225E-004 -3.2190613E-004 0.0 -5.2709788E-004 -3.1869850E-004 0.0 -5.6150214E-004 -3.1839207E-004 0.0 -5.9663185E-004 -3.1757035E-004 0.0 -6.3167885E-004 -3.2058790E-004 0.0 -6.6239966E-004 -3.1355871E-004 0.0 -7.0030458E-004 -3.1144208E-004 0.0 -7.4099470E-004 -3.1705348E-004 0.0 -7.8031522E-004 -3.1689924E-004 0.0 -8.2200569E-004 -3.1765410E-004 0.0 -8.5968829E-004 -3.1741230E-004 0.0 -9.0893035E-004 -3.2393247E-004 0.0 -9.4763387E-004 -3.2365560E-004 0.0 -9.9953329E-004 -3.3127760E-004 0.0 -1.0461343E-003 -3.4064114E-004 0.0 -1.1002980E-003 -3.5590215E-004 0.0 -1.1579250E-003 -3.7493591E-004 0.0 -1.2073062E-003 -3.9598347E-004 0.0 -1.2663019E-003 -4.1371522E-004 0.0 -1.3253590E-003 -4.6295872E-004 0.0 -1.3933867E-003 -5.0096091E-004 0.0 -1.4452444E-003 -5.4658299E-004 0.0 -1.4955900E-003 -5.9976363E-004 0.0 -1.5583206E-003 -6.8044348E-004 0.0 -1.6088224E-003 -7.5329033E-004 0.0 -1.6442560E-003 -8.4571456E-004 0.0 -1.6834815E-003 -9.4226502E-004 0.0 -1.6999598E-003 -1.0677618E-003 0.0 -1.7109340E-003 -1.1895943E-003 0.0 -1.7021498E-003 -1.3063591E-003 0.0 -1.6663241E-003 -1.4571545E-003 0.0 -1.6130150E-003 -1.5735154E-003 0.0 -1.5214687E-003 -1.6848511E-003 0.0 -1.3587241E-003 -1.8713014E-003 0.0 -1.2973296E-003 -1.9548273E-003 0.0 -1.2173588E-003 -1.9988643E-003 0.0 -1.0986090E-003 -2.0361747E-003 0.0 -9.8519374E-004 -2.0711181E-003 0.0 -8.8060487E-004 -2.0707023E-003 0.0 -7.6069313E-004 -2.0669060E-003 0.0 -6.5176278E-004 -2.0637981E-003 0.0 -5.4203261E-004 -2.0271503E-003 0.0 -4.3876260E-004 -2.0131818E-003 0.0 -3.3481412E-004 -1.9763670E-003 0.0 -2.5017470E-004 -1.9392247E-003 0.0 -1.5089672E-004 -1.8876658E-003 0.0 -6.8576180E-005 -1.8438921E-003 0.0  3.4300697E-005 -1.7789884E-003 0.0  1.1672390E-004 -1.7250629E-003 0.0  2.2530937E-004 -1.6451557E-003 0.0  3.1173594E-004 -1.5674243E-003 0.0  3.9269685E-004 -1.4751418E-003 0.0  1.8206150E-005 -7.0832191E-006 0.0  1.1081110E-005  2.0285482E-006 0.0  6.4871159E-006  1.1410773E-005 0.0  3.8899830E-006  1.7111642E-005 0.0  2.4366594E-006  2.2495108E-005 0.0  1.6492911E-006  2.5606820E-005 0.0  9.8303419E-007  2.7691825E-005 0.0  6.7149694E-007  2.8973395E-005 0.0  3.6109588E-007  2.9598063E-005 0.0  2.5198527E-007  3.0741855E-005 0.0  4.3650622E-007  3.1218871E-005 0.0  3.2639089E-007  3.3433450E-005 0.0  4.6012573E-007  3.4178317E-005 0.0 -7.4264194E-007  3.3823744E-005 0.0 -9.1087153E-007  3.2815150E-005 0.0 -5.8132250E-006  2.2726222E-005 0.0 -7.3233780E-006  1.6285209E-006 0.0 -8.6374050E-006 -3.5561124E-005 0.0 -9.2527431E-006 -5.6899446E-005 0.0 -1.6009207E-005 -1.2917273E-004 0.0 -2.2845157E-005 -1.5278184E-004 0.0 -1.1629432E-005 -2.1194441E-004 0.0 -1.4146673E-005 -2.5314481E-004 0.0 -2.4429809E-005 -3.9837002E-004 0.0 -1.4907319E-005 -4.0045719E-004 0.0 -2.0508738E-005 -5.0752367E-004 0.0 -2.2657873E-005 -5.2275353E-004 0.0 -2.4521545E-005 -6.6218386E-004 0.0 -2.0084792E-005 -6.8269209E-004 0.0 -4.2693263E-005 -8.7299343E-004 0.0 -4.0643920E-005 -9.5024712E-004 0.0 -3.3184822E-005 -1.0168628E-003 0.0 -4.2094714E-005 -1.2334534E-003 0.0 -3.2223860E-005 -1.3438587E-003 0.0 -2.1898188E-005 -1.3860535E-003 0.0  2.2966118E-005 -1.3954199E-003 0.0  3.5486562E-005 -1.4007698E-003 0.0  6.4914697E-005 -1.4051570E-003 0.0  7.5093796E-005 -1.4154363E-003 0.0  1.1559127E-004 -1.4303356E-003 0.0  1.3214008E-004 -1.4482232E-003 0.0  1.4347677E-004 -1.4757606E-003 0.0  2.4132162E-004 -1.4812217E-003 0.0  3.1259437E-004 -1.4892010E-003 0.0  3.9791363E-004 -1.4880494E-003 0.0  4.6485101E-004 -1.4732094E-003 0.0  5.5995251E-004 -1.4489918E-003 0.0  6.4533370E-004 -1.4051994E-003 0.0  7.2081188E-004 -1.3496470E-003 0.0  8.1404109E-004 -1.2819154E-003 0.0  9.1102871E-004 -1.1730733E-003 0.0  1.0061713E-003 -1.0645588E-003 0.0  1.0740064E-003 -9.2688622E-004 0.0  1.1204766E-003 -7.3924745E-004 0.0  1.1722717E-003 -5.6676226E-004 0.0  1.1746483E-003 -3.0251143E-004 0.0  1.1638800E-003 -3.7322215E-005 0.0  1.0768065E-003  3.0691686E-004 0.0  3.0501155E-006 -3.9687234E-005 0.0  2.5718696E-006 -2.6088607E-005 0.0  1.8232198E-006 -2.6767793E-005 0.0  4.2279293E-007 -1.2324836E-005 0.0  7.8531492E-007 -1.9767194E-005 0.0 -2.6268844E-007 -1.4178691E-005 0.0 -2.3685596E-007 -2.0439823E-005 0.0 -2.3863429E-008 -1.4413159E-005 0.0  4.2672831E-008 -1.5505287E-005 0.0 -3.5243705E-008 -1.8940283E-005 0.0 -9.5841266E-008 -1.4104354E-005 0.0  5.0814806E-007 -2.2724227E-005 0.0 -1.9606731E-007 -1.2399600E-005 0.0  2.0483915E-008 -2.2037287E-005 0.0  3.0989387E-007 -1.4721349E-005 0.0 -1.4432258E-007 -2.2642885E-005 0.0  2.7279768E-009 -1.4995331E-005 0.0  2.1259790E-007 -2.2382527E-005 0.0 -1.7834326E-007 -1.4713199E-005 0.0  2.6475578E-007 -2.3803392E-005 0.0  1.0425973E-007 -1.4414013E-005 0.0 -5.6435071E-007 -1.1267983E-005 0.0  1.9294789E-007 -2.4391564E-005 0.0  9.0620832E-008 -1.7265166E-005 0.0  2.2627037E-007 -1.7450017E-005 0.0  2.4397716E-007 -2.4242718E-005 0.0  2.2006705E-008 -1.4647649E-005 0.0 -7.0012102E-007 -1.2326028E-005 0.0  9.2217202E-007 -2.3386664E-005 0.0 -4.1753727E-007 -1.6705586E-005 0.0 -4.0283920E-007 -2.6611871E-005 0.0  1.6928820E-007 -1.5803331E-005 0.0  7.2254392E-008 -2.5787539E-005 0.0 -2.9567795E-007 -1.3329282E-005 0.0  6.3729621E-007 -2.7836582E-005 0.0 -6.8835481E-008 -1.2395090E-005 0.0  1.4901421E-007 -2.2924768E-005 0.0  5.3932608E-007 -2.3012556E-005 0.0  4.6794183E-007 -1.5863436E-005 0.0 -4.0592212E-007 -2.3989405E-005 0.0  2.2189943E-007 -1.3100899E-005 0.0  9.2986654E-007 -3.0350701E-005 0.0 -2.0856906E-007 -1.4551865E-005 0.0  3.9155365E-007 -2.7782114E-005 0.0  6.1075990E-008 -8.9336466E-006 0.0  4.9144995E-007 -2.8483606E-005 0.0  3.7302031E-008 -1.1742604E-005 0.0 -1.1184154E-007 -2.3223698E-005 0.0  1.1829635E-006 -2.3414840E-005 0.0 -3.1802209E-008 -6.3359102E-006 0.0  2.9851556E-007 -2.4343899E-005 0.0  4.6967797E-007 -1.1297045E-005 0.0  3.2552517E-007 -1.0564968E-005 0.0  1.5258753E-006 -2.2114125E-005 0.0 -7.7981388E-008  3.5753284E-007 0.0  2.5212934E-007 -2.1530925E-005 0.0  5.1332080E-007 -6.7156595E-006 0.0  5.9471522E-007 -6.1267045E-006 0.0  1.5112065E-006 -1.8294222E-005 0.0 -1.0284132E-007  6.5675160E-006 0.0  1.2707829E-007 -1.6950622E-005 0.0  1.4997439E-006  3.0878529E-006 0.0 -4.2142296E-007 -9.8461452E-006 0.0  6.8293712E-007  8.6872748E-006 0.0  1.9512342E-006 -1.1499932E-005 0.0 -2.8094820E-007  1.6566986E-005 0.0  1.4348111E-006 -7.4589864E-006 0.0  1.1757046E-006  1.4390097E-005 0.0  4.3598812E-007  2.1786447E-006 0.0 -3.5623104E-007  1.8630450E-005 0.0  6.4391315E-008  1.7730247E-006 0.0  8.2130342E-007  2.4688047E-005 0.0  2.1930926E-006  2.6327467E-006 0.0 -8.1886708E-009  3.4873278E-005 0.0  2.6055821E-006  1.6233411E-005 0.0 -1.5809520E-007  3.3491832E-005 0.0 -9.0425740E-007  1.6608169E-005 0.0  1.3037383E-006  4.3314653E-005 0.0  4.4462863E-007  2.8479371E-005 0.0  6.0487210E-007  4.4590322E-005 0.0  7.3931123E-007  4.5825149E-005 0.0  1.9394531E-006  3.4164362E-005 0.0 -3.3119642E-007  5.7969400E-005 0.0  9.8140572E-007  3.7536256E-005 0.0  2.7576905E-007  5.4942393E-005 0.0 -1.6532098E-007  4.5484942E-005 0.0 -1.1688976E-006  5.4096771E-005 0.0 -3.9112453E-007  3.8539177E-005 0.0 -1.2178173E-007  5.0716383E-005 0.0 -1.3700374E-006  4.8515723E-005 0.0 -1.0185927E-006  4.3247351E-005 0.0 -1.8691452E-006  4.0055499E-005 0.0 -1.6176274E-006  3.8899344E-005 0.0 -1.0141217E-006  3.6186436E-005 0.0 -8.9356631E-007  3.3275473E-005 0.0 -4.1568291E-007  3.0439768E-005 0.0 -2.5325862E-007  2.9073429E-005 0.0  2.8590648E-008  2.8836973E-005 0.0  1.0135981E-007  2.8922287E-005 0.0  1.8106521E-005 -1.3492291E-003 0.0  2.5808254E-005 -1.2354655E-003 0.0  2.1067657E-005 -1.2214742E-003 0.0 -1.0283574E-003 -2.6788533E-004 0.0 -5.2280548E-004 -2.6111053E-004 0.0 -7.3095489E-004 -2.4911398E-004 0.0  5.0049556E-004 -5.7778391E-005 0.0 -3.7673440E-004 -2.7516915E-004 0.0 -1.4646776E-003 -5.4894447E-004 0.0  3.3854392E-005 -3.7785794E-006 0.0  2.6152362E-004  2.7543675E-005 0.0  1.4664748E-004  5.1440664E-006 0.0  8.4547947E-005 -6.6338478E-006 0.0 -3.5257308E-004 -1.8199689E-003 0.0  3.7087064E-004  1.3208049E-005 0.0 -1.2409368E-003 -3.4482367E-004 0.0  6.5423273E-004 -2.5299799E-004 0.0 -2.6098483E-004 -2.7043252E-004 0.0 -1.6205951E-003 -9.4465398E-004 0.0 -1.1859370E-005  1.1193983E-005 0.0 -8.2623774E-004 -1.9185464E-003 0.0  4.4801460E-005 -1.6257402E-003 0.0  2.0621176E-004  1.6369721E-005 0.0 -1.8039168E-004 -2.7736460E-004 0.0  7.0330606E-004 -5.0281041E-004 0.0  1.1389577E-004 -2.4527474E-006 0.0 -8.8334457E-004 -2.4569664E-004 0.0  9.6738118E-006  1.3467234E-005 0.0 -6.1667787E-004 -2.5061168E-004 0.0  2.9891571E-006  2.5790631E-005 0.0 -1.6287100E-005 -9.4081519E-005 0.0 -1.2041469E-003 -1.9051366E-003 0.0  2.2816627E-007  3.4739101E-005 0.0  6.9958729E-004 -9.0432040E-004 0.0 -1.6330803E-003 -1.3857811E-003 0.0 -9.5941633E-005 -2.7225457E-004 0.0  3.1251000E-004  2.3259741E-005 0.0  1.7017916E-004  1.3390751E-005 0.0 -5.8740982E-004 -1.8787255E-003 0.0  4.3447857E-004 -1.2675871E-005 0.0  2.5261480E-004 -1.5225727E-003 0.0 -1.5769756E-004 -1.7554571E-003 0.0  5.8085774E-004 -1.3250860E-004 0.0 -1.5638147E-003 -7.1812658E-004 0.0 -3.1866562E-004 -2.6924918E-004 0.0 -4.2480893E-004 -2.5574206E-004 0.0  6.3004415E-005 -7.2346917E-006 0.0 -1.3562138E-003 -4.3337689E-004 0.0 -1.1320179E-003 -2.9629233E-004 0.0 -8.0786630E-004 -2.4903557E-004 0.0  1.2608551E-006  2.9241145E-005 0.0 -3.0057990E-005 -1.9057534E-004 0.0  7.1726549E-007  3.2450499E-005 0.0 -1.5285258E-003 -1.6964353E-003 0.0  5.9379352E-004 -1.2184680E-003 0.0 -4.2841160E-005 -2.7846375E-004 0.0 -3.8798588E-006  2.8821682E-005 0.0 -1.3196122E-005  2.3318202E-005 0.0 -2.7489640E-005 -5.8597993E-006 0.0 -3.4783073E-005  7.9058298E-006 0.0 -1.3515342E-005  2.7818163E-005 0.0 -2.8577770E-005  2.1138466E-005 0.0 -5.8488296E-005 -7.6848470E-006 0.0 -6.1011424E-005  6.2081797E-006 0.0 -2.3798634E-005  2.6887394E-005 0.0 -5.9576232E-005  1.5622857E-005 0.0 -1.7746635E-005  3.0532306E-005 0.0 -4.1716380E-005  2.5758058E-005 0.0 -9.1306218E-005  5.7405782E-006 0.0 -8.4492080E-005  1.7320499E-005 0.0 -2.7328935E-005  3.6188603E-005 0.0 -5.8298073E-005  3.2927295E-005 0.0 -1.2861589E-004  9.3737924E-006 0.0 -1.1507972E-004  2.5902411E-005 0.0 -3.9458623E-005  4.7132516E-005 0.0 -1.0230715E-004  4.3010148E-005 0.0 -2.0791138E-005  6.0929088E-005 0.0 -6.6835884E-005  6.3260737E-005 0.0 -1.6626446E-004  3.9932739E-005 0.0 -1.3891560E-004  6.5016071E-005 0.0 -3.6724256E-005  8.4471601E-005 0.0 -1.1301595E-004  8.7663881E-005 0.0 -1.1966609E-005  1.0383682E-004 0.0 -6.9978584E-005  1.1218624E-004 0.0 -1.7536516E-004  9.6508071E-005 0.0 -1.6999175E-004  1.1644724E-004 0.0 -3.0968287E-005  1.3997051E-004 0.0 -1.0306692E-004  1.4202024E-004 0.0 -2.6874424E-004  1.1573616E-004 0.0 -2.2328857E-004  1.2998424E-004 0.0 -4.5916410E-005  1.6145599E-004 0.0 -1.9157587E-004  1.3254670E-004 0.0 -5.4622734E-007  1.4768499E-004 0.0 -1.0470163E-004  1.1519967E-004 0.0 -3.1331900E-004  9.1256201E-005 0.0 -2.6769945E-004  3.1924656E-005 0.0 -3.8793555E-005  5.6733817E-005 0.0 -1.7210877E-004 -5.6919488E-005 0.0 -4.1923264E-004 -8.2083007E-005 0.0 -3.4740144E-004 -2.4894732E-004 0.0 -1.0954651E-004 -2.2112108E-004 0.0 -2.3991422E-004  3.2005298E-005 0.0 -2.5512094E-004 -2.1842955E-006 0.0 -3.8570422E-004  9.3925136E-005 0.0 -6.1620551E-004 -2.7081890E-004 0.0 -5.1432907E-004 -4.5656465E-004 0.0 -9.4147144E-005 -2.6944445E-005 0.0 -4.1099334E-004  6.0155590E-005 0.0 -6.0723076E-004 -1.1243494E-004 0.0 -8.6294498E-005 -4.5049028E-005 0.0  4.1939834E-006  4.7801301E-005 0.0 -4.9601945E-006  3.0797493E-005 0.0  1.8776959E-006  3.2061174E-005 0.0 -7.9170247E-004 -5.0254543E-004 0.0  5.8330412E-005  1.4872098E-004 0.0  1.0670964E-004  1.3473374E-004 0.0  2.5595419E-005  5.6331892E-005 0.0 -6.9456951E-004 -7.3578341E-004 0.0 -4.4787364E-004 -6.9243310E-004 0.0 -3.4030828E-004 -2.0189234E-005 0.0 -3.5033725E-004 -5.2501673E-005 0.0 -9.6562842E-004 -7.3979369E-004 0.0 -5.3852996E-004  3.6547290E-005 0.0 -1.2614241E-004 -7.0159176E-005 0.0  8.8214284E-006  2.7697058E-005 0.0 -5.8683358E-004 -1.3258382E-005 0.0  4.1023747E-005  4.1878044E-005 0.0 -1.2262982E-004 -1.0017832E-004 0.0  1.6341703E-005  2.6431057E-005 0.0 -8.4982485E-004 -9.8542855E-004 0.0 -1.1164069E-003 -9.7839171E-004 0.0 -1.0235067E-003 -5.4773878E-004 0.0  1.6547797E-004  1.2381640E-004 0.0  5.9123200E-005  4.6194391E-005 0.0 -7.6732834E-005 -6.6177991E-005 0.0 -1.0689546E-004 -1.1929664E-004 0.0  2.1258328E-004  1.1047890E-004 0.0 -4.4958994E-004 -7.8693793E-005 0.0 -4.3288404E-004 -4.7212973E-005 0.0  2.4649089E-005  8.0782081E-005 0.0  4.5881754E-005  1.0060005E-004 0.0  7.0911402E-005  7.4430142E-005 0.0  1.0049795E-004  8.3777197E-005 0.0  1.0226645E-004  1.4229395E-004 0.0 -1.0095699E-003 -1.2556991E-003 0.0 -4.4817578E-004 -1.0916012E-004 0.0 -3.4794420E-004 -7.1662260E-005 0.0  2.0636918E-005  4.2019529E-005 0.0  5.1305014E-005  3.1803672E-005 0.0  3.2807020E-005  3.3446440E-005 0.0  1.1853261E-005  2.9549039E-005 0.0 -1.6475841E-004 -1.2331859E-004 0.0 -1.7022213E-004 -9.9164773E-005 0.0  5.3200302E-007  3.1330129E-005 0.0 -4.1814413E-004  4.0617109E-005 0.0 -5.9666462E-004 -3.8173354E-005 0.0 -7.7798309E-004 -1.2523628E-003 0.0 -4.6149874E-004  1.0129064E-006 0.0  1.9795484E-004  1.0612069E-004 0.0  1.4413630E-004  1.2062297E-004 0.0  7.6454026E-005  9.9619775E-005 0.0  1.3164060E-004  8.3085411E-005 0.0 -7.1328238E-004 -4.1477838E-005 0.0 -6.8357807E-004 -2.3004979E-005 0.0  9.6948980E-006  2.6380163E-005 0.0  3.9027412E-006  3.0336591E-005 0.0  2.6824619E-005  2.2622265E-005 0.0  1.6400644E-004  1.0108541E-004 0.0 -1.2481001E-003 -1.2306312E-003 0.0  2.7979361E-004  7.0254070E-005 0.0  2.3006424E-004  5.4690138E-005 0.0 -6.0682778E-004 -7.4447519E-005 0.0 -5.2809587E-004 -1.1116723E-004 0.0 -1.3127026E-003 -1.0121016E-003 0.0 -8.4166730E-004 -9.9896092E-005 0.0 -8.5531267E-004 -9.6766111E-005 0.0 -6.5509631E-004 -4.4107369E-006 0.0 -8.4047927E-004 -8.9933560E-005 0.0  1.1666698E-004  5.9833638E-005 0.0  8.8053315E-005  6.0307518E-005 0.0  3.5434972E-004  1.2081070E-005 0.0  3.1759381E-004 -5.2745857E-006 0.0 -6.9026132E-005 -9.1304460E-005 0.0 -9.1098984E-005 -1.4692001E-004 0.0 -4.4657308E-004 -1.3982104E-004 0.0 -3.7497206E-004 -1.0663944E-004 0.0 -2.9039566E-004 -5.3904673E-005 0.0 -3.0528474E-004 -7.9856348E-005 0.0 -3.9217451E-004 -1.4226985E-004 0.0 -3.2483624E-004 -1.1082047E-004 0.0 -5.2122019E-004 -7.9839269E-005 0.0  8.8213192E-006  2.5021600E-005 0.0  4.5973324E-006  2.9447311E-005 0.0  1.3507677E-005  2.0107842E-005 0.0  6.9446742E-006  2.4838740E-005 0.0  4.0729913E-006  2.8902242E-005 0.0  2.4392744E-006  3.1835488E-005 0.0  2.5186463E-006  3.1306311E-005 0.0  5.7328388E-005  2.1956375E-005 0.0  4.2680637E-005  2.4833155E-005 0.0 -4.1097857E-004 -2.0884147E-005 0.0  2.0649637E-005  3.1690872E-005 0.0  7.6579160E-007  3.3389526E-005 0.0 -6.2055538E-004 -7.3207998E-007 0.0 -8.1553877E-004 -9.4640508E-005 0.0 -9.8700900E-004 -1.6651540E-004 0.0 -9.6923013E-004 -1.8351980E-004 0.0 -2.0815266E-004 -1.5707515E-004 0.0 -2.2374819E-004 -1.3408189E-004 0.0 -1.7158189E-004 -7.9651432E-005 0.0 -2.3379938E-004 -1.1463460E-004 0.0 -1.9093060E-004 -1.7935380E-004 0.0 -1.7174893E-004 -5.9622514E-005 0.0 -2.3127318E-004 -9.0854875E-005 0.0 -2.7655931E-004 -1.4635287E-004 0.0  2.7616133E-005  1.6508067E-005 0.0 -1.7229019E-004 -4.3126064E-005 0.0  2.2036404E-004  8.6005115E-005 0.0  1.6859940E-004  9.9770595E-005 0.0  1.0402174E-004  1.1586106E-004 0.0 -1.2326013E-004 -1.7578419E-004 0.0 -8.3424308E-004 -1.2332220E-004 0.0  7.3433439E-005  2.2414425E-005 0.0 -7.2112237E-004 -1.0579583E-004 0.0 -2.5167707E-004 -6.2436648E-005 0.0  3.0767451E-004  6.4130683E-005 0.0  3.9043909E-005  1.1557568E-005 0.0 -1.1375260E-003 -1.5029089E-003 0.0 -1.3274415E-003 -1.4654436E-003 0.0 -2.7827813E-004 -1.1864268E-004 0.0  4.3494045E-005  5.7720050E-005 0.0  1.7445037E-004  3.3730083E-005 0.0  2.4725242E-004 -4.8768078E-005 0.0  3.8928239E-004 -7.8528226E-005 0.0  3.3565650E-004 -1.4168172E-004 0.0  1.7203160E-004 -1.1315363E-004 0.0  2.7731252E-004 -2.4961739E-004 0.0  4.2720148E-004 -2.4990130E-004 0.0  3.7001214E-004 -3.8362090E-004 0.0  2.0123719E-004 -3.7494700E-004 0.0  3.0099868E-004 -5.4668047E-004 0.0  1.1608214E-004 -5.5702289E-004 0.0  1.9128466E-004 -7.8914149E-004 0.0  3.0628004E-005 -7.9482463E-004 0.0  3.8086526E-004 -7.0256588E-004 0.0  2.7141797E-004 -9.6871238E-004 0.0  4.5245485E-004 -8.8349670E-004 0.0  5.3166656E-004 -6.8111351E-004 0.0  5.1189499E-004 -3.7333532E-004 0.0 -3.2359938E-005 -5.4071399E-004 0.0 -1.3235997E-004 -8.3126621E-004 0.0 -6.7185307E-005 -1.0706923E-003 0.0 -2.1574517E-004 -1.1100268E-003 0.0 -6.1461867E-004 -2.5320961E-005 0.0 -3.9147342E-004 -1.7274342E-004 0.0  2.5856855E-004  8.2667909E-005 0.0 -2.4689536E-004 -1.8808914E-004 0.0  3.1194756E-004 -1.1451973E-003 0.0  1.8956343E-004 -1.1871165E-003 0.0 -1.0396828E-006  3.3387751E-005 0.0 -3.4464629E-006  3.1361166E-005 0.0 -7.2797508E-004 -1.4658548E-004 0.0 -5.5491154E-005 -1.1585329E-004 0.0 -4.8524233E-005 -6.6803536E-005 0.0 -7.3817921E-005 -1.7394437E-004 0.0 -6.2286547E-004 -1.0418134E-004 0.0  1.2756712E-004  4.1906552E-005 0.0  1.0158375E-004  4.4240969E-005 0.0 -5.1466663E-004 -1.6492227E-004 0.0 -1.1428859E-003 -2.6757780E-004 0.0 -1.1665575E-003 -3.0714498E-004 0.0 -9.4150133E-004 -2.1951085E-004 0.0 -1.1751036E-003 -3.5710646E-004 0.0 -9.5759328E-004 -3.0052578E-004 0.0 -1.1596664E-003 -4.3441103E-004 0.0 -1.7794402E-004 -5.8036626E-004 0.0  4.8611598E-004 -1.0526009E-003 0.0 -6.0675648E-004 -1.4359455E-004 0.0 -6.0381414E-004 -1.7364752E-004 0.0 -3.2838796E-004 -1.7928566E-004 0.0 -5.0213160E-004  4.8512610E-005 0.0 -1.3632618E-004 -4.3253171E-005 0.0  3.8247734E-005  1.8263489E-005 0.0 -9.5997449E-004 -1.6921884E-004 0.0 -3.1456507E-004 -1.9985225E-004 0.0  1.3580759E-006  3.3080702E-005 0.0  2.1940367E-006  3.0932287E-005 0.0  2.3282872E-004  6.6393239E-005 0.0  1.9597244E-004  7.5855547E-005 0.0  1.5068616E-004  4.7030087E-005 0.0 -1.3175471E-003 -4.8624264E-004 0.0 -1.3395090E-003 -5.9643933E-004 0.0 -1.7888778E-006  3.3481511E-005 0.0 -1.6075467E-004 -1.3729538E-003 0.0 -7.1965605E-006 -1.2824491E-003 0.0 -3.0730456E-004 -1.4053841E-003 0.0 -3.5149104E-004 -1.1130100E-003 0.0 -4.3017397E-004 -1.4452051E-003 0.0 -4.9380262E-004 -1.2171157E-003 0.0  7.7640433E-005  9.8255716E-006 0.0 -5.0999165E-004 -1.9716684E-004 0.0 -4.4630337E-004 -1.9685974E-004 0.0  5.5862800E-004 -2.7152319E-004 0.0 -3.3509218E-004  4.8511117E-005 0.0 -1.8070981E-004  8.5579517E-007 0.0 -4.0734190E-005 -1.4457145E-004 0.0  1.3894851E-004  2.4826582E-005 0.0  1.1005706E-004  3.1461284E-005 0.0 -8.1746899E-004 -3.4918468E-004 0.0 -5.7962482E-004 -1.4955576E-003 0.0 -3.3882698E-004 -1.5633836E-004 0.0 -2.7062021E-004 -1.7531621E-004 0.0  1.1843898E-005  7.3453301E-005 0.0 -1.1270292E-003 -2.4982312E-004 0.0 -9.6944051E-004 -1.5588317E-004 0.0 -1.0889653E-003 -2.4430857E-004 0.0 -3.7633843E-004 -2.1640928E-004 0.0  4.7946654E-004 -5.3694979E-004 0.0  6.9103112E-005  3.2438246E-005 0.0  8.8990526E-005  2.0600284E-005 0.0  8.4929610E-005  3.3380319E-005 0.0  1.0811847E-004  1.6868781E-005 0.0 -4.4897093E-004 -1.7315249E-004 0.0  2.8473615E-005  1.4488227E-004 0.0 -2.2927855E-004 -2.1999124E-004 0.0 -2.0311256E-004 -2.3084679E-004 0.0 -1.6739267E-004 -1.8989889E-004 0.0  7.6657054E-005  4.4606807E-005 0.0  3.7611739E-004  2.2578882E-005 0.0  4.4651783E-004 -2.9147876E-005 0.0 -1.0143002E-004 -2.0078595E-004 0.0 -1.3088628E-004 -2.3201528E-004 0.0  1.1211730E-005  1.8638521E-005 0.0  1.6369113E-005  1.1381266E-005 0.0  2.0365538E-005  1.4362140E-005 0.0  1.9085200E-005  2.0818857E-005 0.0 -1.8834061E-004  1.1985976E-005 0.0 -9.4295213E-004 -1.7274250E-004 0.0  6.7880098E-006  1.9728899E-005 0.0  2.8542605E-004  5.2482534E-005 0.0  4.8439086E-004 -1.8077542E-004 0.0  5.0679140E-004 -1.3177480E-004 0.0  4.4228063E-004 -6.2740340E-005 0.0 -7.2720245E-004 -8.7768608E-005 0.0 -8.0892520E-004 -1.4901905E-004 0.0  3.6929906E-005  4.4412337E-006 0.0  4.8319611E-005  9.6830212E-008 0.0 -9.3955045E-004 -1.5316316E-003 0.0 -1.0443530E-003 -1.7284912E-003 0.0 -7.5608390E-004 -1.5450742E-003 0.0  6.3750803E-004 -3.9541110E-004 0.0  1.4869504E-004  6.1107064E-005 0.0  1.7244300E-004  6.2467693E-005 0.0  6.4129652E-005  1.2227492E-005 0.0 -1.0529180E-005  3.3090950E-005 0.0  2.5638574E-004  8.8965172E-005 0.0  3.2845324E-004  4.9972638E-005 0.0 -7.8204011E-006  4.2606596E-005 0.0 -6.2688779E-004 -1.0147647E-003 0.0 -5.3383286E-004 -1.4876510E-004 0.0 -1.1798148E-003 -7.4878871E-004 0.0 -1.3932846E-003 -8.5728913E-004 0.0 -1.5090236E-003 -1.0665220E-003 0.0 -1.2539325E-003 -6.5239649E-004 0.0 -1.4887455E-003 -7.7157426E-004 0.0  6.6494880E-005 -1.0429885E-003 0.0  3.6581060E-005  9.8805018E-005 0.0  4.6927486E-006  2.4726405E-005 0.0  3.1413421E-006  2.8153846E-005 0.0  9.5586638E-005  6.3126135E-006 0.0 -2.7650341E-004 -4.6926197E-004 0.0 -4.0927652E-004 -9.4421619E-004 0.0 -1.4587011E-003 -1.2269353E-003 0.0  6.0377966E-004 -5.5441604E-004 0.0  6.5295601E-004 -6.8974123E-004 0.0  5.9798945E-004 -8.6295322E-004 0.0 -1.2670958E-003 -3.5258887E-004 0.0  1.2514741E-005  1.1828423E-004 0.0 -1.3107275E-003 -4.1877784E-004 0.0 -1.5143290E-003 -1.4390595E-003 0.0 -1.3721145E-003 -1.6530983E-003 0.0  2.2053856E-006  2.8073011E-005 0.0 -1.4460536E-004 -1.5827778E-004 0.0  3.4208620E-004 -1.3070456E-003 0.0 -5.1595429E-005 -2.4198427E-005 0.0 -4.8738526E-004 -3.4411988E-005 0.0  5.4950837E-005  6.7519637E-005 0.0  2.2624286E-005  2.8194258E-005 0.0  4.9246703E-005  9.4887004E-006 0.0  6.2756468E-005  1.5684733E-006 0.0 -2.8338261E-004 -1.6188074E-003 0.0 -6.4086552E-004 -1.3646060E-003 0.0 -2.7169628E-004 -9.2758836E-005 0.0 -2.1428460E-004 -4.9679011E-005 0.0  2.1307429E-005  2.1843241E-006 0.0 -4.3858074E-004  1.9726888E-005 0.0 -6.0665070E-004 -2.1688536E-004 0.0 -6.6580196E-004 -2.3843840E-004 0.0 -4.3671064E-004 -2.2966146E-004 0.0 -5.6537890E-005 -1.9888522E-004 0.0  4.0025767E-004  1.3638874E-005 0.0  1.1575379E-004  9.9892195E-005 0.0  9.3502865E-005 -4.0635165E-006 0.0  4.9711791E-004 -1.2308302E-003 0.0  3.5917964E-004 -1.4624000E-003 0.0 -4.8273234E-004 -2.5815628E-004 0.0  1.9260532E-004 -1.3652307E-003 0.0 -7.3061187E-004 -1.8170189E-004 0.0 -1.7029589E-005 -1.4466238E-005 0.0 -2.0983045E-005 -5.7276463E-005 0.0 -1.4428227E-006  3.3851415E-005 0.0  5.3786883E-007  3.1016626E-005 0.0  1.2670910E-006  3.1112575E-005 0.0  2.1399869E-005 -7.0553419E-005 0.0  2.0226821E-005 -2.4140997E-004 0.0 -2.8291107E-004 -2.3006436E-004 0.0 -3.5027033E-004  2.7549968E-005 0.0 -2.9368127E-004  2.7847983E-005 0.0  5.6524571E-007  3.3781202E-005 0.0  1.8943059E-004  3.8497315E-005 0.0  2.1139105E-004  3.9328829E-005 0.0  2.1071710E-004  5.0187784E-005 0.0 -1.5845782E-003 -1.2104141E-003 0.0 -1.6303641E-003 -1.0939677E-003 0.0 -1.2115972E-003 -1.7263588E-003 0.0 -1.5642685E-003 -1.5711821E-003 0.0  5.4269600E-005  1.2997249E-004 0.0 -8.0446389E-004 -1.7510217E-004 0.0 -8.0742356E-004 -2.1825643E-004 0.0 -7.2673488E-004 -2.1389846E-004 0.0 -6.4618510E-004 -1.4517694E-004 0.0 -5.6398635E-004 -2.2742020E-004 0.0 -3.8785079E-004  9.0425192E-005 0.0 -9.5031638E-004 -1.8917428E-003 0.0  3.2781740E-004  2.6584668E-005 0.0  2.7898056E-004  2.3267098E-005 0.0  3.9459699E-004 -1.3699845E-006 0.0 -7.0730814E-005 -2.7301290E-004 0.0 -1.3062844E-004 -2.7525800E-004 0.0 -1.3537799E-003 -1.8140387E-003 0.0  1.5620849E-004  5.6874003E-006 0.0  5.1769387E-004 -8.2756905E-005 0.0  1.8058486E-004  1.4280441E-005 0.0  4.5310349E-004 -2.6452106E-005 0.0  1.4186680E-004 -1.5336770E-003 0.0 -5.9571723E-005 -1.6575697E-003 0.0  2.3117003E-005 -1.4414533E-003 0.0 -4.4851638E-004 -1.8026215E-003 0.0  1.3204682E-004  1.7856031E-006 0.0  5.8437062E-004 -1.7883208E-004 0.0 -1.5705093E-003 -8.1206667E-004 0.0 -6.8960040E-004 -1.8733387E-003 0.0  6.7915113E-004 -3.4084804E-004 0.0 -1.5123740E-003 -6.4127621E-004 0.0 -2.8831686E-004 -2.6916522E-004 0.0 -1.3706083E-003 -4.6213343E-004 0.0 -3.4729744E-004 -2.6272919E-004 0.0 -3.9098108E-004 -2.6126538E-004 0.0  6.4535485E-004 -1.0406214E-003 0.0 -1.0796687E-003 -2.9140982E-004 0.0 -5.5413920E-004 -2.5722965E-004 0.0 -9.7010958E-004 -2.5640999E-004 0.0 -9.2695620E-004 -1.9216513E-004 0.0 -9.2942912E-004 -2.5857697E-004 0.0 -3.5094724E-005 -1.4257243E-004 0.0  7.0037798E-005  5.5918050E-005 0.0 -1.2950282E-004 -8.8638826E-006 0.0  1.4085558E-004  4.1169561E-006 0.0 -7.7461110E-005 -2.2591138E-004 0.0 -1.2597779E-003 -3.6951780E-004 0.0  5.1813396E-005  1.4812402E-005 0.0 -1.3002308E-006  3.7286780E-005 0.0 -9.6679487E-006  3.0607664E-005 0.0  2.4281139E-004  5.0524529E-005 0.0 -1.0457749E-004 -1.6024295E-005 0.0 -7.9612277E-004 -1.2530559E-004 0.0  5.0700731E-006  2.0911120E-005 0.0 -2.2058638E-004  6.3080564E-005 0.0 -1.0920922E-003 -1.8814229E-003 0.0  8.3361066E-005  1.3300232E-004 0.0  5.1674482E-006  3.7922171E-005 0.0 -1.1636156E-003 -3.1232005E-004 0.0 -1.4443926E-003 -6.0205499E-004 0.0 -1.1098841E-003 -5.0409066E-004 0.0 -2.2539426E-004 -2.7071713E-004 0.0 -2.7275864E-004  8.5639260E-005 0.0 -2.7445873E-004  5.8689258E-005 0.0 -4.1591294E-005 -3.2848122E-005 0.0 -2.5211017E-004 -2.6126941E-005 0.0  1.2140105E-004 -2.3095332E-006 0.0  1.1916329E-004  7.8265970E-005 0.0 -8.7327317E-004 -1.7528891E-003 0.0 -1.4330535E-003 -1.7909407E-003 0.0 -2.8342967E-005 -2.4989523E-004 0.0  4.8334523E-005 -7.9731817E-006 0.0 -5.9060295E-006  3.1940709E-005 0.0 -2.5575002E-004 -8.2374963E-004 0.0 -2.0268714E-004 -2.7143575E-004 0.0 -1.0413751E-003 -2.3070905E-004 0.0  2.0852686E-007  3.3810660E-005 0.0  1.5247468E-004  8.2337728E-005 0.0  3.0562205E-004  5.3937050E-005 0.0  7.3776731E-004 -7.4893782E-004 0.0 -1.5735732E-004 -2.7932199E-004 0.0  2.8303048E-007  3.2132535E-005 0.0  1.5897077E-005  3.9369447E-006 0.0 -7.8039462E-004 -1.7376261E-004 0.0  2.5813842E-005  8.0266659E-006 0.0 -6.7856237E-004 -2.1808902E-004 0.0  7.3653499E-007  2.9859795E-005 0.0 -1.2812441E-004 -5.3945144E-005 0.0  4.9113740E-004 -8.1392480E-005 0.0 -5.0435198E-004  4.5163280E-005 0.0  7.2543102E-005 -7.0693740E-006 0.0 -3.8338864E-004 -1.8971485E-004 0.0  1.1949022E-006  3.2635428E-005 0.0  7.2255994E-005 -3.4818723E-004 0.0 -4.4928968E-004  4.5797469E-005 0.0 -1.2689766E-004 -2.3139625E-005 0.0  1.2373138E-004 -1.3532557E-003 0.0 -2.2227283E-004 -6.5617585E-005 0.0  2.4409544E-004  1.8583507E-005 0.0  6.0101283E-005  2.4431208E-005 0.0 -2.6029877E-004 -2.3373959E-004 0.0 -3.2062706E-004 -6.9612458E-004 0.0  5.6533880E-004 -2.1494417E-004 0.0  4.3686165E-004 -1.6131805E-005 0.0 -1.5324453E-003 -9.4357984E-004 0.0 -2.3499051E-004 -3.8653148E-005 0.0 -1.0220848E-004 -4.0126570E-004 0.0 -1.0631689E-004 -1.5099464E-003 0.0  1.5970208E-004  3.0789524E-005 0.0 -6.7590350E-004 -1.9312312E-004 0.0  1.1921637E-004  1.7400573E-005 0.0  1.0645400E-004 -6.9834936E-006 0.0 -4.9582049E-004 -2.1502843E-004 0.0  3.4069447E-004  3.7897145E-005 0.0 -6.2233273E-006  3.0515374E-005 0.0 -4.6125776E-004 -2.7651987E-004 0.0  7.1115023E-004 -4.3302628E-004 0.0 -8.8015767E-004 -1.9226436E-004 0.0  4.4180243E-004 -1.4062478E-003 0.0 -1.5576739E-004 -2.1019702E-004 0.0 -3.6541729E-005 -8.5709236E-005 0.0 -1.7795219E-004 -2.1924286E-005 0.0 -3.5728127E-004 -2.2696580E-004 0.0 -5.6515335E-004 -8.9617334E-005 0.0 -1.6513441E-003 -1.2333090E-003 0.0  1.7706624E-006  2.9659466E-005 0.0 -3.3605201E-004 -2.8262810E-006 0.0 -2.2548077E-004 -1.6759903E-005 0.0  3.6115411E-005  2.3765400E-005 0.0 -6.3562523E-004 -7.5344861E-005 0.0  7.8718524E-006  3.2692930E-005 0.0  6.8814951E-005  3.7532818E-006 0.0 -7.4499541E-004 -1.7630837E-003 0.0  3.8491883E-004  1.5548042E-005 0.0  2.2529065E-004  1.6561111E-005 0.0  5.7041752E-005 -1.2023668E-005 0.0  5.7744447E-004 -1.0274793E-003 0.0 -1.4694160E-003 -6.9589291E-004 0.0 -5.1032384E-004 -1.6672292E-003 0.0 -3.8699892E-004 -1.6204589E-003 0.0  7.3592687E-004 -6.2288912E-004 0.0  1.1090206E-004 -1.1922044E-003 0.0 -2.3861993E-004 -1.7772022E-003 0.0  2.6839291E-005  1.2728912E-005 0.0 -3.0476713E-004 -2.2659804E-004 0.0  1.4737720E-004  9.5898486E-005 0.0 -1.4647227E-003 -1.6543947E-003 0.0 -1.4051989E-003 -5.3345319E-004 0.0 -6.5077493E-004 -1.6311554E-003 0.0  2.7245378E-004  4.3378155E-005 0.0  1.7534446E-004  3.0631882E-005 0.0 -1.9590431E-005  3.8241619E-005 0.0 -5.9104684E-004 -2.7420420E-004 0.0  6.7691727E-006  1.5985609E-005 0.0 -8.2125450E-004 -2.6610253E-004 0.0 -7.0391790E-004 -2.6679638E-004 0.0 -5.7566863E-005 -5.2388599E-005 0.0 -3.3604344E-005 -3.8245027E-005 0.0 -8.6536844E-004 -2.0410274E-004 0.0 -2.3729953E-004  8.4331167E-005 0.0  7.8918100E-005  2.8668703E-006 0.0 -1.0629939E-003 -2.3400183E-004 0.0 -6.5152184E-004 -2.6581186E-004 0.0 -8.5008023E-004 -2.6934923E-004 0.0 -4.7657426E-004 -2.2250709E-004 0.0 -1.1067977E-004 -2.3863521E-004 0.0 -6.4843626E-006  3.2416885E-005 0.0 -1.3467737E-005  2.9144699E-005 0.0 -9.6905757E-004 -3.9147685E-004 0.0 -5.9239845E-005 -2.3225010E-004 0.0  9.7933126E-005  3.0042744E-005 0.0  7.0734150E-005  1.1460401E-004 0.0  5.0319233E-004 -1.3251597E-003 0.0 -1.4422132E-003 -1.7680637E-003 0.0 -1.3100619E-003 -4.1477663E-004 0.0 -8.0795267E-004 -1.2613776E-004 0.0  4.9703883E-007  3.0058475E-005 0.0  1.9778229E-006  2.6965159E-005 0.0 -7.7112669E-004 -2.6768208E-004 0.0  6.1414205E-004 -2.7039858E-004 0.0  1.0518079E-004  8.5260139E-006 0.0 -1.7331029E-004 -2.3521428E-004 0.0 -3.2172094E-005 -2.8325313E-004 0.0  8.4416292E-007  3.3516231E-005 0.0  1.5944848E-005  6.3098773E-005 0.0 -3.4046876E-004 -1.4221630E-004 0.0 -1.2875731E-003 -1.7708753E-003 0.0 -5.6333487E-004 -1.9884354E-004 0.0  1.6096333E-004 -1.0235922E-003 0.0 -1.5983077E-004 -1.5968444E-005 0.0  1.4047786E-004 -2.6587706E-004 0.0 -5.5224322E-004 -1.1398467E-003 0.0 -1.9023217E-004 -1.6021579E-003 0.0  5.8788341E-004 -4.7540469E-004 0.0  5.2351930E-004 -1.2090473E-004 0.0  1.3495853E-004  1.7094932E-005 0.0  2.9587135E-004  6.3917426E-005 0.0  1.4583265E-005  2.2032231E-005 0.0 -7.2157029E-004 -7.4350290E-005 0.0  6.7343485E-004 -5.9226837E-004 0.0 -9.9967745E-004 -2.2926723E-004 0.0 -1.5536153E-004 -1.4754845E-004 0.0 -1.5948016E-004 -2.4590958E-004 0.0 -1.7807994E-004 -3.5533739E-005 0.0 -4.8921172E-004 -5.3870891E-005 0.0 -9.7787828E-004 -1.7540814E-004 0.0 -1.2297417E-003 -1.9169968E-003 0.0 -7.0623574E-004 -2.0653343E-003 0.0 -2.5486289E-004 -1.9209659E-003 0.0 -4.2510355E-004 -3.7571266E-004 0.0 -5.8710017E-004 -3.7882515E-004 0.0 -7.6785766E-004 -3.7892855E-004 0.0 -9.8282828E-004 -4.0038360E-004 0.0 -1.2304035E-003 -4.9376698E-004 0.0 -1.5049032E-003 -7.2751390E-004 0.0 -1.6700074E-003 -1.1555455E-003 0.0  8.9577527E-005 -1.7005700E-003 0.0  3.2571496E-004 -1.3014748E-003 0.0 -1.5228391E-003 -1.5656926E-003 0.0 -3.0376480E-004 -3.7787109E-004 0.0 -5.0648516E-004 -9.0817916E-004 0.0  4.5078196E-004 -1.3400911E-003 0.0 -5.2102886E-005 -1.1122121E-003 0.0 -1.8640640E-004 -3.7964553E-004 0.0  2.6451772E-004 -1.0545238E-003 0.0 -5.8134140E-004  2.4973445E-004 0.0 -1.0108383E-003 -2.0369315E-003 0.0 -2.6192874E-004 -1.0008932E-003 0.0 -4.1303221E-005 -7.6726247E-004 0.0 -6.7634578E-004 -6.9061788E-004 0.0  2.6155026E-004 -1.5333097E-003 0.0  6.2362175E-004 -9.4281074E-004 0.0 -5.5271654E-005 -1.5645126E-003 0.0 -5.8532417E-005 -1.4258752E-003 0.0 -1.0243716E-004 -3.7786415E-004 0.0 -7.8412904E-005 -9.7339807E-004 0.0 -6.7097512E-004  5.5960384E-005 0.0  1.9352960E-004 -9.4702970E-004 0.0 -3.3659405E-005 -5.9827933E-004 0.0 -3.2883236E-004  3.8177876E-004 0.0 -5.1738599E-005 -1.4716006E-003 0.0  7.1304010E-005 -1.5875084E-003 0.0  7.3940893E-004 -4.8762813E-004 0.0  2.4547111E-004 -1.5310968E-003 0.0 -1.6231510E-003 -9.5962147E-004 0.0 -1.6395811E-003 -1.3701716E-003 0.0 -7.8024339E-005 -1.8273686E-003 0.0 -5.0597000E-004 -2.0261897E-003 0.0 -2.4546225E-004 -3.7780996E-004 0.0 -1.4053418E-003 -6.1208171E-004 0.0 -3.6462641E-004 -3.8218697E-004 0.0 -4.8682373E-004 -3.7766216E-004 0.0 -1.1283670E-003 -4.4587352E-004 0.0 -6.5974999E-004 -3.8221504E-004 0.0 -8.9120932E-004 -3.8934582E-004 0.0 -7.3606514E-004 -4.7952091E-004 0.0 -2.5323441E-005 -4.6016597E-004 0.0 -3.5169370E-005 -1.4069348E-003 0.0 -6.8327397E-004 -4.7685978E-005 0.0  6.6392253E-004  1.6978711E-004 0.0  8.8105672E-005 -9.1725673E-004 0.0 -4.2520897E-005 -3.7548942E-004 0.0  1.4127633E-005 -9.6069922E-004 0.0 -4.0850975E-005 -1.0445406E-003 0.0 -1.3564393E-004 -1.0277147E-003 0.0 -1.0193352E-004 -1.1117679E-003 0.0 -1.0487664E-005 -1.0967628E-003 0.0 -7.8380325E-005 -1.1914948E-003 0.0 -1.7064748E-004 -1.1630811E-003 0.0 -1.5036079E-004 -1.2639711E-003 0.0 -2.3292846E-004 -1.2260851E-003 0.0 -2.3087261E-004 -1.3386674E-003 0.0 -3.1887768E-004 -1.2795221E-003 0.0 -3.2338891E-004 -1.3970204E-003 0.0 -3.9884672E-004 -1.3263333E-003 0.0 -4.3193214E-004 -1.4450394E-003 0.0 -5.0049092E-004 -1.3600790E-003 0.0 -5.3956346E-004 -1.4759924E-003 0.0 -5.8870140E-004 -1.3784985E-003 0.0 -6.4604691E-004 -1.4925014E-003 0.0 -6.8050266E-004 -1.3950442E-003 0.0 -7.4032579E-004 -1.4991250E-003 0.0 -7.5461436E-004 -1.4154728E-003 0.0 -8.0942427E-004 -1.5010641E-003 0.0 -8.1082159E-004 -1.4237707E-003 0.0 -8.4741450E-004 -1.5044119E-003 0.0 -8.4393424E-004 -1.4377195E-003 0.0 -8.0898908E-004 -1.3544652E-003 0.0 -8.3885615E-004 -1.3626597E-003 0.0 -8.1933553E-004 -1.2737945E-003 0.0 -8.3356082E-004 -1.2847904E-003 0.0 -8.3165899E-004 -1.1946235E-003 0.0 -8.2749889E-004 -1.1828903E-003 0.0 -8.3440166E-004 -1.0829763E-003 0.0 -8.1298507E-004 -1.0668873E-003 0.0 -8.6554800E-004 -1.5683036E-003 0.0 -8.7051862E-004 -1.5593262E-003 0.0 -9.1533800E-004 -1.6131146E-003 0.0 -8.8846273E-004 -1.5922973E-003 0.0 -9.3121591E-004 -1.6303062E-003 0.0 -8.7769775E-004 -1.6071625E-003 0.0 -9.3448416E-004 -1.6356425E-003 0.0 -8.4289977E-004 -1.5843264E-003 0.0 -8.4800532E-004 -1.6183116E-003 0.0 -9.1863948E-004 -1.6307599E-003 0.0 -4.5509220E-004 -1.2782515E-003 0.0 -8.3267309E-004 -9.6338269E-004 0.0 -8.9356328E-004 -1.6242909E-003 0.0 -9.8758750E-004 -1.6299033E-003 0.0 -9.9080381E-004 -1.6204310E-003 0.0 -6.0114358E-004 -1.5506676E-003 0.0 -8.8563710E-004 -1.6140749E-003 0.0 -9.4535887E-004 -1.6021300E-003 0.0 -1.0548116E-003 -1.5938503E-003 0.0 -1.0031798E-003 -1.5683323E-003 0.0 -1.1108986E-003 -1.5519834E-003 0.0 -1.0846155E-003 -1.5133629E-003 0.0 -9.6200073E-004 -1.5377964E-003 0.0 -1.0114142E-003 -1.4864907E-003 0.0 -1.1453453E-003 -1.4451840E-003 0.0 -1.0617699E-003 -1.4209806E-003 0.0 -1.1838141E-003 -1.3627051E-003 0.0 -1.1168158E-003 -1.3228882E-003 0.0 -9.8712697E-004 -1.3934054E-003 0.0 -1.0148083E-003 -1.3176307E-003 0.0 -8.8123508E-004 -1.5143986E-003 0.0 -1.1504258E-003 -1.2227659E-003 0.0 -1.0387640E-003 -1.2165139E-003 0.0 -9.2322719E-004 -1.3114329E-003 0.0 -9.5203147E-004 -1.1987784E-003 0.0 -8.2311423E-004 -1.3124591E-003 0.0 -8.2941142E-004 -1.2236274E-003 0.0 -9.6381358E-004 -1.0977238E-003 0.0 -8.3731082E-004 -1.1294011E-003 0.0 -9.4799988E-004 -1.0010775E-003 0.0 -8.4495504E-004 -1.0265433E-003 0.0 -8.0237487E-004 -8.9775542E-004 0.0 -1.1256571E-003 -1.6013711E-003 0.0 -1.1573022E-003 -1.1239691E-003 0.0 -3.2433373E-004 -1.4682461E-003 0.0 -7.4610889E-004 -1.1578913E-003 0.0 -7.5988092E-004 -1.0550918E-003 0.0 -7.0573855E-004 -1.3340598E-003 0.0 -8.4595078E-004 -9.1162233E-004 0.0 -7.3912807E-004 -9.5229486E-004 0.0 -6.7163111E-004 -1.0803041E-003 0.0 -6.5744604E-004 -9.8408752E-004 0.0 -5.7110189E-004 -1.1151293E-003 0.0 -5.7294445E-004 -1.0222713E-003 0.0 -6.4579104E-004 -8.8971231E-004 0.0 -5.5570112E-004 -9.2442908E-004 0.0 -4.9968430E-004 -1.0463409E-003 0.0 -4.8217899E-004 -9.5740559E-004 0.0 -5.4346293E-004 -8.2564142E-004 0.0 -4.5781200E-004 -8.6433735E-004 0.0 -4.2065068E-004 -9.7759730E-004 0.0 -3.8989087E-004 -8.8357757E-004 0.0 -3.4786957E-004 -1.0090075E-003 0.0 -3.2572040E-004 -9.1116020E-004 0.0 -8.1230550E-004 -8.3187092E-004 0.0 -3.7318287E-004 -7.8290489E-004 0.0 -3.0796254E-004 -8.2004416E-004 0.0 -7.6976552E-004 -1.2850702E-003 0.0 -8.1172450E-004 -1.0850373E-003 0.0 -8.1337997E-004 -7.7496942E-004 0.0 -8.8794697E-004 -7.9722203E-004 0.0 -5.0737150E-004 -7.4486544E-004 0.0 -5.7096073E-004 -7.3502641E-004 0.0 -2.9064962E-004 -1.0222872E-003 0.0 -1.4079138E-004 -1.3216064E-003 0.0 -7.2194910E-004 -1.0357077E-003 0.0 -3.7322227E-004 -1.0911167E-003 0.0 -8.2515380E-004 -8.5864008E-004 0.0 -7.1155787E-004 -8.3528391E-004 0.0 -8.1417017E-004 -1.6019011E-003 0.0 -1.1876077E-003 -1.5496485E-003 0.0 -3.4136194E-004 -6.9770415E-004 0.0 -2.8075733E-004 -7.3338307E-004 0.0 -5.8490408E-004 -1.2172506E-003 0.0 -4.5725211E-004 -1.2348721E-003 0.0 -2.5790364E-004 -8.3046281E-004 0.0 -2.3183715E-004 -7.5209439E-004 0.0 -7.7912331E-004 -1.4120371E-003 0.0 -1.2336818E-003 -1.1507548E-003 0.0 -7.7018376E-004 -1.2582978E-003 0.0 -1.2433368E-003 -1.0325698E-003 0.0 -1.1938632E-003 -1.6055127E-003 0.0 -7.5255804E-004 -1.6264257E-003 0.0 -5.3810746E-004 -6.5042792E-004 0.0 -8.5441972E-004 -7.2534247E-004 0.0 -2.6012894E-004 -6.5151018E-004 0.0 -2.0865074E-004 -6.6247902E-004 0.0 -1.8791287E-004 -7.5869543E-004 0.0  1.0937354E-005 -1.1743391E-003 0.0 -5.8816593E-004 -6.2717457E-004 0.0 -1.6012799E-004 -6.8135609E-004 0.0 -1.3250141E-003 -1.0536587E-003 0.0 -9.1925745E-004 -6.8307443E-004 0.0 -7.9874702E-004 -6.5216634E-004 0.0 -6.1918721E-004 -1.2973419E-003 0.0 -7.9935660E-004 -7.4803167E-004 0.0 -3.0930703E-004 -1.1996859E-003 0.0 -5.6380774E-004 -9.6784055E-004 0.0 -5.2839055E-004 -7.0961400E-004 0.0 -3.9652924E-004 -6.8899240E-004 0.0 -3.7130074E-004 -6.1530961E-004 0.0 -4.1513015E-004 -6.0332545E-004 0.0 -1.2668140E-003 -1.5446229E-003 0.0 -1.8710371E-004 -5.9203116E-004 0.0 -1.4286350E-004 -6.1099329E-004 0.0 -1.3316533E-003 -9.2875521E-004 0.0 -1.2274014E-003 -9.4250627E-004 0.0 -8.1160669E-004 -1.4559520E-003 0.0 -1.3107648E-003 -1.1577684E-003 0.0 -1.2722976E-003 -1.6206918E-003 0.0 -1.1810220E-003 -1.6284118E-003 0.0 -6.6047064E-004 -1.6124137E-003 0.0 -5.9161723E-004 -1.6372797E-003 0.0 -9.5820572E-004 -7.6683049E-004 0.0 -9.8654291E-004 -6.6342019E-004 0.0 -1.0201044E-003 -7.4353862E-004 0.0 -6.4736272E-004 -5.6174437E-004 0.0 -5.6050300E-004 -5.5360163E-004 0.0 -8.8024121E-004 -6.2470199E-004 0.0 -8.1463852E-004 -6.6500248E-004 0.0 -6.2427218E-004 -6.9448409E-004 0.0 -6.3500841E-004 -5.9964421E-004 0.0 -6.7095241E-004 -6.6337863E-004 0.0 -6.8439519E-004 -5.7291010E-004 0.0 -1.2357614E-003 -1.4081636E-003 0.0  6.3446400E-005 -1.0939736E-003 0.0  1.0680463E-004 -1.1734618E-003 0.0 -7.7357598E-004 -5.3542405E-004 0.0 -7.8177653E-004 -4.4513863E-004 0.0 -1.2546200E-003 -1.6766333E-003 0.0 -1.1664332E-003 -1.6717509E-003 0.0 -1.2180727E-003 -1.7221662E-003 0.0 -1.1312226E-003 -1.7007600E-003 0.0 -1.1642173E-003 -1.7677117E-003 0.0 -1.0836313E-003 -1.7205110E-003 0.0 -1.1019908E-003 -1.7882543E-003 0.0 -1.0882478E-003 -1.6913625E-003 0.0 -1.0303534E-003 -1.7260446E-003 0.0 -1.0306679E-003 -1.7954650E-003 0.0 -9.6964282E-004 -1.7293244E-003 0.0 -9.4958324E-004 -1.7696144E-003 0.0 -1.0066437E-003 -1.6977181E-003 0.0 -9.9964756E-004 -1.8355763E-003 0.0 -9.1258490E-004 -1.8163827E-003 0.0 -8.7405853E-004 -1.7404828E-003 0.0 -8.3183319E-004 -1.7943945E-003 0.0 -8.0909235E-004 -1.7026275E-003 0.0 -7.4444003E-004 -1.7339113E-003 0.0 -7.5006626E-004 -1.8246460E-003 0.0 -6.7565180E-004 -1.7497214E-003 0.0 -6.6344501E-004 -1.8501013E-003 0.0 -5.9991482E-004 -1.7572256E-003 0.0 -7.6403894E-004 -1.8947111E-003 0.0 -7.3758545E-004 -1.6662435E-003 0.0  3.7346149E-005 -1.2562422E-003 0.0 -1.1254231E-003 -1.6442045E-003 0.0 -1.3968808E-003 -1.0726139E-003 0.0 -1.3761830E-003 -1.1759868E-003 0.0 -3.8580902E-004 -5.3934501E-004 0.0 -3.4687962E-004 -5.5727671E-004 0.0 -1.6400586E-004 -5.2820862E-004 0.0 -1.2106363E-004 -5.4000903E-004 0.0 -2.0086482E-004 -5.3051736E-004 0.0 -5.6574437E-004 -1.8605390E-003 0.0 -5.0991486E-004 -1.7810972E-003 0.0 -5.4114694E-004 -1.6944267E-003 0.0 -4.4791710E-004 -1.6975795E-003 0.0 -4.1022279E-004 -1.7945121E-003 0.0 -3.6309454E-004 -1.6883101E-003 0.0 -4.2719302E-004 -5.2629048E-004 0.0 -3.0357000E-004 -8.6353312E-004 0.0 -4.1047737E-004 -1.0677134E-003 0.0 -2.6978495E-004 -5.8691859E-004 0.0 -5.0607171E-004 -5.9172222E-004 0.0 -8.4639560E-004 -5.6225191E-004 0.0 -7.8789246E-004 -5.9810923E-004 0.0 -7.6709907E-004 -6.8453933E-004 0.0 -1.3278137E-004 -7.6394001E-004 0.0 -1.6223778E-004 -8.5798917E-004 0.0 -1.3069329E-003 -8.3499582E-004 0.0 -1.2203412E-003 -8.4000643E-004 0.0 -1.1583375E-003 -9.4066990E-004 0.0 -1.1359844E-003 -8.4725780E-004 0.0 -1.2200413E-003 -7.4892307E-004 0.0 -4.8340551E-004 -1.6354128E-003 0.0 -8.2195213E-004 -1.6437795E-003 0.0 -1.0502169E-003 -6.3693825E-004 0.0 -5.2577436E-004 -5.0835126E-004 0.0 -7.6787805E-004 -6.2237012E-004 0.0 -7.5672517E-004 -7.8288972E-004 0.0 -9.4480692E-004 -1.8833485E-003 0.0 -1.4161256E-004 -4.7206176E-004 0.0 -1.0452544E-004 -8.5161557E-004 0.0 -1.0421015E-004 -6.1177151E-004 0.0 -7.4503229E-004 -4.1524167E-004 0.0 -1.0879216E-003 -7.1675794E-004 0.0 -8.3544161E-005 -5.5015829E-004 0.0 -1.2960128E-004 -9.5996222E-004 0.0 -8.1265189E-004 -5.0343811E-004 0.0 -3.0648124E-004 -1.7898067E-003 0.0 -2.6088774E-004 -1.6992848E-003 0.0 -3.8892025E-004 -1.8721051E-003 0.0 -3.2150558E-004 -1.6139243E-003 0.0 -2.2387300E-004 -1.5962296E-003 0.0 -1.4554782E-004 -1.6936847E-003 0.0 -1.1970605E-004 -1.5825573E-003 0.0 -1.9074559E-004 -1.5207837E-003 0.0 -1.0039904E-004 -1.4837614E-003 0.0 -1.0175402E-003 -5.6649130E-004 0.0 -8.9423072E-004 -5.4235402E-004 0.0 -1.3562364E-003 -1.5611047E-003 0.0 -1.3246418E-003 -1.4903934E-003 0.0 -1.4299376E-003 -1.4988146E-003 0.0 -1.3994399E-003 -1.4226412E-003 0.0 -1.1079458E-006 -1.5676495E-003 0.0 -6.8655349E-006 -1.4435687E-003 0.0  1.4724161E-004 -1.2521744E-003 0.0 -4.1843424E-004 -1.3428672E-003 0.0 -3.0477243E-004 -1.3590938E-003 0.0 -1.0633980E-003 -1.9016056E-003 0.0 -6.5436281E-004 -5.1304441E-004 0.0 -6.9642492E-004 -4.9856982E-004 0.0 -1.0335819E-003 -8.2087472E-004 0.0 -7.6252279E-004 -5.3534757E-004 0.0 -4.4724972E-004 -6.5900294E-004 0.0 -1.4702574E-003 -1.1000384E-003 0.0 -1.4544990E-003 -1.2032988E-003 0.0 -1.4884564E-003 -9.8467380E-004 0.0 -1.1138085E-003 -6.0962728E-004 0.0 -1.3374697E-003 -1.2664737E-003 0.0 -4.0226591E-004 -4.7126673E-004 0.0 -1.3742488E-003 -8.3930775E-004 0.0 -5.5930142E-004 -4.8279867E-004 0.0 -5.3529590E-004 -4.3408294E-004 0.0 -9.5213239E-004 -1.6587006E-003 0.0 -9.8902719E-004 -1.6530640E-003 0.0 -9.4122451E-004 -1.6861975E-003 0.0 -8.3914742E-004 -1.5997329E-003 0.0 -4.2450700E-004 -1.6127589E-003 0.0 -5.6065975E-004 -1.6133960E-003 0.0 -1.0845596E-003 -9.6285291E-004 0.0 -4.8284937E-004 -5.4056646E-004 0.0 -8.0522459E-005 -9.3853070E-004 0.0  1.4548686E-004 -1.0949164E-003 0.0  9.2717767E-005 -1.0140742E-003 0.0 -3.6507787E-004 -1.2576739E-003 0.0 -7.4310260E-004 -1.5958715E-003 0.0 -7.4503594E-004 -6.5810864E-004 0.0  5.9997567E-005 -1.3377813E-003 0.0  1.7627113E-004 -1.3395279E-003 0.0 -1.0880071E-003 -1.0448377E-003 0.0 -1.2508120E-003 -1.7629613E-003 0.0 -3.2030067E-004 -1.6156663E-003 0.0 -5.4964565E-004 -1.6110163E-003 0.0 -7.1465997E-004 -6.3438603E-004 0.0 -6.9093568E-004 -7.2243051E-004 0.0 -1.9414579E-004 -9.4335132E-004 0.0 -1.4785247E-004 -1.0582312E-003 0.0 -6.0956858E-004 -1.2832373E-003 0.0 -3.8102567E-004 -1.4315649E-003 0.0  9.8544556E-005 -1.5125787E-003 0.0 -1.4191948E-003 -1.3001732E-003 0.0 -1.5160145E-003 -1.2448828E-003 0.0 -1.4932408E-003 -1.4057152E-003 0.0  3.2247824E-005 -7.5292513E-004 0.0  2.2288445E-004 -4.1894058E-004 0.0 -1.9733499E-004 -2.1820619E-004 0.0 -1.3595042E-003 -7.4399070E-004 0.0 -4.7880931E-004 -1.5265130E-003 0.0 -8.3621238E-004 -1.5727111E-003 0.0 -1.0584745E-003 -1.6169975E-003 0.0 -1.0412012E-003 -1.6443431E-003 0.0 -1.1514387E-003 -6.8671952E-004 0.0 -5.7104430E-004 -1.6296681E-003 0.0 -1.1645754E-003 -1.4793647E-003 0.0 -6.1155841E-004 -5.4134449E-004 0.0 -6.2683896E-004 -4.7004558E-004 0.0 -4.4787584E-004 -7.8290625E-004 0.0 -3.3187655E-005 -1.3032177E-003 0.0 -9.9737884E-005 -1.4140256E-003 0.0 -4.3692611E-004 -4.6317325E-004 0.0  2.4220464E-004 -5.4157988E-005 0.0 -1.1801710E-003 -5.7796136E-004 0.0 -2.4120164E-004 -1.4128811E-003 0.0 -3.1241030E-004 -6.4078292E-004 0.0 -2.8437583E-004 -5.7389918E-004 0.0 -2.4416649E-004 -5.8158868E-004 0.0 -2.6159055E-004 -5.1362812E-004 0.0 -3.0039283E-004 -5.1232119E-004 0.0 -2.7857499E-004 -4.5151208E-004 0.0 -2.4205575E-004 -4.6641313E-004 0.0 -1.3089232E-003 -1.4163359E-003 0.0 -7.0255819E-004 -7.7902811E-004 0.0 -7.4785926E-004 -8.8522790E-004 0.0 -6.6462333E-004 -8.6976146E-004 0.0 -7.1843639E-004 -9.7924807E-004 0.0 -6.2606447E-004 -9.4373599E-004 0.0 -6.7406391E-004 -1.0473467E-003 0.0 -6.5507412E-004 -1.9349481E-003 0.0 -5.5595218E-004 -1.9330891E-003 0.0 -7.5817992E-004 -1.9750233E-003 0.0 -8.3884872E-004 -1.9404561E-003 0.0 -8.4237740E-004 -1.8732649E-003 0.0 -8.4121423E-004 -2.0211279E-003 0.0 -4.6450384E-004 -1.8826268E-003 0.0 -1.1027453E-003 -1.8508460E-003 0.0 -4.5346975E-004 -1.9558556E-003 0.0 -7.2696549E-004 -8.5589182E-004 0.0  2.0167598E-004 -1.1542496E-003 0.0 -1.0803592E-003 -5.4460993E-004 0.0 -1.0440949E-003 -4.7985869E-004 0.0 -9.7546122E-004 -5.1425102E-004 0.0 -9.5892334E-004 -5.8351020E-004 0.0 -1.8783166E-004 -4.7101104E-004 0.0 -9.3918250E-004 -9.2397091E-004 0.0 -8.6598838E-004 -4.8340770E-004 0.0 -8.3230882E-004 -4.3082792E-004 0.0 -1.1772624E-003 -1.8413848E-003 0.0 -9.7462468E-004 -1.9523132E-003 0.0 -1.0919770E-003 -1.9821224E-003 0.0 -7.8110070E-004 -4.4293755E-004 0.0 -1.2964607E-003 -7.4440019E-004 0.0 -1.2686473E-003 -6.5934553E-004 0.0 -3.6354855E-004 -4.8414950E-004 0.0 -1.3473582E-003 -1.6428050E-003 0.0  2.5498538E-004 -1.2333268E-003 0.0 -4.9299551E-004 -4.6788566E-004 0.0  2.7351919E-004 -1.1373577E-003 0.0 -1.4131653E-003 -9.7192771E-004 0.0 -1.4895416E-003 -8.8381905E-004 0.0 -1.5506689E-003 -9.2372943E-004 0.0 -6.2522532E-004 -8.1289685E-004 0.0 -3.3288205E-004 -1.9296271E-003 0.0 -1.3138295E-003 -1.7310640E-003 0.0 -4.8677450E-004 -6.6297795E-004 0.0 -7.3491740E-004 -1.5641615E-003 0.0 -5.1027123E-004 -1.5786767E-003 0.0 -7.7277210E-004 -1.5115136E-003 0.0 -5.6019426E-004 -1.5278377E-003 0.0 -1.5018062E-003 -1.5093446E-003 0.0 -1.6280996E-004 -4.1300396E-004 0.0 -1.1964529E-004 -4.2538622E-004 0.0 -1.0556248E-004 -4.6981355E-004 0.0 -7.2965703E-005 -4.8423251E-004 0.0 -1.2012908E-003 -1.2480048E-003 0.0 -7.3168523E-004 -4.7676777E-004 0.0 -2.0866094E-004 -1.3709803E-003 0.0 -2.7697471E-004 -1.2748143E-003 0.0 -6.1146539E-004 -8.2300649E-004 0.0 -1.3273497E-004 -1.5766708E-003 0.0 -4.8839954E-004 -1.5736610E-003 0.0 -3.0788991E-005 -1.5177432E-003 0.0 -3.8758811E-004 -1.5047560E-003 0.0 -6.7465519E-004 -1.5520277E-003 0.0 -6.0587862E-004 -1.4723503E-003 0.0 -2.7279413E-004 -1.4266362E-003 0.0 -5.6848907E-004 -1.3912660E-003 0.0 -1.8901536E-004 -1.3361458E-003 0.0 -5.0242891E-004 -1.2909177E-003 0.0 -1.8679629E-004 -1.2239005E-003 0.0  1.7748071E-004 -1.2355566E-003 0.0 -7.3260124E-004 -1.4246282E-003 0.0 -7.2195186E-004 -1.6008249E-003 0.0 -3.5898597E-004 -9.6726698E-004 0.0 -3.6200535E-004 -1.0848745E-003 0.0 -4.5403266E-004 -1.0248984E-003 0.0 -4.7952935E-004 -1.1530140E-003 0.0 -5.4796788E-004 -1.0773392E-003 0.0 -2.5210287E-004 -1.0721110E-003 0.0 -5.8804901E-004 -1.2079051E-003 0.0 -6.4493215E-004 -1.1301753E-003 0.0 -5.4960592E-005 -5.3578783E-004 0.0 -3.1684396E-004 -4.4544913E-004 0.0 -1.3495602E-003 -6.4956719E-004 0.0 -1.3209464E-003 -5.6574885E-004 0.0 -1.4044207E-003 -1.6603763E-003 0.0 -5.9006921E-005 -1.2621948E-003 0.0 -5.7156932E-004 -9.9069545E-004 0.0 -7.2287719E-004 -1.1741526E-003 0.0 -1.5461026E-003 -1.1358157E-003 0.0 -1.1442639E-003 -1.9257796E-003 0.0 -3.8632215E-005 -1.6555051E-003 0.0 -1.8936265E-004 -1.1026586E-003 0.0 -2.0524367E-004 -1.7779373E-003 0.0 -7.4998399E-005 -1.7438898E-003 0.0 -8.4882598E-004 -1.5189784E-003 0.0 -6.8141214E-004 -1.6071079E-003 0.0 -4.5883965E-005 -1.3750503E-003 0.0 -1.1424882E-004 -1.2895979E-003 0.0 -1.1734950E-004 -1.3654790E-003 0.0 -2.0509563E-004 -1.2537875E-003 0.0 -6.2061904E-005 -8.8182482E-004 0.0 -4.5445910E-004 -5.7452387E-004 0.0 -6.2207402E-005 -6.2747296E-004 0.0 -8.6228677E-005 -6.8052032E-004 0.0 -2.7308901E-004 -1.8478404E-003 0.0 -2.2417347E-004 -1.0268680E-003 0.0 -1.7783699E-004 -1.1551836E-003 0.0  2.4315935E-005 -1.0138487E-003 0.0 -4.1831169E-005 -6.7516168E-004 0.0  8.3627545E-005 -1.6094858E-003 0.0 -1.4252109E-003 -1.5733459E-003 0.0  6.6111684E-005 -1.4467327E-003 0.0 -1.3285032E-003 -1.3476844E-003 0.0 -1.5699266E-004 -9.8278605E-004 0.0 -7.4048721E-004 -1.1848972E-003 0.0 -7.7508057E-004 -9.9388293E-004 0.0 -6.2167751E-004 -1.1428539E-003 0.0 -7.6803727E-004 -6.7630844E-004 0.0 -7.2139379E-004 -4.4148656E-004 0.0 -5.8358035E-004 -2.6021578E-004 0.0 -6.4697160E-004 -1.2234104E-004 0.0 -5.0112583E-004  7.2333053E-005 0.0 -6.8192530E-004 -2.6408797E-005 0.0 -7.7275208E-004 -5.2687534E-004 0.0 -8.1429078E-004 -9.5879711E-004 0.0 -4.3631618E-004 -3.7340189E-004 0.0 -7.4278200E-004 -3.0726727E-004 0.0 -7.9235281E-005 -9.8225989E-004 0.0 -7.4896771E-004 -4.9967569E-004 0.0 -7.2438312E-004 -3.3546067E-004 0.0 -7.8628092E-004 -8.6841614E-004 0.0  4.9172627E-004 -1.1025773E-003 0.0 -1.3566113E-004 -1.4958621E-003 0.0  6.7225878E-004 -2.0150879E-004 0.0  2.2699201E-004  4.7274498E-004 0.0  1.1792616E-004 -1.5590940E-003 0.0 -1.1338314E-004 -1.4398613E-003 0.0 -1.5852323E-004 -1.5193587E-003 0.0 -3.5880923E-004 -1.5338866E-003 0.0 -6.2198384E-005 -1.5715732E-003 0.0 -6.5972870E-004 -4.7368935E-005 0.0 -6.5901797E-004  7.2514654E-005 0.0  6.4466847E-004 -7.0945397E-004 0.0 -3.3280184E-004 -4.5351114E-005 0.0 -7.1138564E-004 -1.8086019E-004 0.0  1.7040606E-004 -1.0168285E-003 0.0  1.1845311E-004 -9.5104425E-004 0.0 -6.7494515E-004 -4.4472268E-004 0.0 -7.1423618E-004 -4.1872572E-004 0.0  8.3908641E-005 -1.4074889E-003 0.0  2.0309240E-004 -1.4336783E-003 0.0 -1.2681977E-003 -1.8166597E-003 0.0 -7.1352428E-005 -3.7848576E-004 0.0 -5.4610113E-005 -4.2728835E-004 0.0 -1.6302563E-003 -1.2487294E-003 0.0  1.6788018E-004 -1.6023916E-003 0.0 -1.6346184E-003 -1.0448373E-003 0.0 -7.9157420E-007 -1.7445146E-003 0.0 -1.6763456E-004 -1.8578943E-003 0.0 -6.0857962E-004 -2.0199047E-003 0.0 -6.5055374E-004 -2.0053507E-003 0.0 -2.1361930E-004 -3.7680709E-004 0.0 -2.7169085E-004 -3.7426675E-004 0.0 -1.5483325E-003 -7.9667875E-004 0.0 -3.3310968E-004 -3.8942792E-004 0.0 -3.4678467E-004 -4.4061263E-004 0.0 -1.4350152E-003 -6.5368650E-004 0.0 -3.9294535E-004 -3.7790087E-004 0.0 -5.2101736E-004 -3.7738655E-004 0.0 -4.5309410E-004 -3.7546356E-004 0.0 -4.6907927E-004 -4.3485795E-004 0.0 -1.0669176E-003 -4.1990803E-004 0.0 -1.1665749E-003 -4.6886274E-004 0.0 -5.5123066E-004 -3.8416555E-004 0.0 -6.1767052E-004 -3.7319379E-004 0.0 -9.2962063E-004 -3.9653237E-004 0.0 -4.1467023E-004 -1.4852304E-003 0.0  1.5010586E-004 -8.8984025E-004 0.0 -1.8092865E-004 -1.4500685E-003 0.0 -7.4387195E-004 -3.3642440E-004 0.0 -7.1184055E-004 -6.0230675E-004 0.0 -1.2717581E-003 -1.3097167E-003 0.0 -6.6274903E-004 -1.6675108E-003 0.0 -4.4287198E-005 -1.2555460E-003 0.0 -2.8952397E-004 -1.5407062E-003 0.0 -3.7627606E-004 -1.5657766E-003 0.0  3.7678276E-004 -1.4711784E-003 0.0 -4.7960120E-005  2.2813321E-004 0.0 -7.1614262E-004 -2.6288528E-004 0.0  2.9104852E-004 -1.4104054E-003 0.0 -7.9716039E-004 -1.5332751E-003 0.0 -7.0736882E-004 -1.4668408E-004 0.0 -5.6533921E-004 -1.3892290E-003 0.0 -3.9279567E-004 -1.9797099E-003 0.0 -7.3476165E-004 -1.3328029E-003 0.0  1.8462399E-004 -1.0572277E-003 0.0 -1.1035769E-003 -7.9647396E-004 0.0 -1.2390305E-003 -5.8130358E-004 0.0 -1.4274284E-003 -7.7663925E-004 0.0 -1.0426671E-003 -8.8886951E-004 0.0 -9.0785901E-004 -4.6819242E-004 0.0 -9.5266539E-005 -4.2610481E-004 0.0 -3.8858533E-004 -4.3084818E-004 0.0 -2.7255143E-004 -9.1619979E-004 0.0 -1.1291775E-003 -5.1791986E-004 0.0 -6.9567684E-004 -1.5519032E-003 0.0 -2.0308273E-004 -4.3165980E-004 0.0 -7.7728770E-004 -7.5245568E-004 0.0 -7.1939079E-004 -3.7116409E-004 0.0 -1.1155620E-003 -1.6161920E-003 0.0 -2.5692010E-004 -1.6099806E-003 0.0 -8.5776221E-004 -1.6442004E-003 0.0 -4.2096779E-004 -1.6157872E-003 0.0 -9.6603895E-004 -8.3905812E-004 0.0 -7.2497090E-004 -1.8258614E-004 0.0 -1.5456083E-003 -1.0419809E-003 0.0 -3.2582502E-004 -5.0420355E-004 0.0 -1.2734743E-004 -1.1419956E-003 0.0 -7.2531494E-004 -5.6599232E-004 0.0 -4.3635490E-004 -9.4457428E-004 0.0 -1.0540810E-004 -7.6183393E-004 0.0 -7.7069122E-004 -1.6280791E-003 0.0 -2.9120087E-004 -1.5756492E-003 0.0 -6.2704378E-004 -1.6812226E-003 0.0  3.8823250E-004 -1.4131999E-003 0.0 -9.1589766E-004 -1.9848094E-003 0.0 -3.6270431E-005 -4.0094213E-004 0.0 -4.0789907E-004 -1.1846143E-003 0.0 -6.5310694E-004 -7.5734135E-004 0.0 -8.1576448E-004 -3.8133779E-004 0.0 -1.1379016E-003 -1.0397558E-003 0.0 -1.2354913E-003 -1.4939301E-003 0.0 -4.6234238E-004 -5.0124113E-004 0.0 -5.7637112E-004 -4.3987786E-004 0.0 -9.6788897E-004 -1.6726293E-003 0.0 -1.0086354E-003 -1.6780611E-003 0.0 -1.0344365E-003 -1.6670218E-003 0.0  2.3585836E-004 -1.0201008E-003 0.0 -1.1132658E-003 -1.6591626E-003 0.0 -6.4935540E-004 -1.4626352E-003 0.0 -1.5570701E-003 -1.3105094E-003 0.0 -7.0131472E-004 -1.2653860E-003 0.0 -9.9945689E-004 -1.6359461E-003 0.0 -1.1606358E-003 -1.9868999E-003 0.0 -1.0194568E-003 -4.0275695E-004 0.0 -1.3038610E-004 -6.8452236E-004 0.0 -1.2724697E-003 -1.2411301E-003 0.0 -2.1170730E-004 -8.5279261E-004 0.0 -9.2225215E-004 -1.7059373E-003 0.0 -2.4115419E-004 -1.1319519E-003 0.0  6.6471513E-005 -9.6853595E-004 0.0 -1.0119718E-003 -9.9950011E-004 0.0 -9.3514705E-004 -1.4575659E-003 0.0 -1.1919196E-003 -6.7318666E-004 0.0 -1.0482515E-003 -1.6937756E-003 0.0  1.9728073E-004 -1.3334117E-003 0.0 -1.0683544E-003 -1.1162978E-003 0.0 -7.8565144E-004 -1.1604717E-003 0.0 -8.7015824E-004 -1.5778410E-003 0.0 -3.0830097E-004 -1.1512915E-003 0.0 -4.2528631E-005 -5.3100544E-004 0.0 -4.8674807E-004 -1.1338090E-003 0.0 -9.5586486E-004 -4.6257503E-004 0.0 -7.4879948E-004 -1.0705120E-003 0.0 -1.4520797E-003 -1.3319703E-003 0.0  3.2946584E-004 -1.1921273E-003 0.0 -9.9185799E-004 -9.1801150E-004 0.0 -6.5040876E-004 -1.2612156E-003 0.0 -1.4497121E-004 -3.7533975E-004 0.0 -4.2138292E-004 -4.2295968E-004 0.0 -8.4595325E-004 -3.8264574E-004 0.0 -7.2744515E-004 -7.5048091E-004 0.0 -4.2494127E-004 -1.0719191E-003 0.0 -3.8343401E-004 -1.1822974E-003 0.0 -8.7996158E-004 -1.3928868E-003 0.0 -8.1888978E-004 -2.0714963E-003 0.0 -8.7343493E-004 -1.6825451E-003 0.0 -6.7566058E-004 -1.1678807E-003 0.0 -8.0392268E-004 -1.6185652E-003 0.0 -6.8336726E-004 -8.0736724E-004 0.0 -1.3571668E-003 -5.6105382E-004 0.0 -1.6531973E-004 -3.6513683E-004 0.0 -8.3844788E-004 -1.5626377E-003 0.0  4.6110221E-006 -1.6856222E-003 0.0 -2.0109219E-004 -1.0293020E-003 0.0 -7.6563720E-004 -1.4822526E-003 0.0 -7.7916020E-004 -1.3570092E-003 0.0 -7.9165670E-004 -1.5957119E-003 0.0 -9.1373716E-004 -2.0363427E-003 0.0  5.2964576E-004 -1.2154098E-003 0.0 -6.8455021E-004 -1.2547274E-003 0.0 -2.6768035E-005  5.3602188E-004 0.0 -7.4512319E-004 -6.2000493E-004 0.0 -2.5737373E-004 -1.1478572E-003 0.0 -3.5927499E-005 -1.3747592E-003 0.0 -1.5900068E-003 -1.4608232E-003 0.0 -1.0257086E-004 -1.0269877E-003 0.0 -3.7676095E-004 -1.2432388E-003 0.0 -1.6074549E-003 -1.2044691E-003 0.0 -6.0458438E-004 -4.3139136E-004 0.0 -1.5304930E-004 -1.8277823E-003 0.0 -9.0698602E-004 -1.8953039E-003 0.0  2.4721894E-004 -1.3368635E-003 0.0 -7.2491353E-004 -1.4868780E-003 0.0 -5.0615978E-004 -1.2481009E-003 0.0 -9.1001418E-004 -1.6740660E-003 0.0 -4.3588766E-004 -1.1442414E-003 0.0 -2.5310607E-004 -1.4682424E-003 0.0 -1.0755169E-004 -1.5988265E-003 0.0 -4.2478607E-004  4.0118824E-004 0.0 -2.3795227E-004 -1.4365628E-003 0.0 -8.1292614E-004 -1.5762023E-003 0.0 -7.6768007E-004 -1.5598112E-003 0.0 -6.7233609E-004 -1.4077740E-003 0.0 -1.3785998E-003 -1.3693265E-003 0.0 -2.2724173E-004 -5.2106630E-004 0.0 -2.2165125E-004 -4.7114705E-004 0.0  2.1209954E-004 -1.0765092E-003 0.0 -3.1583216E-004 -5.7716635E-004 0.0 -9.2963436E-004 -5.3343258E-004 0.0 -6.7792252E-005 -1.4187109E-003 0.0 -1.6081018E-004 -1.3635119E-003 0.0 -5.4936747E-004 -8.4181786E-004 0.0 -6.3777764E-004 -4.1927514E-004 0.0 -6.9377189E-004 -3.6241523E-004 0.0 -7.7861091E-005 -9.9419747E-004 0.0 -2.3750846E-004 -4.2326113E-004 0.0 -6.8789173E-004 -1.3307944E-003 0.0 -5.8653325E-004  2.4484938E-004 0.0 -9.1176287E-004 -1.6501261E-003 0.0 -6.9821417E-004 -1.0215293E-004 0.0 -7.4592664E-004 -4.1926555E-004 0.0 -7.2606078E-004 -2.8087331E-004 0.0 -4.0864450E-004 -1.1901116E-003 0.0  1.2952742E-004 -8.5040028E-004 0.0 -1.0746876E-003 -1.6572066E-003 0.0 -1.3275667E-003 -1.7528407E-003 0.0 -2.6718186E-004 -4.1958285E-004 0.0 -5.0637933E-004 -9.8461401E-004 0.0 -5.0644950E-004 -1.5649813E-003 0.0 -4.4075446E-004 -1.5502847E-003 0.0 -1.1110628E-003 -2.0072193E-003 0.0  1.5876241E-004 -1.5329506E-003 0.0 -4.7671756E-004 -6.0868345E-004 0.0 -5.4746388E-004 -1.9855553E-003 0.0 -4.2418772E-004 -7.4762108E-004 0.0 -6.6998107E-004 -1.3362972E-003 0.0 -7.3463508E-004 -4.5201636E-004 0.0  6.3498267E-004  4.7086674E-004 0.0 -2.8847368E-004 -4.1419394E-004 0.0 -1.0743035E-003 -1.6225315E-003 0.0 -2.1474359E-004 -1.8408444E-003 0.0 -1.5940504E-003 -8.6033429E-004 0.0 -5.6633192E-005 -4.8078224E-004 0.0 -6.5795744E-004 -7.6451291E-004 0.0 -7.2539671E-004 -5.8379822E-004 0.0 -1.0184961E-003 -1.0836219E-003 0.0 -1.2804815E-003 -5.0201956E-004 0.0 -7.3038439E-004 -6.8417164E-004 0.0 -1.3948079E-003 -6.9019057E-004 0.0 -6.4829986E-004 -4.1084317E-005 0.0 -3.0954904E-004 -1.9445619E-003 0.0 -9.1985917E-004 -5.9686407E-004 0.0 -3.0123196E-005 -1.4065072E-003 0.0 -5.3660126E-004 -1.3044168E-003 0.0 -1.4583798E-003 -8.0630052E-004 0.0 -7.1119764E-004 -6.6650424E-004 0.0 -9.5766236E-004 -1.6372789E-003 0.0 -3.2281127E-005 -3.6355008E-004 0.0 -8.7123089E-004 -4.3166793E-004 0.0 -5.0383916E-004 -4.1885246E-004 0.0 -5.2691692E-004 -1.4509788E-003 0.0 -1.1764560E-003 -1.8672026E-003 0.0 -7.6859646E-004 -1.5648910E-003 0.0 -6.9938456E-004 -1.7139770E-004 0.0 -9.9672799E-004 -4.5322122E-004 0.0 -3.2185951E-004 -1.1285007E-003 0.0 -1.0504646E-004 -1.3604163E-003 0.0 -1.1631241E-003 -7.5408261E-004 0.0  3.3339494E-004 -8.4572057E-004 0.0 -1.4128944E-003 -8.7731375E-004 0.0 -5.9151505E-004 -4.9014138E-004 0.0 -1.0483196E-003 -1.6742793E-003 0.0 -6.7989843E-004 -1.6194703E-003 0.0 -1.5827344E-003 -1.0810985E-003 0.0 -1.0902426E-003 -4.8375482E-004 0.0 -4.4346710E-004 -4.1484516E-004 0.0 -1.6610589E-004 -1.1012789E-003 0.0 -1.5848738E-003 -1.1505342E-003 0.0 -8.8293724E-004 -1.8535984E-003 0.0 -7.7596158E-005 -7.0523450E-004 0.0 -4.6594144E-005 -1.5843498E-003 0.0 -2.3888532E-004 -9.1710751E-004 0.0 -8.6226965E-004 -1.4528625E-003 0.0 -6.1834289E-004 -7.3338469E-004 0.0 -4.0928479E-004 -8.0340783E-004 0.0 -1.5582216E-003 -1.4103134E-003 0.0 -1.1501091E-003 -1.5170124E-003 0.0 -9.4427052E-004 -1.6332960E-003 0.0 -6.2183643E-004 -1.6233554E-003 0.0 -8.0176736E-004 -1.5377581E-003 0.0 -1.2348542E-003 -1.4492412E-003 0.0 -2.1774859E-004 -5.7996165E-004 0.0 -5.7798801E-004 -8.9968340E-004 0.0  3.6292126E-004 -6.4121494E-004 0.0 -1.2012014E-003 -1.2998313E-003 0.0 -1.0234705E-003 -1.6247484E-003 0.0 -4.0158728E-004 -1.5033096E-003 0.0 -4.6887994E-004 -7.1748255E-004 0.0 -9.1890485E-004 -8.5321614E-004 0.0 -1.7217513E-004 -1.3774757E-003 0.0 -7.2574740E-004 -1.5915928E-003 0.0 -3.4158270E-004 -6.2093642E-004 0.0 -7.4758732E-004 -2.0265556E-003 0.0 -9.1937010E-005 -1.2977601E-003 0.0  3.4819410E-006  1.7766931E-005 0.0 -1.1164856E-006  3.1429448E-005 0.0  1.7540502E-005 -6.3871166E-005 0.0 -2.3150340E-006  3.6711469E-005 0.0  1.1318632E-006  2.5635076E-005 0.0  1.0157450E-005  9.5755153E-007 0.0  1.3139929E-005 -8.4435416E-005 0.0  7.9438383E-006 -1.0559695E-004 0.0  5.7648789E-006 -6.0032936E-005 0.0 -1.4495974E-006 -7.4767988E-005 0.0 -1.4964540E-006 -9.5318572E-005 0.0  3.4029169E-007 -1.5053741E-005 0.0 -1.4723055E-006 -8.5030002E-005 0.0  2.8748336E-007 -1.2306236E-005 0.0  1.7111798E-007 -1.2458871E-005 0.0 -1.1955977E-006 -6.7305951E-005 0.0 -1.8765874E-007 -1.3495681E-005 0.0 -1.3096277E-006 -8.7059136E-005 0.0  4.0904903E-007 -1.5048744E-005 0.0 -1.3982236E-006 -1.1560634E-004 0.0 -1.6906824E-006 -1.2965936E-004 0.0 -5.4581989E-007 -1.1775033E-005 0.0 -1.1303112E-006 -6.3957211E-005 0.0 -1.7909303E-007 -7.2614954E-006 0.0 -1.6171565E-006 -1.4776528E-004 0.0  3.2456380E-007 -1.3962461E-005 0.0  1.5713339E-006  1.7869714E-006 0.0  2.6613659E-007  4.7364944E-005 0.0  1.5902585E-007 -1.4622439E-005 0.0 -3.4789095E-007 -1.3989051E-005 0.0  7.4935106E-008 -1.1053803E-005 0.0  1.1142589E-006 -1.3133492E-005 0.0 -1.6397155E-006  5.3937505E-005 0.0  1.5065705E-007  5.4469150E-005 0.0  1.6543776E-006  1.1380445E-005 0.0  1.5536147E-006 -4.7857989E-006 0.0  4.9083973E-008  4.5908984E-006 0.0 -2.2326473E-007 -2.4340826E-006 0.0  1.6579912E-006  1.8949753E-005 0.0  8.3958763E-007  1.5661469E-005 0.0  5.4338101E-007 -2.0292966E-004 0.0  2.6094462E-006  2.7296197E-005 0.0  1.6124135E-006  3.7600872E-005 0.0  1.1098564E-006  4.2930657E-005 0.0  1.4189915E-006  2.6563294E-005 0.0  1.7324377E-006  5.3240598E-005 0.0  1.1216710E-008  5.5858919E-005 0.0 -1.8220382E-007  2.8761136E-005 0.0  9.4327584E-006 -1.6622019E-004 0.0  4.8226532E-006 -2.1403195E-004 0.0 -4.6351351E-007 -1.7748949E-004 0.0 -1.5721598E-006 -1.1110051E-004 0.0 -1.1398563E-006 -1.6239902E-004 0.0 -6.1439269E-008 -1.5456830E-005 0.0  2.1031265E-006 -1.5943201E-005 0.0 -2.1827271E-007 -1.2625499E-005 0.0  9.7587790E-007 -6.1162679E-005 0.0 -1.4145207E-008 -1.4619542E-005 0.0  2.8246490E-007 -1.4397091E-005 0.0  9.7407883E-008 -1.3421921E-005 0.0 -1.4549224E-006 -7.9587073E-005 0.0 -3.9367532E-007 -6.2029481E-005 0.0 -3.4419457E-007 -1.4596471E-005 0.0 -1.0684224E-006 -7.0269333E-005 0.0 -1.8558797E-006 -1.0519237E-004 0.0 -1.1721045E-006 -7.3384668E-005 0.0 -2.1742905E-006 -1.2317645E-004 0.0  6.3290954E-007 -1.5478417E-005 0.0 -1.4654947E-006 -1.3850401E-004 0.0  1.5664815E-006 -1.0430885E-005 0.0 -1.4419113E-006 -1.5765502E-004 0.0 -1.5063533E-006 -1.0147074E-004 0.0 -1.4844273E-006 -1.7528539E-004 0.0 -8.8751734E-007 -1.9097663E-004 0.0  4.3245211E-007 -2.0807570E-004 0.0  1.1354455E-006 -2.2010585E-004 0.0  6.8233050E-007 -2.2761302E-004 0.0  2.2987487E-006 -2.2114419E-004 0.0  3.6020537E-006 -2.2348144E-004 0.0  2.3891284E-006 -2.2084738E-004 0.0  8.0482290E-006 -1.9365494E-004 0.0  4.7788153E-006 -2.2712590E-004 0.0  6.8186995E-006 -1.9888934E-004 0.0  2.0898873E-005 -3.9647585E-005 0.0 -1.9664908E-006  4.3566866E-005 0.0  8.0268924E-006 -1.4238315E-004 0.0 -2.4693169E-007  9.6213157E-006 0.0  1.1190962E-007 -1.4731948E-005 0.0 -1.4604405E-006 -9.2060572E-005 0.0  6.7420288E-006 -4.6724135E-005 0.0  3.8354666E-007  2.8825498E-005 0.0  1.0472008E-005 -8.0448374E-005 0.0  2.5198634E-006 -2.8646866E-005 0.0  4.9154538E-006 -2.4224820E-005 0.0 -1.6584701E-006  8.1532016E-006 0.0 -2.9662764E-007  8.5950831E-006 0.0 -2.0935127E-006  1.3569673E-005 0.0 -2.4321582E-006  2.3783655E-005 0.0 -1.6371267E-006  2.2680549E-005 0.0  1.2971695E-006  8.2815727E-006 0.0 -3.3947139E-007  2.1985361E-005 0.0  2.5606324E-006  1.2124162E-005 0.0  6.4201469E-006 -5.3545267E-006 0.0  6.4890164E-006  1.8546244E-006 0.0  8.2507179E-007  2.2249664E-005 0.0 -3.5073829E-007  2.5562472E-005 0.0  1.1173008E-005 -1.9145184E-005 0.0  1.1171952E-005 -9.3052969E-006 0.0  2.9290699E-006  1.6485078E-005 0.0  5.4335398E-006  1.0373580E-005 0.0  5.2773562E-006 -1.5266442E-005 0.0  1.3823277E-006  2.2854290E-005 0.0 -1.3271685E-006  2.6509418E-005 0.0 -6.4704698E-007  2.8137048E-005 0.0  1.2226922E-007  2.7531108E-005 0.0 -1.9594820E-006  2.8878500E-005 0.0 -3.0549746E-006  3.6173743E-005 0.0 -2.0319347E-006  3.3053774E-005 0.0  2.1672842E-005 -2.5673383E-005 0.0  1.7842374E-005 -7.0048314E-005 0.0  2.0276369E-005 -4.4631986E-005 0.0  6.5091735E-006 -6.0520970E-005 0.0  7.9709250E-006 -4.8782286E-005 0.0  5.5562160E-006 -3.1748006E-005 0.0  4.2108869E-006 -3.3703069E-005 0.0 -2.0397601E-006  4.6041856E-005 0.0 -4.0308478E-007  1.0706441E-005 0.0 -1.4852073E-006  4.6703906E-006 0.0  1.0385276E-006  3.1080207E-006 0.0  6.4239208E-006 -5.7717202E-005 0.0  5.8421468E-008  4.9434597E-005 0.0 -6.7174323E-007  3.6685343E-006 0.0  7.5790358E-006 -7.9304031E-005 0.0 -2.6009360E-007 -1.5654673E-005 0.0 -3.1740801E-007 -3.6108498E-005 0.0 -1.9588584E-007 -3.4742811E-005 0.0 -5.6311133E-008 -3.3892896E-005 0.0 -3.1118931E-007 -5.7100726E-005 0.0 -1.1278613E-006 -5.6430622E-005 0.0  6.5098203E-006 -2.0258202E-004 0.0  2.5657022E-006 -7.1730543E-005 0.0  5.3455925E-006 -9.3688135E-005 0.0  4.6371459E-006 -5.8589584E-005 0.0 -5.4752561E-007  1.2186203E-005 0.0 -2.5386706E-009 -1.7191585E-005 0.0 -1.2842238E-007 -3.6034827E-005 0.0  1.6694187E-006  1.4446534E-005 0.0  3.2374805E-006 -5.0198405E-005 0.0  7.1837342E-007 -4.9469038E-005 0.0  3.5749622E-006 -1.5385303E-004 0.0  2.4169456E-006  3.3342240E-005 0.0  4.9999151E-006 -3.5353843E-005 0.0  1.7907555E-006 -3.6655005E-005 0.0  6.1386415E-006 -1.4750966E-004 0.0 -1.6693996E-007 -2.0368358E-005 0.0  1.2673078E-007 -5.0073120E-005 0.0 -5.6268837E-007 -4.9371080E-005 0.0 -7.1599292E-007 -8.8039299E-005 0.0 -2.5520582E-007 -1.9861767E-004 0.0  8.0846103E-007 -1.1008966E-004 0.0  8.7301789E-007 -1.1536548E-004 0.0  2.3732504E-006 -1.0417581E-004 0.0 -3.7287713E-007 -3.1333577E-005 0.0 -1.3080930E-006 -6.7250033E-005 0.0 -6.5513501E-007 -5.1694248E-005 0.0 -5.3948058E-007 -5.1777236E-005 0.0 -2.4293916E-007 -2.8545356E-005 0.0  6.2274326E-008 -1.6510982E-005 0.0 -5.7042848E-007 -3.8531793E-005 0.0  1.0745748E-007 -3.8514562E-005 0.0 -1.0307739E-006 -6.5890220E-005 0.0 -1.4035747E-006 -1.8126845E-004 0.0  3.4541716E-007 -1.0809782E-004 0.0  5.7755093E-007 -1.1857858E-004 0.0  8.7450177E-007 -1.0599328E-004 0.0 -5.3576084E-007 -3.8156026E-005 0.0 -2.4287411E-006 -1.0840523E-004 0.0 -1.0497113E-006 -7.7410851E-005 0.0 -5.7967801E-007 -7.8318925E-005 0.0  2.6447649E-007 -3.5942841E-005 0.0 -6.0317774E-007 -3.7404444E-005 0.0 -8.6914580E-007 -8.5982251E-005 0.0 -2.5517303E-006 -1.0498989E-004 0.0 -1.0961176E-006 -7.8218576E-005 0.0 -1.5065840E-006 -8.0006369E-005 0.0 -6.0418080E-007 -5.9152922E-005 0.0 -5.7679896E-007 -6.1795994E-005 0.0 -1.0755587E-006 -5.9995607E-005 0.0  5.3957715E-008 -3.2495189E-005 0.0 -1.2328704E-007 -2.8800424E-005 0.0 -4.7381417E-007 -1.6884121E-005 0.0  2.0079801E-007 -5.1212420E-005 0.0 -3.1670582E-006 -1.4534755E-004 0.0 -6.2551263E-007 -9.8670455E-005 0.0 -1.9215707E-007 -9.9302825E-005 0.0 -4.8528761E-008 -4.1217496E-005 0.0 -1.6850204E-006 -9.4612349E-005 0.0 -1.4088275E-007 -6.9821676E-005 0.0 -1.0279371E-006 -6.6915831E-005 0.0 -2.9290079E-007 -3.2670674E-005 0.0  1.7012969E-007 -3.6106321E-005 0.0  2.9868560E-006 -5.9541724E-005 0.0  1.8974884E-006 -4.7800027E-005 0.0  7.8081574E-007 -4.7118198E-005 0.0  8.5234352E-007 -2.7313727E-005 0.0  7.1945054E-008 -1.7458788E-005 0.0 -3.5179975E-008 -4.1572591E-005 0.0 -1.0904477E-007 -3.9626788E-005 0.0  2.3831570E-007 -1.2180995E-005 0.0  8.2083609E-007 -5.6460282E-005 0.0  1.1412563E-006 -5.5681669E-005 0.0  5.2364523E-007 -1.1101168E-005 0.0  2.4383948E-008 -5.6882699E-005 0.0  2.0372204E-007 -5.4269883E-005 0.0 -3.5100748E-007 -2.0655365E-004 0.0  7.4910903E-007 -1.0332361E-004 0.0  3.4257250E-006 -9.8141449E-005 0.0  1.8529341E-006 -1.3743576E-005 0.0 -1.9611520E-006 -1.4242974E-004 0.0  1.8414405E-007 -9.3477751E-005 0.0 -1.2654244E-006 -8.9957099E-005 0.0  2.4598258E-007 -4.0654618E-005 0.0 -1.0133666E-006 -9.8708364E-005 0.0 -1.6216586E-006 -1.3427791E-004 0.0 -7.6872167E-007 -9.0982078E-005 0.0 -7.0406066E-007 -8.9234646E-005 0.0 -1.4436163E-006 -1.2609976E-004 0.0 -1.1075515E-006 -8.6947254E-005 0.0 -2.1608447E-006 -1.1588562E-004 0.0 -2.2382613E-006 -7.9181413E-005 0.0 -7.7564407E-007 -6.8942620E-005 0.0  1.0091359E-006 -1.8926096E-005 0.0  4.9840230E-007 -5.4946042E-005 0.0 -1.6473756E-006 -7.4365747E-005 0.0 -7.6645386E-007 -5.7964110E-005 0.0 -1.3773695E-006 -1.9275340E-004 0.0 -1.0394734E-007 -1.1526125E-004 0.0 -2.0191967E-006 -1.6261685E-004 0.0 -1.5630120E-006 -1.5712691E-004 0.0 -3.2662169E-007 -1.0387582E-004 0.0  4.0911297E-007 -1.0522029E-004 0.0 -1.3685669E-007 -4.0437059E-005 0.0 -3.0019954E-006 -2.0234104E-004 0.0 -2.8621500E-006 -1.8042479E-004 0.0  6.8846085E-007 -7.2468389E-006 0.0  1.0211954E-006 -5.6614482E-005 0.0  8.2462844E-007 -5.1230106E-005 0.0  1.6125710E-006 -3.0948625E-006 0.0  2.4775753E-006 -5.8546855E-005 0.0 -1.4843889E-006  4.9379236E-006 0.0 -5.0948909E-007  5.2207175E-005 0.0  2.9549279E-006 -5.1684924E-006 0.0  6.2225689E-007 -1.8897911E-005 0.0  5.9009100E-007 -5.3761804E-005 0.0 -6.0481959E-007 -1.6159280E-005 0.0  6.8671396E-007 -5.7617213E-005 0.0  1.6875501E-006 -1.1485797E-005 0.0 -4.2961775E-007 -1.6875059E-004 0.0  3.2879159E-006 -1.9864056E-004 0.0  1.7566116E-006 -6.8639323E-006 0.0 -1.5430204E-007 -5.8239778E-005 0.0  5.8415788E-007 -1.7780093E-005 0.0 -1.5431332E-006 -2.3014120E-005 0.0  1.1661558E-006  4.1783412E-005 0.0  2.7445328E-006 -2.1166437E-005 0.0  2.0251720E-006 -1.0857251E-005 0.0  6.8404245E-007 -1.8640703E-004 0.0  9.3419687E-008 -1.7636020E-005 0.0 -1.0501100E-006 -6.5564953E-005 0.0 -5.7111334E-007 -5.0393751E-005 0.0 -9.9089546E-007 -1.5306480E-004 0.0 -1.5964704E-006 -1.4078852E-004 0.0 -3.3841343E-006 -1.3554447E-004 0.0 -3.1334577E-006 -1.2700984E-004 0.0 -1.8603803E-006 -8.7227806E-005 0.0 -4.7239226E-007 -6.8981588E-005 0.0  2.1652966E-006  2.5892417E-007 0.0  2.2275395E-006 -5.6547326E-005 0.0  5.8880517E-007  1.2573260E-005 0.0  3.1982040E-006 -5.5056481E-005 0.0 -1.2563592E-006 -8.3123690E-005 0.0 -2.9758390E-007 -2.0187070E-004 0.0 -5.6801444E-008 -1.1369294E-004 0.0  1.2466772E-006 -1.9676784E-004 0.0 -6.4395035E-007 -1.9276898E-005 0.0 -1.8166934E-006 -9.1584819E-005 0.0  2.3647567E-006  4.2606125E-005 0.0  5.8742807E-006 -2.0372510E-004 0.0  3.1633900E-006 -9.5172249E-005 0.0 -1.8219477E-006  1.9250147E-005 0.0 -4.4285680E-007 -1.6364960E-005 0.0 -2.7859278E-008 -4.1211741E-005 0.0  3.0407169E-006 -2.0980103E-004 0.0  8.4076555E-006 -1.5818880E-004 0.0  6.0159185E-007 -5.6878773E-005 0.0  8.8537901E-006 -1.7390786E-004 0.0 -8.9614090E-007 -1.8181344E-005 0.0  3.5662484E-007 -1.6415949E-005 0.0 -1.4396313E-006 -1.1611987E-004 0.0 -3.5808441E-007 -3.5779037E-005 0.0  8.2682670E-008 -5.0924234E-005 0.0 -8.2560819E-007 -6.7641270E-005 0.0 -4.6559072E-007 -1.0267321E-004 0.0  3.5457075E-006 -4.8432624E-005 0.0 -1.9031849E-007 -4.1945153E-005 0.0  2.5235894E-006 -9.8688007E-006 0.0 -5.9602967E-007 -5.6952583E-005 0.0  2.8830716E-006 -5.9315125E-005 0.0  5.3447124E-007  2.7435348E-005 0.0 -2.3385758E-006  4.0973290E-005 0.0  6.3986322E-007  2.4806523E-005 0.0 -1.3728332E-006 -6.8727597E-005 0.0 -3.1533874E-008 -4.5395380E-005 0.0  1.9115369E-006 -9.0394545E-005 0.0  4.5452461E-006 -3.6591327E-005 0.0  6.7332709E-006 -5.6678441E-005 0.0 -2.4083070E-006  2.5624619E-005 0.0  1.5398166E-007  2.8904536E-005 0.0  5.0043187E-006 -5.0626468E-005 0.0 -8.2484467E-007  2.9237581E-005 0.0  1.6636579E-005 -1.2469360E-005 0.0  1.2454473E-005 -3.6526225E-005 0.0 -7.0136897E-007  4.4529571E-006 0.0  6.8056465E-006  8.9777400E-006 0.0  4.0833403E-006 -2.6082170E-005 0.0  1.4580494E-005 -1.6608539E-005 0.0  3.0911519E-006 -3.7713646E-005 0.0 -4.5980853E-007 -3.2842251E-005 0.0 -4.7163617E-007 -3.2672406E-005 0.0  2.1463081E-006  2.2437914E-005 0.0  5.7031360E-007 -1.7486309E-005 0.0 -3.9302079E-007 -1.6456320E-005 0.0 -5.8899577E-007 -3.5848461E-005 0.0  2.8671316E-006 -7.9461118E-005 0.0  4.2450903E-007 -1.2734949E-004 0.0  3.3252149E-006 -1.5409592E-004 0.0 -3.9045943E-007 -5.9887523E-005 0.0  1.5960565E-006 -4.2866005E-005 0.0 -1.0179942E-006 -8.9991972E-005 0.0 -1.2382914E-006 -4.5980167E-005 0.0 -5.9808702E-007 -5.7923825E-005 0.0  1.5473203E-005 -1.5202705E-004 0.0  3.8145833E-006 -9.4703625E-005 0.0  6.0480169E-007 -7.0476583E-005 0.0 -8.3652247E-007 -6.7323006E-005 0.0  3.2711355E-007 -5.3958556E-005 0.0 -7.1443813E-008 -1.1386686E-004 0.0 -8.7503406E-007 -1.0241054E-004 0.0  6.3909169E-007 -5.4057836E-005 0.0 -1.2055865E-006 -1.1066266E-004 0.0  2.8031514E-006 -6.4460663E-005 0.0  2.2591045E-006 -2.7915031E-005 0.0  3.7984895E-007 -1.8626136E-005 0.0  3.9408957E-007 -2.1189251E-005 0.0 -4.5328054E-007 -2.0521342E-005 0.0 -2.6854316E-006 -1.0103530E-004 0.0  4.9129657E-007 -6.2272278E-007 0.0  3.5826155E-006 -2.5973121E-004 0.0  1.8723145E-007 -1.5327635E-005 0.0 -5.0355495E-008 -1.8018985E-005 0.0  1.0740676E-006 -1.7980648E-005 0.0  3.4808858E-007 -2.1324342E-005 0.0  1.6329697E-007 -9.6155151E-006 0.0 -1.8748686E-006 -7.1462530E-005 0.0 -2.7639869E-007 -1.5775487E-005 0.0 -5.2658440E-007 -2.4682229E-004 0.0  3.9065552E-007  3.9882136E-005 0.0 -1.0256548E-006 -6.1146982E-005 0.0  1.8820775E-006  1.6260452E-005 0.0 -1.0420010E-006 -5.9269818E-005 0.0 -4.1714052E-007 -4.9569624E-005 0.0 -1.1990383E-006 -9.7100405E-005 0.0 -4.2461894E-007 -1.8945947E-005 0.0 -1.9769721E-007 -3.4659740E-005 0.0 -8.5295817E-007 -5.6742838E-005 0.0  8.7269686E-007 -1.5176045E-004 0.0  3.3044886E-006 -3.2405323E-005 0.0  1.0187073E-006 -5.4576115E-005 0.0 -1.2698580E-006 -6.5713987E-005 0.0  5.3712775E-006 -1.0743419E-004 0.0  2.4360832E-007 -1.3962925E-004 0.0 -2.7859118E-007 -1.4631253E-004 0.0 -1.5333442E-006 -1.0621167E-004 0.0 -1.2353597E-007 -5.4790867E-005 0.0 -6.4671924E-007 -3.9477602E-005 0.0 -1.4730195E-006 -1.0066144E-004 0.0  1.1481464E-006 -6.0830765E-005 0.0 -3.3632808E-007 -5.0815090E-005 0.0 -1.3787537E-006 -8.8452261E-005 0.0  7.0982499E-007 -5.8004363E-006 0.0  5.5769553E-006 -6.7202800E-005 0.0  1.5347434E-005 -1.8924364E-004 0.0 -1.5369141E-006 -5.1539712E-005 0.0  4.2944709E-006 -4.1695626E-005 0.0  1.1381995E-005 -4.2479405E-005 0.0  2.5997416E-007  2.9109268E-005 0.0  2.3303280E-007  2.7929961E-005 0.0  2.5061849E-005 -2.0486271E-005 0.0  4.6017536E-006 -4.5029539E-005 0.0 -1.3229149E-006  2.8432132E-005 0.0  1.6389141E-005 -2.8082753E-005 0.0  4.4888402E-006 -1.3311338E-004 0.0  3.0124311E-006 -1.3601129E-004 0.0  2.4341908E-006 -4.4943630E-005 0.0  4.7510897E-007 -7.0759295E-005 0.0  1.8120139E-006 -6.5149480E-005 0.0 -6.4645068E-007 -7.9672040E-005 0.0 -2.3736542E-008 -4.9845929E-005 0.0 -3.4102783E-007 -3.5832454E-005 0.0 -5.6499456E-007 -5.0838908E-005 0.0 -8.5086588E-007 -5.8842347E-005 0.0 -7.6815227E-007 -4.4751692E-005 0.0 -1.1855623E-006 -5.4954829E-005 0.0 -1.0463363E-006 -1.1208846E-004 0.0  3.7885969E-006 -1.3440654E-004 0.0 -4.4011464E-007 -5.7920403E-005 0.0  1.1308284E-007 -5.6458132E-005 0.0  2.9144447E-007 -3.5789591E-005 0.0 -8.4128110E-007 -6.0394113E-005 0.0 -2.5101920E-007 -4.0004536E-005 0.0 -1.4569514E-006 -7.9781825E-005 0.0 -8.4380271E-007 -3.7853444E-005 0.0 -9.5699670E-007 -6.4583193E-005 0.0 -8.6307668E-007 -6.6016916E-005 0.0 -5.0302271E-007 -5.1435279E-005 0.0  4.0958914E-008 -5.5137184E-005 0.0 -5.9073399E-007 -6.0407528E-005 0.0 -8.0109578E-007 -5.2745659E-005 0.0  2.2475746E-006 -1.3677108E-004 0.0  2.7899860E-007 -1.4454214E-004 0.0  1.5886057E-006 -5.1404328E-005 0.0  7.3679126E-007 -9.9870667E-006 0.0  1.9434453E-006 -5.5987530E-005 0.0  1.8743934E-007 -5.2459971E-005 0.0 -4.4426649E-007 -6.3828492E-005 0.0 -8.0906663E-007 -1.2652820E-004 0.0 -8.6317947E-007 -6.8285844E-005 0.0 -7.3722345E-007 -1.1700857E-004 0.0 -1.3883181E-007 -1.2625173E-004 0.0 -2.2501527E-007 -4.7053838E-005 0.0 -2.1325914E-006  2.8095924E-005 0.0  4.3018922E-006 -2.9128614E-005 0.0  4.3599846E-006 -1.3144042E-004 0.0  1.6026748E-006 -6.8615219E-005 0.0 -2.6580241E-007 -1.3159562E-004 0.0 -3.6667464E-007 -6.0959917E-005 0.0 -9.9674316E-007 -1.0887675E-004 0.0  3.7101491E-006 -8.5074860E-005 0.0  9.6261124E-006 -1.8476807E-006 0.0  6.1202781E-006 -5.1313638E-005 0.0  9.3719991E-005  1.6996729E-004 0.0  1.1440980E-003  5.0710760E-005 0.0  3.5634400E-004  2.0720542E-004 0.0  8.5800514E-004 -6.3303945E-004 0.0  5.2215714E-004  3.9652527E-004 0.0  4.9386560E-004 -1.0950547E-003 0.0  6.2083391E-004 -1.0195353E-003 0.0  9.6725357E-004 -1.0994962E-003 0.0  8.8949355E-004 -2.9507411E-004 0.0  1.9288727E-004  2.6207191E-004 0.0  1.3645485E-004  2.1100049E-004 0.0  3.9253482E-004 -1.3718020E-003 0.0  9.3764840E-005 -1.1730211E-003 0.0  2.6930534E-004 -1.1653223E-003 0.0  1.7911692E-004 -1.1711914E-003 0.0  6.1327340E-004  1.5022692E-004 0.0  1.1841403E-003 -7.1664685E-004 0.0  7.3140347E-004 -9.0338913E-004 0.0  1.4886627E-004  1.5179621E-004 0.0  8.1496965E-004 -1.2322948E-003 0.0  6.2426259E-004 -1.3256936E-003 0.0  1.2570827E-004 -1.3454356E-003 0.0  2.2042857E-004 -1.3611594E-003 0.0  2.0134979E-004  1.7918475E-004 0.0  7.9481301E-004 -3.6973577E-005 0.0  1.2480554E-003 -3.6748778E-004 0.0  2.9995768E-004  3.2926058E-004 0.0  3.8377925E-004 -1.1435917E-003 0.0  1.1076998E-004  1.3206014E-004 0.0  3.1441767E-005 -1.2985442E-003 0.0  8.4708857E-005  1.4276396E-004 0.0  1.2009595E-004  1.9365007E-004 0.0  1.1763819E-004  1.6700539E-004 0.0  9.9691519E-005  1.5222245E-004 0.0  1.1898272E-004  1.4879495E-004 0.0  1.4268311E-004  1.8585661E-004 0.0  1.6619257E-004  2.0744890E-004 0.0  1.6143635E-004  1.7187196E-004 0.0  7.7674809E-004  3.9623321E-004 0.0  6.0826857E-004  2.7332144E-004 0.0  4.6009720E-004  3.0110802E-004 0.0  7.8664108E-004  2.7184417E-004 0.0  5.2717578E-004  2.0311932E-004 0.0  4.1181780E-004  2.3958064E-004 0.0  1.0785744E-003 -8.9160677E-004 0.0  1.0378636E-003 -7.0773189E-004 0.0  1.0744576E-003 -5.5486248E-004 0.0  9.8459892E-004 -8.5571239E-004 0.0  9.5125531E-004 -5.6514257E-004 0.0  9.6679198E-004 -4.3062430E-004 0.0  2.7548147E-004  1.9516586E-004 0.0  2.9804760E-004  2.4312105E-004 0.0  2.4603995E-004  2.1809504E-004 0.0  2.5643581E-004  2.6968702E-004 0.0  7.9950429E-004 -8.1171828E-004 0.0  8.2657142E-004 -9.6151612E-004 0.0  7.6657493E-004 -1.0239192E-003 0.0  8.5144746E-004 -1.1037606E-003 0.0  8.8706750E-004 -8.5827760E-004 0.0  3.3825346E-004 -1.1536836E-003 0.0  3.0777592E-004 -1.2474521E-003 0.0  2.4377211E-004 -1.2389151E-003 0.0  2.8085598E-004 -1.3329106E-003 0.0  3.4123657E-004 -1.3168553E-003 0.0  6.7911523E-004 -1.2958116E-003 0.0  6.4299361E-004 -1.1960945E-003 0.0  5.6183654E-004 -1.2545938E-003 0.0  5.7844648E-004 -1.1146340E-003 0.0  7.1103188E-004 -1.1634638E-003 0.0  7.1978106E-004  7.7590292E-005 0.0  8.3997665E-004  6.7182904E-005 0.0  9.6196913E-004 -7.6708534E-005 0.0  9.9827835E-004 -1.0218760E-003 0.0  1.4026075E-004 -1.1731173E-003 0.0  1.5952084E-004 -1.2449715E-003 0.0  1.1430317E-004 -1.2419732E-003 0.0  7.2136801E-005 -1.2295378E-003 0.0  9.1972448E-005 -1.3067055E-003 0.0  5.6171843E-005 -1.1779436E-003 0.0  6.9245436E-004 -9.6895021E-004 0.0  1.5934796E-004 -1.3546490E-003 0.0  1.9571582E-004 -1.2820368E-003 0.0  4.7137219E-004 -1.3694400E-003 0.0  4.3423350E-004 -1.2711938E-003 0.0  5.0165121E-004 -1.2679026E-003 0.0  4.5625567E-004 -1.1684825E-003 0.0  2.2941618E-004 -1.1701024E-003 0.0  2.2962679E-004  1.8033353E-004 0.0  2.0313178E-004  2.0479052E-004 0.0  1.1102004E-003 -4.1748965E-004 0.0  8.7959187E-004 -1.4629448E-004 0.0  1.0135364E-003 -2.1392289E-004 0.0  1.0963317E-003 -1.1727071E-004 0.0  1.6499252E-004  2.4436218E-004 0.0  9.4282507E-004  2.7003830E-004 0.0  8.3346463E-004 -7.1465893E-004 0.0  3.9798427E-004  3.5475858E-004 0.0  1.1550760E-003 -5.5526211E-004 0.0  3.7184997E-004  2.7891448E-004 0.0  5.0646259E-004 -1.3639430E-003 0.0  3.7245246E-004 -1.2245349E-003 0.0  7.9836459E-005  1.5370333E-004 0.0  9.2819246E-005  1.3197709E-004 0.0  4.2613973E-005 -1.2133452E-003 0.0  5.7799077E-005 -1.3386958E-003 0.0  4.5610743E-004  1.9098514E-004 0.0  1.3195979E-004  1.3961090E-004 0.0  6.7167702E-004  2.0453644E-004 0.0  2.8595521E-004 -1.4029021E-003 0.0  9.5762873E-004  4.3075845E-005 0.0  1.1636432E-003 -1.4350318E-004 0.0  5.4713234E-004 -1.0314190E-003 0.0  9.5325983E-004 -7.1454325E-004 0.0  8.4184817E-004 -4.9001497E-004 0.0  6.4995523E-004 -1.0943290E-003 0.0  9.5017124E-004 -9.8087259E-004 0.0  5.1238150E-004  1.5891008E-004 0.0  1.3756907E-004  1.6386504E-004 0.0  5.2263750E-004 -1.1778157E-003 0.0  1.7348725E-004  1.5697961E-004 0.0  8.4046147E-004 -1.2092146E-003 0.0  8.8101750E-004 -4.1295297E-004 0.0  2.2347261E-004  3.0225298E-004 0.0  2.2021683E-004 -1.4042622E-003 0.0  2.0537653E-004 -1.2226000E-003 0.0  1.5076639E-004 -1.3067517E-003 0.0  4.3519961E-004 -1.0923539E-003 0.0  2.1684523E-004  2.2726634E-004 0.0  8.3577810E-005 -1.3608607E-003 0.0  6.8170700E-005 -1.2845532E-003 0.0  4.5595252E-005 -1.1603232E-003 0.0  6.7663285E-005  1.4534362E-004 0.0  9.7593594E-005  1.1641546E-004 0.0  3.8396942E-005 -1.3514643E-003 0.0  1.0166996E-004  1.4209439E-004 0.0  3.8603350E-004 -1.2780008E-003 0.0  8.8259464E-004  1.2737107E-004 0.0  1.0799490E-003 -3.1720549E-004 0.0  8.9807711E-004 -7.5348483E-004 0.0  7.5470028E-004 -1.1286599E-003 0.0  7.4374618E-004  1.4803690E-004 0.0  2.3822941E-004 -1.3046419E-003 0.0  1.8306171E-004  2.0407568E-004 0.0  1.0097904E-003 -3.2813581E-004 0.0  7.0091916E-004 -1.0598654E-003 0.0  3.3882511E-004  2.5113768E-004 0.0  3.1259596E-004  2.7712155E-004 0.0  8.9132770E-004 -9.9872523E-004 0.0  4.1105021E-004 -1.2115141E-003 0.0  1.8793208E-004  2.2980339E-004 0.0  1.3189564E-004 -1.2888304E-003 0.0  1.3198625E-004  5.8061759E-005 0.0  1.6414662E-004  5.5973310E-005 0.0  3.1487049E-004 -6.2175772E-004 0.0  3.6939875E-004 -5.6143402E-004 0.0  2.5002814E-004  2.6782027E-005 0.0  2.0392022E-004  4.5887756E-005 0.0  3.0302940E-004 -6.0964617E-006 0.0  4.1052614E-004 -4.8562142E-004 0.0  4.3693694E-004 -4.0060621E-004 0.0  3.5569773E-004 -5.7581945E-005 0.0  4.4352367E-004 -2.6114557E-004 0.0  4.0281486E-004 -1.2795103E-004 0.0  4.3257291E-004 -1.7147968E-004 0.0  4.5556758E-004 -3.1255891E-004 0.0  4.2810813E-004 -4.4240719E-004 0.0  3.9428675E-004 -5.2493140E-004 0.0  1.8292582E-004  5.4961624E-005 0.0  3.8233170E-004 -8.7705390E-005 0.0  2.8674983E-004 -6.5997063E-004 0.0  3.3029984E-004 -2.6974444E-005 0.0  3.5043858E-004 -5.9242246E-004 0.0  2.2483715E-004  3.6934594E-005 0.0  1.4525148E-004  5.8148352E-005 0.0  2.7474318E-004  1.3181664E-005 0.0  4.4920964E-004 -3.5364909E-004 0.0  4.3877267E-004 -2.1280342E-004 0.0  2.6115517E-004 -6.4952019E-004 0.0  1.2111749E-004  6.1681040E-005 0.0  1.1963260E-004  5.3636892E-005 0.0  2.7119999E-004 -6.9945036E-004 0.0 -1.7217602E-006 -4.3655090E-005 0.0 -3.8906187E-006 -6.1595728E-005 0.0 -5.3228503E-006 -8.4438896E-005 0.0 -6.8599770E-006 -1.1463964E-004 0.0 -9.2714224E-006 -1.5050387E-004 0.0 -1.1373053E-005 -1.9599714E-004 0.0 -1.3094248E-005 -2.5137814E-004 0.0 -6.0461386E-004 -1.8667456E-004 0.0 -1.1946878E-005 -3.2857125E-004 0.0 -2.4834776E-006 -1.8290164E-005 0.0 -3.0116465E-006 -5.1531692E-005 0.0  4.1257046E-004 -7.2766509E-005 0.0 -5.9729208E-007 -3.5936144E-004 0.0 -4.9141184E-004 -6.2332172E-004 0.0  2.7879554E-004 -4.0715831E-005 0.0 -1.6829222E-005 -8.2713698E-004 0.0  7.1953619E-005  1.0229969E-004 0.0  9.9831626E-005  5.9546989E-005 0.0 -5.3541979E-006 -7.3012920E-005 0.0 -6.5912732E-006 -9.8045319E-005 0.0 -1.1386062E-005 -2.8451049E-004 0.0  1.5327157E-005 -3.5065163E-004 0.0 -4.5506767E-004  1.2457074E-004 0.0 -4.4702036E-004 -4.2523673E-006 0.0  3.4440337E-005 -3.0661713E-004 0.0  5.8810611E-004 -2.0352451E-004 0.0  2.0064334E-004 -3.4329223E-005 0.0 -8.6579814E-007  5.2715665E-006 0.0  4.0053704E-005  1.6956086E-004 0.0 -3.2829968E-007  7.9943040E-006 0.0 -1.0957721E-005 -1.7360470E-004 0.0 -7.8816069E-006 -1.3294931E-004 0.0 -1.1752358E-005 -2.2054970E-004 0.0 -4.7824824E-007  2.0216755E-006 0.0 -1.0379233E-006 -7.6318238E-006 0.0  1.4557795E-004 -3.6810665E-005 0.0  7.1258674E-004 -4.1969557E-004 0.0  6.2430010E-007  7.3913258E-006 0.0 -1.1438077E-006 -9.5329549E-008 0.0  9.2000963E-005  2.8405464E-004 0.0  3.5425311E-004 -2.5453471E-004 0.0  3.0778261E-004 -1.1760750E-004 0.0  2.2938490E-004 -1.7815531E-005 0.0  1.3913957E-004  3.1712490E-005 0.0  3.1825304E-004 -4.0775244E-004 0.0  2.4543213E-004 -4.9097494E-004 0.0  5.0627683E-005 -2.2483972E-004 0.0 -2.1724806E-004 -7.9694929E-004 0.0 -3.5877724E-004  1.2725670E-004 0.0 -3.0722421E-004  2.5477280E-006 0.0  2.1925727E-004 -7.7131490E-004 0.0  1.5069960E-004 -7.2751930E-004 0.0  1.0874817E-004 -3.9979915E-005 0.0  1.8818410E-005  3.3848245E-006 0.0 -1.8951499E-006 -3.2268048E-005 0.0  2.3392473E-004 -7.0591940E-004 0.0  1.5352820E-004 -6.6646529E-004 0.0  2.3771803E-004 -6.3245911E-004 0.0  1.5205123E-004 -6.0553291E-004 0.0  2.2637609E-004 -5.6160448E-004 0.0  1.5075012E-004 -5.4096234E-004 0.0  9.4506352E-005 -5.9359202E-004 0.0  9.7075286E-005 -5.2952215E-004 0.0  3.5103860E-005 -5.7698771E-004 0.0  2.0295572E-004 -5.0372508E-004 0.0 -3.6192884E-004  5.0652268E-004 0.0 -1.0244440E-006 -3.2460120E-007 0.0 -2.8931810E-007  9.4411247E-007 0.0  4.0446371E-005 -5.0560686E-004 0.0 -2.2796903E-005 -5.4304596E-004 0.0  5.4055933E-005  1.1364868E-004 0.0  3.4876090E-005  1.3234791E-004 0.0  3.4865671E-005  9.2255655E-005 0.0  4.1759933E-007  1.1069412E-004 0.0  2.2956647E-005  6.4817734E-005 0.0 -2.2587654E-005  6.7856292E-005 0.0  7.3647019E-006  4.9949410E-005 0.0 -2.3253227E-005  4.5350170E-005 0.0 -5.9576589E-004 -4.7343535E-004 0.0  7.4625670E-004 -7.6976240E-004 0.0 -3.2561093E-006 -5.5063111E-005 0.0 -2.0969461E-006 -4.7394289E-005 0.0 -5.5294162E-006 -6.7023029E-005 0.0 -1.0024838E-005 -3.4754047E-004 0.0  4.9659211E-005 -1.2939028E-004 0.0 -3.8055339E-007  3.3989926E-005 0.0 -1.7694356E-005  2.8771968E-005 0.0 -2.3051017E-006  2.4898767E-005 0.0 -1.1873550E-005  1.8427630E-005 0.0 -2.4205506E-005  2.2952224E-005 0.0 -1.4929148E-005  1.3095661E-005 0.0 -2.4798757E-005  1.1827671E-005 0.0 -1.5366796E-005  8.7092655E-006 0.0 -2.2095814E-005  5.3415372E-006 0.0 -1.4100205E-005  4.8606624E-006 0.0 -1.7966580E-005  7.7239034E-007 0.0 -1.2113251E-005  2.7196482E-006 0.0 -2.8716154E-005 -1.1533449E-006 0.0 -1.4331713E-005 -8.5498293E-007 0.0 -9.9360373E-006  1.0832416E-006 0.0 -1.1116206E-005 -1.7072664E-006 0.0 -8.0977775E-006  2.8136817E-007 0.0 -8.7074157E-006 -2.3654753E-006 0.0 -6.4276141E-006 -2.3013496E-007 0.0 -6.6042618E-006 -2.0352059E-006 0.0 -5.0819120E-006 -3.1821334E-007 0.0 -5.0050976E-006 -1.8069838E-006 0.0 -3.9462885E-006 -4.4936426E-007 0.0 -3.8291831E-006 -1.4691760E-006 0.0 -3.1425357E-006 -3.8126283E-007 0.0 -8.4307937E-007  9.8145135E-008 0.0  4.2612964E-006 -4.7469760E-004 0.0 -6.8859709E-005 -4.9919478E-004 0.0 -4.5728582E-007 -3.0887158E-006 0.0  4.2818413E-005 -2.0409886E-008 0.0  1.7402643E-004 -9.9911631E-004 0.0 -9.2210120E-005  7.2770395E-004 0.0 -3.0319890E-006 -1.1565247E-006 0.0 -1.0264292E-005  8.5306385E-006 0.0 -6.0985019E-006  1.3042077E-006 0.0  3.4852717E-004 -9.1553040E-004 0.0  7.3976325E-006  2.2746582E-006 0.0 -6.3392468E-006 -3.4173597E-006 0.0  7.5034058E-005 -3.8042004E-005 0.0 -3.6906097E-006  1.8028663E-005 0.0  1.9366011E-006  1.9979353E-005 0.0 -2.4632868E-006 -3.8896208E-007 0.0  4.8985365E-005 -2.0679361E-005 0.0 -2.5890716E-006  1.2990998E-007 0.0  1.9194948E-004 -6.7325632E-004 0.0 -7.8775784E-006 -4.2282316E-005 0.0  1.5691543E-005  3.7111456E-005 0.0 -5.0819743E-007  1.5434029E-005 0.0  4.3101047E-006  1.5924341E-005 0.0 -2.3212877E-006 -9.0762133E-007 0.0 -2.8384868E-006 -1.5471591E-006 0.0 -2.0364220E-006  2.8385663E-008 0.0 -3.1454308E-005 -4.3601697E-004 0.0 -7.8757266E-005 -4.2742647E-004 0.0  2.6543405E-004 -4.9494965E-004 0.0  2.3895474E-004 -4.4932029E-004 0.0 -2.0189259E-006  4.8711093E-007 0.0  3.0127825E-004 -4.3384074E-004 0.0  2.6326762E-004 -3.8872705E-004 0.0  2.0385805E-004 -4.1240431E-004 0.0  2.3038258E-004 -3.5779482E-004 0.0  1.7658451E-004 -3.8385547E-004 0.0  1.9537180E-004 -3.3206891E-004 0.0  1.4979972E-004 -3.6302819E-004 0.0  1.6542087E-004 -3.0768308E-004 0.0  1.2370664E-004 -3.4450478E-004 0.0  2.4243560E-004 -2.9841421E-004 0.0  6.3049182E-005 -2.2674079E-004 0.0  3.0328151E-004 -6.6305304E-004 0.0  3.2030195E-004 -3.5665031E-004 0.0 -2.1077069E-006 -1.2029126E-006 0.0 -2.4680931E-006 -1.8690828E-006 0.0 -1.5937925E-005 -4.0156596E-006 0.0 -8.6335586E-006  3.4058904E-006 0.0 -4.0178221E-006  3.9034859E-007 0.0 -7.3607255E-007  3.7863326E-006 0.0 -7.7992844E-007  6.8364870E-006 0.0  1.2483335E-006  5.4995128E-006 0.0  4.8474074E-005 -8.5871476E-005 0.0 -1.6005249E-006  3.1384482E-007 0.0  4.8249645E-004 -1.1019046E-004 0.0  3.2536631E-004 -4.4387671E-005 0.0  2.3709943E-004 -3.4220738E-005 0.0  1.7310405E-004 -3.7904944E-005 0.0  6.6262851E-004 -2.8975283E-004 0.0  7.5332018E-004 -5.7855804E-004 0.0 -4.6149517E-006 -3.8022999E-005 0.0  3.6437187E-004 -3.9644595E-004 0.0 -4.9480399E-007  1.5637119E-007 0.0 -4.0940737E-005  1.8386749E-005 0.0  6.6926114E-004 -9.7779049E-004 0.0  1.5506928E-006  1.2469555E-005 0.0  4.4371403E-006  1.2130683E-005 0.0 -1.6265717E-006  1.2211917E-005 0.0  8.1660640E-006  1.6260122E-005 0.0 -6.1210310E-007 -4.6931764E-007 0.0  7.4318057E-006  1.0571298E-005 0.0  1.7042803E-004 -5.8158652E-004 0.0 -1.6062227E-006 -4.9121440E-008 0.0  1.2719521E-004 -2.9943553E-004 0.0  1.6085053E-004 -2.5722538E-004 0.0 -1.4883822E-004 -4.9207429E-004 0.0 -1.4707045E-004 -3.7673189E-004 0.0 -8.2475974E-005 -3.4434018E-004 0.0 -1.1516124E-004 -2.7730544E-004 0.0  3.7057360E-004 -3.2230789E-004 0.0  2.5542370E-004 -9.6119556E-004 0.0 -1.4656862E-006  6.5862055E-007 0.0 -1.9932454E-006  9.7013538E-007 0.0 -1.2159310E-006  4.8156149E-007 0.0 -1.8479872E-006 -1.4189415E-006 0.0 -1.9528736E-006 -2.0457368E-006 0.0 -2.6908046E-006 -2.7768868E-006 0.0  9.5734441E-005 -3.3447916E-004 0.0  1.4702206E-004  4.5332087E-004 0.0  5.6845369E-007  1.0696002E-005 0.0 -1.5350788E-006  9.8277563E-006 0.0  4.2522191E-004 -3.5598079E-004 0.0  4.0522890E-004 -4.2368573E-004 0.0  1.2703858E-004 -2.5798878E-004 0.0  1.5181815E-004 -2.1807020E-004 0.0  1.8239078E-004 -2.2123217E-004 0.0  1.7324705E-004 -1.8270666E-004 0.0  1.4051211E-004 -1.9150391E-004 0.0  2.0104265E-004 -1.8348313E-004 0.0  1.6184979E-004 -1.5659466E-004 0.0  1.3718251E-004 -1.5637277E-004 0.0  1.2358293E-004 -1.8863184E-004 0.0  1.1434675E-004 -1.6119154E-004 0.0  1.2814469E-004 -1.2793986E-004 0.0  1.0642666E-004 -1.3465170E-004 0.0  9.7617224E-005 -1.6077266E-004 0.0  8.0230384E-005 -1.0274970E-003 0.0  2.7365068E-004 -5.3674947E-005 0.0  2.6210455E-004 -8.2712406E-005 0.0  8.9624891E-005  8.1586739E-005 0.0  3.2654113E-004 -1.6844944E-004 0.0 -4.2799787E-004  3.4227773E-004 0.0 -3.4235786E-004  3.7963636E-004 0.0  5.5589501E-005  2.2300536E-004 0.0 -1.3911816E-005  1.9270393E-004 0.0  2.7035230E-004 -4.5876147E-004 0.0  2.4770488E-004 -3.7509352E-004 0.0  1.1387823E-004  3.1577399E-005 0.0  1.0214115E-004  4.1439555E-005 0.0  1.2924944E-004  2.3035344E-005 0.0  9.7184580E-005  2.3281678E-005 0.0  1.2440164E-004 -1.0433229E-006 0.0  8.0063975E-005  2.3784101E-006 0.0  6.2873824E-005  2.7173381E-005 0.0  9.8960197E-005 -1.7912455E-005 0.0  1.7841252E-004  1.8370304E-005 0.0  3.2808616E-004 -3.5067244E-004 0.0  2.9695762E-004 -2.7284927E-004 0.0  1.1235384E-005  1.2770602E-005 0.0 -3.5638218E-004 -7.2747919E-004 0.0 -3.6556172E-004 -6.2183413E-004 0.0  5.7672778E-005  9.7339584E-006 0.0 -4.9442204E-006 -7.8875283E-005 0.0 -6.7707991E-006 -8.1101985E-005 0.0 -6.1817352E-006 -9.0072346E-005 0.0 -1.2732465E-005 -2.7135027E-004 0.0 -1.8311164E-005 -2.7758323E-004 0.0 -1.3200119E-005 -2.9711776E-004 0.0 -1.2711825E-005 -1.5916380E-004 0.0 -1.6487552E-005 -1.5201084E-004 0.0 -9.6293313E-006 -1.4034021E-004 0.0 -1.2556794E-005 -1.3487525E-004 0.0  6.1936952E-006 -3.6386075E-004 0.0  2.4613839E-005 -3.3725154E-004 0.0  2.5867621E-005 -3.6540399E-004 0.0 -8.5154321E-006 -1.2263763E-004 0.0 -1.1208304E-005 -1.1575288E-004 0.0 -7.3995106E-006 -1.0635837E-004 0.0 -1.3763465E-005 -2.3139293E-004 0.0 -1.9007478E-005 -2.3936445E-004 0.0 -1.0581807E-005 -1.8422900E-004 0.0 -1.5920974E-005 -1.8901749E-004 0.0 -1.2758314E-005 -2.0586380E-004 0.0 -1.7273849E-005 -2.1291211E-004 0.0 -3.7438367E-006 -5.7707875E-005 0.0 -4.1422497E-006 -5.8934835E-005 0.0  4.5609888E-005 -2.7326046E-004 0.0  1.0996664E-004 -3.9586105E-004 0.0 -1.3112870E-006  1.0154279E-006 0.0 -1.7205209E-006  1.4494305E-006 0.0 -1.8105295E-005 -6.1125049E-004 0.0  1.3106519E-004  1.0515858E-004 0.0  3.4653359E-004  4.0860504E-005 0.0  3.2469089E-004 -8.1975073E-004 0.0  1.6358872E-004  9.1500387E-005 0.0  4.4714220E-004 -3.6733356E-005 0.0  3.7286773E-004 -7.5112165E-004 0.0  3.1207459E-004  1.1524990E-004 0.0  5.1560103E-004 -8.1046744E-004 0.0  6.6619785E-004 -5.7664989E-004 0.0  2.1508102E-004  8.3523102E-005 0.0  6.8953893E-004 -3.1425473E-004 0.0  6.0082420E-004 -7.2714295E-004 0.0  6.7457424E-004 -4.0454857E-004 0.0 -1.7324048E-006 -7.8145524E-007 0.0 -1.9500258E-006 -2.8885323E-006 0.0 -1.5638944E-006 -2.0809332E-006 0.0 -2.7532272E-006 -3.9003077E-006 0.0 -2.0076449E-004  1.2822902E-004 0.0 -1.6809111E-004  2.4001701E-005 0.0  3.9645824E-006  9.9439173E-006 0.0  6.5097248E-006  8.2487991E-006 0.0  4.7164996E-004 -3.9414086E-004 0.0  4.4137732E-004 -4.5788161E-004 0.0  4.1998726E-004 -2.8378088E-004 0.0  3.6485552E-004 -2.7668073E-004 0.0  1.1644290E-004 -9.3015938E-004 0.0  1.1731820E-004 -1.0483912E-004 0.0  9.8196114E-005 -1.1340417E-004 0.0  1.3518528E-004 -1.0329889E-004 0.0 -2.2011518E-004 -1.0640523E-004 0.0 -1.3504114E-004 -3.4593573E-005 0.0  5.1798212E-004 -4.2993752E-004 0.0  4.9922011E-004 -4.9606682E-004 0.0 -3.4320735E-006 -3.9435678E-005 0.0 -3.8845751E-006 -3.5086892E-005 0.0 -2.8417780E-006 -2.9494067E-005 0.0 -7.3836258E-006 -3.4893882E-005 0.0 -6.4083347E-006 -2.6577960E-005 0.0 -1.4254067E-005 -3.5109062E-005 0.0 -1.0351867E-005 -2.3532994E-005 0.0 -1.9271402E-005 -2.9592509E-005 0.0 -1.4572446E-005 -1.8815467E-005 0.0 -8.6383056E-006 -1.5885418E-005 0.0 -2.3824044E-005 -4.8825256E-005 0.0 -2.9949311E-005 -3.6868486E-005 0.0 -4.2503485E-005 -6.5220942E-005 0.0 -1.0454291E-005 -1.2302150E-005 0.0 -7.2718912E-006 -1.0296803E-005 0.0 -1.8578885E-006 -3.8410591E-006 0.0 -2.2077941E-007  4.7821054E-007 0.0 -3.5693906E-006  1.1778412E-005 0.0 -2.6695839E-006  8.8186882E-006 0.0 -3.4939747E-006 -3.5660026E-006 0.0 -5.6964739E-006 -3.8688271E-005 0.0 -1.5179351E-006 -9.9996612E-007 0.0 -3.0323604E-007 -1.3287987E-006 0.0  7.7474971E-005 -7.6537012E-004 0.0  4.1213625E-004 -5.2161843E-004 0.0  4.6108488E-004 -5.6748666E-004 0.0  5.4433498E-004 -5.4339182E-004 0.0  4.9708055E-004 -6.1840378E-004 0.0 -4.8563814E-005 -3.9319881E-005 0.0  4.4698346E-004 -1.0368872E-003 0.0 -3.0147171E-005 -2.3210193E-005 0.0  4.1380235E-004 -2.2381267E-004 0.0  3.7043700E-004 -2.2171559E-004 0.0  3.3495313E-004 -2.5964787E-004 0.0  3.3145499E-004 -2.1407497E-004 0.0  4.5892164E-004 -2.4351513E-004 0.0  3.4596789E-006  7.8753836E-006 0.0  4.9180075E-006  6.4984652E-006 0.0  7.8734123E-006  7.0306297E-006 0.0 -1.9484647E-007  9.4107964E-006 0.0  1.2344718E-004 -8.2028845E-005 0.0 -2.1030573E-004 -3.0503792E-004 0.0 -1.4192319E-004 -1.9196689E-004 0.0 -9.1737078E-006 -4.1754893E-005 0.0 -8.1734158E-005 -2.0485726E-004 0.0 -2.8178418E-006 -5.4186294E-006 0.0  1.6554308E-004 -4.4295448E-004 0.0  3.6787895E-004 -1.6982966E-004 0.0  3.2599552E-004 -1.6834851E-004 0.0  3.0259432E-004 -2.0795550E-004 0.0  2.9687270E-004 -1.6546724E-004 0.0  2.7346297E-004 -1.9873676E-004 0.0  2.6516082E-004 -1.6283500E-004 0.0  2.9092844E-004 -1.2218469E-004 0.0  2.6089723E-004 -1.2318455E-004 0.0  3.5318672E-004 -1.2538760E-004 0.0  5.2155495E-004 -3.4316660E-004 0.0  2.1044125E-004 -2.1848983E-004 0.0 -4.9204815E-006 -1.3196229E-005 0.0  1.3827279E-004 -6.7922609E-004 0.0 -1.4288279E-006 -5.5294123E-007 0.0  1.6466172E-006  2.7710551E-006 0.0  2.5908887E-004  7.4905568E-004 0.0  5.2675708E-005 -3.7141594E-005 0.0  1.3403264E-005  1.8601757E-005 0.0  1.7355003E-005  1.3462702E-005 0.0 -1.9320845E-006 -4.4197037E-005 0.0  2.2932627E-005  2.1068168E-005 0.0  2.5926350E-005  1.3786783E-005 0.0 -4.9704181E-006  9.6111064E-006 0.0 -3.6059130E-006  7.9388285E-006 0.0 -1.6643556E-006  8.1759117E-006 0.0 -2.3623606E-006  6.9189789E-006 0.0 -3.9123159E-006  7.0042419E-006 0.0 -2.5041218E-006  5.9690318E-006 0.0 -3.8831388E-006  5.5968857E-006 0.0 -2.4684608E-006  5.0102817E-006 0.0 -3.6349246E-006  4.5497345E-006 0.0 -2.2942177E-006  4.1905576E-006 0.0 -3.2603198E-006  3.5192220E-006 0.0 -2.0451998E-006  3.3918477E-006 0.0 -2.8462617E-006  2.8103683E-006 0.0 -1.7791693E-006  2.7888230E-006 0.0 -4.7675853E-006  3.6987909E-006 0.0 -5.5928809E-006  6.2030416E-006 0.0 -2.3719804E-006  2.1151852E-006 0.0 -1.6157302E-006  2.2156064E-006 0.0 -3.5390801E-006  2.1604110E-006 0.0  1.2580639E-006  9.5484182E-006 0.0  3.9948240E-007  8.5742000E-006 0.0  1.4165370E-005  9.0603830E-006 0.0 -2.3998568E-006  1.1671508E-006 0.0 -1.5888718E-006 -4.3524745E-007 0.0 -1.6831437E-005 -1.3470155E-005 0.0 -1.1037364E-005 -8.6457125E-006 0.0 -1.0277897E-006  1.4117555E-006 0.0 -9.1376286E-007  1.0459954E-006 0.0  9.4267617E-005 -5.5595110E-004 0.0  1.4445194E-004 -4.6184991E-004 0.0  1.4049480E-004 -7.7312579E-005 0.0  1.5176148E-004 -9.7742191E-005 0.0  5.6227603E-005 -3.1250819E-004 0.0 -5.5023430E-005  1.0871775E-004 0.0  5.8888287E-004 -6.0804652E-004 0.0  5.4661367E-004 -6.8518013E-004 0.0  4.4950986E-004 -6.8850983E-004 0.0  4.8263381E-004 -7.5559079E-004 0.0  3.9913978E-004 -7.5198180E-004 0.0  7.0418690E-005  7.9929103E-005 0.0 -4.6458698E-005 -2.0179788E-005 0.0  6.0067679E-004 -1.0887172E-004 0.0  4.8121771E-004  2.8157447E-005 0.0  5.4472730E-004 -1.8103704E-004 0.0  4.8241863E-004 -6.4403529E-004 0.0  5.3421950E-004 -5.3072261E-004 0.0  5.5846346E-004 -2.9044402E-004 0.0  3.9446149E-004 -9.3969644E-004 0.0  1.8803212E-004  1.1453460E-004 0.0  1.1247941E-004  8.0261008E-005 0.0  5.5251746E-004 -4.2592546E-004 0.0  1.5413703E-004 -7.0940508E-005 0.0  1.6728795E-004 -8.9894823E-005 0.0  2.8619724E-005 -5.9548022E-005 0.0  5.8882949E-004 -7.6585906E-004 0.0  4.9816536E-004 -8.2690005E-004 0.0  1.2981094E-004 -5.8928067E-005 0.0  1.5650244E-005 -4.2695150E-004 0.0 -3.4529746E-005 -3.8429365E-004 0.0 -9.9214278E-007  2.7533366E-006 0.0 -2.7156930E-004 -6.4895634E-004 0.0 -4.8101618E-006 -8.5861010E-006 0.0 -6.0462911E-006 -7.1003900E-006 0.0 -4.0579245E-004 -4.9581561E-004 0.0 -1.2838105E-006 -6.5435348E-007 0.0 -1.2633762E-006 -9.8372488E-007 0.0  5.9065840E-006  4.5900555E-006 0.0  7.3931812E-005 -4.1789352E-004 0.0  1.1495915E-004 -6.8379478E-005 0.0  2.0156411E-004 -5.2089943E-004 0.0  2.4216221E-004 -1.6016662E-004 0.0  2.3217679E-004 -1.2958099E-004 0.0  2.4748093E-004 -9.3154640E-005 0.0  2.2400257E-004 -9.9554811E-005 0.0  2.1300960E-004 -1.2891440E-004 0.0  2.0216760E-004 -1.0253550E-004 0.0 -5.2630675E-005 -3.4073062E-004 0.0  5.7950613E-004 -3.8679824E-004 0.0 -5.8775391E-007  1.3431078E-006 0.0 -6.6973249E-006  1.2290051E-005 0.0 -3.1118071E-006 -9.8709697E-006 0.0 -3.7833496E-004 -1.2840411E-004 0.0 -3.9424596E-004 -2.4115056E-004 0.0  1.9290587E-004 -1.3099060E-004 0.0  6.1519465E-004 -5.0075663E-004 0.0 -2.8189612E-005 -7.1798399E-005 0.0 -9.0667017E-005  3.3356839E-005 0.0 -7.8595765E-005 -2.4749908E-007 0.0  3.8412238E-004  8.1563430E-005 0.0  2.7566840E-004  7.4888003E-005 0.0  2.1639023E-004 -7.1768039E-005 0.0  1.9387003E-004 -7.9276261E-005 0.0 -2.9082072E-006 -3.8955562E-005 0.0 -1.6413662E-006 -4.9854432E-006 0.0  4.4900987E-004 -1.7724804E-004 0.0  4.9853892E-004 -1.9450340E-004 0.0  7.3908849E-005  6.0757928E-005 0.0  4.8360521E-005  6.0271635E-005 0.0  5.7226158E-004 -3.0706545E-004 0.0  5.1568960E-004 -2.9100288E-004 0.0  3.8589806E-004 -5.8708944E-004 0.0  3.4018839E-004 -5.4399076E-004 0.0  6.0161064E-004 -8.5033186E-004 0.0  2.6659147E-004 -8.5172947E-004 0.0  1.9875712E-004 -2.8212509E-004 0.0 -1.5747768E-004  4.5424866E-004 0.0 -1.3854124E-004  2.6659536E-004 0.0  2.7817421E-004 -1.9449398E-004 0.0  2.2813040E-004 -2.2775865E-004 0.0  2.1764496E-004 -4.5714557E-005 0.0  2.0074914E-004 -8.5522940E-005 0.0  6.1908869E-005 -2.7190064E-004 0.0  3.9530697E-005  2.3495115E-005 0.0  3.3163827E-006  5.2483767E-006 0.0  4.3574036E-006  3.5692624E-006 0.0 -1.2812185E-006 -3.6209867E-006 0.0 -1.3292078E-006 -3.0060429E-007 0.0 -1.3765943E-006 -1.6859101E-007 0.0  9.3085616E-005 -7.0113311E-004 0.0  2.1069152E-005 -7.4043848E-004 0.0 -7.6437732E-005 -7.7709373E-005 0.0  2.7828926E-004 -2.4358127E-004 0.0  2.5166599E-004 -2.2959865E-004 0.0  1.3546471E-006  8.3937086E-006 0.0  5.2294756E-004 -9.0574619E-004 0.0 -2.8379024E-005 -9.8822077E-006 0.0  3.9248824E-004 -1.3563513E-004 0.0 -4.5550250E-007  8.3827873E-006 0.0  1.6942221E-004 -6.3487904E-005 0.0 -1.1900818E-006 -1.0619072E-007 0.0 -1.1914665E-006  1.3256034E-008 0.0 -1.0598146E-006  1.3410500E-009 0.0  2.9788475E-004 -7.4817862E-004 0.0  8.7025140E-006  4.3687572E-006 0.0  3.2164130E-005 -6.6699134E-004 0.0 -3.9302732E-005 -6.9878550E-004 0.0 -9.4616160E-005 -6.3755677E-004 0.0 -9.7117338E-005 -7.1932855E-004 0.0 -1.4975362E-004 -6.7021054E-004 0.0  8.1989617E-005 -6.7254515E-004 0.0 -1.2430440E-005 -1.2557493E-004 0.0 -1.8851389E-005 -1.2886985E-004 0.0 -7.1088134E-006 -7.6403814E-005 0.0 -6.9807719E-006 -6.9219302E-005 0.0 -2.4692026E-005 -2.5607411E-004 0.0 -2.9654858E-005 -2.7784040E-004 0.0 -3.6697367E-005 -3.0735231E-004 0.0 -6.0455263E-006 -6.1602669E-005 0.0 -9.1105083E-006 -5.9865621E-005 0.0 -9.6239689E-007  9.7965011E-008 0.0 -1.1549901E-006  1.9090928E-007 0.0 -8.9682621E-007  2.4324489E-007 0.0  5.7570096E-004 -4.4833895E-004 0.0  6.4069794E-004 -4.0957420E-004 0.0 -1.1436998E-006  7.3515038E-006 0.0  4.3100607E-005  5.6489973E-004 0.0 -7.9927034E-006  4.0746564E-004 0.0  1.4145695E-004 -3.1951321E-004 0.0  9.2770663E-005 -1.6475456E-004 0.0  3.7695198E-004 -8.6501911E-005 0.0  3.3740646E-004 -9.5703012E-005 0.0 -2.8890905E-004 -5.0993741E-004 0.0  4.0271143E-004 -1.7201580E-004 0.0  4.2455972E-004 -1.3438558E-004 0.0  4.7168324E-004 -2.8996145E-004 0.0  2.7963706E-004 -3.2445466E-004 0.0 -1.6345323E-005  1.5577917E-004 0.0  1.3144178E-007  8.2521163E-006 0.0 -4.1643825E-006 -6.1271001E-006 0.0 -1.4477062E-006  5.7131183E-006 0.0  2.8225764E-004 -5.8592882E-004 0.0  9.4679429E-005 -4.8191537E-004 0.0  3.7256119E-004 -6.7548171E-004 0.0  1.5921090E-004 -1.1742712E-004 0.0 -2.3614051E-006 -6.7364018E-006 0.0 -9.7366013E-007 -4.5009274E-006 0.0 -1.3080371E-006  4.0747808E-006 0.0 -5.2645315E-006 -1.8085696E-005 0.0  5.1450249E-005 -9.7925167E-004 0.0  3.9369925E-005  1.2740046E-005 0.0  4.6488593E-005  3.9042925E-006 0.0  3.3972785E-005  5.7686413E-006 0.0  2.5047725E-005  6.3163291E-006 0.0  3.0588492E-005  3.2420628E-006 0.0  1.0696822E-004 -8.7486605E-005 0.0  9.2279421E-005 -8.9530198E-005 0.0  8.5972299E-005 -1.1524386E-004 0.0  7.4415365E-005 -9.6280501E-005 0.0  8.2875798E-005 -7.2885004E-005 0.0  6.6814098E-005 -7.9237511E-005 0.0  1.0094194E-004 -6.9390081E-005 0.0  6.9596861E-005 -1.1704862E-004 0.0  7.6976104E-005 -1.3886160E-004 0.0  7.5537687E-005 -5.8278633E-005 0.0  6.1128489E-005 -6.5050207E-005 0.0  8.7997867E-005 -5.3776848E-005 0.0  1.5197475E-004 -4.7689351E-005 0.0  1.1179138E-004 -5.5354826E-005 0.0  7.4818107E-005 -2.3654250E-005 0.0  8.0264025E-005 -5.0091600E-005 0.0  5.9044861E-005 -2.3766634E-005 0.0  5.2722524E-005 -6.7603804E-006 0.0  2.7902464E-004 -8.1960051E-004 0.0 -8.8404724E-005 -4.7416557E-005 0.0 -3.0118617E-004 -3.6744057E-004 0.0 -5.2945245E-006 -5.3210143E-005 0.0 -1.0254550E-005 -5.2847962E-005 0.0 -2.0673820E-004 -1.9966627E-004 0.0  6.7326638E-004 -5.6766699E-004 0.0  6.4649066E-004 -6.5141082E-004 0.0  4.2407249E-004 -8.9973722E-004 0.0  3.5656718E-004 -4.5960667E-004 0.0  2.1089335E-006  4.2659004E-006 0.0  3.1478716E-004 -1.2724016E-004 0.0  3.0627262E-004 -9.2748193E-005 0.0  2.8090946E-004 -9.0903480E-005 0.0  2.3686585E-004 -6.8425157E-005 0.0  2.5858071E-004 -6.2577245E-005 0.0 -9.3171391E-007  2.1599493E-006 0.0  4.9201204E-005 -6.2508048E-005 0.0  1.3943462E-005  2.6327189E-005 0.0 -1.5559957E-005 -7.7667373E-006 0.0 -1.0360895E-005 -4.7731705E-006 0.0 -8.3876701E-006 -5.7032013E-006 0.0 -1.2220324E-005 -7.8174762E-005 0.0 -1.4437104E-005 -6.8864786E-005 0.0 -2.7322655E-005 -9.6656545E-005 0.0 -5.2884512E-005 -9.7807771E-005 0.0 -1.1112299E-005 -8.6901357E-005 0.0  1.8289113E-004 -8.8696799E-004 0.0  9.7511035E-005 -2.9296303E-004 0.0  9.9209159E-005 -2.5141459E-004 0.0 -2.1661420E-005 -1.4241830E-005 0.0 -9.3091809E-007  8.1759740E-006 0.0  5.9213985E-005 -1.0031554E-004 0.0 -1.1273043E-004 -1.1197505E-004 0.0  1.2071494E-004 -4.5418475E-005 0.0  5.3498667E-005 -1.5404601E-004 0.0  5.4121850E-005 -1.7831402E-004 0.0  7.2080213E-005 -2.0549741E-004 0.0  6.9525755E-005 -1.6465558E-004 0.0  3.3012510E-004 -9.2656713E-004 0.0 -4.6948325E-006 -4.7392884E-006 0.0 -4.1987335E-006 -3.1617933E-006 0.0  1.8367235E-004 -1.0772117E-004 0.0  3.3688574E-004 -7.9360461E-004 0.0 -3.0272371E-006 -1.2899059E-005 0.0 -1.8105080E-006 -1.0834625E-005 0.0 -6.5267063E-005 -2.5669601E-004 0.0 -4.8298029E-005 -2.1091933E-004 0.0 -5.3113873E-005 -1.4659729E-004 0.0  5.0232369E-005 -1.0284498E-004 0.0  1.5485472E-004 -4.9446262E-005 0.0  1.8920324E-004 -5.4123831E-005 0.0 -1.4489317E-004 -8.1819522E-004 0.0 -1.7558288E-004 -7.2816917E-004 0.0  3.0070872E-004 -5.9102235E-005 0.0 -5.7797787E-007  2.7029808E-006 0.0  1.0341978E-004 -1.9127098E-004 0.0 -8.9712601E-005 -5.7319992E-004 0.0 -4.0812508E-005  3.8141955E-005 0.0 -5.7612090E-007  7.6438539E-006 0.0 -1.2643723E-006  6.3920389E-006 0.0 -8.0170441E-007  6.1496378E-006 0.0 -1.2867021E-006  4.7597674E-006 0.0  7.3431657E-005 -3.2493821E-004 0.0  6.9141634E-005 -3.7145238E-004 0.0  4.7175531E-005 -3.5438546E-004 0.0  4.0175456E-005 -3.9247386E-004 0.0  6.9923683E-005 -4.1472303E-004 0.0 -2.1639512E-005 -2.0694190E-005 0.0  2.2071511E-004 -1.6044980E-004 0.0 -7.7804351E-007  4.5613647E-006 0.0 -1.0646056E-006  3.3248704E-006 0.0 -1.3577562E-006  1.7792207E-006 0.0 -2.1798872E-006  1.7152226E-006 0.0 -7.4776181E-006  9.3399309E-006 0.0 -2.8525405E-006  1.3759284E-006 0.0 -3.9628938E-006  1.2488392E-006 0.0 -4.7012469E-006  1.8407825E-006 0.0 -5.4324776E-007  1.0145232E-006 0.0 -7.3231397E-007  7.5266627E-007 0.0 -1.0209262E-005  1.3191865E-005 0.0 -7.5963239E-006  6.5355214E-006 0.0 -6.4962223E-006 -5.4608904E-006 0.0 -3.3534490E-006 -2.2986318E-006 0.0  8.7771591E-005 -1.8371453E-004 0.0  9.0889480E-005 -2.1833841E-004 0.0 -8.2309699E-006 -7.7941565E-006 0.0  6.9500528E-006  2.4556975E-005 0.0 -7.5541219E-006  1.4802753E-005 0.0 -3.4644948E-005  3.5527473E-006 0.0 -9.1387061E-006  5.1571947E-006 0.0 -6.3193401E-006  4.6304079E-006 0.0 -6.3008214E-006  3.4958615E-006 0.0 -5.0011010E-006  4.7500071E-006 0.0  2.3519087E-006  9.2114874E-006 0.0  2.1036584E-006  7.6582263E-006 0.0  2.8477638E-006  6.2408762E-006 0.0  1.3960791E-006  6.7285924E-006 0.0 -3.9068551E-006  1.4064598E-005 0.0  2.2896338E-006  1.0672190E-005 0.0 -1.9385052E-005 -4.0250913E-006 0.0  7.8426566E-006  2.0200459E-005 0.0  1.1397975E-005  6.9629616E-006 0.0  1.2514585E-005  4.4961209E-006 0.0  1.5574506E-005  7.1932967E-006 0.0 -1.2263819E-006  8.8011008E-006 0.0  9.5581783E-006  9.1142339E-006 0.0  6.3790965E-007  8.0149753E-006 0.0 -5.4149717E-006  7.7958633E-006 0.0 -3.0291798E-006  7.5756764E-007 0.0 -1.2373504E-006 -3.5352856E-007 0.0 -1.1599931E-006 -3.6493224E-007 0.0 -8.7668996E-007 -3.9114885E-007 0.0 -8.2286146E-007 -8.3261436E-007 0.0 -5.2499903E-007 -9.0216631E-007 0.0 -8.1375366E-007 -1.4115230E-006 0.0 -1.0920539E-006 -1.1788880E-006 0.0 -1.1343215E-006 -1.9855112E-006 0.0 -7.6024447E-007 -1.9552319E-006 0.0 -1.1010557E-006 -6.7856099E-007 0.0 -1.9355253E-007  2.3916575E-007 0.0 -3.8639698E-007  3.4743076E-007 0.0 -4.1601296E-007  5.6674798E-007 0.0 -6.0611101E-007  3.8176450E-007 0.0 -6.6550439E-007  5.7548446E-007 0.0 -1.3785079E-006 -2.7167019E-006 0.0 -1.5054357E-006 -1.4442138E-006 0.0 -1.9172066E-006 -3.3610809E-007 0.0  4.3267056E-006  2.1185913E-006 0.0 -7.0792262E-007  1.2743712E-007 0.0 -3.8507051E-007 -4.6478341E-007 0.0 -1.8663920E-006 -5.9344049E-007 0.0 -2.6360676E-006  5.8638308E-007 0.0 -3.0046011E-007  7.0139035E-007 0.0 -3.1894654E-006  2.2117926E-007 0.0 -1.0391207E-006  7.1566830E-007 0.0 -1.5971714E-006 -2.2001466E-007 0.0 -1.4052022E-006  6.7436829E-008 0.0 -1.2772137E-006  2.4943195E-007 0.0 -1.0401281E-006  3.9798312E-007 0.0 -4.9863073E-006  8.0570508E-007 0.0 -6.9734645E-006  2.1250484E-006 0.0  3.5473137E-004 -5.5362871E-005 0.0 -4.3193143E-006  2.8109764E-006 0.0 -4.5456248E-006 -2.5560116E-006 0.0 -5.4480460E-006  2.6093435E-006 0.0  1.3928699E-004 -5.4804033E-005 0.0  2.5612398E-004 -3.6690607E-005 0.0  5.2102904E-004 -1.3874840E-004 0.0  5.4847962E-004 -1.7339768E-004 0.0  5.4548797E-004 -2.3255715E-004 0.0  2.1832888E-004 -3.4402788E-005 0.0  6.1658171E-004 -2.4292998E-004 0.0  6.6918437E-004 -3.5058727E-004 0.0  1.2879168E-004 -3.9529355E-005 0.0  7.1910763E-004 -4.9321283E-004 0.0  9.6720485E-005 -3.9534869E-005 0.0  6.9173183E-004 -8.7969126E-004 0.0  7.3680205E-004 -6.7352797E-004 0.0  6.4726780E-005 -3.7415819E-005 0.0  8.6090986E-005 -3.9219599E-005 0.0  5.7957870E-004 -1.1063825E-003 0.0 -6.6517320E-007  1.7125329E-006 0.0 -3.5825594E-006 -1.9393943E-006 0.0  6.8193414E-004 -7.1882967E-004 0.0  3.1689354E-004 -8.5327438E-004 0.0 -3.2830013E-007  1.5305525E-006 0.0 -1.6411979E-005  2.4083021E-004 0.0 -9.1122060E-005  1.3543260E-004 0.0  2.5105212E-004 -3.0562304E-004 0.0  1.7878646E-004 -2.6013186E-004 0.0  1.4936698E-004 -1.5585245E-004 0.0  2.5573008E-004 -1.3162377E-004 0.0  1.5231815E-004  2.1204900E-005 0.0  1.6887740E-004  5.5673799E-006 0.0  2.0902924E-004 -3.9154821E-004 0.0  1.7446797E-004 -1.3108531E-004 0.0 -4.8142757E-007  7.6477713E-007 0.0  4.2392211E-006 -3.9003558E-004 0.0 -1.0539047E-005 -3.7401790E-004 0.0 -2.0939969E-004 -4.3441794E-004 0.0 -6.5057028E-005  4.9758923E-005 0.0 -4.6113489E-007 -2.1092113E-006 0.0  1.2051143E-004 -2.2450219E-004 0.0  4.4914540E-005  4.0540347E-005 0.0 -1.1593780E-006 -1.4801303E-007 0.0 -2.8638064E-004 -7.6097366E-004 0.0  4.0702814E-004 -9.6099717E-004 0.0 -4.5175327E-005 -5.0779302E-006 0.0 -3.2516702E-007  1.2509365E-006 0.0 -8.7168984E-007  5.1361050E-007 0.0  4.4202964E-004 -9.4385407E-005 0.0  4.0956953E-004 -8.2256169E-004 0.0  4.4176248E-005 -1.3174028E-004 0.0  5.7397800E-005 -7.7986691E-005 0.0 -2.2138202E-005 -3.3620076E-004 0.0 -8.2938500E-005 -8.2065432E-004 0.0  5.4877051E-004 -1.0072087E-003 0.0 -6.2882890E-007  3.1877530E-006 0.0 -4.3185143E-005 -7.6949813E-004 0.0 -7.6944992E-007  3.6854527E-007 0.0  3.1702130E-004 -3.0793509E-004 0.0 -4.3453792E-006 -2.1404023E-005 0.0  1.9724789E-005  8.2998797E-006 0.0 -3.0337296E-007  1.6983179E-007 0.0  2.2722120E-006  1.7394814E-006 0.0  2.5280807E-005 -7.9362561E-004 0.0  1.3498949E-005  2.5918198E-006 0.0 -1.8987225E-004 -5.5377977E-004 0.0 -3.4315293E-007 -6.7732397E-007 0.0  4.1520135E-005  7.2268629E-005 0.0  1.9635857E-004 -1.4620544E-004 0.0  3.9905087E-005 -2.8754086E-005 0.0  2.4488603E-004 -2.0095877E-004 0.0  5.1057042E-004 -1.1221514E-003 0.0  4.6069141E-005 -4.4395098E-005 0.0  6.1301719E-005 -1.3922421E-004 0.0  1.4786591E-004 -1.2234760E-004 0.0 -6.1941305E-007  2.3120037E-007 0.0 -3.0511715E-004  1.4480835E-004 0.0  2.6131501E-005  3.3966676E-005 0.0 -7.9025019E-006 -3.4913773E-006 0.0  3.0741604E-004 -2.5201551E-004 0.0 -5.9845256E-006 -4.6804972E-005 0.0 -4.7503812E-006 -4.3060854E-005 0.0 -3.4882704E-006 -4.0401487E-005 0.0 -1.0573489E-006 -1.3828558E-008 0.0  1.8957127E-004 -2.5692337E-004 0.0  4.9503617E-005 -5.0740015E-006 0.0 -5.0310895E-006 -5.5145896E-005 0.0 -2.2087698E-005 -2.2963134E-004 0.0 -1.4277103E-005 -1.7970328E-004 0.0 -2.7869242E-005 -1.7529492E-004 0.0 -8.1765083E-006 -8.6116344E-005 0.0 -1.9984947E-005 -2.9882960E-004 0.0 -2.1953735E-005 -2.0223515E-004 0.0  5.1215963E-006 -3.7392928E-004 0.0 -1.5598700E-005 -1.4332783E-004 0.0 -3.2855787E-005 -1.4712546E-004 0.0 -9.7887204E-006 -1.1003752E-004 0.0 -1.1174960E-005 -1.0160866E-004 0.0 -1.9288865E-005 -1.1029754E-004 0.0  2.5294233E-004  9.6595751E-005 0.0  4.0977116E-004  3.3148518E-005 0.0  3.2813805E-004  6.9103871E-005 0.0  1.0392091E-005  2.9344964E-006 0.0  4.1728197E-004 -6.3413837E-004 0.0  7.0908229E-005 -8.5040120E-004 0.0  9.2049238E-005 -1.4129080E-004 0.0  6.6892548E-004 -4.7652430E-004 0.0  1.8682196E-004 -1.5559524E-004 0.0 -1.0513590E-004  6.8030446E-005 0.0 -2.3117405E-006 -1.3151662E-005 0.0  2.7571676E-004 -2.7796479E-004 0.0  4.7360417E-004 -1.5290874E-004 0.0 -2.3426861E-006 -3.9959826E-005 0.0 -8.1494395E-007  2.1001227E-007 0.0 -4.2809970E-005 -1.1253917E-004 0.0  3.6233598E-004 -4.9334684E-004 0.0  2.2849291E-004 -1.9220875E-004 0.0  6.3446567E-005 -3.8185387E-006 0.0  2.1071507E-004 -5.3670892E-005 0.0  6.1574890E-004 -3.4028047E-004 0.0  8.9839635E-005 -6.4409776E-004 0.0  4.0333747E-005  2.2807039E-006 0.0  7.5607091E-005 -5.3470898E-004 0.0 -1.1741873E-006 -5.8544558E-007 0.0  5.6774516E-005 -7.9786605E-005 0.0  1.8951853E-004 -7.7312611E-004 0.0  9.4866644E-005  4.3330759E-005 0.0  8.4265649E-005  5.2134846E-005 0.0  1.1249382E-004  8.9827484E-005 0.0  1.3772992E-004  9.8749231E-005 0.0  1.0287536E-004 -5.4947613E-005 0.0  9.5498025E-005 -4.3658314E-004 0.0  4.5122378E-005 -4.5381728E-004 0.0  7.4963823E-005  3.6426141E-005 0.0  7.7303887E-005 -2.4680255E-004 0.0  1.3725532E-004 -4.7887972E-004 0.0 -4.8479733E-004 -1.5318941E-004 0.0 -2.4321805E-005 -1.5862022E-004 0.0  3.7679662E-004 -5.0511378E-005 0.0 -3.5489860E-006 -7.0265231E-006 0.0 -1.3111327E-006 -1.4802744E-006 0.0 -6.2601894E-007 -1.4588513E-006 0.0 -9.4917143E-007 -2.6600952E-006 0.0  3.6844284E-004 -8.5446493E-004 0.0  1.5587600E-004 -3.2047448E-005 0.0 -1.9924364E-005 -7.4175794E-006 0.0  1.8028934E-004 -8.7357249E-005 0.0  6.0696916E-006  3.3710803E-006 0.0  5.8485117E-005 -1.1864827E-004 0.0  1.8328317E-004 -3.0947329E-005 0.0  5.1598519E-005 -2.5871324E-004 0.0 -9.6624234E-007  5.5411363E-008 0.0  4.9775052E-004 -2.5125193E-004 0.0 -4.0422438E-005 -2.2769261E-004 0.0  5.0972595E-005 -9.5117900E-006 0.0 -2.3031279E-005 -3.1073144E-004 0.0  8.4952119E-005 -1.5979481E-004 0.0  1.8427314E-004 -4.5850600E-004 0.0  2.0169354E-004 -1.5331629E-004 0.0 -2.8076081E-006 -3.4972540E-005 0.0  3.5091356E-005  2.7174028E-006 0.0  6.9753621E-004 -6.3541636E-004 0.0  2.2707518E-005  3.8182338E-006 0.0  1.6495029E-004  1.1044369E-004 0.0 -4.0704928E-006 -5.0587979E-005 0.0 -9.1838486E-006 -9.3001299E-005 0.0  3.1695325E-004 -5.0344376E-004 0.0  5.8645553E-004 -2.6109374E-004 0.0  3.3731448E-005 -3.4470749E-004 0.0  2.7870208E-004 -7.2089665E-005 0.0 -1.5430064E-004 -6.0149252E-004 0.0 -3.9928459E-006 -4.6600897E-005 0.0 -5.2542334E-006 -3.7636130E-006 0.0  2.4030559E-005  4.3297728E-005 0.0  1.3849206E-004 -4.1524904E-004 0.0 -5.2696468E-005  3.9380970E-006 0.0  9.3133597E-005  7.0624922E-005 0.0  2.9683942E-004 -3.2190077E-005 0.0  6.2104582E-004 -8.8628644E-004 0.0  2.9260505E-004 -7.8840819E-005 0.0  6.1553957E-005  1.0289546E-004 0.0  5.6402446E-004 -4.8276645E-004 0.0  4.1172505E-004  1.5205344E-005 0.0  4.3111075E-005  1.9456544E-004 0.0  2.4695264E-005  1.5575963E-004 0.0  9.3327401E-005  3.1636204E-004 0.0  1.0412846E-004  3.3730959E-004 0.0 -3.5132654E-004  6.1300143E-004 0.0  2.8321953E-005  7.1044603E-004 0.0  2.5126335E-004  1.1857556E-004 0.0 -4.7723537E-004  2.1561473E-004 0.0 -4.6878102E-004  1.4332971E-004 0.0  6.5083778E-004 -5.0421990E-004 0.0  6.2162549E-004 -2.0089554E-004 0.0  5.6401671E-004 -8.0106971E-004 0.0  2.4951715E-004  6.0410358E-004 0.0  4.5386571E-004 -8.6703868E-004 0.0  4.5744028E-004 -7.3459323E-004 0.0  2.1841265E-004 -9.9679199E-004 0.0 -2.4917621E-004  5.9560327E-004 0.0  2.2472279E-004 -5.3525848E-004 0.0  3.6937307E-004 -7.6257325E-004 0.0  2.4578394E-004  7.6085036E-005 0.0  3.4871439E-004 -3.0057250E-004 0.0  3.4010597E-004 -2.0927686E-004 0.0  5.5900742E-004 -2.2261508E-004 0.0  2.4677733E-004 -3.3611753E-005 0.0  5.2196853E-004 -5.9767249E-004 0.0  2.0000400E-004  4.5785958E-007 0.0  3.1012724E-004  5.2571868E-005 0.0  1.5587476E-004  2.8937388E-005 0.0  2.0900883E-004  1.0689846E-004 0.0  5.4969805E-004 -3.4281789E-005 0.0  1.4176273E-004 -1.0243019E-003 0.0  4.1166600E-004 -9.2744347E-004 0.0 -6.9542908E-007 -5.4189211E-006 0.0  2.3009942E-004 -5.1216339E-005 0.0  2.9956840E-004 -2.8665729E-004 0.0  1.9472382E-005  4.8727847E-006 0.0 -5.7435187E-005 -1.7284746E-005 0.0  1.0637309E-004 -2.1769233E-004 0.0 -5.9478302E-005  2.6717992E-005 0.0  1.9413563E-004  9.6359053E-005 0.0  6.0433091E-004 -3.7366926E-004 0.0  5.0271416E-004 -9.8762936E-005 0.0  5.8673943E-004 -6.2012175E-004 0.0 -5.7602228E-004 -3.3141362E-004 0.0 -5.4839083E-004 -5.2081670E-004 0.0 -4.2024839E-004 -7.0207318E-004 0.0  5.7780035E-005  4.8116193E-005 0.0 -1.7890209E-005 -5.4426442E-005 0.0  8.7449442E-005 -3.7576318E-004 0.0  1.2059727E-006  4.1618257E-006 0.0  7.3388967E-005 -4.3528095E-005 0.0 -2.6121102E-005 -3.6082549E-004 0.0 -1.5189189E-005 -3.5536887E-004 0.0  2.3132268E-004 -2.5747373E-004 0.0  5.9405294E-005 -4.7928825E-005 0.0 -3.4825355E-006 -4.5251693E-005 0.0 -1.0221960E-006 -4.7689975E-005 0.0  2.9512850E-005  2.1585123E-005 0.0 -1.2593963E-005 -2.1170913E-004 0.0 -3.2922005E-006 -5.3457727E-005 0.0 -5.3311917E-006 -8.2887472E-005 0.0 -2.7104533E-006 -4.9144083E-005 0.0 -1.2779122E-005 -2.7388639E-004 0.0 -1.1527283E-005 -1.4414067E-004 0.0  7.3151644E-006 -3.5079991E-004 0.0 -3.3911531E-006 -4.5197820E-005 0.0 -2.6802734E-006 -4.9365486E-005 0.0 -1.7699790E-006 -4.2345811E-005 0.0 -7.4480585E-006 -1.1131085E-004 0.0 -9.3223885E-006 -1.2720078E-004 0.0 -1.5333580E-005 -2.5696550E-004 0.0 -5.3264242E-006 -7.7767652E-005 0.0 -1.3649329E-005 -2.3788916E-004 0.0 -5.7444675E-006 -7.0473744E-005 0.0 -1.1488285E-005 -1.8910236E-004 0.0 -4.8570456E-006 -6.4299773E-005 0.0 -3.5823188E-006 -6.0730825E-005 0.0 -1.5896610E-005 -1.6260739E-004 0.0  2.8020560E-005 -3.2259352E-004 0.0 -6.9696462E-006 -9.4354480E-005 0.0 -2.4183850E-006 -3.5835221E-004 0.0 -1.4053427E-005 -3.0779933E-004 0.0 -8.2984398E-006 -3.2896991E-004 0.0 -7.6349568E-006 -1.0323044E-004 0.0 -4.7552134E-006 -3.4476873E-004 0.0 -9.7124842E-006 -3.3831075E-004 0.0 -1.3938563E-005 -3.2294566E-004 0.0  6.5150304E-004 -8.0773135E-004 0.0  2.0719182E-006  5.6411775E-006 0.0  1.1171594E-004 -7.4324004E-005 0.0 -1.6720473E-005 -4.4043494E-005 0.0  2.6298035E-004 -8.9956868E-005 0.0  3.4894369E-004 -6.0574588E-004 0.0 -1.6947283E-007  1.3822095E-007 0.0  1.2695309E-006  1.5811571E-006 0.0 -7.5425675E-007 -3.3270902E-006 0.0  1.1858163E-004 -3.3266456E-005 0.0  3.3650575E-004 -7.2035290E-004 0.0 -1.2064355E-006 -2.0349928E-007 0.0  8.1573778E-007  6.5851347E-006 0.0  4.1298385E-005 -3.1173103E-005 0.0 -3.4640408E-006 -2.5481603E-005 0.0  3.5885004E-004 -6.3187302E-004 0.0  3.6080938E-004  6.8207146E-004 0.0 -1.9233625E-004 -6.6313332E-004 0.0  7.1120967E-005 -4.8055342E-005 0.0  1.4801519E-004 -7.9557551E-004 0.0  2.9078270E-006  2.9373917E-006 0.0 -3.6727293E-006 -4.5586347E-006 0.0 -3.6825555E-005 -2.0437708E-004 0.0  4.0809623E-005 -6.1326619E-004 0.0 -1.2207953E-005 -3.6766280E-006 0.0 -1.0954464E-004 -7.6651024E-004 0.0  2.5427683E-004 -2.6384483E-004 0.0 -7.2828342E-007  2.8847289E-007 0.0 -2.9080943E-007 -4.8106242E-007 0.0 -8.1720724E-005 -1.2088588E-004 0.0 -1.9409758E-006 -7.9179897E-006 0.0  1.1570886E-006  7.5676345E-006 0.0  4.7088510E-004 -9.6043613E-004 0.0 -4.8126275E-004 -4.1768112E-004 0.0 -2.3063543E-004 -7.0930539E-004 0.0 -1.5929743E-006 -5.9270390E-006 0.0 -7.0372643E-007 -3.8922750E-006 0.0 -1.7881748E-005 -9.4717081E-005 0.0  9.3483329E-005 -6.9206744E-005 0.0  1.2112133E-004 -4.5189274E-004 0.0  2.4360641E-004 -5.0610875E-005 0.0 -1.1097179E-006 -1.6095728E-007 0.0  3.2592477E-004 -6.9965416E-005 0.0  4.0971815E-004 -1.0462329E-004 0.0  3.2142349E-005 -2.9158600E-005 0.0  2.0644049E-007  7.8951891E-006 0.0  2.2923278E-004 -2.2924956E-004 0.0  6.0942963E-004 -2.8687580E-004 0.0  4.6551633E-004 -1.7058356E-005 0.0  6.1732815E-004 -2.8225392E-004 0.0  5.3361115E-004 -6.9366339E-004 0.0  6.0568874E-004 -4.9727035E-004 0.0  3.9935351E-004 -8.3655250E-004 0.0  5.1546360E-004 -1.2068386E-003 0.0  4.7804798E-004 -3.3335769E-004 0.0  1.9308394E-004 -4.2880335E-004 0.0  7.9168448E-005 -4.7903379E-005 0.0 -5.2247315E-004 -3.8358057E-004 0.0 -1.1251262E-005 -6.4599008E-005 0.0 -7.2055252E-007 -2.5030440E-006 0.0  1.0943190E-004 -5.5103425E-005 0.0  9.9297619E-009  8.1430427E-006 0.0 -2.1598299E-005 -7.8307053E-005 0.0  1.8290499E-004 -2.6209309E-005 0.0  2.8077576E-004 -5.3982790E-004 0.0  4.8696584E-005  2.9321068E-008 0.0 -7.5965247E-007 -4.6855731E-005 0.0  4.5302509E-004 -1.3243414E-004 0.0  1.5483453E-004 -1.3816508E-004 0.0  5.0884498E-005  2.9251913E-004 0.0 -2.3341489E-005  3.2469790E-004 0.0 -4.7036821E-007  2.5644610E-007 0.0  4.0058714E-005 -1.0391871E-003 0.0  1.7357286E-004 -1.0830914E-004 0.0  1.4529982E-004 -8.3770816E-005 0.0  2.1063521E-004 -2.4915630E-004 0.0 -6.2451757E-005 -3.5522239E-005 0.0  1.5729114E-005  4.6299558E-006 0.0  4.1442875E-005 -2.4305199E-004 0.0  7.5413586E-005 -2.8839182E-004 0.0  5.1840825E-004  6.9318983E-004 0.0
        </DataArray>
        <DataArray type="Float64" Name="jxb re" NumberOfComponents="3" format="ascii">
 -8.9844438E+001 -7.6099476E+001 0.0 -4.1499227E-001 -1.7299363E+000 0.0 -1.3162638E+001 -4.8557638E+000 0.0 -1.0170043E+002  1.3786314E+002 0.0 -2.2138861E-001 -2.1585586E-001 0.0 -3.2593269E-001 -3.3161855E-001 0.0 -5.6986447E-003 -6.5489447E-002 0.0 -2.9978545E-001  2.5837126E-002 0.0 -1.2700826E+000 -1.0739921E+000 0.0 -7.7228595E-005 -4.7332538E-005 0.0  1.6076938E+003  2.1798980E+002 0.0 -5.7732951E+002  2.1100138E+002 0.0 -7.6659464E+002 -3.3789918E+002 0.0  1.2338188E+003 -2.7668616E+002 0.0 -7.1086465E-006  3.3078793E-005 0.0  8.3188496E-016  2.2515993E-016 0.0 -8.7951834E-019  3.3082376E-017 0.0 -2.6596460E-006 -1.6558775E-007 0.0  4.5334998E-003 -9.3370437E-004 0.0 -2.1037667E+002  3.4471816E+002 0.0 -9.2680238E-004  3.8411698E-004 0.0  8.3161615E-002 -1.2734538E-001 0.0 -2.4615270E+001 -1.2008953E+001 0.0 -2.5695930E+001 -1.5314972E+001 0.0 -1.8730802E+001 -1.3789431E+001 0.0 -1.7601762E+001 -1.5459941E+001 0.0 -1.5052586E+001 -1.5239153E+001 0.0 -9.8557814E+000 -1.1150108E+001 0.0 -1.1886337E+001 -1.5856399E+001 0.0 -6.5782701E+000 -1.0356633E+001 0.0 -5.5481547E+000 -9.2376402E+000 0.0 -3.9609507E+000 -7.4507324E+000 0.0 -3.2670275E+000 -6.8110044E+000 0.0 -2.3626638E+000 -5.2350128E+000 0.0 -1.9248917E+000 -4.6949978E+000 0.0 -1.8020305E+000 -4.8416164E+000 0.0 -1.4723054E+000 -4.3434341E+000 0.0 -8.5723927E-001 -3.1377372E+000 0.0 -1.9192413E+002  2.0389219E+002 0.0 -1.6421388E+002  1.3182730E+002 0.0 -1.5028772E+002  9.6437818E+001 0.0 -1.3495399E+002  7.1206897E+001 0.0 -1.3213153E+002  5.5693331E+001 0.0 -9.7731071E+001  3.2664240E+001 0.0 -7.4485661E+001  1.9203878E+001 0.0 -1.0491655E+002  1.9137705E+001 0.0 -6.6100497E+001  4.5328496E+000 0.0 -6.5169763E+001 -2.3197172E+000 0.0 -4.3240179E+001 -7.5682730E+000 0.0 -3.8306025E-001 -3.1428186E-001 0.0 -4.2641982E-001 -2.9368083E-001 0.0 -5.6106412E-001 -2.9222549E-001 0.0 -8.2953031E-001 -2.7948690E-001 0.0 -1.0531200E+000 -2.4099941E-001 0.0 -1.4755432E+000 -2.3171354E-001 0.0 -1.8265463E+000 -1.9372034E-001 0.0 -2.4322095E+000 -2.0167422E-001 0.0 -3.1465003E+000 -1.0553139E-001 0.0 -4.1265063E+000 -3.4413942E-001 0.0 -3.6302558E+000 -1.0766747E-001 0.0 -6.4099058E+000 -5.9205898E-001 0.0 -5.5481510E+000 -2.3712790E-001 0.0 -6.3265647E+000 -3.8122733E-001 0.0 -5.7931549E+000 -2.9995235E-001 0.0 -8.8238900E+000 -5.2373926E-001 0.0 -7.2857092E+000 -4.4606162E-001 0.0 -7.1380493E+000 -3.6284799E-001 0.0 -7.0310203E+000 -4.8868169E-001 0.0 -6.7599370E+000 -3.0115579E-001 0.0 -9.3767275E+000 -6.4636465E-001 0.0 -6.9799738E+000 -2.1744993E-001 0.0 -8.7621439E+000 -7.4290427E-001 0.0 -7.4858628E+000 -4.2058944E-001 0.0 -7.3390248E+000 -4.1340164E-001 0.0 -8.5473132E+000 -4.0783452E-001 0.0 -7.6190240E+000 -4.5013045E-001 0.0 -6.0953083E+000 -1.4843785E-001 0.0 -6.8622297E+000 -5.0629422E-001 0.0 -9.0559820E+000 -4.0871731E-001 0.0 -6.2719388E+000 -3.4503975E-001 0.0 -8.8277229E+000 -3.6942958E-001 0.0 -7.0463980E+000 -3.4098861E-001 0.0 -6.7900348E+000 -2.9972921E-001 0.0 -6.2203268E+000 -2.2716497E-001 0.0 -6.2776240E+000 -2.2553081E-001 0.0 -7.7651929E+000 -3.1435765E-001 0.0 -5.8447497E+000 -2.7476886E-001 0.0 -5.9662005E+000 -2.7705143E-001 0.0 -5.1094425E+000 -1.7367982E-001 0.0 -6.7956566E+000 -2.0049189E-001 0.0 -5.5791446E+000 -2.8533148E-001 0.0 -5.1679304E+000 -1.5264363E-001 0.0 -4.5300632E+000 -1.4555949E-001 0.0 -6.0922739E+000 -1.9213788E-001 0.0 -4.7971515E+000 -1.7446370E-001 0.0 -4.8490317E+000 -2.1419593E-001 0.0 -3.8925618E+000 -7.2184680E-002 0.0 -5.4100203E+000 -1.8839641E-001 0.0 -3.9274814E+000 -1.3551069E-001 0.0 -3.9937804E+000 -1.6999735E-001 0.0 -3.4113358E+000 -5.1898060E-002 0.0 -4.7410901E+000 -1.5649476E-001 0.0 -3.7073106E+000 -1.1078667E-001 0.0 -3.4746543E+000 -7.7292509E-002 0.0 -2.9612079E+000 -5.3295976E-002 0.0 -4.1277908E+000 -1.1740773E-001 0.0 -2.8982647E+000 -6.9136844E-002 0.0 -2.8541876E+000 -4.5459084E-002 0.0 -3.6854859E+000 -1.0475136E-001 0.0 -2.3056787E+000 -6.2701547E-002 0.0 -3.3786916E+000 -5.4778282E-002 0.0 -2.6616777E+000 -7.4838740E-002 0.0 -2.3505775E+000 -4.5167293E-002 0.0 -2.2848766E+000 -5.5116774E-002 0.0 -2.0931596E+000 -2.8663239E-002 0.0 -2.7640294E+000 -7.5738101E-002 0.0 -1.8573808E+000 -3.0879992E-003 0.0 -1.8873333E+000 -8.0374692E-002 0.0 -2.4237134E+000 -4.4916599E-002 0.0 -1.6559482E+000 -2.8404854E-002 0.0 -2.2696070E+000 -2.7542579E-002 0.0 -1.7896682E+000 -4.2105105E-002 0.0 -1.6565190E+000 -2.5592513E-002 0.0 -1.6134611E+000 -4.9252232E-002 0.0 -1.4566547E+000 -8.9261485E-003 0.0 -1.7777408E+000 -4.0044209E-002 0.0 -1.2794632E+000 -3.2508997E-002 0.0 -1.1761480E+000 -7.7546837E-003 0.0 -1.5761543E+000 -2.7752056E-002 0.0 -1.0176902E+000 -2.6288177E-002 0.0 -1.1385635E+000 -1.2773614E-002 0.0 -1.4205919E+000  2.3860733E-002 0.0 -1.1210747E+000 -5.2750574E-002 0.0 -1.0890978E+000 -1.5869365E-002 0.0 -9.4068031E-001 -1.3824698E-002 0.0 -1.2499390E+000 -1.1153103E-002 0.0 -9.4917012E-001 -2.7983557E-002 0.0 -8.8877062E-001  5.8584405E-004 0.0 -1.1504114E+000 -2.7988947E-002 0.0 -8.7314272E-001  1.9129273E-003 0.0 -9.6413821E-001  2.4824591E-003 0.0 -9.5992355E-001 -4.4893056E-002 0.0 -7.6011725E-001 -7.3444878E-003 0.0 -6.4412420E-001 -7.3021367E-004 0.0 -1.0151354E+000 -3.1208046E-003 0.0 -8.6651348E-001 -2.5485994E-002 0.0 -9.0857163E-001 -1.2352046E-001 0.0 -1.0661945E+000 -3.7712854E-001 0.0 -2.7975765E-001 -4.8420585E-001 0.0 -5.1427421E-002 -2.3373518E-001 0.0  9.4291190E-003 -5.6100397E-002 0.0 -1.3318835E-002  1.3009563E-003 0.0 -2.2652137E-002  2.0681782E-003 0.0  3.7605871E-002 -3.3529837E-003 0.0  1.7519454E-002 -1.2173409E-003 0.0  1.5148982E-001 -2.0051323E-002 0.0  2.6759049E-001 -4.4304459E-002 0.0  2.1121194E-001 -1.0304592E-001 0.0  4.9966993E-001 -2.0749446E-001 0.0  6.6052320E-001 -2.7185268E-001 0.0  6.0775314E-001 -2.3412771E-001 0.0  1.9708072E+000 -7.7497490E-001 0.0  1.7833723E+000 -7.1772619E-001 0.0  5.2925090E-001 -2.3728649E-001 0.0  7.8605362E-001 -3.5979974E-001 0.0  1.8765933E-001 -1.5685721E-001 0.0  5.4620668E-001 -3.2341774E-001 0.0  8.5977677E-001 -5.6293039E-001 0.0  1.1511117E+000 -7.5651533E-001 0.0 -3.6611215E-001  2.0925513E-001 0.0  3.2179699E-001 -2.3764110E-001 0.0  6.5787672E-001 -5.8806973E-001 0.0  1.2582119E+000 -1.1034566E+000 0.0 -6.5569570E-001  5.6280466E-001 0.0 -1.1887822E-001  4.9650478E-002 0.0 -1.1411596E-001  6.2102300E-002 0.0  1.1756306E-001 -2.2022470E-001 0.0  1.4597294E-001 -2.8151083E-001 0.0  7.8251342E-002 -8.2060998E-002 0.0 -2.5651216E-002 -9.1767739E-002 0.0 -8.1796613E-002 -8.1559283E-001 0.0 -1.0657426E-001 -1.5556869E+000 0.0 -9.2309520E-001 -1.4538358E+000 0.0 -1.2166323E+000 -2.8044519E+000 0.0 -1.4608344E+000 -3.2566476E+000 0.0 -5.4996705E-001 -2.9182558E-001 0.0  4.6120435E-002  4.2923106E-002 0.0 -1.0546416E-003 -1.8850165E-003 0.0  7.1942241E-005  9.5158746E-005 0.0  3.2927222E+003  6.0625158E+002 0.0  3.5954932E+003  7.0353935E+002 0.0  2.6792339E+003  6.0401337E+002 0.0  3.5065501E+003  9.6024190E+002 0.0  2.2814244E+003  5.7638015E+002 0.0  3.0403473E+003  1.0061969E+003 0.0  2.0625987E+003  6.0819374E+002 0.0  2.6419601E+003  9.7811421E+002 0.0  2.0285950E+003  6.6077169E+002 0.0  1.8441265E+003  7.9991080E+002 0.0  1.6652806E+003  7.3523865E+002 0.0  2.1569757E+003  9.0008294E+002 0.0  1.4065798E+003  7.9363518E+002 0.0  1.1896120E+003  7.1314308E+002 0.0  1.5454227E+003  9.0827745E+002 0.0  1.1270961E+003  8.8762130E+002 0.0  9.7792827E+002  7.6211925E+002 0.0  8.0658757E+002  8.7303961E+002 0.0  6.5785515E+002  7.4822094E+002 0.0  6.9983005E+002  1.1342325E+003 0.0  3.0108352E+002  7.2005154E+002 0.0  1.9784163E+002  8.0713251E+002 0.0  2.1796170E+001  1.0051638E+003 0.0 -2.3824277E+002  9.1228923E+002 0.0 -4.7047634E+002  7.9663389E+002 0.0 -6.0019476E+002  8.0774170E+002 0.0 -1.1994895E+003  8.8160931E+002 0.0 -1.2863846E+003 -5.5926837E+001 0.0 -9.4594541E+002 -7.2217522E+002 0.0 -8.8062063E+002 -9.0486022E+002 0.0 -3.8648350E+002 -8.5591103E+002 0.0 -1.2358190E+002 -7.2488205E+002 0.0  4.1527189E+000 -9.4250180E+002 0.0  2.3567912E+002 -1.1238166E+003 0.0  4.5970321E+002 -1.2185806E+003 0.0  5.7974880E+002 -1.1029999E+003 0.0  7.7275110E+002 -1.2816206E+003 0.0  8.2052487E+002 -1.0356193E+003 0.0  9.7759359E+002 -1.2314497E+003 0.0  1.4879775E+003 -1.4739284E+003 0.0  1.0023557E+003 -1.0194917E+003 0.0  1.0371870E+003 -8.6039853E+002 0.0  1.4380225E+003 -1.1401338E+003 0.0  1.7042690E+003 -1.4199192E+003 0.0  1.5269365E+003 -1.0348403E+003 0.0  1.6080845E+003 -1.0461340E+003 0.0  2.0444273E+003 -1.3973969E+003 0.0  2.3070282E+003 -1.2747192E+003 0.0  2.3793052E+003 -1.3625843E+003 0.0  2.4578997E+003 -1.1597415E+003 0.0  2.1247179E+003 -1.0662297E+003 0.0  2.8084614E+003 -1.1436439E+003 0.0  2.5844642E+003 -1.0106571E+003 0.0  3.6659313E+003 -1.2101997E+003 0.0  3.1514895E+003 -1.0098613E+003 0.0  2.6689533E+003 -7.8692775E+001 0.0 -9.3286373E-006 -8.8310033E-006 0.0 -1.2584441E-005 -4.2415704E-006 0.0 -4.4953708E-006 -1.8453420E-005 0.0 -2.6624690E-004  1.3631475E-004 0.0 -3.6684216E-004  1.8640857E-004 0.0 -3.2711873E-004  1.6357229E-004 0.0  9.0369239E-004 -3.3927617E-004 0.0  6.1859556E-003 -4.3947591E-003 0.0 -7.7410681E-002  7.5466110E-002 0.0 -3.3511230E-001  4.3607442E-001 0.0  1.6812929E+000 -2.8661141E+000 0.0 -3.2001732E+000 -3.3024587E+000 0.0 -4.4262187E+000 -4.6016610E+000 0.0 -3.3515989E+000 -4.0695814E+000 0.0 -2.2910712E+000 -3.4795941E+000 0.0 -1.8827482E+000 -3.4255366E+000 0.0 -1.4443416E+000 -3.4235669E+000 0.0 -9.6211066E-001 -2.9854714E+000 0.0 -1.3041990E+002 -1.3890508E+002 0.0 -9.7194384E+001 -1.3084915E+002 0.0 -7.3895489E+001 -1.2118867E+002 0.0 -5.4297934E+001 -1.0945806E+002 0.0 -3.8682775E+001 -9.2700649E+001 0.0 -3.0499504E+001 -8.6333038E+001 0.0 -2.2097419E+001 -7.2519705E+001 0.0 -1.5379045E+001 -6.0230114E+001 0.0 -1.2057760E+001 -5.4129450E+001 0.0 -7.6970438E+000 -4.6210486E+001 0.0 -5.7188982E+000 -3.9844510E+001 0.0 -3.1847448E+000 -3.1556502E+001 0.0 -1.9776670E+000 -2.5694753E+001 0.0 -9.4159095E-001 -2.0810459E+001 0.0 -4.0040464E-001 -1.7681799E+001 0.0  3.2365337E-002 -1.3731680E+001 0.0  1.8056254E-001 -1.1083629E+001 0.0  4.8929792E-001 -1.0533246E+001 0.0  5.0616095E-001 -8.1889046E+000 0.0  4.4832769E-001 -6.0475886E+000 0.0  5.0428026E-001 -5.9281888E+000 0.0  4.4786967E-001 -4.7057408E+000 0.0  3.3418630E-001 -3.4555082E+000 0.0  2.8506402E-001 -2.8754871E+000 0.0  2.3753000E-001 -2.4297192E+000 0.0  1.9218984E-001 -2.0806352E+000 0.0  1.6527219E-001 -1.8797776E+000 0.0  9.8425629E-002 -1.4793351E+000 0.0  6.8720764E-002 -1.2376775E+000 0.0  4.3570706E-002 -1.1163343E+000 0.0  1.0439789E-002 -8.2158403E-001 0.0 -6.4259457E-003 -7.4184070E-001 0.0 -1.9461413E-002 -6.9610536E-001 0.0 -3.1752945E-002 -5.3592391E-001 0.0 -4.3855670E-002 -4.1803390E-001 0.0 -5.5219201E-002 -3.6431984E-001 0.0 -6.1345529E-002 -2.6469307E-001 0.0 -6.9025686E-002 -1.9813941E-001 0.0 -8.2759611E-002 -1.6441334E-001 0.0  1.5500784E+000 -1.4966216E-001 0.0 -1.3744843E+000  1.3219147E-001 0.0  2.7079253E+000 -2.6614977E-001 0.0 -2.2877279E-001  3.4662875E-002 0.0  1.7715125E-001 -1.7566967E-002 0.0 -1.2938646E-002  7.3095766E-003 0.0  3.6957179E-003 -1.2022943E-003 0.0 -2.6752431E-004  4.1236374E-004 0.0  9.2615339E-005 -9.3441404E-005 0.0 -2.1390338E-007 -3.4917801E-006 0.0  3.0726873E-006  1.7379337E-007 0.0  5.9609564E-006  9.8891990E-006 0.0  1.4525599E-006  3.2802413E-006 0.0  6.3517140E-007 -2.8749644E-007 0.0  1.2858133E-006 -1.2303276E-006 0.0  3.7711461E-007 -3.7073912E-007 0.0 -1.5222014E-008  1.8376055E-008 0.0  1.4488961E-009 -1.1153075E-009 0.0 -2.4318363E-011  6.1667738E-011 0.0  2.5697087E-011  3.2741831E-013 0.0 -7.3396897E-013  5.6886536E-014 0.0  7.9637057E-014  1.3770037E-014 0.0 -4.0574661E-015 -8.3180777E-016 0.0 -2.8486217E-016 -1.7014524E-016 0.0  2.5141952E-015  9.5309496E-016 0.0  1.1438281E-015  4.0971144E-016 0.0  6.6177628E-016  2.9235922E-016 0.0 -2.9963828E-015 -8.0341549E-016 0.0  8.3344789E-015  2.4648327E-015 0.0  6.6097691E-015  2.0132262E-015 0.0  2.0186463E-015  6.3343499E-016 0.0  1.2658058E-014  3.7795932E-015 0.0  1.1258377E-014  3.3801354E-015 0.0 -7.5877843E-017 -1.0257906E-017 0.0  2.0871749E-016  8.7780433E-017 0.0 -4.9961721E-018  3.0526282E-018 0.0  2.5969091E-018  3.0144503E-017 0.0 -7.6935192E-020 -3.7531548E-018 0.0  3.5533289E-020  2.6016429E-017 0.0 -1.1562528E-019  1.3663160E-017 0.0 -6.0645748E-019  2.8763543E-017 0.0  5.3785519E-019  2.6687321E-017 0.0 -1.8136506E-018 -1.2878557E-017 0.0  5.0343290E-019  2.8613631E-017 0.0  1.0780458E-019  4.3708497E-017 0.0 -4.4800038E-019  2.6355318E-017 0.0 -1.2730720E-018 -2.9321195E-017 0.0  2.1902005E-007  5.7954262E-009 0.0 -4.2309892E-008 -1.3043145E-010 0.0  8.3932044E-009  3.3403358E-011 0.0 -2.4727812E-009 -1.4036211E-011 0.0  5.6075999E-010  4.2327709E-012 0.0 -1.6591527E-010 -5.0414436E-012 0.0  9.6010218E-011  1.7718527E-011 0.0 -1.9326960E-010 -4.6361305E-011 0.0  6.1078286E-010  2.6602624E-011 0.0 -5.9061854E-009 -1.6559644E-009 0.0  9.1243970E-009 -6.6965208E-009 0.0 -1.8325678E-007 -8.9351948E-009 0.0  1.8688280E-006 -1.3841880E-006 0.0 -1.5513044E-005 -2.2683859E-005 0.0 -5.3381044E-005 -2.2564813E-005 0.0 -8.9360754E-004 -2.1848089E-003 0.0 -5.5653210E-004  6.1411417E-004 0.0  4.3202374E-020  1.1447360E-017 0.0  5.8581021E-020 -2.0793603E-017 0.0  1.3205403E-018  1.6851972E-017 0.0  1.1922964E-018  9.2235334E-018 0.0  3.8252513E-020  3.8882290E-017 0.0 -1.0643375E-017  5.3785035E-017 0.0  1.0223636E-016  5.5112666E-017 0.0 -2.4715205E-015 -3.3192115E-016 0.0 -1.0561758E-014 -9.7173707E-016 0.0 -1.0344462E-012 -1.0419536E-013 0.0  2.4687153E-011  2.4756893E-012 0.0 -5.7757619E-010 -5.9941478E-011 0.0  1.6928890E-008  1.7743297E-009 0.0  8.6948678E-008  1.5858928E-008 0.0  1.4952051E-002  8.6808557E-002 0.0  3.7912006E-002  3.1877585E-001 0.0  6.3136165E-002  6.9406128E-001 0.0  8.7226131E-002  1.2729025E+000 0.0  1.2501019E-001  2.1459949E+000 0.0  1.3450691E-001  3.0239465E+000 0.0  1.6901491E-001  3.7499159E+000 0.0  2.0385874E-001  5.1204563E+000 0.0  2.6108203E-001  6.7160259E+000 0.0  2.9914929E-001  7.8141819E+000 0.0  3.1731383E-001  9.4817128E+000 0.0  3.5789062E-001  1.1400413E+001 0.0  5.3977586E-001  1.2954014E+001 0.0  4.7726136E-001  1.4840723E+001 0.0  6.3354746E-001  1.8903397E+001 0.0  7.9831871E-001  1.9461779E+001 0.0  5.2291359E-001  2.2527139E+001 0.0  1.1943623E+000  2.6301639E+001 0.0  1.2137691E+000  2.8591921E+001 0.0  1.4809593E+000  2.9541647E+001 0.0  1.0664454E+000  3.1942926E+001 0.0  2.4055459E+000  3.7803307E+001 0.0  2.7268525E+000  4.7325546E+001 0.0  2.4892206E+000  4.4062425E+001 0.0  3.5733184E+000  4.4862978E+001 0.0  3.7629709E+000  5.3458727E+001 0.0  5.4266934E+000  5.7673769E+001 0.0  5.3286592E+000  6.3311405E+001 0.0  8.0889138E+000  7.2336203E+001 0.0  9.1188026E+000  8.0616583E+001 0.0  1.0651265E+001  8.9396851E+001 0.0  1.1894749E+001  9.3706365E+001 0.0  1.2964944E+001  1.0350238E+002 0.0  1.4895069E+001  1.1246511E+002 0.0  1.9557960E+001  1.5066614E+002 0.0  1.6209949E+001  1.2825516E+002 0.0  1.6695084E+001  1.6487872E+002 0.0  1.9852287E+001  1.9506178E+002 0.0  1.9871421E+001  2.2547187E+002 0.0  1.5052561E+001  2.4277760E+002 0.0  1.1273884E+001  3.0115763E+002 0.0  2.2206120E+000  3.3590707E+002 0.0 -6.2902020E+000  3.6237396E+002 0.0 -3.4609443E+001  4.4132208E+002 0.0 -5.2843989E+001  4.4494911E+002 0.0 -8.4856120E+001  4.8533975E+002 0.0 -1.4964598E+002  5.7751013E+002 0.0 -2.0496578E+002  6.0431532E+002 0.0 -2.3341206E+002  5.0689368E+002 0.0 -3.4759005E+002  4.1977712E+002 0.0 -4.4230107E+002  4.1834859E+002 0.0 -4.9454436E+002  3.8510943E+002 0.0 -4.4434276E+002  2.7580798E+002 0.0 -3.9249557E+002  2.0068894E+002 0.0 -4.1343893E+002  1.7954438E+002 0.0 -3.7803053E+002  1.3601866E+002 0.0 -3.6224068E+002  1.0832903E+002 0.0 -3.3658677E+002  8.0476279E+001 0.0 -3.2445535E+002  6.1674253E+001 0.0 -3.3090973E+002  4.4419213E+001 0.0 -3.0867212E+002  2.6620019E+001 0.0 -2.6894715E+002  7.6111649E+000 0.0 -2.6933649E+002 -6.0471785E+000 0.0 -2.4944179E+002 -2.4817247E+001 0.0 -2.4438152E+002 -4.1733784E+001 0.0 -2.3316275E+002 -6.6651728E+001 0.0 -2.0945304E+002 -8.7183174E+001 0.0 -1.7298293E+002 -1.0107719E+002 0.0 -2.7863407E-001 -1.9207135E-001 0.0 -2.1917804E-001 -1.0290799E-001 0.0 -1.4204204E-001 -3.3369473E-002 0.0 -1.0497536E-001 -5.4669959E-003 0.0 -5.1173278E-002  1.4689435E-002 0.0 -2.8313490E-002  1.6501627E-002 0.0 -1.2307257E-002  1.3583681E-002 0.0 -4.2278352E-003  6.5393848E-003 0.0 -4.6470113E-004  2.1976870E-003 0.0 -1.3394487E-004  7.7308916E-004 0.0 -3.2789732E-004  2.6048089E-004 0.0 -6.0480539E-004  6.7572080E-004 0.0  5.4007431E-006  3.5055704E-004 0.0 -3.0104560E-003  3.9975554E-003 0.0 -6.5854739E-004  2.8503926E-003 0.0 -1.2997337E-002  1.6640527E-002 0.0 -7.2437541E-003  1.5429553E-002 0.0 -9.3241241E-003  1.9204992E-002 0.0 -6.4155322E-003  1.7732234E-002 0.0 -5.8442425E-003  2.5596373E-002 0.0 -2.2458690E-002  7.8696127E-002 0.0 -9.8028408E-003  3.7660561E-002 0.0 -3.7313442E-003  5.8852014E-002 0.0  4.8529533E-004  2.0859687E-002 0.0  1.0455265E-004 -3.0909527E-004 0.0 -1.4481858E-003  4.9180306E-003 0.0 -4.0684258E-003  8.1004039E-003 0.0 -4.0007521E-003  4.6279822E-003 0.0 -1.6879346E-003  1.3151663E-002 0.0 -1.4430394E-002  8.7939159E-003 0.0 -2.2195798E-002  7.8101537E-002 0.0 -3.3926029E-002  6.0841601E-002 0.0 -5.2380688E-002  7.9478910E-002 0.0 -2.4372686E-001  2.1419267E-001 0.0  2.0263102E-002  5.2993378E-001 0.0  1.8633436E-001  1.0371475E+000 0.0  6.5640332E-001  3.9704961E+000 0.0  8.8394065E-001  8.7855389E+000 0.0  1.7271658E+000  1.5724899E+001 0.0  2.4467159E+000  2.1945314E+001 0.0  3.4383181E+000  3.7864765E+001 0.0  6.7478020E+000  5.7093433E+001 0.0  6.3827905E+000  6.5764169E+001 0.0  7.4026627E+000  7.9115797E+001 0.0  8.2959660E+000  1.0411753E+002 0.0  8.6411448E+000  1.2439941E+002 0.0  8.5676167E+000  1.5152450E+002 0.0  7.4054396E+000  1.7182681E+002 0.0  4.5300785E+000  2.1762433E+002 0.0  7.2453175E-001  2.4921272E+002 0.0 -6.7078898E+000  2.4230987E+002 0.0 -1.4945250E+001  2.6727167E+002 0.0 -2.5928349E+001  2.8534547E+002 0.0 -4.4528887E+001  3.0253202E+002 0.0 -5.8369728E+001  3.1261172E+002 0.0 -9.3976493E+001  3.4250627E+002 0.0 -1.2347023E+002  3.4016690E+002 0.0 -1.3734227E+002  2.6721229E+002 0.0 -7.0608112E-002 -2.0809000E-002 0.0 -1.7182419E-002 -1.4369290E-002 0.0 -7.3937441E-002 -1.5617402E-002 0.0 -8.2394056E-003  4.9949454E-004 0.0 -4.9853533E-002 -6.6636756E-003 0.0 -2.1101349E-002  4.5494844E-003 0.0 -3.8512417E-002  2.0539407E-003 0.0 -1.6542458E-002  6.7640532E-005 0.0 -2.4116954E-002 -7.3920785E-004 0.0 -3.7243081E-002  8.0797620E-004 0.0 -1.8499731E-002  9.4491191E-004 0.0 -6.2566976E-002 -3.3802699E-003 0.0 -1.3667474E-002 -1.3221073E-003 0.0 -6.6602276E-002  8.6903653E-004 0.0 -5.6347707E-003  5.2521981E-006 0.0 -6.6459301E-002 -6.5241398E-004 0.0 -1.6271331E-002  5.8072622E-004 0.0 -7.0399099E-002 -1.7685542E-003 0.0 -4.8866084E-003  2.4573373E-003 0.0 -6.8647908E-002 -1.1807154E-003 0.0 -1.9825610E-002 -2.3772717E-003 0.0 -4.5259896E-002  2.3916548E-003 0.0 -9.2595095E-002  2.1871589E-003 0.0 -2.0869671E-002  9.3581034E-004 0.0 -3.5306859E-002 -2.5855845E-003 0.0 -7.4914229E-002 -6.1103076E-004 0.0 -2.4970386E-002 -5.6250907E-004 0.0 -5.9916663E-002  3.9667206E-003 0.0 -9.4298852E-002 -8.8966650E-003 0.0 -5.1684336E-002  9.4074604E-003 0.0 -9.2154527E-002  5.3286188E-003 0.0 -3.1960030E-002 -8.8293445E-004 0.0 -1.4503129E-001 -1.6097967E-003 0.0 -4.6000926E-003  4.2432732E-003 0.0 -1.2940391E-001 -2.7892427E-003 0.0 -2.6336366E-002 -5.4876392E-003 0.0 -2.3304828E-001 -3.4913665E-004 0.0 -9.3870156E-002  5.6782855E-004 0.0 -5.5780004E-002 -2.3463517E-003 0.0 -1.3397343E-001  5.3355591E-003 0.0 -4.4061849E-002 -1.3804426E-003 0.0 -1.9812104E-001 -5.6226877E-003 0.0 -1.4752306E-002  5.2813816E-003 0.0 -1.7388867E-001 -4.6416062E-003 0.0 -5.5665074E-002 -7.5459268E-003 0.0 -2.7136565E-001 -4.6455700E-003 0.0 -6.7091718E-002  6.0409821E-003 0.0 -1.6958834E-001 -7.4222783E-004 0.0 -1.2772122E-001 -9.6527952E-003 0.0 -9.2903636E-002 -9.0092561E-003 0.0 -2.7726421E-001  3.1344546E-005 0.0 -6.3585125E-002  2.8181561E-003 0.0 -8.5743872E-002 -5.7291036E-003 0.0 -2.2444912E-001 -1.9795450E-002 0.0 -8.2466988E-002 -4.0423777E-003 0.0 -3.3276953E-001  3.9470732E-003 0.0 -6.4107747E-002  1.1900546E-003 0.0 -1.1879604E-001 -8.7239590E-003 0.0 -2.4081868E-001 -1.6922817E-002 0.0 -8.5604754E-002 -3.4823279E-003 0.0 -3.4470593E-001  5.3854151E-003 0.0 -8.6359251E-002 -7.1877730E-003 0.0 -2.9266353E-001  6.8311915E-003 0.0 -1.0653597E-001 -5.3839889E-003 0.0 -3.2977620E-001 -2.0697185E-002 0.0 -8.0014744E-002 -1.1913112E-003 0.0 -4.2208888E-001 -2.0654477E-002 0.0 -2.2571533E-002  6.9356852E-003 0.0 -3.2544574E-001 -1.1690057E-002 0.0 -2.1763238E-001  1.3461047E-002 0.0 -3.3228430E-001  1.1257408E-002 0.0 -1.2248844E-001 -7.0619079E-003 0.0 -5.0792345E-001 -3.2355751E-002 0.0 -1.1151238E-001 -1.3536794E-002 0.0 -4.5103624E-001 -5.5909903E-002 0.0 -1.9094127E-001  2.5823265E-002 0.0 -3.7214947E-001  2.4247441E-002 0.0 -1.2019986E-001 -2.2340096E-002 0.0 -3.8318790E-001 -4.9061421E-003 0.0 -1.2766997E-001 -8.1484193E-003 0.0 -1.7212094E-001 -1.3162457E-002 0.0 -3.2719027E-001 -3.5316079E-002 0.0 -1.0007833E-001 -7.5885983E-003 0.0 -4.2765601E-001 -3.2290815E-002 0.0 -1.2869013E-002  3.8828535E-003 0.0 -2.8381866E-001 -1.7560828E-002 0.0 -1.2436633E-001  1.2208536E-003 0.0 -3.6332898E-001 -2.2217475E-002 0.0 -4.7418970E-002 -1.7784703E-002 0.0 -4.1844770E-002 -4.4846407E-003 0.0 -1.2802793E-001 -1.4434850E-002 0.0 -2.4965839E-002 -7.2795739E-003 0.0 -6.3149865E-002 -1.0417758E-002 0.0  4.5191384E-003 -4.3130115E-003 0.0 -1.2095215E-002 -4.2698689E-003 0.0  1.0574853E-003 -1.0985907E-003 0.0 -5.2864898E-003 -1.7112407E-003 0.0  8.5596943E-005  1.4040206E-004 0.0 -9.5580334E-004  4.0127516E-004 0.0  1.0478953E-002  2.1441716E-001 0.0 -1.5317896E-002 -3.6690885E-002 0.0  5.8078090E-002  5.7756643E-003 0.0  1.8029101E+001  1.5030772E+002 0.0  1.2633648E+000  4.3656658E+001 0.0  5.1736905E+000  7.6094305E+001 0.0 -5.6225075E+000 -4.3184964E+001 0.0  6.3218225E-001  2.3881186E+001 0.0  1.8816620E+001  3.8531423E+002 0.0 -1.2306924E-001 -2.2008496E-001 0.0  4.5875962E-001 -8.7113501E+000 0.0  1.1316162E-001 -2.4613702E+000 0.0 -7.2333056E-002 -9.0168798E-001 0.0 -5.3462868E+002  8.8691621E+001 0.0 -3.8904787E-001 -1.9905831E+001 0.0  2.5379868E+001  2.2577115E+002 0.0 -2.5195355E+001 -9.2342828E+001 0.0  1.7990096E-001  1.1483107E+001 0.0 -5.4597664E+001  6.3201057E+002 0.0 -1.1928508E-002  3.3191234E-002 0.0 -6.4671470E+002  2.8106246E+002 0.0 -4.3645109E+002 -3.6026030E+001 0.0  3.1259403E-001 -4.9712593E+000 0.0  9.1557309E-002  5.6831008E+000 0.0 -6.2367077E+001 -1.3779194E+002 0.0 -6.6321764E-004 -1.4869871E+000 0.0  9.9671549E+000  1.0804529E+002 0.0 -6.3685178E-002 -2.6282677E-002 0.0  2.4662439E+000  5.6114386E+001 0.0 -1.5201765E-002  8.7420125E-003 0.0 -3.2453897E-003  3.0133680E-002 0.0 -6.9785833E+002  5.4005719E+002 0.0 -3.1317477E-004  2.0833999E-003 0.0 -1.4596302E+002 -2.0433685E+002 0.0 -2.5207403E+002  8.6269766E+002 0.0  6.5194060E-002  1.5888802E+000 0.0  1.9627682E-001 -1.3177034E+001 0.0  2.4396683E-001 -3.3898340E+000 0.0 -5.9100424E+002  1.7223810E+002 0.0 -2.1906542E+000 -2.9414064E+001 0.0 -3.8663254E+002 -1.0496217E+002 0.0 -4.9611197E+002  2.6617538E+001 0.0 -1.2057311E+001 -6.3561095E+001 0.0 -2.7436551E+000  5.0443961E+002 0.0  3.4870626E-001  1.7034974E+001 0.0  9.7067681E-001  2.7973314E+001 0.0 -1.0665784E-001 -5.4029483E-001 0.0  2.8038898E+001  2.9858741E+002 0.0  2.2595335E+001  1.8580512E+002 0.0  7.0883253E+000  9.0761141E+001 0.0 -3.3569244E-003  5.0779730E-003 0.0 -9.4373951E-003  1.1550780E-001 0.0 -3.6952580E-004  9.3549774E-004 0.0 -4.9570063E+002  9.5133917E+002 0.0 -2.4261956E+002 -2.2534051E+002 0.0  2.5466452E-002  3.0614632E-001 0.0 -1.4316651E-003  1.1431826E-002 0.0 -6.7372538E-003  7.7578650E-002 0.0 -2.0240245E-002  1.5490356E-001 0.0 -2.7992172E-002  2.9927164E-001 0.0 -6.3849199E-003  1.4306586E-001 0.0 -1.3715515E-002  3.3755160E-001 0.0 -3.5290880E-002  6.6889315E-001 0.0 -3.6580468E-002  8.6067474E-001 0.0  3.6645876E-003  4.1062053E-001 0.0 -3.4661736E-002  1.0372727E+000 0.0  7.2694125E-003  4.4292852E-001 0.0  2.6892184E-002  9.2133766E-001 0.0  1.1583473E-002  1.8073595E+000 0.0  4.1731749E-002  1.9657187E+000 0.0  1.1815489E-001  8.3384684E-001 0.0  1.2214111E-001  1.6439563E+000 0.0  2.2944082E-001  3.3253402E+000 0.0  2.8356206E-001  3.3924109E+000 0.0  3.0955686E-001  1.5204686E+000 0.0  3.9716876E-001  3.5332190E+000 0.0  4.1028293E-001  1.3350250E+000 0.0  5.8792482E-001  2.9663492E+000 0.0  7.3978197E-001  6.0885168E+000 0.0  9.2791143E-001  5.9643461E+000 0.0  7.4808656E-001  2.5335168E+000 0.0  8.7619597E-001  6.0195290E+000 0.0  6.0752343E-001  2.1031724E+000 0.0  6.8878854E-001  5.2641296E+000 0.0  1.6787058E+000  9.7079402E+000 0.0  1.0016296E+000  1.1639333E+001 0.0  2.1897644E-001  4.3985346E+000 0.0 -4.9464496E-001  1.0077125E+001 0.0  1.3808044E+000  2.0412542E+001 0.0 -2.0738367E+000  2.1450273E+001 0.0 -2.9347607E+000  8.2823952E+000 0.0 -7.2636912E+000  2.3414417E+001 0.0 -9.0543977E+000  6.0074395E+000 0.0 -1.4804174E+001  1.8760170E+001 0.0 -1.0757318E+001  4.1374734E+001 0.0 -2.5666025E+001  4.3962721E+001 0.0 -2.7420897E+001  1.3565159E+001 0.0 -4.4593895E+001  3.5909288E+001 0.0 -3.8090862E+001  7.5266110E+001 0.0 -7.3885741E+001  7.2193200E+001 0.0 -7.5345337E+001  2.8638843E+001 0.0  1.4217470E+000  9.7549076E+000 0.0  7.7266048E-001  9.5648882E+000 0.0  2.2372626E+000  3.2740315E+001 0.0 -5.9205746E+001  1.2243729E+002 0.0 -1.0494137E+002  1.1510261E+002 0.0 -2.1194545E-002  1.3821995E+000 0.0  3.4800243E+000  2.9668528E+001 0.0 -2.4975919E+001  1.0300942E+002 0.0 -4.3230993E-002  1.1023405E+000 0.0  1.5046923E-001  4.9537975E-001 0.0 -2.2571562E-002  2.0346662E-001 0.0 -1.0486454E-002  1.7354771E-001 0.0 -9.5855338E+001  1.8148719E+002 0.0 -4.4477220E+000 -2.4633143E-001 0.0 -9.2975994E+000 -4.2331443E+000 0.0  2.5221854E-001  6.9655262E-002 0.0 -1.6040434E+002  1.7297468E+002 0.0 -1.6277557E+002  1.0976123E+002 0.0  1.4432679E+000  1.4442272E+001 0.0  7.8140922E-001  1.4940934E+001 0.0 -1.3853385E+002  2.5421056E+002 0.0  6.0385007E+000  4.3764923E+001 0.0 -4.2052598E-003  2.0475679E+000 0.0 -4.5149150E-002  4.3005242E-002 0.0  5.7582959E+000  4.4548514E+001 0.0  6.9667559E-002 -3.4574873E-001 0.0 -6.7816977E-002  1.9097016E+000 0.0 -4.1416835E-002 -2.6603775E-002 0.0 -2.1845657E+002  2.3575820E+002 0.0 -1.9536338E+002  3.3899927E+002 0.0 -7.6001332E+001  2.4624198E+002 0.0 -5.0756010E+000 -8.7442283E+000 0.0  1.3989704E-001 -7.3853842E-001 0.0  1.7769177E-002  8.2734811E-001 0.0 -4.7423210E-002  1.4464121E+000 0.0 -7.1781406E+000 -1.4065096E+001 0.0  1.3782047E+000  2.3332725E+001 0.0  2.0436579E+000  2.1463580E+001 0.0  3.0858297E-001  3.9169311E-001 0.0  3.5213697E-001 -2.1404509E-001 0.0  1.6925115E-001 -1.2045101E+000 0.0  2.0139062E-001 -2.2733501E+000 0.0 -2.1114284E+000 -3.6118143E+000 0.0 -3.0533428E+002  3.1939597E+002 0.0  7.8669448E-001  2.3145453E+001 0.0  1.0486050E+000  1.4638010E+001 0.0  1.0000727E-001  4.2793515E-002 0.0  3.1903616E-003 -5.4366763E-001 0.0  2.4031129E-002 -2.1871672E-001 0.0 -3.5747016E-002  6.7921334E-002 0.0 -5.7606876E-002  3.4156854E+000 0.0 -2.5899703E-002  3.4973399E+000 0.0 -2.1043771E-002  9.9876935E-002 0.0  4.8970542E+000  2.6849551E+001 0.0  5.4091203E+000  4.2308292E+001 0.0 -3.1531616E+002  2.2689161E+002 0.0  4.5185333E+000  2.7702400E+001 0.0 -2.9629827E+000 -9.8558130E+000 0.0 -1.2503818E+000 -5.8591903E+000 0.0 -1.9360823E-002 -1.5038665E+000 0.0  2.2539319E-002 -3.6040575E+000 0.0  8.5841794E+000  6.3899628E+001 0.0  7.2619052E+000  6.4107403E+001 0.0 -4.2513074E-002  8.8726073E-003 0.0 -2.2654551E-002  4.2488938E-002 0.0 -5.2763791E-002 -1.4330221E-001 0.0 -1.2813533E+001 -1.0938729E+001 0.0 -2.7671504E+002  4.4318312E+002 0.0 -1.0535106E+001 -2.2173969E+001 0.0 -1.7373528E+001 -1.9735348E+001 0.0  4.5493246E+000  4.2886964E+001 0.0  2.0832911E+000  3.2392455E+001 0.0 -1.7135466E+002  4.4029788E+002 0.0  1.0818659E+001  8.8498380E+001 0.0  1.0667602E+001  9.7103148E+001 0.0  6.9935984E+000  6.8079791E+001 0.0  6.7296259E+000  1.0263729E+002 0.0  9.9588296E-002 -2.5590694E+000 0.0  2.2072549E-001 -1.6228571E+000 0.0 -1.5054465E+001 -3.2658624E+001 0.0 -2.2364450E+001 -3.3107532E+001 0.0  1.2670670E-002  6.4577309E-001 0.0 -7.0115381E-002  1.0896663E+000 0.0  4.4760174E-001  2.4132910E+001 0.0  6.7224152E-001  1.6747326E+001 0.0  5.2468718E-001  1.0335995E+001 0.0  5.7560622E-001  1.1361082E+001 0.0  1.4605857E-001  1.8522216E+001 0.0  3.8985975E-001  1.2725015E+001 0.0  2.3982548E+000  3.0399365E+001 0.0 -3.7848143E-002 -1.4139485E-004 0.0 -1.9948869E-002  2.1419733E-002 0.0 -5.5668747E-002 -3.2466616E-002 0.0 -2.9321913E-002  1.8013823E-003 0.0 -1.4617805E-002  1.1878126E-002 0.0 -1.0853698E-002  2.5097132E-002 0.0 -6.9989826E-003  1.1250013E-002 0.0 -3.9098600E-002 -6.1723226E-001 0.0 -2.0150630E-002 -3.8029713E-001 0.0  2.7741072E+000  2.0692349E+001 0.0 -4.7541630E-003 -2.1930475E-002 0.0 -5.2816662E-003  1.9248172E-002 0.0  3.3759822E+000  7.2422128E+001 0.0  2.4328980E+000  1.0804799E+002 0.0  1.0141047E+001  1.4125545E+002 0.0  4.8215185E+000  1.4799619E+002 0.0 -1.5082852E-001  5.6036752E+000 0.0 -1.5433462E-001  6.0793154E+000 0.0  5.9929773E-002  3.6855283E+000 0.0 -1.4666718E-001  6.6567811E+000 0.0 -1.7652210E-001  4.9362605E+000 0.0  1.3521834E-001  3.8635183E+000 0.0 -1.5779467E-002  6.3544826E+000 0.0 -3.2215684E-002  9.7243097E+000 0.0 -8.2677186E-002 -1.5996025E-001 0.0  1.2275934E-001  4.0735551E+000 0.0 -1.4526468E+000 -9.9059286E+000 0.0 -4.8955570E-001 -6.5140978E+000 0.0 -6.2213746E-001 -3.1235400E+000 0.0 -7.3102232E-002  2.0646604E+000 0.0  9.8866845E+000  8.5133094E+001 0.0  2.8081014E-003 -8.9836517E-001 0.0  7.1186726E+000  6.0695054E+001 0.0  2.9497123E-001  7.9076510E+000 0.0 -6.3094250E+000 -2.1596724E+001 0.0 -8.4458042E-002 -2.8608502E-001 0.0 -4.1829317E+002  4.1702180E+002 0.0 -3.8139275E+002  5.3970349E+002 0.0  6.4833637E-002  9.2325643E+000 0.0  1.7476743E-001 -3.5735792E-001 0.0 -2.5055371E+001 -1.5617073E+001 0.0 -3.4030828E+001 -2.7838804E+001 0.0 -2.8224233E+001 -4.6957154E+001 0.0 -4.3019213E+001 -4.5688440E+001 0.0 -5.0230187E+001 -2.0851416E+001 0.0 -6.5817859E+001 -4.2165571E+001 0.0 -5.3447366E+001 -6.6694227E+001 0.0 -8.1927730E+001 -6.6339716E+001 0.0 -9.1907901E+001 -3.4792886E+001 0.0 -1.1763602E+002 -6.2417002E+001 0.0 -1.3132889E+002 -2.2971352E+001 0.0 -1.7580882E+002 -4.8581646E+001 0.0 -1.8631907E+002 -9.2705672E+000 0.0 -1.4225417E+002 -9.0592844E+001 0.0 -2.1188322E+002 -7.6750010E+001 0.0 -1.7633781E+002 -1.2228456E+002 0.0 -1.2281575E+002 -1.2586866E+002 0.0 -6.5976529E+001 -9.0154721E+001 0.0 -1.3386151E+002  1.0095860E+001 0.0 -2.0030380E+002  3.1117070E+001 0.0 -2.5819903E+002  1.0801002E+001 0.0 -2.7543915E+002  5.0700785E+001 0.0 -3.7103728E+000  8.2785794E+001 0.0 -4.6167363E-002  1.9759599E+001 0.0 -1.8503465E+000 -1.3223326E+001 0.0 -1.2786841E-001  8.3140360E+000 0.0 -2.5564808E+002 -9.9388252E+001 0.0 -2.7709881E+002 -6.4361813E+001 0.0 -8.9776664E-003  4.4137675E-002 0.0 -2.1788063E-002  1.0827678E-001 0.0  5.1168484E+000  6.3203139E+001 0.0  7.7102543E-003  4.2287903E-001 0.0  3.1870401E-003  3.2455439E-001 0.0 -4.8689499E-002  7.3792018E-001 0.0  5.3285391E+000  4.4997668E+001 0.0  9.4191634E-002 -2.5929727E+000 0.0  1.5187515E-001 -1.8203616E+000 0.0  1.4828555E+000  3.2924080E+001 0.0  1.2514820E+001  1.9256577E+002 0.0  1.9993050E+000  2.1470967E+002 0.0 -3.2096470E+000  1.5729863E+002 0.0 -9.5054490E+000  2.3560215E+002 0.0 -2.0618830E+001  1.7903414E+002 0.0 -2.5868791E+001  2.5024228E+002 0.0 -1.4459497E+002  4.4009225E+001 0.0 -2.1575801E+002 -1.4940898E+002 0.0  3.3724273E+000  4.3544062E+001 0.0  1.9598936E+000  4.5236571E+001 0.0 -7.9404497E-002  1.4157627E+001 0.0  2.0408253E+000  5.2819932E+001 0.0  3.9079119E-002  2.5933071E+000 0.0 -6.5236370E-002 -2.8865486E-001 0.0  1.4141616E+001  1.1824873E+002 0.0  5.9446178E-002  1.3713996E+001 0.0 -2.5835823E-003  7.4922867E-003 0.0 -3.9800052E-003  6.2894475E-003 0.0 -6.1966681E-001 -9.3598557E+000 0.0 -1.6450764E-001 -6.9171173E+000 0.0  1.8808592E-001 -3.4481338E+000 0.0 -1.1078325E+001  3.0817279E+002 0.0 -3.4624903E+001  3.5077997E+002 0.0 -4.5325440E-003  2.6613277E-002 0.0 -3.5245504E+002  3.2982932E+001 0.0 -3.1854896E+002 -9.9964140E+000 0.0 -3.7028020E+002  7.5505102E+001 0.0 -2.7635657E+002  8.8766003E+001 0.0 -3.8777502E+002  1.1309375E+002 0.0 -3.0856797E+002  1.3113267E+002 0.0 -6.2535462E-002 -8.9925363E-001 0.0  4.4666326E-001  3.4557885E+001 0.0  7.4178243E-001  2.6826886E+001 0.0 -4.3101508E+001 -8.7360218E+001 0.0  3.2434649E+000  1.8875463E+001 0.0  4.6954212E-001  5.3024019E+000 0.0  3.2740821E-002  2.2278241E-001 0.0  8.2956106E-002 -2.5959659E+000 0.0  1.3016351E-001 -1.8611803E+000 0.0 -5.1012343E+001  1.6955965E+002 0.0 -4.1242614E+002  1.6414730E+002 0.0 -5.7545216E-002  1.4134562E+001 0.0 -1.2383173E-001  9.9048805E+000 0.0  4.3142203E-001  6.1922213E-001 0.0  1.6673688E+001  1.8008722E+002 0.0  1.4903701E+001  1.3042373E+002 0.0  1.8072764E+001  1.6435412E+002 0.0 -3.1484921E-002  1.9995112E+001 0.0 -1.0125627E+002 -9.7820444E+001 0.0  2.6523187E-002 -8.8559209E-001 0.0  2.4425966E-002 -1.2051185E+000 0.0  9.0631054E-002 -1.2316268E+000 0.0  5.7452027E-002 -1.6061341E+000 0.0  3.4970544E-001  2.6370082E+001 0.0 -1.8490823E+000  1.4884679E+000 0.0 -1.4360422E-001  7.8937072E+000 0.0 -6.8298199E-002  6.2972082E+000 0.0  4.4133312E-003  3.8523295E+000 0.0  1.4887059E-001 -1.1456571E+000 0.0 -9.1903911E+000 -3.0393204E+001 0.0 -1.1379771E+001 -4.0841051E+001 0.0 -9.3210523E-002  1.5005060E+000 0.0 -5.4371765E-002  2.6671372E+000 0.0 -5.3409396E-002 -2.4362531E-002 0.0 -8.1480719E-002 -6.4453761E-002 0.0 -7.8939860E-002 -8.9188908E-002 0.0 -6.3351958E-002 -7.2813804E-002 0.0  4.8315681E-001  6.2032928E+000 0.0  1.3226387E+001  1.1361918E+002 0.0 -4.3215662E-002 -4.9757376E-003 0.0 -8.6890948E-001 -1.2813307E+001 0.0 -3.7419104E+001 -6.6503643E+001 0.0 -2.4507880E+001 -6.2398944E+001 0.0 -1.9722788E+001 -4.7490925E+001 0.0  7.2081154E+000  6.1767001E+001 0.0  9.4527318E+000  7.8327352E+001 0.0 -1.0960353E-001 -2.4772793E-001 0.0 -1.0136513E-001 -3.7066307E-001 0.0 -4.3477542E+002  3.1047357E+002 0.0 -5.4521748E+002  3.8650491E+002 0.0 -4.3762754E+002  2.3093639E+002 0.0 -5.4383235E+001 -1.0993350E+002 0.0  3.4317873E-002 -3.7468053E+000 0.0  1.4422271E-001 -4.8738359E+000 0.0 -6.8967365E-002 -6.7504261E-001 0.0  5.0762593E-004  4.3202476E-001 0.0 -4.4814148E+000 -1.5038213E+001 0.0 -3.8124553E+000 -2.0768049E+001 0.0  1.2993822E-001  6.4944209E-001 0.0 -2.4505999E+002  1.6706361E+002 0.0  1.2392107E+000  3.5432508E+001 0.0 -1.0800792E+002  3.3565647E+002 0.0 -1.0477879E+002  4.4796352E+002 0.0 -1.5453491E+002  5.8013725E+002 0.0 -6.5891254E+001  3.4077485E+002 0.0 -5.8606818E+001  4.7582916E+002 0.0 -2.4619902E+002 -2.4150774E+001 0.0 -1.8998164E+001  2.8602221E+000 0.0 -2.3622830E-002  5.7190876E-003 0.0 -1.1323393E-002  8.6840884E-003 0.0 -4.1104506E-002 -1.1948113E+000 0.0 -1.2065458E+002  6.4657977E+001 0.0 -2.2939251E+002  1.0383048E+002 0.0 -2.4911525E+002  6.0004272E+002 0.0 -8.8054179E+001 -1.2678837E+002 0.0 -1.0844880E+002 -1.5479517E+002 0.0 -1.5527037E+002 -1.6240500E+002 0.0  1.7534222E+001  2.4009588E+002 0.0  9.9288753E-003  1.4583632E+000 0.0  8.2661624E+000  2.8988954E+002 0.0 -3.3855000E+002  7.3007554E+002 0.0 -4.9364031E+002  6.5303493E+002 0.0 -8.2987066E-003  7.3014297E-003 0.0 -1.3565585E-001  2.6981929E+000 0.0 -3.0229776E+002 -1.2339823E+002 0.0 -1.8139078E-002  4.6911184E-001 0.0  4.1040724E+000  2.8610740E+001 0.0  2.0072438E-001 -6.5035347E-001 0.0 -2.8895698E-002 -7.8003989E-002 0.0 -6.5465578E-002 -4.1604342E-001 0.0 -9.4322280E-002 -5.8231221E-001 0.0 -4.4669619E+002  6.7369182E+001 0.0 -3.6648682E+002  1.8219780E+002 0.0  4.2741711E-001  9.1003220E+000 0.0  6.2222105E-002  5.9213245E+000 0.0 -1.1857439E-001 -1.1991296E-001 0.0 -1.3000615E+001  6.5391249E+001 0.0  1.2313395E+000  4.9545451E+001 0.0  3.6867720E+000  6.5608718E+001 0.0 -2.8999682E-002  2.7319583E+001 0.0 -4.4898144E-002  4.6021889E-001 0.0 -5.6227475E+000 -2.8559545E+001 0.0 -2.1672061E-001 -3.3214693E+000 0.0 -6.2532845E-002 -1.0530595E+000 0.0 -2.6684871E+002 -1.7830371E+002 0.0 -3.3180247E+002 -1.4084695E+002 0.0  8.9933474E-001  3.4785922E+001 0.0 -3.2753264E+002 -7.4378094E+001 0.0  5.1092242E+000  6.6802527E+001 0.0 -9.0645745E-003  4.3729703E-002 0.0 -9.7793829E-003  4.4186299E-002 0.0 -2.4341289E-003  8.5093333E-003 0.0 -2.1418666E-005  6.0230058E-004 0.0 -1.2539947E-003  3.0070250E-003 0.0 -4.9187497E+001  5.3592143E+000 0.0 -7.7579445E+001  3.9818318E+000 0.0 -9.7300090E-002  1.1888720E+001 0.0  3.7792546E+000  1.8301345E+001 0.0  2.0618998E+000  1.3487844E+001 0.0 -7.0243160E-004  1.4988177E-003 0.0  1.4376087E-001 -4.7691104E+000 0.0  2.3373189E-001 -5.9235206E+000 0.0  8.2959262E-002 -6.6858102E+000 0.0 -1.9261851E+002  7.0081936E+002 0.0 -1.1311249E+002  6.6015965E+002 0.0 -5.5290665E+002  5.0638609E+002 0.0 -3.6753742E+002  8.0723874E+002 0.0 -8.1839019E-001 -3.1950980E-001 0.0  8.2951644E+000  8.1848464E+001 0.0  5.9342018E+000  8.6509450E+001 0.0  5.3932542E+000  6.9445649E+001 0.0  4.7219435E+000  4.9802575E+001 0.0  1.4028846E+000  4.4594591E+001 0.0 -2.1344924E+000  3.9828547E+001 0.0 -6.2686125E+002  3.4266895E+002 0.0  2.3599669E-001 -1.4092027E+001 0.0  3.0382459E-001 -9.4530147E+000 0.0 -1.2211256E+000 -2.1063098E+001 0.0  5.4898600E-002  7.0613800E-001 0.0  5.3109338E-002  2.6548680E+000 0.0 -6.3178121E+002  6.9502168E+002 0.0  1.0523512E-001 -2.4842328E+000 0.0 -7.3739185E+000 -4.4908928E+001 0.0  2.6726871E-001 -3.5953155E+000 0.0 -3.1136716E+000 -3.0665978E+001 0.0 -3.4795314E+002 -6.3154286E+001 0.0 -4.0304071E+002 -4.6650015E+000 0.0 -3.6852820E+002 -2.3814400E+001 0.0 -4.8169738E+002  1.1060024E+002 0.0  5.1937618E-002 -1.9054362E+000 0.0 -1.7734963E+001 -6.6045530E+001 0.0 -2.4874611E+001  4.7704284E+002 0.0 -5.3257499E+002  1.9650845E+002 0.0 -3.7618047E+001 -1.0383298E+002 0.0  6.2024722E+000  3.8961715E+002 0.0  2.7606808E-001  1.1702395E+001 0.0  2.5394142E+001  2.8533308E+002 0.0 -1.2596908E-002  1.6795509E+001 0.0  8.0473909E-001  2.1742974E+001 0.0 -1.6916605E+002 -1.9211411E+002 0.0  1.7512257E+001  1.4443164E+002 0.0  1.1016395E+000  4.3127832E+001 0.0  1.4853018E+001  1.2603114E+002 0.0  1.3525389E+001  1.1067769E+002 0.0  1.1258201E+001  1.0419686E+002 0.0  4.8703717E-003  9.8038907E-002 0.0  1.6636228E-001 -1.0484058E+000 0.0  8.2444011E-002  2.9823684E+000 0.0 -3.2859710E+001 -1.3547490E+001 0.0  4.9550575E-004  9.7208061E-001 0.0  1.6082334E+001  2.4746099E+002 0.0 -5.5837130E-002 -4.7742605E-001 0.0  5.3149060E-002  3.6440548E-001 0.0 -4.5777086E-003  1.9566996E-001 0.0 -9.4350338E-003 -8.8748796E+000 0.0 -5.1665549E-002  1.8192122E+000 0.0 -4.9944917E+000  1.1832807E+002 0.0 -3.5619132E-002  2.4855855E-003 0.0  1.5165441E+000  1.0206660E+001 0.0 -5.4827221E+002  3.8775949E+002 0.0 -1.5526839E+000 -2.1208058E+000 0.0  4.3696079E-002  3.0091485E-001 0.0  2.2189444E+001  1.7234758E+002 0.0 -8.5567174E+000  3.9841691E+002 0.0 -4.4329595E+001  2.6250920E+002 0.0  1.9478363E-001  8.3418439E+000 0.0  2.8408496E+000  1.7897200E+001 0.0  2.2907473E+000  1.4045791E+001 0.0 -1.8669812E-002  2.7040945E-001 0.0  7.6874888E-001  9.1134580E+000 0.0  3.2943347E-003 -1.5003259E+000 0.0 -1.9995591E+001 -6.9094964E+000 0.0 -5.5126223E+002  2.9521162E+002 0.0 -6.0609581E+002  8.2458520E+002 0.0 -1.0133393E-002  1.0536087E-001 0.0 -1.2122092E-001 -3.3618114E-001 0.0 -6.1566439E-003  6.8154954E-002 0.0 -1.9986897E+002  6.2569486E+001 0.0  2.4168994E-001  5.9341932E+000 0.0  1.7982237E+001  1.4510130E+002 0.0 -2.2869725E-003  1.1228673E-002 0.0  9.4353236E-003 -4.7128454E+000 0.0 -8.7180112E-001 -1.5644105E+001 0.0 -1.0057939E+002 -1.7251263E+002 0.0  3.8794251E-002  3.5394429E+000 0.0 -1.5662204E-002  5.3046865E-002 0.0 -1.5428076E-001 -1.0349375E-001 0.0 -1.5733066E+001  1.2948812E+002 0.0 -9.0508456E-002 -1.4671249E-001 0.0  2.2903713E+000  6.1089537E+001 0.0 -1.5891898E-003  2.8788531E-003 0.0  4.6897066E-002  2.3124732E+000 0.0 -1.4142462E+001 -5.0370207E+001 0.0  4.8504247E+000  4.7213309E+001 0.0 -6.7528748E-002 -6.2130620E-001 0.0  5.3537471E-001  1.9552776E+001 0.0 -1.7379931E-003  3.5444960E-003 0.0 -9.4282807E+001 -9.1802404E+000 0.0 -3.9069722E+000  5.4503542E+001 0.0  7.7900271E-002  2.6254665E+000 0.0 -3.2670259E+002 -5.2583667E+001 0.0  2.0189839E-001  6.2240077E+000 0.0  2.6603477E-001 -6.6266371E+000 0.0 -3.1753588E+001 -3.2992049E-001 0.0 -1.8247228E-002  1.0036534E+001 0.0 -1.7128129E+002  7.8754007E+001 0.0 -3.1472606E+001 -7.5977727E+001 0.0 -7.3813744E+000 -3.4873881E+001 0.0 -9.8877763E+001  5.6012760E+002 0.0  4.0326109E-001  7.3813523E+000 0.0 -1.1019923E+002  2.7104561E+001 0.0 -3.9107072E+002  1.4367020E+001 0.0  1.7506954E-001 -3.3486155E+000 0.0  4.0788925E+000  5.9565553E+001 0.0  7.3527997E-002 -1.9130813E+000 0.0 -3.4479154E-002 -1.0558459E+000 0.0  7.0876983E-001  3.3685635E+001 0.0 -1.6591266E+000 -1.9903029E+001 0.0 -6.9594122E-003  4.1466773E-002 0.0  5.7911997E-001  2.6331930E+001 0.0 -3.9651437E+001 -9.8078301E+001 0.0  1.3021370E+001  9.6800173E+001 0.0 -2.8560282E+002 -1.6684676E+002 0.0 -1.7874308E-001  3.5206582E+000 0.0  3.9819257E-002  1.5011691E-001 0.0  3.1721788E-001  4.9629345E+000 0.0 -3.0529134E-002  1.7925502E+001 0.0  3.9726282E+000  3.6878393E+001 0.0 -1.3998285E+002  6.2941050E+002 0.0 -4.8916723E-003  5.6379275E-003 0.0  1.9843997E+000  1.5442675E+001 0.0  4.5523795E-001  7.4843813E+000 0.0 -3.9300066E-002 -2.6103357E-001 0.0 -1.3473131E+001  9.6922845E+001 0.0 -6.0712941E-003  1.6560266E-001 0.0 -6.9475759E-002 -6.8949038E-001 0.0 -5.4272515E+002  2.3550961E+002 0.0 -3.2249584E+000 -2.4220011E+001 0.0  2.4553959E-001 -4.6984838E+000 0.0 -9.4841292E-002 -3.5133535E-001 0.0 -1.9454308E+002 -1.7582123E+002 0.0 -2.4542226E+001  4.3272939E+002 0.0 -4.7742539E+002  1.4073259E+002 0.0 -4.4819513E+002  9.9209612E+001 0.0 -6.9806110E+001 -1.4318914E+002 0.0 -2.8453008E+002 -4.2164290E+001 0.0 -4.5251313E+002  4.5971244E+001 0.0 -8.9779671E-002 -1.4830289E-001 0.0  9.5637936E-002  1.3570749E+001 0.0 -3.7102798E-001 -4.9114993E+000 0.0 -4.8572110E+002  7.7733614E+002 0.0  2.9846560E+000  3.5138284E+002 0.0 -4.6904699E+002  1.9171723E+002 0.0 -2.8921111E-001 -1.0801942E+001 0.0  2.1431520E-001 -4.0491501E+000 0.0  8.3962334E-002  7.8269351E-001 0.0  1.5751532E+000  4.1245405E+001 0.0 -8.0333091E-002 -1.5229011E-002 0.0 -3.6611823E+001  1.5351963E+002 0.0  3.0170561E+000  5.8326478E+001 0.0  1.8270934E-002  4.8340134E-001 0.0  7.8615645E-003  1.5792180E-001 0.0  9.7232886E+000  9.4603888E+001 0.0  2.2339500E+000  1.3847510E+001 0.0 -7.4902589E-002 -8.5619815E-001 0.0  2.1412182E+001  1.4938173E+002 0.0  2.4085191E+000  5.1293007E+001 0.0  7.1161169E+000  8.2090441E+001 0.0  9.8097487E-001  3.2489434E+001 0.0  7.0080125E-003  1.8205686E+000 0.0 -1.3157215E-002  1.0045840E-001 0.0 -2.2654551E-002  1.8246602E-001 0.0 -4.0156932E+001  2.0585529E+002 0.0  2.3308079E-002  4.5606487E-001 0.0  1.0849275E-001 -1.5179863E+000 0.0 -4.6523856E-001 -1.2641590E+000 0.0 -1.7861185E+002 -1.3748160E+002 0.0 -3.7476078E+002  5.7799582E+002 0.0  2.1826695E+001  2.1126896E+002 0.0  1.2045542E+001  7.8554195E+001 0.0 -5.9803100E-004  1.7289825E-003 0.0 -1.5083964E-002  1.0309779E-002 0.0  5.3391950E+000  6.7392730E+001 0.0 -3.5057897E+001 -9.0241872E+001 0.0  5.1033994E-003 -1.3975395E+000 0.0  6.3278816E-002  4.5854863E+000 0.0  1.7434965E-002  1.1450264E-001 0.0 -1.4733802E-003  5.1723050E-003 0.0  2.9157636E-001  3.8124315E-001 0.0  1.6607665E-001  1.4888467E+001 0.0 -5.9298998E+002  5.9963997E+002 0.0  1.5452437E+000  4.2628460E+001 0.0 -2.3594013E+002 -5.0032377E+001 0.0  1.9420297E-001  4.0803905E+000 0.0 -7.6819418E+001 -1.9205828E+001 0.0 -2.9039996E+002  1.4840910E+002 0.0 -4.2751960E+002  3.8520843E+001 0.0 -7.6363179E+001 -1.1149084E+002 0.0 -1.8066615E+001 -5.8313764E+001 0.0  8.4612603E-002 -2.2702441E+000 0.0 -2.6774417E+000 -1.6770837E+001 0.0 -5.9619076E-002 -2.9147440E-002 0.0  8.8399484E+000  6.5122575E+001 0.0 -8.2741744E+001 -1.4000965E+002 0.0  1.6085593E+001  1.3132521E+002 0.0 -6.0806175E-002  3.2361277E+000 0.0  2.0382639E-002  3.8895851E+000 0.0  1.1717449E-001  4.5830974E+000 0.0  3.5235578E+000  2.8391779E+001 0.0  1.6157066E+001  1.2914747E+002 0.0 -3.2198949E+001  3.4850489E+001 0.0 -3.3469411E+001  1.2454800E+001 0.0 -3.5559792E+001  3.8322413E+000 0.0  7.9867568E-003  1.5953993E+000 0.0  4.8269025E-002  2.9032441E+000 0.0  2.3015810E-001  4.7944482E+000 0.0  7.1366406E-001  7.7555901E+000 0.0  1.8006913E+000  1.5864608E+001 0.0  1.3107579E+000  2.0818137E+001 0.0 -3.0589733E+000  4.1785173E+001 0.0 -2.2317822E+001 -3.2663763E+000 0.0 -1.3268020E+001 -9.8619944E+000 0.0 -1.5327367E+001  5.7864014E+001 0.0  1.9484493E-003  8.9717505E-001 0.0 -1.5502335E+001 -1.5407777E+001 0.0 -1.3002915E+001  4.0765140E+002 0.0 -6.0983576E-003  8.2964686E-002 0.0 -7.9211304E-003  3.8751916E-001 0.0 -5.7330139E+000 -7.4439737E+000 0.0 -2.1501099E+002  1.0213336E+002 0.0 -5.2781819E+001  3.3208880E+001 0.0 -7.3500551E+000 -9.7685856E+000 0.0 -5.2634530E-005  1.8917578E-002 0.0 -3.3993429E+001 -2.3516264E+001 0.0  7.6267625E+000  2.8906031E+002 0.0 -7.4331806E+001  5.2288937E+002 0.0  1.1192885E+001  1.2190521E+002 0.0  1.4654751E+000  1.9659047E+001 0.0 -4.9440679E-003  8.5786578E-002 0.0 -4.8523422E+000 -9.0481716E+000 0.0 -1.4221870E+002  2.2901901E+001 0.0 -3.6169248E+000 -6.9574456E+000 0.0 -2.4063474E-003  1.0833104E-002 0.0 -2.6749456E+002  1.9991948E+002 0.0  4.7918175E+000  5.0371534E+001 0.0  1.3840369E+001  1.9926667E+002 0.0 -1.5110947E+002  5.4350558E+002 0.0 -1.8847503E+001 -6.7858217E+000 0.0 -3.2220154E-002  3.9424469E+001 0.0 -7.4962419E+000  4.7426951E+001 0.0 -2.5935747E+001 -1.4310651E-001 0.0 -2.9930597E+001  7.5520928E+000 0.0 -8.5311091E-003  5.4222093E-001 0.0  2.0215971E+000  2.2056344E+001 0.0 -1.2897616E-002  1.1596501E+000 0.0  2.5693885E-002  1.9721215E+000 0.0  1.0455190E+000  1.0053665E+001 0.0  1.4077128E-001  4.1364260E+000 0.0  4.6202080E-001  6.1454312E+000 0.0 -5.1889081E+001 -2.8513816E+001 0.0  8.0941181E-004  5.6709228E-003 0.0  3.0215037E-001  3.5184846E+000 0.0 -9.3533516E+001 -1.2103312E+001 0.0 -2.5659758E+002  4.8175268E+002 0.0 -3.0754162E+000 -7.3472769E+000 0.0 -2.9445583E-003  1.6796434E-002 0.0 -3.8777242E+000 -7.2476091E+000 0.0 -5.7629960E+000 -7.4844394E+000 0.0 -6.3293714E+000 -7.8158153E+000 0.0 -7.3388564E+000 -6.3011173E+000 0.0 -6.8285844E+000 -6.6144714E+000 0.0 -8.7067346E+000 -5.0752350E+000 0.0 -8.7856830E+000 -4.4704690E+000 0.0 -1.0436890E+001 -3.0411907E+000 0.0 -1.0145260E+001 -2.3874897E+000 0.0 -1.2164902E+001 -4.5252628E-001 0.0 -1.1522271E+001  6.8396509E-001 0.0 -1.3461550E+001  2.7933905E+000 0.0 -1.2569620E+001  4.2496436E+000 0.0 -1.4606540E+001  7.2489477E+000 0.0 -1.3533126E+001  9.3433322E+000 0.0 -1.5203970E+001  1.3073790E+001 0.0 -1.3755446E+001  1.5333589E+001 0.0 -1.5241379E+001  2.0692836E+001 0.0 -1.4335928E+001  2.3682998E+001 0.0 -1.4800205E+001  3.0966344E+001 0.0 -1.4164201E+001  3.4331428E+001 0.0 -1.3622728E+001  4.4191069E+001 0.0 -1.4497584E+001  4.8192819E+001 0.0 -1.2589388E+001  6.1536326E+001 0.0 -1.5534741E+001  7.4354352E+001 0.0 -1.8502018E+001  5.3216919E+001 0.0 -2.1866269E+001  8.5659683E+001 0.0 -2.5667389E+001  5.9876447E+001 0.0 -3.1209313E+001  9.7689419E+001 0.0 -3.5479786E+001  6.6944587E+001 0.0 -4.4402158E+001  1.0730321E+002 0.0 -4.9179093E+001  7.1288813E+001 0.0 -6.0252274E+001  1.1727811E+002 0.0 -1.1424036E+001  5.0180601E+001 0.0 -9.9352406E+000  6.8815917E+001 0.0 -8.9492809E+000  5.8227720E+001 0.0 -6.5953367E+000  7.3786603E+001 0.0 -5.9515975E+000  6.6774856E+001 0.0 -4.1272237E+000  8.2506474E+001 0.0 -2.8507070E+000  7.2221537E+001 0.0 -4.7359905E+000  9.2236854E+001 0.0 -8.0951558E-001  9.0034962E+001 0.0 -5.4012442E-002  7.6325972E+001 0.0 -1.2690840E+001  5.4461765E+000 0.0 -6.4994310E+001  7.6731349E+001 0.0 -1.1980065E+001  4.4487821E+001 0.0 -3.5771074E+000  6.2595306E+001 0.0 -6.1218699E-001  6.5685734E+001 0.0 -1.6154390E+001  1.5941682E+001 0.0  1.7946471E+000  7.9676479E+001 0.0  2.3083903E+000  6.9435007E+001 0.0 -3.1392913E-001  5.7871387E+001 0.0  2.2599106E+000  6.0806672E+001 0.0 -3.4019689E-001  5.2683753E+001 0.0  2.0256056E+000  5.1897202E+001 0.0  3.8622136E+000  6.1094404E+001 0.0  4.0638548E+000  5.2159040E+001 0.0  2.5660949E+000  4.4669072E+001 0.0  4.2766630E+000  4.4157652E+001 0.0  2.8074271E+000  3.9167993E+001 0.0  3.9455500E+000  3.6492799E+001 0.0  4.6537591E+000  4.3587555E+001 0.0  4.6831453E+000  3.5830436E+001 0.0  4.7970095E+000  6.2596849E+001 0.0  3.9189271E+000  3.0096866E+001 0.0  4.2203550E+000  2.8769622E+001 0.0  4.6823544E+000  3.5261075E+001 0.0  3.9855797E+000  2.6409481E+001 0.0  4.2062750E+000  3.4580113E+001 0.0  3.5412334E+000  2.6427813E+001 0.0  3.2204251E+000  2.0237242E+001 0.0  2.6757640E+000  2.0477587E+001 0.0  2.6017471E+000  1.5857342E+001 0.0  2.4401184E+000  1.4800018E+001 0.0 -8.3098862E+001  1.1861581E+002 0.0 -2.9879215E+000  5.2350580E+001 0.0  3.4964152E+000  2.5187722E+001 0.0 -1.4812184E+001  3.5967419E+000 0.0  2.4053771E+000  1.9483918E+001 0.0  2.0967124E+000  1.3869535E+001 0.0  3.4712048E+000  3.5500275E+001 0.0  1.7245246E+000  1.1388473E+001 0.0  1.4972351E+000  1.0312545E+001 0.0  1.5009526E+000  1.3450624E+001 0.0  1.2023416E+000  9.2807686E+000 0.0  9.5131186E-001  1.2525991E+001 0.0  8.9914297E-001  8.4660119E+000 0.0  8.5643280E-001  6.9701080E+000 0.0  6.3972140E-001  5.9413155E+000 0.0  5.1329784E-001  7.6603928E+000 0.0  4.0180315E-001  5.1766345E+000 0.0  4.2759177E-001  4.4531611E+000 0.0  2.5374208E-001  3.6340656E+000 0.0  2.2452523E-001  4.4097300E+000 0.0  1.1427106E-001  2.8662027E+000 0.0  6.8328233E-002  3.6495462E+000 0.0  6.6307101E-002  2.1705874E+000 0.0  1.2376648E+000  8.8848672E+000 0.0  1.1995956E-001  2.0308202E+000 0.0  4.2326322E-002  1.5096653E+000 0.0 -3.7350327E+001  1.3738296E+002 0.0 -3.8708625E+001  4.5119356E+001 0.0 -8.9284797E+001  8.1865979E+001 0.0  1.5922180E+000  9.5374804E+000 0.0  2.2331370E-001  3.3016070E+000 0.0  3.0986537E-001  3.9622090E+000 0.0  1.5873390E-002  2.6763048E+000 0.0 -1.1575140E+001 -2.3587987E+000 0.0 -7.2223675E+001  1.6112008E+002 0.0  1.0837544E-001  5.2662409E+000 0.0 -6.6806022E+001  4.8920495E+001 0.0 -9.9947427E+001  1.6101116E+002 0.0  3.3812578E+000  8.6055688E+001 0.0 -3.0252826E+000  4.8834339E+001 0.0  6.3601606E-002  1.4418979E+000 0.0  3.8845841E-002  1.0536169E+000 0.0  2.0426483E+000  1.7485087E+001 0.0  7.1012270E-001  1.6400732E+001 0.0  4.2738310E-003  1.1479585E+000 0.0  7.9851030E-003  7.5058424E-001 0.0  6.0163853E+000  4.4526922E+001 0.0  3.3885022E+000  2.7231161E+001 0.0 -2.0973766E+001  3.8021407E+001 0.0  3.0103287E+000  2.3040592E+001 0.0 -6.2612552E+000  4.8727635E+001 0.0  4.4249724E+000  1.0041247E+002 0.0  2.1540525E-001  3.1103455E+000 0.0  1.0564631E+000  7.9155974E+000 0.0  4.4078184E-002  7.9168972E-001 0.0 -1.7415252E-003  5.2132828E-001 0.0 -7.0452368E-003  5.1051504E-001 0.0 -8.2806283E+000 -5.8229699E+000 0.0  2.7595688E-001  3.5029450E+000 0.0 -2.7338171E-003  3.2293395E-001 0.0  2.8121151E+000  2.5001278E+001 0.0  1.2426842E+000  8.3988148E+000 0.0 -9.2821010E+001  5.6853715E+001 0.0 -1.4585808E+001  1.7336548E+001 0.0 -6.8775876E+001  2.8487653E+001 0.0 -1.0312640E+001 -1.7132255E+000 0.0 -8.6981779E+001  2.1711537E+002 0.0 -1.2464895E+002  2.2245029E+002 0.0  7.9295994E-002  1.8539121E+000 0.0  6.5078093E-002  1.4711437E+000 0.0  6.9717227E-002  1.7629470E+000 0.0 -5.6100950E+000  4.6591111E+001 0.0  1.2164876E-002  3.7300274E-001 0.0 -3.4312738E-003  2.2524678E-001 0.0  2.5287349E+000  2.1680354E+001 0.0  2.7129617E+000  1.9898979E+001 0.0 -1.6755142E+001  1.0546963E+002 0.0  2.2221445E+000  2.9323557E+001 0.0 -9.9244575E+000  4.6853699E+001 0.0 -9.5758742E+000  4.8017778E+001 0.0  4.9094019E+000  1.0735291E+002 0.0  7.2614933E+000  1.2863729E+002 0.0  1.4723503E+000  1.0228680E+001 0.0  1.3669088E+000  9.1580969E+000 0.0  1.5668612E+000  1.0970903E+001 0.0 -1.3763836E+002  1.6569553E+002 0.0  1.7619213E-001  2.9823680E+000 0.0  8.7802857E-001  7.1522095E+000 0.0  7.9963791E-001  6.7538136E+000 0.0  3.2066375E-001  4.4123285E+000 0.0  3.0302985E-001  3.9110117E+000 0.0  3.6086815E-001  4.7477359E+000 0.0  3.5889286E-001  4.3175776E+000 0.0  1.0841359E+000  4.1128553E+001 0.0 -6.6249416E+000 -6.8976194E+000 0.0 -8.1283687E+000 -6.5599762E+000 0.0 -9.2892279E+001  3.1692600E+001 0.0 -1.1573898E+002  5.8043859E+001 0.0 -1.4316534E+001  4.6592318E+001 0.0 -1.2801297E+001  4.6075933E+001 0.0 -1.7775702E+001  4.4548521E+001 0.0 -1.5186624E+001  4.3920038E+001 0.0 -2.0531441E+001  4.1062669E+001 0.0 -1.6784887E+001  4.1249246E+001 0.0 -2.1494972E+001  3.7390994E+001 0.0 -1.3268413E+001  4.6245241E+001 0.0 -1.7574293E+001  3.8744763E+001 0.0 -2.1777989E+001  3.3861429E+001 0.0 -1.7935871E+001  3.5448126E+001 0.0 -2.0484398E+001  3.0844048E+001 0.0 -1.5133478E+001  4.2366539E+001 0.0 -2.4894025E+001  2.9074253E+001 0.0 -2.3036354E+001  2.6124973E+001 0.0 -1.9796064E+001  2.7985764E+001 0.0 -2.2170094E+001  2.2817187E+001 0.0 -1.8898058E+001  2.5757580E+001 0.0 -2.0095199E+001  2.0250507E+001 0.0 -2.3520160E+001  1.7827731E+001 0.0 -2.0927540E+001  1.6112592E+001 0.0 -2.4081489E+001  1.3681694E+001 0.0 -2.1321874E+001  1.2587779E+001 0.0 -2.5944200E+001  1.6038069E+001 0.0 -1.7974655E+001  2.2709771E+001 0.0 -9.9488029E+000 -5.3945008E+000 0.0 -9.1141281E+000  4.9896091E+001 0.0  2.0116842E+000  2.7402489E+001 0.0  1.0805028E+000  3.1464368E+001 0.0  5.7529797E-002  1.4446283E+000 0.0  2.6394045E-002  1.1953435E+000 0.0  1.2126285E-002  2.7111473E-001 0.0  1.8783625E-003  1.5478641E-001 0.0 -1.2358641E-003  3.9536867E-001 0.0 -2.4089174E+001  1.0128610E+001 0.0 -2.1814317E+001  9.1403820E+000 0.0 -1.9953359E+001  1.1280192E+001 0.0 -1.9790890E+001  7.7556957E+000 0.0 -2.2060632E+001  6.1734802E+000 0.0 -1.9622554E+001  5.2714729E+000 0.0  5.6221236E-002  1.7160260E+000 0.0 -1.0492392E+002  2.9286686E+002 0.0 -7.3434302E+001  2.6575785E+002 0.0 -1.4778279E+002  2.9512165E+002 0.0  1.3616161E-001  2.5784168E+000 0.0  6.8966571E-001  6.2388898E+000 0.0  6.0548201E-001  5.7880916E+000 0.0  6.4456168E-001  6.3006411E+000 0.0 -4.9228468E-003  2.7596597E-001 0.0 -2.1531876E-002  4.7798347E-001 0.0  2.3655495E+000  1.8541357E+001 0.0  2.5276128E+000  1.6871277E+001 0.0  2.6448804E+000  1.8591720E+001 0.0  2.3479645E+000  1.5379253E+001 0.0  2.1878732E+000  1.4824614E+001 0.0 -1.8455685E+001  9.4780603E+000 0.0 -1.6413387E+001  2.9876760E+001 0.0  1.4958799E+000  9.8652386E+000 0.0  1.1218318E-001  2.5241147E+000 0.0 -6.9456780E+001  7.8368081E+000 0.0 -5.3176413E+001  8.4791319E+000 0.0 -2.6759597E+001  2.4051477E+001 0.0  6.4562553E-003  1.9585901E-001 0.0  2.0077006E-003  2.1189537E-001 0.0 -3.4130731E-003  1.2437266E-001 0.0 -9.1651196E+001  1.2935695E+001 0.0  1.6976127E+000  1.1644957E+001 0.0 -6.0791723E-003  7.7219754E-002 0.0 -6.2114653E-002  4.5358609E-001 0.0  5.2022431E-001  5.4898296E+000 0.0 -2.1845116E+001  3.7027994E+000 0.0 -1.9721076E+001  2.7312828E+000 0.0 -2.4146485E+001  5.2542893E+000 0.0 -1.8100305E+001  4.2309329E+000 0.0 -1.7593141E+001  1.7180228E+000 0.0 -1.9640142E+001  3.3909480E-001 0.0 -1.7260527E+001 -4.9684985E-001 0.0 -1.5970352E+001  5.8631770E-001 0.0 -1.5180416E+001 -1.3829894E+000 0.0  1.1041607E+000  8.6632089E+000 0.0  7.8722421E-001  6.7083525E+000 0.0 -8.8378499E+000  4.6407164E+001 0.0 -4.8455560E+000  4.4565070E+001 0.0 -7.4828871E+000  4.4946308E+001 0.0 -3.7639693E+000  4.1946097E+001 0.0 -1.7009516E+001 -2.7667192E+000 0.0 -1.4346098E+001 -3.2196239E+000 0.0 -9.8633264E+000 -6.5465835E+000 0.0  1.0393431E+000  2.6995393E+001 0.0  5.6840859E-001  2.3003779E+001 0.0 -2.8724011E+001  2.8198269E+001 0.0  2.4354731E-001  3.7542836E+000 0.0  2.8195200E-001  4.1717575E+000 0.0  1.8897322E+000  1.2836377E+001 0.0  4.3904067E-001  5.0755268E+000 0.0  9.8416388E-002  2.2310820E+000 0.0  1.0383757E+000  2.9976386E+001 0.0  1.0374017E-001  3.3787538E+001 0.0  1.4899313E+000  2.6915552E+001 0.0  1.6117758E+000  1.0803748E+001 0.0  5.9049761E-001  3.4686970E+001 0.0  4.7303049E-002  1.4784813E+000 0.0  2.3231534E+000  2.0187771E+001 0.0  1.4740533E-001  2.7988026E+000 0.0  8.4264538E-002  2.5905056E+000 0.0 -1.0280913E+001  4.9063588E+001 0.0 -8.5654249E+000  5.4511517E+001 0.0 -1.5355886E+001  3.8511945E+001 0.0 -1.3633017E+001  3.9019465E+001 0.0  4.6456647E+000  1.4243993E+002 0.0  7.8497580E+000  1.0821612E+002 0.0  2.5197595E+000  1.7844008E+001 0.0  1.0149238E-001  2.2386195E+000 0.0 -7.1796267E-003  1.7773968E-001 0.0 -6.4535540E+000 -7.1046231E+000 0.0 -5.0948737E+000 -7.1716394E+000 0.0  5.0261078E-001  1.2068046E+001 0.0 -1.5894632E+001  2.6017267E+001 0.0 -5.3133768E+001 -6.9472722E+000 0.0 -1.1753659E+001 -5.0009522E+000 0.0 -1.2181227E+001 -6.6220775E+000 0.0  3.1259035E+000  2.0766725E+001 0.0 -2.3939037E+001  4.4590271E+001 0.0  5.4474444E+000  1.7692696E+002 0.0  1.8978692E+000  1.5063389E+002 0.0  4.6089638E-001  5.0787064E+000 0.0  5.4160292E-001  5.5557219E+000 0.0 -1.5020963E-002  8.4295149E-001 0.0 -1.0455826E-001  8.7802536E-001 0.0  2.2195124E+000  2.5737911E+001 0.0  3.2407396E+000  3.9856797E+001 0.0 -1.6247764E+001 -4.6632273E+000 0.0 -9.9499940E-001  3.7253526E+001 0.0 -1.5751388E+000  3.6750336E+001 0.0 -5.7568119E+000  4.3645122E+001 0.0 -1.2056239E+002  3.7966706E+002 0.0 -1.7182310E+002  4.1399981E+002 0.0 -2.0182072E+002  2.9400781E+002 0.0  2.2159124E+000  1.8334484E+001 0.0 -1.5963312E+001  9.5568870E+000 0.0  5.8013702E+000  7.2989270E+001 0.0 -3.5434716E+000  5.6416896E+001 0.0 -6.3318010E+000  5.5485675E+001 0.0  1.7809605E+000  1.2285310E+001 0.0 -1.8041808E+001  1.3202181E+001 0.0  7.3231992E-002  4.6651400E+001 0.0  2.3112577E-001  3.3909416E+000 0.0  1.8020891E-001  3.4303560E+000 0.0  2.6204900E-001  2.8108035E+000 0.0 -1.1133001E+001 -4.0348413E+000 0.0 -1.3646300E+001 -2.0018691E+000 0.0  3.7339721E-002  1.7470335E+000 0.0 -2.3082871E+002  4.0209019E+002 0.0  1.4703371E+000  1.1115563E+001 0.0 -1.3674793E+001  7.0709825E-001 0.0  3.1824428E-002  1.0659731E+000 0.0  3.0089097E-002  8.2578688E-001 0.0  2.0216295E-002  6.2185107E-001 0.0  1.5865037E-002  6.6647213E-001 0.0 -1.4089513E-003  8.5689547E-001 0.0  1.4247142E-002  7.2074540E-001 0.0  3.9542860E-003  5.5581337E-001 0.0 -1.4967294E+000  4.1916939E+001 0.0 -4.0308111E+001 -8.9565717E+000 0.0 -4.1382659E+001  1.0632556E+001 0.0 -3.1217086E+001 -8.2353956E+000 0.0 -3.1097671E+001  1.1210286E+001 0.0 -2.4503900E+001 -5.8956933E+000 0.0 -2.4073597E+001  9.5243869E+000 0.0 -2.6410537E+001  1.1752021E+001 0.0 -2.6469245E+001  8.9560792E+000 0.0 -2.9167702E+001  1.4243492E+001 0.0 -2.8183015E+001  1.7528090E+001 0.0 -2.5595265E+001  1.9809053E+001 0.0 -3.7370838E+001  1.8655668E+001 0.0 -2.4289197E+001  7.1264422E+000 0.0 -2.6962163E+001  3.3363950E+001 0.0 -2.7694634E+001  6.5262346E+000 0.0  1.1496551E+000  7.7074196E+000 0.0 -7.7504116E+000 -7.3250974E+000 0.0  1.2905609E+000  9.4368108E+000 0.0  8.8150408E-001  7.7655517E+000 0.0  9.1027305E-001  7.8231298E+000 0.0  1.0571561E+000  8.0260684E+000 0.0  1.0584821E-002  3.2388038E-001 0.0  2.1545993E+000  1.3130250E+001 0.0  6.1788637E-001  6.1048052E+000 0.0  5.0016233E-001  5.9895414E+000 0.0 -2.8006930E+001  3.9924336E+001 0.0 -3.0241605E+001  2.2266533E+001 0.0 -4.6409901E+001  3.5404393E+001 0.0  3.8781176E-001  5.0864933E+000 0.0  2.3988081E+000  1.6291760E+001 0.0  1.8762379E+000  1.4111890E+001 0.0  3.5077150E-002  1.2249734E+000 0.0 -1.3398510E+001  4.6092039E+001 0.0 -9.7299670E+000 -7.6510639E+000 0.0  8.7365494E-002  2.2022273E+000 0.0 -7.1310166E+000 -7.1639646E+000 0.0  2.2903897E+000  2.4244941E+001 0.0  1.6212880E+000  2.3306151E+001 0.0  1.1136150E+000  3.2715919E+001 0.0  5.6214214E-001  5.4462292E+000 0.0 -3.1173122E+001  4.6695583E+000 0.0 -2.3718369E+001  5.3005988E+001 0.0  1.6920508E-001  2.6486282E+000 0.0  6.3952977E+000  7.9568830E+001 0.0  7.1574720E+000  9.7026658E+001 0.0  5.6977150E+000  6.3865386E+001 0.0  6.4637652E+000  7.5440682E+001 0.0 -9.8152886E+000  4.3738148E+001 0.0  8.4379278E-003  2.7598277E-001 0.0 -1.9849638E-003  1.4331121E-001 0.0  1.0699896E-002  1.1094554E-001 0.0 -2.2970880E-003  5.3117995E-002 0.0  2.9554073E+000  3.2384182E+001 0.0  3.2601943E-001  4.5905177E+000 0.0 -5.4360364E-002  1.6950308E+001 0.0  5.6828020E-001  8.3975768E+000 0.0 -2.4951431E+001 -1.9147177E+001 0.0  2.4929093E+000  2.3192595E+002 0.0 -2.0797116E+000  1.8046699E+002 0.0 -4.0434429E+000  2.7693932E+002 0.0 -1.0488283E+001  2.2007492E+002 0.0 -5.6099267E+000  1.4795517E+002 0.0 -1.6135736E+001  1.7874848E+002 0.0 -2.0327604E+001  2.6482356E+002 0.0 -2.6344914E+001  2.0020783E+002 0.0 -3.2191609E+001  3.0046606E+002 0.0 -4.0952191E+001  2.2828180E+002 0.0 -4.7831845E+001  3.1612009E+002 0.0 -4.0804906E+001  3.8920896E+002 0.0 -2.0217996E+001  1.4649616E+002 0.0  5.4103471E-001  1.2464546E+002 0.0 -9.1702777E+000 -1.1177667E+001 0.0 -9.9672880E+000 -5.0723613E+000 0.0 -1.2120424E+001 -6.3618296E+000 0.0 -1.2620125E+001  2.0088637E+000 0.0 -1.5160441E+001  1.1343402E+000 0.0 -8.1619857E+000 -6.7051401E+000 0.0 -1.5417153E+001  1.1408575E+001 0.0 -1.9053086E+001  1.1575240E+001 0.0 -3.7220111E-003  3.0065987E-002 0.0 -6.9195616E-004  9.5110922E-001 0.0  2.2288774E+000  1.8495180E+001 0.0  1.4982216E+000  1.3525412E+001 0.0 -2.8452478E+001  7.1117612E+001 0.0 -7.5708998E-002  2.6589040E-001 0.0 -1.9468283E+001 -4.9260739E+000 0.0 -2.3211464E+001  2.5886765E+001 0.0 -2.8964895E-001  3.3437523E+001 0.0 -3.5291560E+001  3.3852476E+001 0.0 -1.9333921E+001 -1.6869625E+000 0.0 -7.8475696E+000 -6.0912733E+000 0.0 -2.1822353E+001  1.6600673E+000 0.0 -2.2573982E+001 -9.2413900E-001 0.0 -1.0220118E+001  8.5170942E+001 0.0 -1.6940237E+001  2.0440237E+001 0.0 -1.3733255E-001  7.2644672E-001 0.0  7.7930857E-002  1.9540539E+000 0.0 -8.8410871E-002  6.2965037E+000 0.0 -3.0053055E-001  4.7214785E+000 0.0 -1.2285747E-002  6.4364278E-002 0.0  9.0262962E-002  2.0505589E+000 0.0 -3.7132483E-003  4.7637600E-002 0.0 -3.0675635E-003  9.5960698E-002 0.0 -2.4275352E+001  3.0201529E+000 0.0 -2.7375198E-002  1.5963958E+000 0.0 -4.2688273E-002  2.0296088E+000 0.0 -5.2758207E+000 -7.3555040E+000 0.0 -1.6097595E-003  1.7148381E-002 0.0 -2.0202722E+001 -4.3911280E+000 0.0 -1.3932457E+001  5.1932063E+001 0.0 -1.2711401E+001  3.2091278E+002 0.0 -1.7411085E-002  3.8060039E+001 0.0 -4.9654470E+000 -8.0798679E+000 0.0 -5.0381489E+001  1.5616811E+002 0.0 -4.0924965E+001  2.8132630E+001 0.0 -6.1401398E+001  1.9849771E+002 0.0 -1.1253117E+002  1.1970124E+002 0.0 -1.4239918E+002  1.1504344E+002 0.0 -1.7697958E+002  1.7091906E+002 0.0 -1.8148441E+002  1.1711005E+002 0.0 -2.1644773E+002  1.6652143E+002 0.0 -1.7193805E+002  7.3678498E+001 0.0 -1.2025744E+002  8.9893321E+001 0.0 -5.4796157E+001  4.7496204E+001 0.0 -1.7341299E+002  2.3232344E+002 0.0 -1.1692022E+002  3.5407472E+001 0.0 -8.5458306E+001  3.5317573E+002 0.0 -6.9443207E+001 -5.0844770E+000 0.0 -8.6283663E+001 -2.4214201E+000 0.0 -5.4994301E+001  2.8808428E+001 0.0 -4.6739514E+001  4.5717700E+002 0.0  4.6874507E+000  6.0523002E+001 0.0 -1.7536137E+002  4.2169861E+002 0.0 -3.0164953E+002  3.5087688E+002 0.0  8.8603817E+000  2.0450251E+002 0.0  7.5054044E-001  2.8309014E+001 0.0  6.4317198E+000  7.6016109E+001 0.0  8.3510919E+000  7.9945542E+001 0.0  1.0886231E+001  1.3377029E+002 0.0 -1.0200266E+002  1.7076006E+000 0.0 -1.6156889E+002  4.6098850E+001 0.0 -1.0341637E+002  4.5399413E+002 0.0 -2.1688745E+002  2.3971389E+002 0.0 -1.1212498E+002  1.5269196E+001 0.0 -4.9520868E+000 -7.2459787E+000 0.0 -3.9204983E+000 -7.1970032E+000 0.0  2.1647448E-001  3.7801837E+000 0.0  2.8041854E-001  4.7570021E+000 0.0 -1.3548400E+001 -4.8849380E+000 0.0 -1.5592507E+001 -7.1117904E+000 0.0 -6.2125516E+001  8.5575033E+001 0.0  5.1155811E-003  1.2653070E-001 0.0 -1.3565887E-003  2.7208265E-002 0.0 -1.5121805E+001  1.1121080E+002 0.0 -5.8928511E+001 -1.8937884E+001 0.0 -4.7637506E+000  1.0201527E+002 0.0 -6.3581526E+001 -7.3835831E+000 0.0 -7.2853605E+001  1.3287892E+000 0.0 -8.2824384E+001  2.3353238E+001 0.0 -2.8246990E+001  1.0617075E+001 0.0  2.3968229E-002  1.0659919E+000 0.0  4.8788609E-002  1.8873805E+000 0.0  1.7207822E+000  3.7838814E+001 0.0  3.6627402E-002  2.7057901E+000 0.0 -3.0588830E-003  1.1989388E+000 0.0  4.5590236E+000  5.1346473E+001 0.0  8.2421009E-002  3.4017234E+000 0.0  4.2535350E-002  3.2151019E+000 0.0  1.3048769E-001  4.8000867E+000 0.0  2.4545270E-002  2.0782408E+000 0.0  2.2609469E+000  1.9640203E+001 0.0  3.5197345E+000  2.8767930E+001 0.0  2.5033187E-001  7.4829538E+000 0.0  3.0920216E-001  8.2688541E+000 0.0  1.4808983E+000  1.5920106E+001 0.0  5.6080486E+000  5.4488149E+001 0.0 -2.7870063E+000 -6.6054105E+000 0.0 -1.4426935E+001 -1.4998074E-001 0.0 -6.1632091E+001 -2.5412612E+001 0.0 -3.7820491E+001 -2.1701985E+001 0.0  1.7215925E+000  3.6582128E+001 0.0 -1.8564695E+001  1.7683130E+001 0.0 -9.9588336E+000 -4.6517284E+000 0.0 -1.6462169E+001  3.1180532E+000 0.0 -1.6938428E+001  5.6935804E+000 0.0 -7.5329222E-002  3.0890271E+002 0.0 -2.6258741E+002  3.0020206E+002 0.0 -1.4984200E+002  8.1681679E+001 0.0 -3.7034633E+001 -2.2889285E+001 0.0 -9.6608930E+000  1.1137045E+002 0.0 -1.4611153E+002  5.4054227E+001 0.0  4.8259386E+000  3.9144570E+001 0.0 -5.3844522E+001  9.9460459E+000 0.0 -1.6730905E+001  3.3681791E+001 0.0 -6.9520459E+001  4.1020166E+002 0.0  1.8837023E+000  1.3545934E+001 0.0  1.8810524E+000  1.5718612E+001 0.0  1.8052928E+000  2.1616832E+001 0.0  2.2073452E+000  1.4969941E+001 0.0  5.7806808E-001  6.2970190E+000 0.0  2.5184577E-003  8.9602882E-002 0.0  1.0352824E-002  1.2717408E+000 0.0  6.1999515E-002  1.6228034E+000 0.0  1.6400978E+000  1.2683949E+001 0.0 -1.5501406E+001  2.3637333E+001 0.0 -8.4542830E-003  3.6859649E-001 0.0  9.5004678E-001  7.2864917E+000 0.0  5.5683919E-001  1.0421672E+001 0.0 -6.1340376E+000  5.1705428E+001 0.0  9.4145749E+000  1.4354004E+002 0.0 -1.4992334E+001  3.5522531E+001 0.0 -1.8119654E+001  7.1715003E+000 0.0  1.7835256E+000  1.1996462E+001 0.0 -7.1046852E+001 -2.2885256E+001 0.0  2.4584400E-001  2.9968068E+001 0.0 -2.4967538E-003  1.0459594E+000 0.0 -1.5150189E-002  9.4683375E-001 0.0  3.5440915E-001  4.8304285E+000 0.0 -1.0531852E+001 -1.0290086E+001 0.0 -7.0675553E-004  1.3448174E-001 0.0  2.8047505E+000  1.0738352E+002 0.0  9.0318512E+000  1.0850494E+002 0.0 -1.9417272E+001  1.5186962E+001 0.0 -5.2759757E+000  2.9531263E+002 0.0 -3.9492543E+001  2.2959115E+001 0.0  1.4289168E-003  1.1147236E-002 0.0 -1.1227494E+001  7.2831617E-001 0.0  3.8491868E-001  5.2837903E+000 0.0  5.6541225E-001  7.8302449E+000 0.0  2.9478975E+000  2.2102736E+001 0.0 -2.1315223E+000  4.5754995E+001 0.0  6.7048534E-002  2.0075768E+000 0.0  6.0722689E-002  3.1541322E+000 0.0 -1.3585078E+001  4.4295374E+001 0.0 -1.2067532E+001  4.7121717E+001 0.0 -9.3119971E+000  5.2215750E+001 0.0 -4.5242689E+000 -6.4748499E+000 0.0 -1.1602326E+001  4.7546007E+001 0.0  5.6583452E+000  5.5314727E+001 0.0 -5.0224321E+000  4.4282714E+001 0.0  2.8446157E+000  2.8919174E+001 0.0 -5.9640663E+000  5.8062696E+001 0.0 -7.3088231E+001  6.3957453E+001 0.0  3.0002616E+000  2.6662375E+001 0.0 -1.1148754E-002  2.0971034E-001 0.0  1.6348443E+000  3.3283447E+001 0.0 -3.7310071E-002  8.1849046E-001 0.0 -1.7454643E+001  3.3982363E+001 0.0  4.2513298E-002  3.1514629E+000 0.0 -4.1490487E+000 -7.3009993E+000 0.0  2.8555396E+000  1.7328519E+001 0.0  4.7939295E+000  5.2113376E+001 0.0  1.6634396E+000  1.3371021E+001 0.0 -1.4362107E+001  4.4289887E+001 0.0 -2.8516580E+001  3.6720224E+002 0.0  3.7610413E+000  2.3727154E+001 0.0 -3.0214298E+001  4.0502592E+001 0.0  3.4646281E+000  7.4443599E+001 0.0  1.0367008E-001  5.7991622E+000 0.0 -2.0587221E-003  1.3517564E-002 0.0  9.1631505E-001  1.0749201E+001 0.0  7.4709998E-001  7.9282003E+000 0.0 -3.2129064E+001  2.6870271E+001 0.0 -3.1714731E+000  3.9898719E+001 0.0 -7.4887804E+000 -6.5193149E+000 0.0  2.2430532E+000  1.4461325E+001 0.0 -4.4291595E+001  1.8637040E+002 0.0  1.8942310E-003  2.6524703E-001 0.0  2.7522178E-002  1.7976987E+000 0.0  1.2697177E+000  1.6230364E+001 0.0  7.0099051E-001  6.4088595E+000 0.0  3.7492774E-001  6.6531533E+000 0.0  2.3149340E-001  8.3055568E+000 0.0  4.5870131E+000  4.4828728E+001 0.0 -8.2306843E+001  3.3801025E+001 0.0 -1.7437398E+001  3.1850872E+001 0.0  2.0095742E+000  1.8534046E+001 0.0  1.0187733E+000  9.6207513E+001 0.0  7.0414944E-001  6.4069264E+000 0.0  6.9964047E+000  6.2931124E+001 0.0  4.4566968E-002  1.1392490E+000 0.0 -7.3936361E+000  9.1803823E+001 0.0 -2.7658847E+001 -3.1823965E+000 0.0 -6.9293416E+000 -7.8560551E+000 0.0  6.3952757E+000  5.5590127E+001 0.0 -2.8121052E+001  1.2690514E+002 0.0 -2.1918956E+000  1.0538975E+002 0.0 -1.5634247E+002  7.5701087E+001 0.0 -2.6003946E+001  3.5488230E+002 0.0 -1.7536152E+001  2.2886787E+001 0.0 -2.2796619E+002  2.1670400E+002 0.0  4.7458921E-001  5.4455758E+000 0.0 -9.1998635E+000 -3.8468126E+000 0.0 -1.2753546E+001 -3.2443008E+000 0.0 -4.5103252E+001  1.6253432E+002 0.0 -3.4753831E-002  4.1430093E-001 0.0 -1.1601103E+001  1.5276724E+000 0.0 -3.7686669E+000  4.8121613E+001 0.0  9.5532344E-002  3.0404702E+000 0.0 -2.7678284E+001  8.2748613E-001 0.0 -2.8124387E+001  2.1937479E+001 0.0 -1.6483603E+001 -1.0161576E+001 0.0 -1.4476758E+001  1.3743580E+002 0.0 -1.3157308E+001  6.8872249E+000 0.0 -1.6041125E+001  3.7379351E+001 0.0  4.7740846E-001  9.2422407E+000 0.0 -1.4922856E+001  1.7075901E+000 0.0  7.4509051E+000  1.8955268E+002 0.0 -1.9335279E+002  1.2091385E+002 0.0  2.4069583E+000  3.8139920E+001 0.0 -1.4247285E+001  3.3843871E+001 0.0 -1.5214595E+001  3.1419496E+001 0.0  5.2036738E+000  4.4137515E+001 0.0 -1.8771568E+000  3.9891442E+001 0.0  1.1926246E-002  5.1301341E-001 0.0  8.8270702E-003  4.5334464E-001 0.0 -6.0840044E+000 -7.1471981E+000 0.0 -6.9674967E-003  1.0388992E+000 0.0  7.4557551E-001  7.3040749E+000 0.0  1.0022467E+000  8.7963790E+000 0.0  4.0426852E-001  1.1053541E+001 0.0 -1.6402572E+001 -1.5822790E+001 0.0  1.8893246E-001  4.5473175E+000 0.0  1.0842843E+000  1.8856975E+001 0.0 -3.1067100E-002  1.8912101E-001 0.0 -1.8389025E-004  5.5924651E-001 0.0 -1.5659703E+001  2.5254615E+001 0.0 -1.4434263E+002  5.5998504E+001 0.0 -1.3576760E+001  4.1439617E+001 0.0 -1.3587212E+002  3.4478139E+001 0.0  3.3741942E-001  5.6651963E+000 0.0 -7.7476465E+001 -1.6502091E+001 0.0 -5.5573364E+001  2.5983151E+002 0.0 -1.6019579E+000 -4.2233329E+000 0.0 -9.4651783E+000  5.0109916E+001 0.0 -6.7786609E+001  1.1671636E+002 0.0 -4.8568396E-004  6.0446807E-001 0.0 -1.5079556E+001 -7.4279188E+000 0.0 -1.6582552E+001  1.0743733E+001 0.0 -1.6594502E+001  7.9435127E+000 0.0 -2.1038284E+002  1.4974761E+002 0.0 -2.4527696E+001 -7.9235691E+000 0.0  1.1841331E-001  2.3589779E+000 0.0 -3.6827795E+001  1.0674787E+001 0.0  5.4154761E-002  2.3563821E+000 0.0 -3.4025332E+001  1.6977839E+002 0.0 -6.3277135E+001 -2.0458111E+001 0.0 -2.0174359E+002  2.8837291E+002 0.0  1.4935760E-002  1.0037633E+000 0.0 -6.3644360E+000  5.4337098E+001 0.0 -3.3494040E+001  2.1859120E+000 0.0  2.7342364E+000  1.3800510E+002 0.0 -1.6319962E-003  2.9081789E-002 0.0 -3.1422744E+001 -1.8187821E+001 0.0 -5.1515427E+001 -2.0427112E+001 0.0  3.1780692E+000  2.1576497E+001 0.0  8.8617363E+000  6.9702684E+001 0.0  5.6028872E-001  5.7737146E+000 0.0  2.5035302E+000  2.6220741E+001 0.0 -4.7050713E+001 -1.0775459E+001 0.0 -1.4110673E+002  1.6430538E+001 0.0  9.3868248E-001  7.5625697E+000 0.0  4.0347241E-001  1.0874074E+000 0.0 -1.3658464E+001  1.0853128E+001 0.0  1.5812200E+000  2.3659846E+001 0.0 -4.3323924E+001 -1.6073025E+001 0.0 -4.9464867E+000  6.0528206E+001 0.0  4.1565867E-003  3.2305224E-002 0.0  6.6599554E-001  7.8835094E+000 0.0  5.2236564E-002  2.4410340E+000 0.0  4.8012317E+000  5.4908574E+001 0.0 -3.6073155E+001  4.4150790E+001 0.0 -5.8565821E+000  1.1426373E+002 0.0 -9.4543461E+001 -2.2886427E+000 0.0  1.2314921E+000  1.1466749E+001 0.0 -9.8315692E+000 -3.6300034E+000 0.0 -1.2403362E+001 -2.4797262E+000 0.0  2.0121350E+000  1.3898783E+001 0.0 -1.0143443E+002  4.4883302E+002 0.0  2.0606156E+000  2.2558447E+001 0.0  1.5795502E-001  3.1556661E+000 0.0 -1.1808388E+001  4.8402502E+001 0.0  2.2471752E+000  1.1874068E+002 0.0 -5.4744314E-001  3.1237186E+001 0.0  1.3826784E+000  1.1626136E+001 0.0  4.6351343E-002  2.4600438E+000 0.0 -6.8333884E+001  3.2450123E+002 0.0 -2.7331789E+000  4.7058699E+001 0.0 -2.4962282E+001  2.2736199E+001 0.0  6.6411975E-003  6.9350246E-002 0.0  7.1891081E+000  2.1869786E+002 0.0 -1.8565985E-002  1.2398155E+000 0.0  5.0699024E+000  5.2637278E+001 0.0 -2.1745315E+001 -1.7565632E+001 0.0  1.1549629E-001  2.5400501E+000 0.0 -1.4120317E+001  6.7757532E+001 0.0 -9.0032006E-001  4.9526962E+001 0.0 -7.9802271E+000  5.7269798E+001 0.0 -1.7570284E+001  1.6148268E+001 0.0 -1.4028245E+001  3.8468870E+001 0.0 -6.0457298E-001  4.3887270E+001 0.0  2.5282895E-004  4.9273464E-001 0.0 -2.0747579E+001 -1.1897331E+001 0.0 -1.3201770E+002  4.4370165E+002 0.0  2.4440757E+000  3.5859705E+001 0.0 -4.0989906E+000  5.9602832E+001 0.0 -1.5581312E+001  6.3926262E+000 0.0  1.5721862E-001  2.6846321E+000 0.0  1.6896054E+000  1.1378265E+001 0.0 -1.2923883E+001 -1.1025560E+000 0.0  4.4691534E+000  9.0625998E+001 0.0  2.8172164E-002  1.2626257E+000 0.0 -4.0499378E+001  1.7157967E+001 0.0 -1.1035956E+001 -3.4337945E+000 0.0 -1.3143407E-001 -2.8591576E-002 0.0 -2.0890802E-003 -2.6786871E-003 0.0 -1.3350831E+000 -3.3228382E-001 0.0 -2.7272620E-002 -8.9788258E-003 0.0 -3.8056084E-002  6.5013020E-003 0.0 -3.2799151E-001 -1.6421438E-001 0.0 -2.1443399E+000 -2.5107180E-001 0.0 -3.4188871E+000 -1.3685607E-001 0.0 -1.2953033E+000 -1.2265885E-001 0.0 -1.6251904E+000  3.0833006E-002 0.0 -2.4085332E+000 -1.7670094E-002 0.0 -1.1529562E-001 -2.3201774E-003 0.0 -1.9234186E+000 -1.4798497E-002 0.0 -2.4056133E-002 -2.3989423E-003 0.0 -1.3023438E-002 -1.6656650E-003 0.0 -1.3897047E+000 -1.8897292E-003 0.0 -2.7529283E-002  8.3169107E-004 0.0 -2.0334777E+000 -8.3139222E-003 0.0 -6.3787795E-002 -4.2782742E-003 0.0 -3.3120277E+000 -4.9480991E-002 0.0 -4.0202470E+000 -2.7322292E-002 0.0 -8.3747119E-002  9.5430327E-003 0.0 -1.2295623E+000  2.4725855E-002 0.0 -1.4143403E-001  1.1827806E-003 0.0 -5.0774946E+000 -4.6153845E-002 0.0 -3.3600862E-002 -3.7067185E-003 0.0 -1.9512551E-001 -1.9820163E-002 0.0 -2.3542674E-001 -1.4135688E-003 0.0 -6.0643648E-002 -7.2332406E-004 0.0 -8.7626814E-002  3.2001697E-003 0.0 -1.4945973E-001 -2.0389527E-003 0.0 -1.6623704E-001 -1.3566825E-002 0.0 -4.3550373E-002 -1.0420811E-002 0.0 -2.8683375E-001 -2.5731263E-002 0.0 -2.2000980E-001 -1.9535730E-002 0.0 -2.1112816E-001 -2.1988189E-002 0.0 -1.6492506E-001 -1.2470196E-005 0.0 -1.6403294E-001  1.6904722E-003 0.0 -3.6512236E-001 -1.8013897E-002 0.0 -1.7558030E-001 -1.5183534E-002 0.0 -8.7252169E+000 -2.7126171E-001 0.0 -3.9226002E-001 -4.0654496E-002 0.0 -2.3075451E-001 -3.9773526E-002 0.0 -1.3725391E-001 -1.4783089E-002 0.0 -1.2328052E-001 -1.9945728E-002 0.0 -2.5562009E-001 -4.0638966E-002 0.0 -1.7042349E-001 -2.3323990E-002 0.0 -3.0554342E-003 -1.0192501E-003 0.0 -7.1219705E+000 -3.3276245E-001 0.0 -1.0368329E+001 -2.6012910E-001 0.0 -6.9605434E+000 -1.0910197E-001 0.0 -3.1866773E+000 -6.5292705E-002 0.0 -6.0886324E+000 -7.7418966E-002 0.0 -6.3820095E-002  3.0407937E-005 0.0 -4.0270878E-002 -1.1634368E-002 0.0 -2.7396444E-002  1.9992170E-003 0.0 -1.1521779E+000  3.5591705E-003 0.0 -5.5880067E-002 -2.8677715E-004 0.0 -4.6895868E-002 -3.0942690E-003 0.0 -5.6170466E-002 -3.8843391E-003 0.0 -1.7849886E+000 -3.1973055E-002 0.0 -1.1704817E+000 -1.1758791E-002 0.0 -5.0685940E-002  1.9212403E-003 0.0 -1.3553615E+000 -6.8262488E-003 0.0 -2.8891120E+000  2.2278766E-002 0.0 -1.5843038E+000 -1.0009284E-002 0.0 -3.7940243E+000 -1.6743200E-002 0.0 -1.1761325E-001 -7.4659212E-003 0.0 -4.5482754E+000 -6.3994809E-002 0.0 -2.0554375E-001 -2.0372538E-002 0.0 -5.5705173E+000 -1.0384692E-001 0.0 -2.7558745E+000 -3.6478308E-002 0.0 -6.7681668E+000 -8.8017605E-002 0.0 -7.6258977E+000 -1.1715199E-001 0.0 -8.9025250E+000 -1.9626227E-001 0.0 -1.0311840E+001 -2.6915615E-001 0.0 -1.0511649E+001 -8.9609152E-002 0.0 -1.0283045E+001 -3.4437908E-001 0.0 -1.0423629E+001 -3.6156180E-001 0.0 -1.0431919E+001 -3.0687361E-002 0.0 -8.9921965E+000 -3.1425576E-001 0.0 -1.0977666E+001 -4.1706551E-001 0.0 -9.2299058E+000 -3.0269058E-001 0.0 -8.2292421E-001 -4.1798791E-001 0.0 -1.2252044E-001 -2.2289609E-002 0.0 -5.3416547E+000 -1.5543473E-001 0.0 -1.7803607E-001  1.4282098E-002 0.0 -1.3891180E-001 -9.7023654E-004 0.0 -2.2846468E+000 -2.4691163E-002 0.0 -1.1868684E-001 -1.9049435E-001 0.0 -2.7521901E-003  3.7908710E-003 0.0 -1.7294175E+000 -1.3684606E-001 0.0 -1.0232749E+000 -1.3530213E-001 0.0 -7.4537390E-001 -1.7203739E-001 0.0 -3.6221795E-001 -7.4102435E-002 0.0 -2.6580912E-001 -9.4248095E-002 0.0 -3.7445033E-001 -6.8095178E-002 0.0 -1.1834058E-001 -4.0277239E-002 0.0 -8.6317920E-002 -4.5752014E-002 0.0 -2.4038406E-001 -1.0216454E-001 0.0 -7.5071322E-002 -4.5049060E-002 0.0 -1.7976882E-001 -8.9315631E-002 0.0 -3.9364930E-001 -1.8205835E-001 0.0 -2.9201014E-001 -1.4992768E-001 0.0 -6.9943217E-002 -3.4370928E-002 0.0 -3.6531013E-002 -1.7863198E-002 0.0 -5.5662592E-001 -2.5488247E-001 0.0 -4.1813150E-001 -2.3134870E-001 0.0 -1.3136560E-001 -5.7656466E-002 0.0 -2.0578886E-001 -9.0254895E-002 0.0 -5.5632800E-001 -1.8203794E-001 0.0 -6.7254860E-002 -1.5117524E-002 0.0 -3.9058550E-002 -2.2422589E-002 0.0 -1.4026917E-002 -7.6284728E-003 0.0 -1.4393946E-002 -3.6195857E-003 0.0 -4.4503047E-002 -1.9952079E-002 0.0 -1.0786935E-001 -1.9608991E-002 0.0 -2.0661872E-002 -1.0918309E-002 0.0 -5.8031863E-001 -3.8592063E-001 0.0 -1.2251486E+000 -2.7763473E-001 0.0 -7.7353565E-001 -3.4717134E-001 0.0 -5.6671452E-001 -5.1113744E-001 0.0 -3.2141024E-001 -1.7027840E-001 0.0 -7.0623603E-002 -5.1276893E-002 0.0 -1.5907952E-001 -5.0194769E-002 0.0 -1.4373302E-001 -1.6822568E-002 0.0 -7.0955644E-001 -9.4705067E-002 0.0 -9.3730029E-001 -5.6822313E-002 0.0 -1.1370367E+000 -1.0386696E-001 0.0 -2.2630484E+000 -2.7887193E-001 0.0 -2.3815708E-001 -4.6496092E-002 0.0 -1.1222672E+000 -5.7699137E-002 0.0 -3.2896745E+000 -3.3214492E-001 0.0 -5.8339233E-002  1.1465895E-003 0.0 -2.4612626E-001  8.3010598E-004 0.0 -2.0132442E-001  1.9428277E-003 0.0 -2.0449174E-001 -5.7552183E-003 0.0 -6.6482066E-001 -1.1308826E-002 0.0 -6.6139900E-001 -1.5418621E-003 0.0 -8.1965746E+000 -3.2220388E-001 0.0 -3.4001157E+000 -1.1076648E-001 0.0 -4.3746469E+000 -2.7099699E-001 0.0 -2.9079514E+000 -2.1137377E-001 0.0 -1.2281274E+000  1.1078810E-002 0.0 -7.5915680E-002 -4.4451768E-004 0.0 -2.1910948E-001 -4.2448087E-003 0.0 -6.1218193E-001 -2.4706697E-002 0.0 -1.9455984E+000 -1.0474113E-001 0.0 -1.7023992E+000 -2.8333850E-002 0.0 -5.5174110E+000 -3.0619038E-001 0.0 -6.0200920E-001 -3.6307233E-002 0.0 -2.0617487E+000 -1.7027755E-001 0.0 -1.8628052E+000 -6.8184551E-002 0.0 -5.9567539E+000 -4.2410308E-001 0.0 -1.6929687E-001  9.3594205E-004 0.0 -5.3205419E-001 -1.2984036E-002 0.0 -4.6419166E-001  5.2103694E-003 0.0 -1.4961319E+000 -4.7825359E-002 0.0 -7.2579758E+000 -1.4611557E-001 0.0 -3.1370737E+000 -5.9424825E-002 0.0 -3.5279840E+000 -8.4052845E-002 0.0 -2.9705552E+000 -1.3608779E-001 0.0 -1.1615441E+000  3.3499141E-002 0.0 -8.1109536E-001  8.2126138E-004 0.0 -4.8482464E-001  8.0165763E-003 0.0 -4.7069535E-001 -9.7819903E-004 0.0 -1.7743508E-001  3.2335788E-003 0.0 -5.9992704E-002 -1.9674847E-003 0.0 -2.5606168E-001  7.3576185E-003 0.0 -2.7800378E-001 -1.0461990E-002 0.0 -8.5497762E-001 -2.4802190E-002 0.0 -6.1965393E+000 -9.3884705E-002 0.0 -2.6916541E+000 -4.3408699E-002 0.0 -3.2125208E+000 -9.8285629E-002 0.0 -2.6859228E+000 -7.6783097E-002 0.0 -1.0019541E+000  3.1864270E-002 0.0 -1.8903169E+000 -1.4296474E-002 0.0 -1.1577709E+000  2.4561131E-002 0.0 -1.1578920E+000 -1.0878799E-002 0.0 -3.6125152E-001 -5.1306229E-003 0.0 -3.8686156E-001  8.0916228E-003 0.0 -1.5489371E+000 -4.4597401E-003 0.0 -1.8523384E+000  3.5124133E-002 0.0 -1.1937507E+000  1.8587564E-002 0.0 -1.4832113E+000 -7.1150868E-003 0.0 -6.3086470E-001 -3.4990372E-003 0.0 -6.8388137E-001 -8.2149737E-003 0.0 -7.1806653E-001  5.0566651E-003 0.0 -2.2898046E-001 -4.6801094E-003 0.0 -1.9727028E-001 -9.1016238E-004 0.0 -9.4155365E-002  8.9836999E-003 0.0 -5.4239237E-001 -2.4086405E-002 0.0 -3.1787462E+000  1.7583359E-002 0.0 -2.0158626E+000  9.6504460E-003 0.0 -2.0122573E+000 -3.4861458E-002 0.0 -7.0814906E-001  2.8180155E-003 0.0 -1.4628043E+000 -1.7044753E-002 0.0 -9.3259072E-001 -1.8592777E-002 0.0 -8.7888334E-001  9.0915578E-003 0.0 -2.6156861E-001  1.6752391E-003 0.0 -2.8023147E-001 -9.0897452E-003 0.0 -7.1475083E-001 -4.4405002E-002 0.0 -4.0817107E-001 -1.1437496E-002 0.0 -3.7742589E-001 -8.8648925E-003 0.0 -1.4953854E-001 -4.6097856E-003 0.0 -8.1959712E-002 -1.6343862E-003 0.0 -3.2881296E-001 -5.1463913E-003 0.0 -3.0455360E-001 -4.3140985E-003 0.0 -2.4879483E-001 -3.7636867E-003 0.0 -9.2616349E-001 -2.8153812E-002 0.0 -9.5353924E-001 -4.7941069E-002 0.0 -9.3266752E-002 -5.8115282E-003 0.0 -8.7919333E-001 -1.2096642E-002 0.0 -8.1158741E-001 -1.4753629E-002 0.0 -6.3741960E+000 -1.4023156E-001 0.0 -3.7853749E+000  1.7516375E-002 0.0 -3.4826452E+000 -1.6204231E-001 0.0 -1.2922942E+000 -4.4961456E-002 0.0 -3.9594335E+000 -5.1732597E-002 0.0 -1.7415568E+000 -4.2319564E-002 0.0 -1.7741812E+000  9.0053316E-003 0.0 -5.8436474E-001 -1.0587254E-002 0.0 -1.8860961E+000 -8.4887992E-003 0.0 -3.7517050E+000 -6.4734304E-002 0.0 -1.6507255E+000 -1.3943903E-002 0.0 -1.6808284E+000 -2.0319326E-002 0.0 -3.3448246E+000 -8.5354352E-002 0.0 -1.5934465E+000  1.5571211E-002 0.0 -3.0294145E+000 -7.7906210E-003 0.0 -1.2160739E+000  2.4800098E-002 0.0 -8.5774876E-001 -4.2839692E-002 0.0 -2.1994238E-001 -9.6716456E-003 0.0 -6.5939561E-001 -2.8801591E-002 0.0 -9.0966293E-001  2.4214640E-002 0.0 -6.0628368E-001  2.4111806E-003 0.0 -7.0774143E+000 -1.0733918E-001 0.0 -3.3711495E+000 -4.2039550E-003 0.0 -5.1903725E+000 -3.2822518E-002 0.0 -3.6967365E+000 -1.0172994E-001 0.0 -2.2890024E+000 -2.5625822E-002 0.0 -2.3713214E+000 -6.1978913E-002 0.0 -8.3892761E-001  1.0524044E-002 0.0 -5.8302072E+000  3.2644374E-002 0.0 -5.1013013E+000  6.8628805E-002 0.0 -2.7464204E-001 -1.0073319E-002 0.0 -1.1065487E+000 -3.3494876E-002 0.0 -1.0468548E+000 -2.9256020E-002 0.0 -4.6185845E-001 -1.7017559E-002 0.0 -1.3798532E+000 -9.2191465E-002 0.0 -7.1421100E-001  4.4021131E-002 0.0 -2.8195314E-001 -9.9454867E-003 0.0 -1.5336775E+000 -1.4494635E-001 0.0 -2.1302735E-001 -4.6615481E-003 0.0 -6.2340985E-001 -3.0483618E-002 0.0 -1.5043595E-001  1.2660394E-002 0.0 -7.7380869E-001 -3.9115527E-002 0.0 -2.4162666E-001 -1.7588025E-002 0.0 -4.1099495E+000 -2.6154874E-001 0.0 -5.7519709E+000 -3.0039624E-001 0.0 -3.1816849E-001 -2.0198205E-002 0.0 -5.9321664E-001 -3.4140174E-003 0.0 -9.6636532E-002 -4.1850251E-003 0.0 -1.9173525E-001  2.0191602E-002 0.0 -4.4050017E-001 -2.6987282E-002 0.0 -1.7145448E+000 -1.1437400E-001 0.0 -1.5253027E+000 -7.6340180E-002 0.0 -4.9984657E+000 -2.9195058E-001 0.0 -7.7763988E-002  8.7703338E-005 0.0 -8.0602545E-001 -1.2678257E-002 0.0 -5.1916366E-001 -2.6320850E-003 0.0 -3.6052828E+000 -2.1830343E-001 0.0 -3.0884729E+000 -1.7201364E-001 0.0 -3.0273584E+000  6.0693960E-002 0.0 -2.6972767E+000  4.8939677E-002 0.0 -1.2913721E+000  1.6284454E-002 0.0 -8.6405782E-001 -4.7365588E-003 0.0 -4.6701029E-001 -2.7125106E-002 0.0 -1.4308538E+000 -8.5315129E-002 0.0 -3.1442928E-001  6.3608409E-004 0.0 -1.8214675E+000 -1.1446544E-001 0.0 -1.2559849E+000 -6.7074550E-002 0.0 -6.0338516E+000 -1.9349269E-001 0.0 -3.8784622E+000  5.0995360E-002 0.0 -5.7333126E+000 -2.5015989E-001 0.0 -3.2502691E-001  7.5936661E-003 0.0 -1.6041416E+000  4.7633982E-003 0.0 -4.5053961E-001 -4.3232934E-002 0.0 -6.5491168E+000 -4.4051913E-001 0.0 -4.2927454E+000 -1.4089969E-001 0.0 -7.7062339E-001  5.1217417E-002 0.0 -5.3565717E-002  5.8921960E-003 0.0 -3.0991193E-001 -1.2247212E-002 0.0 -6.6703106E+000 -6.7060185E-002 0.0 -4.7879122E+000 -2.8456640E-001 0.0 -2.9238298E+000 -2.6920484E-002 0.0 -5.4288493E+000 -3.7618896E-001 0.0 -8.3267915E-002  8.6558233E-003 0.0 -6.1114993E-002 -1.6539510E-003 0.0 -2.2460607E+000 -6.0565629E-002 0.0 -2.3328195E-001 -2.3905457E-003 0.0 -5.0722898E-001 -1.2181034E-002 0.0 -8.1559179E-001  1.1566798E-002 0.0 -2.3981108E+000  9.9941174E-003 0.0 -1.9111761E+000 -1.0941323E-001 0.0 -3.2419110E-001 -7.0133458E-004 0.0 -1.6574241E+000 -1.2526203E-001 0.0 -6.4564950E-001 -6.8508785E-003 0.0 -1.8077877E+000 -9.2410886E-002 0.0 -1.9007767E-002  1.2572323E-003 0.0 -5.1443782E-001 -2.5879214E-003 0.0 -4.7594786E-002 -1.2246264E-002 0.0 -1.0265793E+000  1.3744562E-002 0.0 -3.4883643E-001  6.2431318E-003 0.0 -3.2894621E+000 -6.1019478E-002 0.0 -1.4356253E+000 -2.0019306E-001 0.0 -1.0429754E+000 -3.6621949E-001 0.0 -1.6577544E-001 -4.5406392E-002 0.0 -1.5477453E-003  5.3613493E-004 0.0 -5.3349767E-001 -8.3265577E-002 0.0 -7.3562852E-003 -4.5510645E-003 0.0 -4.7011592E-001 -2.8408941E-001 0.0 -8.5217220E-001 -2.7163586E-001 0.0 -7.2066323E-001 -1.0199370E-001 0.0 -2.2853443E-001 -9.1071429E-002 0.0 -1.1717265E-001 -3.2889383E-002 0.0 -5.2131680E-001 -2.8253188E-001 0.0 -3.1537421E-001 -3.9337741E-002 0.0 -1.8784339E+000  5.9879420E-002 0.0 -1.9867023E-001  1.1865781E-002 0.0 -7.2194223E-002 -5.7429524E-003 0.0 -1.9455755E-001 -4.0639463E-003 0.0 -1.1523641E-001  5.9653946E-003 0.0 -2.6924882E-001  6.6954310E-003 0.0 -3.4315205E+000 -1.3429866E-001 0.0 -3.8374442E+000 -5.9181252E-002 0.0 -5.7369676E+000 -3.1783009E-001 0.0 -6.2882012E-001  2.8968782E-003 0.0 -6.6922617E-001 -5.1557488E-002 0.0 -1.6033672E+000 -5.1962402E-002 0.0 -4.5659012E-001  2.7945118E-002 0.0 -7.2610177E-001 -4.9970057E-003 0.0 -3.4913302E+000 -2.9032210E-001 0.0 -3.8224298E+000 -1.5602848E-001 0.0 -1.6929145E+000 -3.9843289E-002 0.0 -7.1951511E-001  1.6677353E-003 0.0 -7.1334993E-001 -1.4060362E-002 0.0 -2.5253515E+000 -2.8728173E-002 0.0 -1.8561631E+000 -7.4313195E-003 0.0 -7.5302739E-001 -2.5331059E-002 0.0 -2.2619879E+000  9.9215528E-003 0.0 -1.8951100E+000 -1.1979452E-001 0.0 -2.2322197E+000 -1.0950377E-001 0.0 -4.4773074E-001  1.0195685E-002 0.0 -2.5037865E-001  2.0068333E-003 0.0 -1.8406360E-001  9.3302389E-003 0.0 -2.0683262E+000 -4.0718831E-002 0.0 -6.7237747E-001  2.9398175E-002 0.0 -8.2607203E+000 -4.5260668E-001 0.0 -5.2310434E-001  1.9582494E-002 0.0 -1.1013679E-001  3.9551630E-003 0.0 -9.2726517E-002 -3.8166446E-003 0.0 -3.9012140E-001  3.8120319E-003 0.0 -5.8356378E-001  2.9324309E-002 0.0 -1.2772395E+000 -1.5166630E-002 0.0 -9.5459664E-002  3.8266670E-003 0.0 -7.4421562E+000 -3.0113763E-001 0.0 -7.1353490E-001  9.2268701E-003 0.0 -1.2968144E+000 -3.8301025E-003 0.0 -8.3194254E-001 -7.1659613E-003 0.0 -9.8076015E-001 -1.1117050E-002 0.0 -5.2350484E-001 -4.8109299E-003 0.0 -2.1898875E+000 -3.7905291E-002 0.0 -1.4224695E-001  7.6757959E-003 0.0 -2.8960605E-001  2.9479331E-004 0.0 -7.7316232E-001  1.4266325E-003 0.0 -5.5758973E+000 -1.7650573E-001 0.0 -2.4286823E+000 -9.1915009E-002 0.0 -2.2130640E+000  1.4776200E-002 0.0 -1.0137557E+000 -7.1532396E-003 0.0 -4.6552186E+000 -2.8216570E-001 0.0 -4.3100702E+000 -1.2873106E-001 0.0 -4.9558878E+000 -9.3340502E-002 0.0 -2.3898863E+000 -2.0650969E-002 0.0 -8.7191203E-001  5.4114887E-003 0.0 -3.6916581E-001  1.1630472E-002 0.0 -2.1382449E+000 -1.8695641E-002 0.0 -1.8706535E+000 -1.0413973E-002 0.0 -6.7396695E-001  9.7897504E-003 0.0 -1.7304262E+000 -2.3936391E-002 0.0 -1.6598178E+000 -6.1987447E-002 0.0 -3.0310769E+000 -2.4741355E-001 0.0 -4.9416856E+000 -3.9475086E-001 0.0 -6.4519725E-001 -4.3790265E-001 0.0 -8.9515005E-002 -6.5414733E-002 0.0 -9.3684687E-001 -2.4663173E-001 0.0 -1.6528229E-003  1.2012941E-003 0.0 -1.2446115E-002 -1.2761260E-003 0.0 -3.6324084E-001 -2.5649952E-001 0.0 -1.9042703E+000 -2.2082780E-001 0.0 -3.0534153E-002 -1.4197454E-002 0.0 -6.4424856E-001 -3.2115447E-001 0.0 -6.0400504E+000 -2.4309965E-001 0.0 -5.5088587E+000 -1.6011381E-001 0.0 -2.1274355E+000 -5.1548589E-002 0.0 -1.7014686E+000 -3.4276618E-002 0.0 -1.2528917E+000 -7.5331661E-002 0.0 -1.5135539E+000 -7.6974048E-003 0.0 -6.3337027E-001 -3.4861775E-003 0.0 -2.7954014E-001  3.5090400E-003 0.0 -6.3840918E-001  4.3878396E-003 0.0 -9.0811574E-001  1.2804399E-002 0.0 -4.0965485E-001  7.2483187E-003 0.0 -8.5536746E-001  3.0064743E-002 0.0 -2.8629123E+000 -6.1811699E-002 0.0 -5.7767009E+000 -1.5443571E-001 0.0 -9.8773589E-001  1.3641041E-002 0.0 -9.7195846E-001 -1.5948109E-002 0.0 -2.7132268E-001  4.0800636E-004 0.0 -8.9966631E-001 -8.2005974E-004 0.0 -3.7686058E-001 -3.7464170E-003 0.0 -1.5741523E+000  3.8853651E-002 0.0 -3.1041229E-001  1.4632143E-002 0.0 -1.2031631E+000  1.6272781E-002 0.0 -1.4205072E+000  1.5324933E-002 0.0 -6.7560285E-001  1.9991372E-002 0.0 -1.8291222E+000  2.9663557E-002 0.0 -1.6277502E+000  4.0766074E-002 0.0 -7.1997600E-001  6.3012814E-003 0.0 -6.2445094E+000 -4.0038224E-002 0.0 -6.0109524E+000  3.8450267E-002 0.0 -2.4796080E+000 -4.1153682E-002 0.0 -1.7718248E+000 -2.4860245E-002 0.0 -1.8329845E+000 -5.2316533E-002 0.0 -8.1067374E-001 -5.6182689E-003 0.0 -7.8633969E-001 -2.2919632E-002 0.0 -3.9819147E+000 -9.5769613E-002 0.0 -1.0736364E+000 -3.8518641E-003 0.0 -3.1541772E+000 -1.8470185E-002 0.0 -3.6367020E+000 -4.0170374E-002 0.0 -5.5882553E-001  1.4860304E-003 0.0 -9.9657207E-002 -3.2615906E-002 0.0 -2.3848178E+000 -1.6050426E-001 0.0 -5.9248148E+000 -2.5543574E-001 0.0 -1.7405536E+000 -5.9902448E-002 0.0 -4.1357123E+000 -8.6432626E-002 0.0 -9.9142125E-001 -1.5573909E-003 0.0 -2.6568143E+000 -1.0989865E-002 0.0 -4.0674591E+000 -1.0489723E-001 0.0 -3.5108157E-001 -1.7381706E-001 0.0 -7.6104293E-001 -2.0841927E-001 0.0  6.3427935E-005  1.4025340E-004 0.0 -3.7499553E+000  1.3112179E+001 0.0 -1.2471609E-003  4.6438091E-003 0.0  3.2924322E-002 -1.1916250E-002 0.0  2.2456026E-001 -3.3846871E-001 0.0  1.1162276E-001  6.6559318E-003 0.0  7.6505683E-003  9.4605536E-003 0.0  1.4430581E-001  1.0400820E+001 0.0 -7.6282001E-003  6.8398505E-002 0.0  4.0821235E-005 -2.6071994E-004 0.0 -6.4267609E-005 -1.5430434E-004 0.0  8.9423888E-002  8.0148515E-001 0.0  2.0701098E-003 -9.7882935E-004 0.0 -3.0479316E-004 -3.6268204E-003 0.0  4.8967462E-003  1.0157069E-003 0.0 -3.0492015E-002  5.4784327E-002 0.0 -6.2520173E-001  6.4150071E+000 0.0 -8.2642278E-003 -6.6405223E-003 0.0 -5.9541934E-002 -1.5824853E-001 0.0  1.3037594E-001  3.7558932E+000 0.0  2.8104800E-001  3.3652790E+000 0.0  2.4040010E-002  2.4066118E-001 0.0  8.4379314E-002  6.3375633E-001 0.0 -1.1800289E-002 -7.0198487E-002 0.0 -4.1556886E-002  2.4710994E-002 0.0 -2.7999019E+000  1.4747842E+001 0.0 -1.9024905E-003  1.8264242E-003 0.0  2.6147674E-002 -9.8080294E-003 0.0 -3.1664222E-002 -5.8165942E-003 0.0  2.6409410E-003  6.6362865E-003 0.0 -1.6217598E-003 -1.4508007E-003 0.0 -1.9133131E-004 -4.0214701E-004 0.0 -2.1950514E-003 -5.3603119E-003 0.0 -3.2175102E-004  4.0894367E-004 0.0 -2.4381423E-002 -5.6307521E-002 0.0 -8.3476196E-004 -2.0457660E-003 0.0 -5.5267775E-004 -1.8398702E-003 0.0 -8.9985591E-003 -2.6351396E-002 0.0 -5.9880970E+000  8.6606588E+000 0.0 -2.5418334E-001  3.7345925E-001 0.0 -1.5042778E-002  2.1952745E-002 0.0  5.7331762E-001 -1.0481478E+000 0.0 -1.0249054E-002  1.3735832E-002 0.0  5.8314120E-004 -1.6281456E-003 0.0 -2.5807726E+000  3.4323984E+001 0.0 -8.9826587E-002  9.9734073E-001 0.0 -1.1242384E+000  6.5886717E+000 0.0 -5.6682629E-002  4.9362083E-001 0.0  2.1901306E-002 -1.2105274E-001 0.0 -3.4601923E-002  2.1586898E-001 0.0  4.1657523E-003 -1.6798790E-002 0.0  1.6239667E-004 -1.0021694E-003 0.0  5.3313750E-004  2.8066690E-003 0.0  9.5746119E-005  3.0194082E-005 0.0  4.8512519E-002 -1.3491027E-002 0.0  2.1476658E-003  4.4334174E-001 0.0  9.8405836E-003 -9.2342315E-002 0.0  4.1809810E-002  4.8528564E+000 0.0  6.9645347E-003  3.1780556E-002 0.0  6.5717057E-002 -2.6809607E-002 0.0  9.4348224E-003  5.6948831E-002 0.0  2.8413306E-003 -7.5109042E-004 0.0  7.3515812E-002  6.6531803E-001 0.0  9.8794967E-002  9.5956361E-001 0.0  1.4626127E+000  2.9871264E+001 0.0 -3.1954655E-002 -6.8212734E-001 0.0  2.0803138E-001  2.7480445E+000 0.0  4.5828403E-002  1.4525506E-001 0.0  1.2826615E-001  2.5570229E+000 0.0 -1.0799849E-001  1.3525404E-001 0.0 -1.3123362E-001  2.5881546E-001 0.0 -1.0840459E-001  3.0696712E-001 0.0 -2.8108658E+000  6.2200382E+001 0.0  4.5335893E-003  1.7763610E-003 0.0 -1.7829357E-004 -7.1764740E-003 0.0  2.4352767E-003  1.8304647E-002 0.0 -1.9357773E-005  1.2912626E-004 0.0  1.6580055E-002  1.4670778E-001 0.0 -2.2529058E-004 -9.3712130E-005 0.0  1.5243310E-001 -1.8357237E-002 0.0  3.8197773E-001  3.4466587E+000 0.0  2.0505168E-002  1.8190509E-001 0.0  4.3257459E-001  4.6860598E+000 0.0 -2.7286793E-003 -3.3788080E-002 0.0  1.7148387E-001  2.3322400E+000 0.0  9.8507065E-003 -9.8080484E-003 0.0  4.7638551E-002 -4.8514199E-003 0.0 -1.2114917E-002 -1.0540775E-001 0.0 -1.8047772E-003 -1.3626806E-002 0.0 -1.2379223E+000  7.4190815E+000 0.0  1.9796333E-001 -1.7571705E-001 0.0  7.0732235E-002 -1.3739759E-001 0.0 -2.0589215E+000  6.0782206E+000 0.0 -1.2063009E-004 -2.8085011E-004 0.0 -2.5534157E+001  4.3492401E+001 0.0  1.7132778E-001 -9.6780888E-002 0.0 -2.1279784E-002  2.0454234E-002 0.0 -1.8875991E+001  1.1182649E+002 0.0 -3.7675207E-003  4.2780993E-003 0.0  3.0546286E+000  4.1179682E+001 0.0  7.6235047E-003 -2.6211169E-002 0.0 -1.8793694E-004 -7.9508635E-005 0.0 -2.4843417E-002 -2.0276236E-002 0.0  1.0250525E-003  4.9780300E-003 0.0  5.4089473E-003  6.4126160E-002 0.0  9.6967587E-003 -2.1922877E-002 0.0 -5.1692832E-001 -1.1643100E+000 0.0 -5.5286819E-002  9.5237144E-002 0.0  1.4870473E+000  1.4360611E+001 0.0 -4.5795717E-001  8.7685940E-001 0.0 -4.3843067E+001  1.3657023E+002 0.0  7.2096447E-001 -2.3894329E-001 0.0 -1.1659748E-002  1.6904586E-001 0.0  1.2183743E-001 -7.1904617E-002 0.0  2.7257782E-003 -1.1441688E-001 0.0 -3.8872545E-001  9.9881277E+000 0.0 -8.5461238E-003 -1.7116547E-002 0.0 -2.0525866E-002 -5.3044923E-002 0.0  1.0891810E-001  1.0097903E+000 0.0 -2.0160624E-001 -6.0580309E-001 0.0  9.8281165E-001  9.2164516E+001 0.0  2.4520780E-002  7.7203806E-003 0.0  8.9730780E-004 -5.1868115E-004 0.0  2.2816090E+000  2.1143014E+001 0.0  1.5556552E-002  3.3810795E-002 0.0  6.6287288E-002  5.9941498E-001 0.0  2.6491368E-001 -9.4469859E-002 0.0 -1.1709639E-004 -9.3141122E-004 0.0  3.1742162E-001  2.8467312E+000 0.0  7.6160310E-003  7.0361328E-002 0.0  2.6199358E-002 -2.2710694E-003 0.0 -3.5055646E-004 -2.8742746E-004 0.0 -3.9275661E-001 -2.9342392E-001 0.0  5.5219837E-002  3.7539329E-001 0.0 -1.6587067E-002 -1.6180949E-002 0.0  2.3530735E-002  2.0430245E-001 0.0 -3.2949887E+000  6.4499682E+000 0.0 -7.1307739E-001  3.2306057E+000 0.0  3.3065492E-002  9.7321275E-002 0.0  3.1542149E-002  1.1505266E+000 0.0 -4.9352078E-001  9.6117690E-001 0.0  4.7115808E-002  3.8721758E-001 0.0 -2.4101470E-003 -1.0752142E-002 0.0 -3.5972842E-001  2.0248265E+000 0.0  6.1555798E-002  5.4382072E-001 0.0  1.5188050E-005  1.6498019E-004 0.0 -1.0940484E-003  1.0868285E-003 0.0 -3.4347009E-002  4.6473909E+000 0.0  1.2193961E-002  1.7844567E-002 0.0 -7.6575476E-004 -4.2540730E-003 0.0  2.1929691E-002  1.9944678E-001 0.0 -1.9483162E+003 -8.6679853E+001 0.0 -5.8909400E+002 -1.1739885E+002 0.0  6.4712997E+003 -4.2097455E+002 0.0  5.3748774E+003 -4.3034174E+002 0.0  9.4502158E+002 -2.2292782E+002 0.0  2.8054093E+002 -1.5761388E+002 0.0  1.5597278E+003 -2.5790913E+002 0.0  4.6705620E+003 -4.5678989E+002 0.0  4.1039572E+003 -4.7713019E+002 0.0  2.1231545E+003 -3.3282743E+002 0.0  3.4169163E+003 -4.5363654E+002 0.0  2.6739971E+003 -3.9454212E+002 0.0  2.5678102E+003 -6.5403739E+002 0.0  3.2325115E+003 -7.0305398E+002 0.0  3.1268482E+003 -3.8031329E+002 0.0  3.4262523E+003 -3.1067023E+002 0.0 -6.6660284E+001 -3.3079208E+001 0.0  1.7190902E+003 -2.6556428E+002 0.0  6.4943826E+003 -5.8816102E+002 0.0  1.2623548E+003 -2.2766881E+002 0.0  4.0485921E+003 -2.9575325E+002 0.0  4.4851905E+002 -2.1369283E+002 0.0 -7.6524572E+002 -9.1876579E+001 0.0  9.1536860E+002 -1.7508198E+002 0.0  2.5362987E+003 -3.9416843E+002 0.0  2.1653382E+003 -3.5860532E+002 0.0  6.6710843E+003 -3.3830755E+002 0.0 -2.4041079E+003 -8.8520986E+001 0.0 -1.4205878E+003  1.9521561E+002 0.0  4.1162005E+003 -5.2314565E+002 0.0 -1.5115024E-002 -3.9681777E-004 0.0 -3.0198196E-002  1.2124702E-003 0.0 -1.6503592E-002  1.0735237E-004 0.0 -2.8914839E-002  5.7299736E-006 0.0 -4.6162501E-002 -1.2537167E-003 0.0 -6.9422635E-002 -2.0903165E-003 0.0 -2.3598585E-001 -8.3938318E-003 0.0 -1.8677658E-001 -2.3282814E-002 0.0 -7.5383102E-002 -9.1884957E-003 0.0 -5.3272344E-009 -4.3263659E-009 0.0 -2.0223915E-002 -6.1755321E-004 0.0  3.4311068E-003 -2.0350516E-001 0.0 -1.5575170E-001 -1.2246387E-002 0.0 -5.7813738E-001 -7.0242035E-001 0.0  1.8260422E-002 -1.9788341E-001 0.0 -1.8499047E-002 -5.1661769E-002 0.0  1.6613012E-001  6.2650646E-002 0.0  6.0393086E+000  7.8019646E+000 0.0 -4.1397507E-002 -4.4180349E-004 0.0 -6.4551014E-002 -2.2194874E-003 0.0 -5.6767509E-002 -1.8128650E-003 0.0 -7.4730041E-002 -3.8119168E-003 0.0 -1.4334456E+000 -9.5857272E-002 0.0  9.1420968E-002  3.1510179E-002 0.0 -5.9615175E-002 -8.3282355E-003 0.0 -4.1083588E-002 -3.2450312E-001 0.0  3.8623868E-003 -4.4911774E-002 0.0  9.8916186E-017 -1.8069501E-017 0.0 -4.6124234E-006  9.3641678E-007 0.0  4.2939456E-015  1.3003421E-015 0.0 -6.3146205E-002 -1.9984513E-003 0.0 -4.3455461E-002 -1.1738709E-003 0.0 -7.0703638E-002 -2.9671338E-004 0.0 -3.2748904E-019  1.9464401E-017 0.0 -3.1095632E-012  3.9065385E-012 0.0  2.2899864E-003 -3.8854268E-002 0.0 -2.0760933E-001 -7.6193228E-001 0.0  5.7961161E-014  1.7278397E-014 0.0  1.4381117E-016  3.9486793E-017 0.0 -5.4550637E-003  3.0381422E-003 0.0  5.7756899E+001  2.4803726E+001 0.0  3.1306668E+001  1.7262289E+001 0.0  3.3919245E+001  4.1191160E+001 0.0  5.8262253E-001  7.8946768E+000 0.0  2.2756994E+001  9.2896628E+000 0.0 -3.8890085E+000 -2.0851377E+000 0.0 -1.7429987E-002 -4.3945003E-003 0.0 -3.4128793E-002 -6.5937348E-002 0.0 -8.1816502E-002 -7.9088745E-003 0.0 -2.9523936E-003 -1.6332377E-003 0.0  5.4318361E-003  2.3988489E-003 0.0 -6.7093121E-003 -2.8781684E-002 0.0  1.0176941E-005 -2.2406030E-002 0.0  7.5393229E-009 -7.8044214E-010 0.0 -6.3631926E-007 -8.5260664E-006 0.0 -4.0283019E-004 -1.1124132E-003 0.0 -1.3967609E-004 -6.1234839E-004 0.0 -1.7564849E-006 -7.7009565E-006 0.0 -1.3388998E-005 -5.3909862E-005 0.0 -6.9862028E-008 -6.6693324E-007 0.0 -3.4211325E-007 -1.3808607E-006 0.0 -3.5023624E-006 -9.0718920E-006 0.0  2.3530757E-007  8.4487796E-008 0.0 -2.1624535E-006 -6.6818566E-006 0.0 -2.7570000E-009 -2.3433966E-008 0.0 -1.2492911E+000  6.4731268E-001 0.0 -1.9492945E-013 -6.6195910E-015 0.0 -8.9121271E-020  1.8367983E-017 0.0 -3.7044214E-006  1.0018143E-006 0.0 -1.3028456E-005 -2.8227262E-005 0.0  1.3632394E-003  7.4604968E-004 0.0  3.9219124E-005  1.2727831E-005 0.0 -5.6495986E-004 -1.0121362E-004 0.0 -6.1199458E-005 -1.9729251E-005 0.0  1.3073591E-003  4.1200454E-004 0.0  2.2682175E-005  9.5940013E-006 0.0 -5.0512151E-004 -1.4905102E-004 0.0 -2.3053102E-005 -4.7485494E-006 0.0 -4.2207988E-001 -2.8311072E-001 0.0 -6.9537965E-001 -1.1364980E+000 0.0 -9.2263704E-003  2.5021647E-004 0.0 -1.4315893E-002 -1.2603517E-003 0.0 -2.0304940E-002 -5.9161975E-005 0.0 -1.1838552E-001 -7.5973514E-003 0.0  2.4029166E-002  1.2901762E-003 0.0  1.6385238E-006  4.3355020E-007 0.0  9.7134685E-008  1.3346601E-007 0.0 -2.4240669E-006 -7.2264038E-007 0.0 -1.0326403E-007 -2.9121404E-008 0.0 -6.8297158E-007 -5.3591660E-008 0.0  1.3587220E-008  1.4970029E-010 0.0 -1.2550755E-007 -1.0105230E-008 0.0  4.3753608E-009  3.0126580E-010 0.0 -3.3594934E-009 -1.8522704E-010 0.0  2.3519268E-010  1.7300755E-011 0.0 -5.4023842E-010  1.9388063E-011 0.0  2.4977098E-011  5.2464831E-013 0.0 -1.6077953E-008 -3.9997768E-011 0.0 -6.3756346E-011  1.7357257E-011 0.0  2.1674053E-012 -6.9670702E-013 0.0 -2.1730640E-011 -5.3225393E-012 0.0  6.5472420E-013  1.2308301E-013 0.0 -4.6813024E-012 -9.6634339E-013 0.0  1.8804413E-013  3.8125515E-014 0.0 -1.0654345E-013 -2.6617618E-014 0.0  1.1519166E-014  2.4980569E-015 0.0 -8.8087596E-016  3.8365193E-016 0.0  3.6876463E-016  9.1526335E-017 0.0  2.0809629E-016  1.8179667E-016 0.0  3.4876177E-017 -3.1115026E-017 0.0  6.0832771E-019  5.7779261E-018 0.0  5.9228136E-006  1.0909630E-006 0.0 -2.3744293E-005 -3.2064403E-005 0.0  1.3611020E-010  7.1556445E-013 0.0  9.8015153E-006 -9.0636487E-006 0.0 -5.4222495E-001  4.7493086E-002 0.0 -5.8977822E+000  4.0649734E+000 0.0  3.6975922E-017  7.2608925E-017 0.0  9.7299747E-011 -1.5864418E-011 0.0  1.1764597E-014  3.6007148E-015 0.0 -2.8261316E-002 -5.2732321E-002 0.0  1.0026451E-011  9.3966046E-013 0.0 -1.2149681E-013 -2.0101227E-014 0.0 -4.2649606E-004 -5.2327783E-003 0.0 -1.0050919E-007 -2.9965214E-008 0.0  1.0809572E-006  3.2021049E-007 0.0 -1.7043149E-018  4.3731435E-017 0.0  4.8123353E-005  8.3012594E-005 0.0  3.1341129E-017  9.5341616E-019 0.0  3.8252355E+000 -8.0173254E+000 0.0  1.1875522E-003  5.8962112E-003 0.0 -5.6554187E-004 -1.6743843E-004 0.0  2.6144167E-008  7.7401838E-009 0.0  2.7398701E-007  8.1386119E-008 0.0  7.7417447E-018  2.6678981E-017 0.0  3.8984438E-017  8.3578641E-017 0.0 -1.0701016E-018  3.7250515E-017 0.0 -1.1020108E-004 -7.6280164E-006 0.0 -4.6286104E-005  1.4078631E-005 0.0  7.2631685E-008  1.8538829E-007 0.0 -1.2554559E-008 -1.0228166E-008 0.0  4.4368038E-018  1.7769219E-017 0.0 -1.0800471E-008 -6.1348105E-008 0.0 -5.7249596E-010 -3.7383696E-009 0.0 -1.7840692E-008 -2.8315853E-009 0.0 -1.5114966E-010 -4.0193654E-009 0.0 -2.8556683E-008 -1.6845659E-009 0.0 -3.7203822E-009 -2.3477258E-010 0.0 -3.6325266E-007 -1.9106734E-008 0.0  8.9315299E-007  4.1275952E-008 0.0 -7.1337471E-006 -3.6999891E-007 0.0 -1.9802695E-009 -3.5156120E-009 0.0  1.8102195E-002  2.2065139E-003 0.0 -2.6423047E-004 -6.3783593E-004 0.0 -1.2023668E-008 -3.3254339E-008 0.0  2.0272484E-016  8.9134870E-018 0.0 -2.4438008E-016  7.8446462E-018 0.0 -3.9982863E-010 -7.9058157E-011 0.0 -3.3658105E-013  4.0822502E-014 0.0  2.1927855E-015  4.0101128E-016 0.0  1.0507093E-018 -4.3107197E-017 0.0  5.4526280E-015  1.5834000E-015 0.0  6.4330321E-015  2.3256143E-015 0.0  3.0708057E-004 -1.8730799E-003 0.0  1.8699243E-018 -2.8882494E-017 0.0 -1.2337367E-002 -2.0921007E-001 0.0  6.9305065E-003 -9.0476639E-002 0.0  2.1312347E-003 -2.0847492E-002 0.0  5.4639374E-003 -7.7175451E-002 0.0 -9.6275489E-002 -5.5427346E-001 0.0 -5.3159504E-001 -1.3917372E+000 0.0 -5.4863957E-003 -3.0420300E-003 0.0  8.4469732E-007  3.9580584E-006 0.0 -8.3002880E-019  2.3311302E-017 0.0 -3.9004699E-006 -3.1518560E-007 0.0 -9.9433264E-001 -9.6564775E-001 0.0  7.3606582E-009  2.1872055E-009 0.0  1.3912593E-010  3.9837913E-011 0.0 -1.3748955E-009 -4.1096925E-010 0.0  3.1498039E-007  9.3610734E-008 0.0  2.8361239E-009  2.6124862E-010 0.0  1.0370670E-008  3.0912276E-009 0.0 -2.0978078E+001 -2.9855557E+000 0.0  1.1482069E-018 -1.8110659E-018 0.0 -3.2305176E-005 -1.4507957E-006 0.0 -2.0759800E-006 -9.3960185E-008 0.0 -2.1794487E-004 -2.6891618E-004 0.0 -1.6140801E-004 -1.3962469E-004 0.0 -4.1231545E-005 -3.0883038E-006 0.0 -4.4157218E-005 -3.8151764E-005 0.0 -1.3547958E-006 -6.2343826E-006 0.0  2.2511093E+000 -5.9275071E-001 0.0  3.9651537E-019  2.7154856E-017 0.0  4.0984998E-018  7.5631817E-018 0.0 -3.7313204E-019  1.7165381E-017 0.0  5.8396294E-015  6.3635676E-016 0.0  3.5429013E-015  4.9232926E-016 0.0 -8.9223237E-016  2.1380285E-018 0.0 -3.6286538E-005 -2.0963313E-006 0.0  4.0576136E-002 -6.3160687E-004 0.0  3.4359711E-010  1.0215875E-010 0.0  2.9345428E-011  8.6797489E-012 0.0 -2.9851815E-005 -1.4158945E-004 0.0  6.0246473E-007  4.8165780E-006 0.0  2.5705038E-005  1.1790814E-006 0.0 -4.4065794E-006 -2.1046836E-007 0.0 -1.5663340E-007 -6.2941876E-009 0.0 -2.6523215E-008 -1.4960960E-007 0.0 -7.2177961E-006 -3.3040345E-007 0.0 -8.2050352E-009  1.1596123E-007 0.0 -3.3891804E-007  5.4112138E-007 0.0  6.6226080E-007 -3.7122986E-007 0.0 -1.8967182E-005 -9.4730953E-007 0.0 -1.2905963E-005 -1.1290817E-006 0.0 -1.9279217E-008 -2.5716451E-007 0.0 -2.5355894E-005 -2.8470043E-006 0.0 -2.2047585E-004 -2.2966444E-005 0.0 -3.7705244E-001  3.4081449E-002 0.0  3.4654833E+001  2.5185130E+001 0.0  8.3521858E+000  6.6962695E+000 0.0 -5.1170102E+000 -2.0910234E+000 0.0  1.1821913E+002  6.5817749E+001 0.0 -4.2786119E+000  1.0812549E+000 0.0  1.0087596E-001 -3.7431062E-002 0.0 -2.1279353E-004  8.8749783E-005 0.0 -1.0710479E-005  2.0541947E-005 0.0  2.6066290E+002  6.6045300E+001 0.0  6.0231269E+000  1.4164411E+000 0.0 -3.5478905E+001  3.8920451E+001 0.0  1.0334856E+001 -4.1548535E+000 0.0  7.5401467E-001 -2.4847515E-001 0.0 -8.2736866E-001  7.6037170E-001 0.0  7.0790378E-002  6.1214360E-004 0.0  1.3379515E-002 -1.2509735E-002 0.0 -4.7942360E-002 -1.4815983E-002 0.0 -1.6138320E-003 -6.8118783E-003 0.0  4.0266357E+000  3.1986992E+001 0.0  1.0778187E+002  3.8128575E+001 0.0  1.2189184E+001  4.7830436E+000 0.0 -4.1436054E-008 -1.2148027E-008 0.0 -2.2530751E-001 -3.5509270E-001 0.0 -4.6925797E-002 -8.6902964E-002 0.0  1.4199759E-003  1.6150605E-004 0.0 -2.5520408E-002  2.0384762E-004 0.0 -1.2809981E-002 -2.7209946E-004 0.0 -1.3020426E-001 -2.8619206E-003 0.0 -9.5441646E-002 -5.0888514E-003 0.0 -4.2227133E-002 -1.9594338E-003 0.0 -4.8129015E-001 -2.6034579E-002 0.0 -2.3967151E-001 -6.5532753E-003 0.0 -6.9399792E-003 -2.3641561E-004 0.0 -2.3220662E-001 -4.8100611E-003 0.0 -5.5302816E-003 -1.1553338E-004 0.0 -7.9307323E-002 -1.5748547E-003 0.0 -4.1676877E-001 -2.2552485E-002 0.0 -1.3592812E-002 -7.2426316E-004 0.0 -2.1271658E-001 -5.3046481E-003 0.0 -1.0379784E-003 -4.9170493E-005 0.0 -3.3528855E-002 -4.7460478E-004 0.0 -3.4812489E-001 -1.3900416E-002 0.0 -2.1266747E-002 -1.1143318E-003 0.0 -3.5914811E-001 -1.0638609E-002 0.0 -2.7585787E-002 -1.2033860E-003 0.0 -3.1261901E-001 -1.0323805E-002 0.0 -2.5819729E-002 -1.1128076E-003 0.0 -6.9009013E-002 -1.2107705E-003 0.0 -6.1865354E-003 -2.4096321E-004 0.0 -3.0433715E-001 -1.4694067E-002 0.0 -2.1125011E-006 -1.1095782E-007 0.0 -1.0674878E-018  2.2488160E-017 0.0  2.3314290E-019  2.2915819E-017 0.0  6.9904835E-005  2.1744225E-004 0.0 -7.7724123E+000 -1.0789045E+001 0.0  2.1039645E+001 -4.3034770E+001 0.0  3.0579137E+001 -1.4044007E+001 0.0  3.7830331E+000  7.6754340E+000 0.0  3.5899680E+001 -3.6142488E+001 0.0 -5.0163503E+001  1.6564778E+001 0.0  1.3761489E+000 -1.6691696E+000 0.0 -9.8744980E+000  4.1095503E+000 0.0  5.8401828E+000 -3.7274123E+000 0.0 -8.9493340E-001 -3.1043917E+001 0.0  6.2275131E+000 -4.7648100E+000 0.0  1.0267592E+001 -4.7979931E+000 0.0 -4.2980377E+000  2.4735646E+000 0.0  1.9455052E-017  1.5076659E-017 0.0  2.8355348E-014  5.6967563E-015 0.0 -2.9543995E-014 -3.0409861E-015 0.0  1.1447220E-015 -1.2629431E-015 0.0 -2.7507102E-002 -2.7628128E-003 0.0 -5.4176982E-004 -2.2560684E-005 0.0  3.7239564E-010  1.1056768E-010 0.0  3.8053831E-010  1.2672581E-010 0.0 -9.6486212E-005 -5.2787378E-004 0.0  1.6541390E-005  7.4077999E-005 0.0 -6.0741526E-007  3.5029215E-007 0.0 -4.4901133E-007 -1.4205588E-007 0.0  3.8566323E+000 -3.4810132E-001 0.0 -2.2105273E-007 -6.7900164E-006 0.0 -3.5007717E-005 -6.2464378E-006 0.0 -2.0186514E-007  1.6684236E-005 0.0 -4.7794620E-004 -1.6382934E-004 0.0 -2.8177335E-005 -1.7542813E-005 0.0 -5.0992050E-005 -1.6276562E-004 0.0 -6.1754929E-004 -2.9396203E-003 0.0 -4.6250102E-004 -7.8450432E-004 0.0 -9.8319105E-005 -1.3945089E-005 0.0 -3.5019537E-007  5.6616272E-008 0.0 -1.3183600E-005 -4.3524874E-007 0.0 -7.9460512E-008 -7.6435772E-009 0.0 -6.0220676E-007 -2.7682721E-008 0.0 -7.5106472E-009 -4.2926999E-010 0.0  1.6051008E-009  3.8566191E-010 0.0  7.1190066E-010  2.3255906E-010 0.0  1.6323859E-010 -2.5092172E-010 0.0 -7.1619014E-007 -7.6848724E-008 0.0  1.9027989E-008  1.3370017E-008 0.0 -1.6991417E-006 -7.5378661E-007 0.0  4.2137905E-013  8.3447087E-012 0.0 -9.0301216E-012  3.6284322E-012 0.0 -3.7886495E-015  3.4350475E-015 0.0  3.0458511E-019  2.5023054E-017 0.0 -7.5158344E-010 -2.2687872E-010 0.0  2.4579245E-011  7.3966365E-012 0.0 -2.1560562E-016 -1.8558139E-015 0.0 -7.6192496E-004 -8.0541875E-005 0.0 -7.7691642E-015 -6.1560387E-016 0.0  4.2610324E-009  1.8757936E-010 0.0 -6.5931981E-002 -2.3732841E-001 0.0 -1.8887381E-005 -8.9760815E-005 0.0  1.9388798E-005  7.4569681E-005 0.0 -1.7750254E-003 -6.8039604E-003 0.0  2.1999355E-004  2.8364385E-004 0.0 -1.4764020E-007 -7.1324025E-008 0.0 -2.8034041E-001 -3.0343325E-001 0.0  2.0333933E-008  9.9115001E-009 0.0 -9.0112856E-006 -2.8336750E-004 0.0 -4.3603035E-006  3.0068947E-004 0.0  1.0403651E-007 -7.7228275E-006 0.0 -1.5668747E-007  1.5313741E-005 0.0 -5.0002753E-004 -7.1571438E-003 0.0  2.8970015E-012  1.2903416E-012 0.0  1.3386313E-011  4.1778832E-012 0.0 -4.9598054E-011 -6.1353682E-012 0.0  7.1497520E-012  2.1285991E-012 0.0  2.6742830E-006 -2.2795618E-004 0.0  1.0536297E-004  3.8785312E-004 0.0  5.0436882E-004  3.1053844E-004 0.0 -1.3877860E-004 -5.9876528E-006 0.0  2.4206375E-006  6.4933118E-006 0.0  2.2155893E-014  9.9293059E-015 0.0 -1.5981752E-007 -3.6135518E-009 0.0 -1.6070281E-005  9.1817566E-004 0.0  8.6807309E-006 -2.2531382E-004 0.0 -4.0738046E-007  8.7010933E-006 0.0 -5.7909003E-006  7.1585459E-005 0.0  2.9551087E-007 -3.4373489E-006 0.0  3.6719833E-006 -4.3084048E-005 0.0  4.8826171E-005 -6.4621765E-004 0.0  6.9185094E-005 -7.4400400E-004 0.0  3.6850034E-004 -7.4114794E-003 0.0 -1.4583171E-003 -7.9281086E-003 0.0 -3.3180372E-009 -3.6377319E-008 0.0 -8.9732409E-011 -1.5290286E-010 0.0 -2.4030932E+000  1.1517234E-001 0.0  7.8789224E-015  7.9777500E-016 0.0  1.0505012E-014  4.1966559E-015 0.0 -7.0363517E+000  7.8823687E+000 0.0 -5.2556600E-003 -8.2883359E-003 0.0  2.3048915E-006  6.8522285E-007 0.0 -1.4423838E-007 -5.1414442E-008 0.0 -2.2446759E-003 -4.8833679E-003 0.0  2.7608918E-006  8.7938203E-007 0.0  8.4527471E-006  2.8860060E-006 0.0  8.0291207E-012  2.0960914E-012 0.0  3.6779532E-013 -3.5041955E-014 0.0  1.3341392E-012  4.0407194E-013 0.0  2.7095856E-014  7.7849351E-015 0.0 -1.2375373E-013 -1.8790227E-013 0.0  6.0502630E-015  6.0988603E-015 0.0  3.0029009E-014 -2.2173338E-015 0.0 -2.6672419E-017  2.0990830E-016 0.0  2.1426246E-014 -2.2770832E-015 0.0 -6.5350581E-016  6.3462026E-017 0.0  3.2026978E-016 -2.8219685E-017 0.0 -1.9733589E-017  2.7769193E-017 0.0  3.2378318E-016 -1.6490188E-017 0.0 -1.0442939E-017 -2.1381667E-017 0.0  1.8563453E-014 -2.3000590E-015 0.0  1.3155912E-013 -1.6245032E-013 0.0  8.4310056E-019  2.3303843E-017 0.0 -1.6058382E-019  2.5755258E-017 0.0  1.4172211E-016 -3.1883838E-017 0.0  9.4080886E-011  2.7943147E-011 0.0  2.8112508E-012  8.3488237E-013 0.0  4.3280443E-008  1.4215306E-008 0.0  1.0310391E-017  2.2431166E-017 0.0 -2.9951595E-016  5.6349055E-018 0.0  3.2263798E-010  2.0996728E-010 0.0  1.6977879E-011  7.2492854E-012 0.0  1.5082420E-018  3.6391308E-019 0.0 -8.3596510E-019  4.8056222E-018 0.0  2.1712127E-001  2.1163507E-002 0.0  1.3649366E+000  2.0481015E-001 0.0  5.8325699E-006 -4.3160089E-004 0.0 -6.8107179E-007  1.5957937E-005 0.0 -1.4342624E-002 -5.2216504E-004 0.0 -1.8423486E-004 -1.0649726E-005 0.0 -2.6786400E-004  3.9697574E-003 0.0 -9.0717830E-003 -2.1060619E-002 0.0 -3.2785507E-004 -7.2781922E-004 0.0  1.3288316E-003  2.1476344E-003 0.0  1.8709895E-004  3.9671940E-004 0.0  3.9495555E-002  1.9616123E-002 0.0 -6.7095703E-007 -3.3875549E-007 0.0  1.5434569E+001 -1.4221400E+001 0.0  4.9177166E+000 -5.2512063E+000 0.0  9.9538307E+000 -1.0140584E+001 0.0 -1.8438193E+001  1.2631151E+001 0.0 -6.2007847E+000  5.7039387E+000 0.0  5.0608790E+000 -1.3739072E+001 0.0  7.7381820E+000 -2.9949039E+000 0.0 -2.0642123E+000 -2.1006942E+001 0.0  3.1327365E+000  5.0817535E+000 0.0 -1.1452486E+001  9.7171206E+000 0.0  2.2898289E-005 -1.0306715E-003 0.0  6.5496861E-006 -1.0363824E-004 0.0  6.2332833E-005 -8.3274320E-006 0.0 -7.1862493E-002 -1.2634093E-001 0.0 -1.3034363E-003 -2.7362105E-003 0.0  8.5044715E-005 -5.1377626E-003 0.0 -2.9901835E-004 -1.5810107E-005 0.0 -1.0595300E-003 -5.6212031E-005 0.0 -3.9092421E-019 -4.5999933E-017 0.0 -1.5837017E-002 -3.2068214E-002 0.0  3.2379762E-012  5.9771307E-012 0.0 -2.1930569E-013  5.6618049E-014 0.0 -2.0672668E-002 -1.2159970E-002 0.0  1.7644355E-013  1.7332241E-014 0.0  3.2941698E-013  2.7467707E-014 0.0 -2.6041936E-012 -6.1111061E-013 0.0  2.0994348E-002  2.3533016E-004 0.0 -1.5243554E-005 -1.2805263E-003 0.0  4.0495870E+000 -2.2407610E+000 0.0 -1.9326288E-006  2.0594336E-005 0.0 -1.2782476E-006  1.2626977E-005 0.0 -1.8758683E-005  1.4676757E-004 0.0  4.8101585E-005 -4.8694059E-004 0.0 -1.0984323E-006  1.1133017E-005 0.0  9.3140334E-006 -9.1217043E-005 0.0 -1.2017431E-004 -8.5577911E-006 0.0 -1.8201824E-002 -9.0670101E-002 0.0 -2.5101948E-019  1.8405086E-017 0.0 -4.0073414E-010 -1.0939168E-010 0.0 -3.2853585E-012 -1.1067277E-011 0.0 -1.0610976E-001 -4.6458130E-002 0.0 -1.2379185E-001 -7.1432437E-002 0.0  9.3403725E-008 -2.2228466E-006 0.0 -4.0784216E-002 -1.4074428E-001 0.0 -1.5359276E-006 -4.1646542E-007 0.0 -2.0390886E-004 -1.6170032E-005 0.0 -1.0190686E-005 -9.4477828E-007 0.0  1.6090101E+000 -3.1161135E+000 0.0  1.9551289E+001 -5.6567259E+001 0.0  2.6689478E-004 -2.7468379E-003 0.0  2.3442046E-005 -8.7964951E-006 0.0 -6.0177341E-002 -2.4971176E-002 0.0 -2.3223340E-014 -3.5757404E-014 0.0  3.6474698E-004 -1.2548636E-002 0.0  1.2163976E-002  2.3145070E-001 0.0 -2.7039489E+000 -1.1847994E+000 0.0 -4.8095765E-002 -1.4278434E-002 0.0 -1.8678407E-002 -1.1707259E-001 0.0 -2.5047443E-003 -1.2747787E-002 0.0 -3.4466080E-006 -4.6020953E-006 0.0  9.0916924E-008  1.4321356E-006 0.0 -1.2619228E-001 -2.1810699E-001 0.0 -1.5223794E+001  4.6065692E+000 0.0  6.6871886E-008  7.8504886E-010 0.0 -5.4227710E-001  2.3201944E-001 0.0 -1.9920307E-002  1.0713341E-003 0.0  1.0196609E+001  4.8092108E+000 0.0 -1.2115928E-001 -4.8048347E-002 0.0  3.7623206E+000  4.6207446E+000 0.0 -1.1893123E-001 -8.7955134E-002 0.0 -2.8553383E-002 -1.4950377E-003 0.0  7.4191225E-004  2.3177588E-004 0.0 -5.0743106E-013 -1.5013157E-013 0.0  8.3347128E-013  2.6642237E-013 0.0 -8.0334853E-013 -2.8972089E-015 0.0 -1.1544440E-015 -7.8681640E-017 0.0  3.3391478E-017 -4.0977468E-020 0.0 -1.0287547E-003 -4.3617260E-003 0.0 -2.4016353E-002 -7.7245454E-002 0.0 -2.1482831E-005 -1.2327343E-005 0.0 -2.1612371E-008  3.5936504E-007 0.0  4.6463799E-009 -5.3098032E-008 0.0  8.3996642E-013  2.4882202E-013 0.0  3.1783955E-002  4.7613589E-002 0.0 -2.6837066E-008 -7.5633886E-009 0.0  5.5648371E-005 -1.5180696E-002 0.0  4.3991433E-013  1.3118810E-013 0.0 -3.2566954E-004  3.9896239E-003 0.0 -3.2970700E-016 -7.6841734E-017 0.0  1.1049527E-017  1.5510841E-017 0.0  1.3513215E-017  3.5518427E-017 0.0 -3.0555759E-003 -8.4086463E-003 0.0  6.9474667E-011  2.3953068E-011 0.0 -6.4293216E-004 -1.9876377E-003 0.0 -2.4192972E-003 -7.1107889E-003 0.0 -7.1051441E-005 -1.7837575E-004 0.0 -3.6788527E-003 -8.5528679E-003 0.0 -7.0231614E-004 -1.3662132E-003 0.0  1.7680779E+000 -1.6851107E-001 0.0 -2.1853084E-002 -4.4978306E-004 0.0  9.7198298E-004  2.2582901E-005 0.0 -8.5898564E-003 -1.5917125E-004 0.0 -3.3510368E-003 -5.2315132E-005 0.0 -3.3864409E-002 -1.1967351E-003 0.0 -6.0588446E-004 -4.2799251E-005 0.0 -5.8222016E-003 -3.0390960E-004 0.0  6.1425161E-004  4.4273452E-005 0.0 -2.0090725E-004 -7.2393236E-007 0.0  4.4171918E-019 -3.0893167E-017 0.0  1.0121073E-018  3.4859236E-017 0.0  1.2434986E-018  5.2281154E-019 0.0 -9.3960982E-003 -4.5664978E-002 0.0 -1.0400087E-001 -4.8022058E-001 0.0  2.3498784E-014  7.2040962E-015 0.0 -1.8681746E+000  1.2794955E+000 0.0 -2.4458980E-001  1.4787372E-001 0.0  5.3507148E-001  8.3222598E-002 0.0  2.2148438E-002  7.9446454E-003 0.0  7.0902935E-003 -1.4781513E-001 0.0  4.1709956E-003 -6.2459818E-002 0.0 -4.2145223E-004 -1.7285842E-003 0.0 -8.2248326E-005  5.2100766E-003 0.0 -6.9787451E-004  5.7005860E-002 0.0 -1.9960015E-004 -2.6516598E-003 0.0 -9.5440940E-009 -7.2532269E-008 0.0 -2.9277669E-005  2.1153018E-005 0.0  1.4183828E-013  4.2186740E-014 0.0 -7.5809809E-014 -1.5804561E-013 0.0  1.1560080E-016  1.0813395E-016 0.0  6.2718026E-006  1.4757335E-005 0.0 -5.3710423E-006 -2.2643101E-007 0.0 -2.5766210E-004 -5.4224712E-004 0.0  3.1909891E-006 -4.2161011E-005 0.0  7.7271420E-015  2.9175230E-013 0.0 -5.2452944E-013  2.4062518E-013 0.0 -1.8409163E-017 -5.1080839E-017 0.0 -1.8443083E-009 -3.2200896E-009 0.0 -1.5394336E-001  1.4360089E-002 0.0  2.5790647E-005  6.2694634E-007 0.0  3.4307112E-005  1.4879874E-005 0.0  3.9184266E-006 -1.1725379E-006 0.0 -1.1966768E-007 -1.2761533E-007 0.0  1.1355273E-007 -1.1590172E-008 0.0 -1.3642991E-006 -7.5224431E-006 0.0  6.8670824E-006 -6.7821214E-005 0.0 -7.5945021E-005 -2.2813616E-005 0.0 -5.2642516E-004 -1.5062365E-004 0.0 -7.8863654E-006  2.1640257E-005 0.0 -2.6770993E-004 -2.4026927E-004 0.0 -3.5688574E-006 -3.7712242E-004 0.0 -2.0030962E-003 -5.9571074E-004 0.0  1.0079958E-003  4.5786839E-005 0.0 -1.8107777E-004 -1.0861223E-003 0.0  2.5437298E-003  1.2683526E-003 0.0 -5.1525664E-004 -2.9927374E-003 0.0  1.1395627E-001  2.7174989E-001 0.0  1.0577410E-002  1.9496484E-002 0.0  3.8290204E-004  5.8681288E-004 0.0  8.0706457E-004  1.5122138E-003 0.0  4.9735202E-005  8.3842752E-005 0.0  5.9045958E-005 -1.0205514E-004 0.0 -5.4668916E-002 -1.7985007E-001 0.0 -3.7631435E-005 -2.1854220E-005 0.0 -1.7340021E-002 -1.6816587E-002 0.0 -2.6598114E-004 -4.2739200E-006 0.0 -9.4456615E-006  6.2189663E-008 0.0 -1.0744827E-002 -6.5000883E-003 0.0 -1.8693346E-001 -6.2343997E-001 0.0 -1.0180685E-001 -2.6502384E-001 0.0 -3.6281487E-002 -4.8776319E-002 0.0  1.3006751E-007  6.7957859E-007 0.0  5.7459554E-014  1.9201276E-014 0.0 -7.4217177E-005  8.4527641E-004 0.0  6.4521171E-004 -1.0434672E-002 0.0  6.2997629E-004 -7.0425058E-003 0.0  9.6998279E-004 -9.8570250E-003 0.0  2.9957981E-003 -2.9995809E-002 0.0 -6.8609665E-019 -1.6786567E-017 0.0 -5.2144061E-002 -2.9626501E-002 0.0  6.1900902E-005  1.8353470E-005 0.0 -2.0966902E-010 -5.0332336E-011 0.0 -1.6337042E-011 -3.8575145E-012 0.0 -1.3085394E-012 -2.4914814E-013 0.0 -3.2435320E-004 -6.9487091E-006 0.0 -2.1527048E-005 -4.5049264E-008 0.0 -1.8099561E-005 -1.0279340E-006 0.0 -1.2740231E-005 -4.9338726E-006 0.0  2.9409706E-004  6.8728005E-006 0.0  9.2930599E+000 -9.1171926E-001 0.0 -5.5892942E-004 -2.5301910E-005 0.0 -8.2529262E-004 -3.8680981E-005 0.0 -2.0852683E-009 -5.8326905E-010 0.0  6.8991229E-013  2.0596546E-013 0.0 -8.8770014E-003 -2.5322654E-003 0.0 -5.3675368E-004 -3.1469142E-004 0.0 -2.1390466E-004 -2.1044695E-002 0.0 -9.6155917E-003 -4.7670384E-003 0.0 -2.7998853E-001 -2.5609173E-002 0.0 -7.5899360E-003 -5.4397113E-004 0.0 -2.2255683E-002 -2.2578762E-003 0.0  7.2452299E+000 -3.0173940E+000 0.0 -9.1948215E-015 -1.4630996E-016 0.0 -2.1514053E-016  1.9102140E-015 0.0  1.3449644E-005 -1.7949636E-004 0.0 -1.5311220E-002 -3.0188874E-002 0.0 -7.4435523E-011 -2.9379224E-010 0.0 -5.4867300E-011 -7.3530769E-011 0.0 -9.8082472E-005 -1.0407689E-005 0.0 -1.0876942E-004 -3.8130806E-006 0.0 -7.4951935E-005 -4.6132910E-006 0.0 -1.8340489E-001 -4.9912280E-002 0.0  1.0315449E-003 -2.3114913E-002 0.0  2.3123866E-003 -2.9818141E-002 0.0 -1.2161363E-001 -2.6161651E-001 0.0 -9.8141892E-003 -2.0149288E-002 0.0  8.3248646E-003 -9.6037161E-002 0.0  1.4786099E-018 -1.8449041E-017 0.0 -8.2175598E-005 -5.8807392E-006 0.0 -1.3874620E-004 -2.7203308E-004 0.0 -1.2175426E-005 -8.9225195E-007 0.0  1.0812432E-013  3.2251207E-014 0.0  5.8361189E-015  2.1236543E-015 0.0  1.8185736E-015  5.3821113E-016 0.0 -4.1452844E-017  5.4027579E-017 0.0 -2.2367569E-004 -2.3481917E-005 0.0 -2.5874481E-004 -1.3359486E-005 0.0 -9.3432721E-003 -4.9622490E-004 0.0 -2.5180023E-004 -1.3134170E-005 0.0 -2.4058497E-005 -1.2170550E-006 0.0  5.9901684E-009  3.4669728E-009 0.0 -1.5263073E-007  1.5408482E-006 0.0  7.3068643E-018 -5.5095438E-017 0.0 -5.6969312E-018  1.4640990E-017 0.0  7.9900287E-019  1.7602020E-017 0.0  1.1986958E-017  8.9409543E-018 0.0 -1.9234929E-011 -2.2656800E-011 0.0  1.0004883E-016  3.5743145E-017 0.0  2.1031854E-015  3.7364095E-016 0.0  5.0690961E-015 -2.1700223E-016 0.0 -3.2087454E-019  2.9156966E-018 0.0  3.2830892E-019  2.0358958E-017 0.0 -3.9001287E-010 -4.0560199E-010 0.0 -2.5788420E-012 -4.2570644E-013 0.0  1.8757539E-013  2.3324868E-013 0.0 -6.8531184E-017  7.2820439E-017 0.0 -1.1341105E-003 -1.2309311E-004 0.0 -4.8355076E-004 -1.9346278E-005 0.0  2.1000634E-012  2.8569154E-012 0.0 -4.0361002E-005 -1.1952557E-005 0.0 -1.4122080E-008 -4.4350412E-009 0.0 -1.1470784E-007 -7.4229073E-009 0.0  3.2013485E-011 -1.2998913E-013 0.0  2.1222611E-012 -5.8402875E-014 0.0  1.1097364E-013 -7.3401491E-015 0.0  3.5338761E-013 -3.7498891E-014 0.0  8.4854440E-011  2.5218593E-011 0.0  6.1015796E-012  1.8279974E-012 0.0  1.0121043E-012  3.5130686E-013 0.0 -5.0899954E-014 -1.3294871E-014 0.0 -1.2302157E-008 -3.7076336E-009 0.0  1.2471476E-009  3.7036343E-010 0.0 -1.2973143E-009  2.3273847E-010 0.0  3.5712282E-006  1.0611721E-006 0.0 -3.4668403E-009 -1.1317742E-009 0.0  7.9790808E-010  1.1757232E-010 0.0 -2.2588300E-008 -7.3699433E-009 0.0  9.3620010E-012  2.7918775E-012 0.0  1.3494231E-009  6.0377682E-010 0.0  3.2617283E-013  9.7059980E-014 0.0 -1.7307676E-012 -3.0297369E-012 0.0  1.2781988E-016  3.9117886E-017 0.0 -2.7570138E-015 -3.3378682E-016 0.0  5.2078397E-014  3.7290461E-015 0.0  4.3778527E-011  3.6649988E-012 0.0  4.6048389E-011  3.9491781E-012 0.0  1.3147093E-009  1.7519146E-010 0.0  6.7273854E-011  7.8656746E-012 0.0  1.3346655E-013  4.9084137E-014 0.0  1.4127359E-012  2.1028947E-013 0.0  5.7995996E-011  3.9745636E-012 0.0  7.1873347E-012  6.0901992E-013 0.0  3.2191480E-020 -5.8039483E-017 0.0  6.7090000E-019 -4.3159637E-017 0.0 -9.4604712E-019  2.3730046E-017 0.0 -1.1365019E-018  1.0836485E-017 0.0  1.6180270E-018 -1.0599450E-017 0.0  3.7717927E-013  7.8586604E-014 0.0  8.0988338E-014  8.6303120E-015 0.0  1.2658191E-018 -3.2564343E-018 0.0  4.9262746E-013  2.3963059E-013 0.0 -2.0130616E-019  1.2989797E-017 0.0  2.8293914E-008  2.4960398E-009 0.0  8.1993560E-018  2.0573338E-017 0.0  4.4661907E-017  8.0881826E-018 0.0 -1.0570708E-018  1.1964747E-018 0.0  4.5848109E-016  3.3025275E-017 0.0 -1.0897498E-018 -9.9503288E-018 0.0 -2.5785736E-017  8.5540140E-018 0.0  5.6009016E-018 -4.2444089E-017 0.0  5.6682680E-019  1.5550502E-017 0.0 -1.3226939E-018  1.3399506E-017 0.0  3.1629873E-014  6.4096840E-015 0.0  2.1697049E-013 -4.5706567E-014 0.0  6.9802335E-002 -1.0734040E+000 0.0  5.2334787E-015 -6.8341421E-016 0.0  3.7786554E-015  3.2084102E-015 0.0  5.5883650E-014 -7.6913369E-015 0.0  1.1883352E-004 -8.6550355E-003 0.0  7.3678615E-002 -7.5486650E-001 0.0 -8.7530466E-002 -2.3475305E+000 0.0 -2.8312320E-001 -4.5552744E+000 0.0 -3.0639608E-002 -4.3414834E-001 0.0  3.4503738E-002 -3.6149219E-001 0.0 -8.1599270E-001 -6.5066255E+000 0.0 -1.9157652E+000 -9.6100373E+000 0.0  1.1182282E-003 -7.9972408E-002 0.0 -3.6445846E+000 -1.2873311E+001 0.0 -1.5673926E-003 -3.1028312E-002 0.0 -1.0788390E+001 -1.9359281E+001 0.0 -6.2962085E+000 -1.6247194E+001 0.0 -1.1159643E-002 -3.9108964E-002 0.0 -1.1594905E-002 -9.4806640E-002 0.0 -1.6449198E+001 -1.9314805E+001 0.0  1.2065662E-018 -2.2931435E-018 0.0  6.4324712E-016  7.8469327E-016 0.0 -8.5815472E-002 -7.7725319E-002 0.0 -3.4558944E-001 -7.2385847E-001 0.0 -5.0868984E-019  2.6290656E-018 0.0 -3.0278341E-004  1.0330264E-003 0.0 -1.8753930E-004  2.8361437E-004 0.0  7.8348833E+000  2.8434349E+000 0.0  1.6809079E+000  4.4984985E-001 0.0  6.9578967E-002  2.7634203E-002 0.0  8.2219921E+000  4.7479434E+000 0.0 -4.4266391E+000  9.1185210E+000 0.0 -1.5307503E-001  2.0356669E+000 0.0  2.2721689E+001  5.4246169E+000 0.0  1.9660658E-006 -2.5052972E-005 0.0 -1.5971714E-018  1.7804482E-017 0.0 -5.9324715E-003 -3.1342427E-004 0.0 -2.5048809E-002 -1.3432105E-003 0.0 -3.0354929E-003 -2.8794135E-003 0.0 -1.6250485E-004 -1.3722839E-005 0.0 -6.4748645E-010 -9.2268590E-012 0.0 -9.2940645E-005 -4.3253031E-006 0.0 -2.8973619E-002 -8.5791020E-003 0.0 -2.8202934E-014 -2.8687084E-015 0.0 -5.8281910E-001 -1.1335080E+000 0.0 -5.7687107E-001 -7.7492661E-001 0.0 -2.3421594E-007 -4.3886731E-009 0.0  4.6683167E-019 -1.6822231E-017 0.0 -2.2540783E-018  2.9046340E-017 0.0  1.6535632E-002 -2.0552758E+000 0.0 -9.5611938E-003 -1.7804198E-002 0.0  1.3306086E-003  2.3002672E-004 0.0 -5.5697693E-004  9.4886499E-005 0.0 -2.5180900E-002 -1.2388834E-003 0.0 -2.3969056E-001 -6.0774100E-001 0.0 -8.0615365E-001 -8.9763536E-001 0.0 -1.6634616E-018 -8.7718126E-017 0.0 -2.5501069E-002 -7.4530292E-002 0.0  3.5446039E-019 -2.0735275E-017 0.0 -1.9298895E-007 -4.8738189E-007 0.0 -4.9400289E-008 -4.3064856E-008 0.0  8.0044014E-007  2.6559046E-007 0.0  1.5931599E-019 -4.0803475E-017 0.0  7.9375369E-015 -5.0634784E-016 0.0 -3.4553374E-001 -1.1103232E+000 0.0  5.2762970E-010 -1.1852038E-011 0.0 -7.4314115E-004 -1.0753487E-003 0.0  2.1841245E-008  2.5521715E-009 0.0 -6.0629335E-003 -1.2581020E-003 0.0  9.4208401E-001  5.0336509E-001 0.0  6.2842667E-005  6.7950543E-005 0.0  3.8877137E-007 -4.4883266E-006 0.0 -5.9508774E+000 -6.1744324E+000 0.0 -6.3274999E-002 -4.8910907E-002 0.0 -5.7908466E-003 -1.6778386E-003 0.0  1.7042333E-007 -4.7299871E-007 0.0 -4.6409072E-019 -2.8178578E-017 0.0 -5.3876000E-001 -5.1713354E-002 0.0  4.4586093E-004  1.3239459E-004 0.0 -3.9753966E-012 -8.9562309E-013 0.0 -4.2290408E-008  1.4821827E-006 0.0 -6.1577583E-004 -7.9750333E-006 0.0 -4.5087034E-003 -1.7752488E-004 0.0 -2.1607531E-002 -4.2615737E-003 0.0  1.3020642E-017 -3.4835691E-017 0.0 -2.0361111E-007 -1.5365127E-008 0.0  1.2914666E-005 -6.9725882E-006 0.0 -2.3912982E-003 -6.6237994E-005 0.0 -8.2619017E-003 -2.6435520E-004 0.0 -1.1636209E-002 -3.6559121E-004 0.0 -7.9653295E-004 -3.0183094E-005 0.0 -5.5852637E-003 -1.1250157E-004 0.0 -2.6627877E-002 -1.3716889E-003 0.0 -1.2534582E-002 -4.4046964E-004 0.0 -1.1001660E-001 -5.8141492E-003 0.0 -2.7820827E-002 -6.8588322E-004 0.0 -2.6504386E-003 -9.1648043E-005 0.0 -1.8344928E-002 -4.4180570E-004 0.0 -6.0398536E-003 -8.8729352E-005 0.0 -3.3237343E-004 -8.8100498E-006 0.0  2.6744859E+000 -1.9459647E+001 0.0  7.1630112E+000 -8.1078116E+000 0.0  1.8190029E+001 -3.3548399E+001 0.0  2.2287507E-010  3.2843093E-011 0.0 -3.9053159E-005 -1.0446133E-004 0.0 -4.2394467E-001  3.7745640E-002 0.0 -5.0259162E-004 -5.1069134E-005 0.0 -7.0340002E-001 -2.5063089E+000 0.0  1.5092644E-007 -2.5482208E-006 0.0 -2.9843410E-003 -2.5211435E-004 0.0 -5.6764904E-010 -9.4164458E-010 0.0 -3.3078871E-009 -3.5133864E-008 0.0 -8.3246609E-003 -2.8957799E-001 0.0 -2.6758458E-004 -5.3062703E-004 0.0  1.4118861E-018  4.3399126E-017 0.0 -1.4047380E-004 -7.8615616E-006 0.0 -1.2886333E-007 -8.4207044E-007 0.0 -1.7462409E-007  1.8329404E-006 0.0  1.4123686E-003 -1.6259820E-003 0.0  2.9185442E-003 -3.1617725E-002 0.0 -2.3551561E-001 -1.2210363E+000 0.0 -1.6048708E-004 -6.2843374E-004 0.0  2.0517050E-005 -2.0340133E-005 0.0  4.5847699E-001 -2.0029233E-002 0.0  1.1416807E-012  9.8846817E-014 0.0 -1.1249608E-002 -6.2833412E-003 0.0  2.0603042E+002 -1.8402615E+001 0.0 -8.8953915E+001  6.9013598E+000 0.0 -2.2361306E+000 -8.8518892E-001 0.0 -1.3587161E+001 -1.2601172E+001 0.0 -1.2686585E+002 -1.4912631E+002 0.0 -1.1579113E-004 -4.2453442E-003 0.0 -5.5636817E-006 -2.6619388E-007 0.0 -7.0474802E-005 -3.3775952E-006 0.0 -2.7177130E+000  1.6874845E-001 0.0 -8.8556067E-003 -4.3254938E-004 0.0 -5.3629219E-007 -1.3019822E-007 0.0 -3.0958337E+000 -1.3684631E+000 0.0 -4.1301053E-002 -1.4970928E-003 0.0  2.0964711E-001 -3.8848583E+000 0.0  3.8233971E-013  1.1358129E-013 0.0  3.1377933E-013  4.5768302E-014 0.0  5.8129525E-010  5.9000066E-011 0.0  2.5371314E-012  6.5558828E-013 0.0 -8.0113593E-002 -1.6038324E-001 0.0  2.2519981E-002 -4.5865480E-001 0.0 -5.8192414E-009 -1.4795018E-009 0.0  2.5949391E-004 -3.3290729E-003 0.0  1.4823058E-011  4.6731111E-012 0.0 -3.0626706E-002 -9.3372077E-003 0.0  5.0839734E-002 -6.5182502E-001 0.0 -1.5504060E-001 -9.4811627E-003 0.0  2.5223529E-018  2.5648734E-017 0.0 -4.2606292E-003 -4.4064389E-002 0.0 -8.0046935E-004 -3.6221301E-005 0.0  2.2671160E-005  3.1606950E-005 0.0 -1.0577265E-001 -5.6389374E-003 0.0 -4.4083958E-003 -4.6002126E-004 0.0 -1.7333412E-007 -3.9997662E-008 0.0 -1.6252334E-007  1.1848005E-006 0.0 -1.3940328E-004 -1.6045500E-004 0.0  5.3600702E-006 -5.1816724E-006 0.0 -1.3692583E+000 -3.5405665E+000 0.0  5.8138337E-008 -2.5084312E-008 0.0 -1.5643659E+001 -3.5465494E+001 0.0 -5.1501580E-003 -5.7244956E-005 0.0 -1.5469939E-002 -3.8349632E-004 0.0  1.4071747E-007  3.9365796E-007 0.0 -7.7519044E-002 -6.2623729E-001 0.0 -1.5138584E-001 -7.9164737E-003 0.0  3.9877821E-003 -4.4244341E-002 0.0 -1.2596564E-003 -2.4458048E-003 0.0 -8.5632052E-003 -1.2765374E-004 0.0  5.1262722E-015  3.8559284E-014 0.0 -8.0581448E-003 -2.3861792E-003 0.0 -3.1828120E-007 -1.7739709E-008 0.0 -3.0496653E-006 -2.1825881E-007 0.0 -6.2639652E+001 -2.7667096E+001 0.0  1.8267919E-001 -2.0363931E+000 0.0  1.8172692E-001  4.5971236E-001 0.0  3.3897553E+002  2.6378538E+002 0.0  3.4387909E-002  1.6324220E-002 0.0  2.4531809E+002 -1.5195534E+002 0.0  1.4322241E+002 -1.8129209E+002 0.0 -5.6854789E-005  2.2230822E-005 0.0 -1.4906781E-005  2.2360032E-006 0.0 -7.2930691E-003  4.0956848E-003 0.0  1.2650688E-002 -5.4473359E-003 0.0 -2.3419345E+001  9.2261740E+000 0.0 -5.1242269E+001  3.7162457E+001 0.0  2.8917676E-001 -3.6318788E+000 0.0 -5.0214466E+000  4.4243547E-001 0.0 -1.9159149E+001 -1.6883234E+000 0.0  1.8536259E+001 -1.2077627E+001 0.0  1.4946034E+001 -1.2925445E+001 0.0  8.5497772E+000 -3.9797987E+000 0.0 -1.6916738E+000  1.7695632E+000 0.0  2.5554569E+001 -1.0346372E+001 0.0  3.3195047E+002 -1.4291998E+002 0.0  2.8753062E+000 -4.0135404E-001 0.0 -4.5223041E+001  2.1421346E+001 0.0  4.2389137E+002  8.1044374E+001 0.0  6.2034849E+002 -2.0278404E+002 0.0  1.2637799E+002 -4.3026932E+002 0.0  6.2650620E+002  2.4360614E+002 0.0  5.9129112E+002  2.8966537E+002 0.0  2.8942811E+002 -2.3443789E+002 0.0  2.2643076E+002  2.5139966E+002 0.0  2.8220689E+002 -1.4728643E+002 0.0  2.9487588E+001  9.6441371E+001 0.0  2.4257775E+002 -4.3296340E+002 0.0 -1.1156420E+002  2.6267654E+002 0.0 -1.3690923E+000 -1.6719847E+001 0.0 -3.4211998E+000  2.4589736E+000 0.0  6.8966315E-001 -6.2686155E-002 0.0  1.6551699E+001 -6.3951529E+000 0.0  6.1646131E-012 -3.2773720E-013 0.0  5.9554757E-003 -6.2071020E-002 0.0 -3.1235170E-008 -1.1482656E-006 0.0  8.9328956E-008  1.4590721E-008 0.0 -9.1333172E-007  2.5201102E-007 0.0 -3.3831291E-004 -1.5463612E-005 0.0 -5.8801517E-005 -4.8063010E-006 0.0 -1.5971199E+001 -1.8064432E+002 0.0  1.7683223E+002 -1.1837658E+002 0.0  1.8848423E+002 -1.7315404E+002 0.0  6.9481988E+000 -4.1439113E+000 0.0 -1.2204646E+000 -6.8329258E-001 0.0 -1.9101669E+000 -2.0220322E+000 0.0 -2.0603810E+000 -3.2812209E+000 0.0 -7.7641339E-001 -2.3022978E-001 0.0 -2.2569335E-006 -1.5096515E-007 0.0 -7.8614185E-005 -4.0846017E-006 0.0  1.5943161E-014  5.5224362E-015 0.0  6.2232044E-004  1.0946371E-003 0.0 -9.3668218E-003 -5.2147844E-004 0.0 -8.6386398E-002 -4.9583764E-003 0.0  2.2582959E-009 -6.7469703E-009 0.0 -1.3936756E-002 -1.2024087E-002 0.0 -2.7740562E-002 -4.4171326E-002 0.0 -1.5133982E-002 -4.8319141E-002 0.0  2.1043489E-004  6.3205283E-005 0.0 -1.2255961E+000 -4.6908123E-002 0.0 -1.7134120E-001 -2.0372819E-003 0.0 -3.7190978E-001 -6.8940793E-003 0.0 -4.0549906E-002 -5.1753478E-004 0.0 -1.5110333E+000 -6.9533482E-002 0.0 -6.9423314E-001 -1.7515898E-002 0.0 -1.4057111E+000 -7.6679380E-002 0.0 -7.4895115E-002 -5.8171434E-004 0.0 -2.4530663E-001 -5.3798876E-003 0.0 -2.2192676E-001 -2.7388497E-002 0.0 -5.5555502E-001 -1.2682627E-002 0.0 -5.8012044E-001 -1.1502029E-002 0.0 -1.3257319E+000 -4.8187406E-002 0.0 -3.5510723E-001 -5.7009161E-003 0.0 -1.3890661E+000 -6.3741820E-002 0.0 -2.1129810E-001 -2.8811440E-003 0.0 -1.1429648E+000 -4.5554095E-002 0.0 -7.4674103E-002 -1.1203985E-003 0.0 -2.6465158E-001 -6.8768033E-003 0.0 -8.2993252E-001 -3.1525971E-002 0.0 -1.4442450E+000 -7.7746550E-002 0.0 -3.9084494E-001 -1.0448737E-002 0.0 -1.2553004E+000 -6.9819895E-002 0.0 -1.4400471E+000 -7.9202343E-002 0.0 -8.0058428E-001 -4.4986555E-002 0.0 -4.7282765E-001 -8.8637562E-003 0.0 -2.0248172E-001  4.3551974E-003 0.0 -1.7587041E+000 -1.1774669E-001 0.0 -1.2724369E+000 -6.7301308E-002 0.0 -1.7448337E+000 -3.0746137E+000 0.0  1.0523418E-013  4.1462664E-014 0.0  4.6679453E-003  8.9137996E-003 0.0 -1.6578331E-005 -7.1105771E-007 0.0  1.2726228E-003 -1.3543482E-002 0.0  6.8359769E-007  3.5258327E-006 0.0 -1.8098668E-018 -5.5770044E-017 0.0  2.8626421E-015  6.1084300E-016 0.0 -7.9506089E-012  4.0898836E-013 0.0 -4.5109761E-003 -2.8811642E-001 0.0 -3.6156549E-003 -7.6712471E-003 0.0 -6.1517120E-015 -7.0970868E-016 0.0  1.0617581E-015  7.8978186E-016 0.0 -1.4051138E-001 -1.4543193E-001 0.0 -4.5152889E-007 -1.1008647E-006 0.0 -1.2088747E-004 -2.7855645E-004 0.0 -6.8368593E+000  7.8998226E+000 0.0 -1.0543173E-002 -2.0481298E-002 0.0 -2.5662612E-003 -7.3386427E-003 0.0  6.7116388E+001 -6.0456004E+000 0.0  2.6283286E-013  9.9192414E-014 0.0 -1.2691274E-014 -2.6973782E-014 0.0 -2.5302891E-003 -9.5851641E-005 0.0 -1.1404741E-004 -3.7169514E-004 0.0 -1.2699123E-010 -2.6906581E-011 0.0 -7.0312330E-002 -1.7108978E-001 0.0 -3.6575121E-009  4.4375344E-008 0.0  3.1607159E-018 -7.8351419E-018 0.0  3.6144694E-007  2.8057776E-008 0.0 -9.2354602E-005 -4.9818427E-005 0.0 -3.7188270E-012 -6.7390210E-012 0.0  1.2265226E-012  3.6723587E-013 0.0 -3.2049278E-001 -3.7848678E-001 0.0 -5.9734276E-001 -5.0535241E-001 0.0 -1.1487123E-001 -2.2387049E-001 0.0 -6.8008308E-013 -8.2206980E-013 0.0 -2.2127703E-011  4.5615664E-013 0.0 -5.9651873E-004 -1.3207979E-005 0.0 -1.0863286E-004 -1.4252497E-003 0.0 -2.7937374E-006 -1.4535144E-007 0.0  1.6654791E-002 -1.7047099E-001 0.0 -3.5754981E-013 -3.5648493E-014 0.0  1.9337665E-002 -2.8754363E-001 0.0  5.3621544E-003 -4.7822459E-001 0.0  4.5749002E-005  4.3898041E-005 0.0  3.9132376E-014  1.1623454E-014 0.0  1.6646169E-008 -2.4281500E-007 0.0 -2.5410023E-001 -1.8606761E+000 0.0  6.1570148E+001 -6.5421709E+001 0.0  5.9200664E+001 -4.5293634E+001 0.0  9.2684108E+001 -4.2944966E+001 0.0  8.5450168E+001 -5.4279366E+001 0.0  1.2737920E+002 -4.9408860E+001 0.0 -5.0093659E+001 -4.9188434E+001 0.0 -8.0318386E-004 -4.5562717E-003 0.0  3.8590872E+001  7.3748496E+000 0.0 -2.9701604E-003 -2.1870341E-002 0.0 -3.8512210E+000 -3.0121197E+000 0.0 -2.8384415E-003 -3.2208227E-005 0.0 -2.5967972E-011  3.2686215E-012 0.0 -6.6440055E-005 -1.0159825E-002 0.0  4.0384346E-014  1.2015491E-014 0.0 -5.0260837E-005 -1.2123078E-006 0.0  8.7358239E+000  2.0716023E+001 0.0  1.4737039E-006  3.5656200E-006 0.0  2.6174476E-004 -2.9516360E-004 0.0 -3.8160966E-003 -3.1091469E-002 0.0 -7.0997901E-004 -5.0271964E-001 0.0  9.7228436E-007 -1.1276042E-005 0.0 -4.5299570E-003  2.5761887E-003 0.0 -6.4646955E-002  3.6033928E-002 0.0 -8.8357236E-019 -5.1399115E-017 0.0 -1.1743072E-001  1.1259959E-002 0.0  5.6762201E-005 -7.3329151E-004 0.0  8.4939669E-002  1.0934745E-001 0.0 -2.9307975E-008 -5.4714030E-008 0.0 -1.1867865E-005 -6.6548317E-006 0.0  1.1857469E-008  7.5007597E-010 0.0 -1.2606922E+000 -8.1548947E-002 0.0 -8.0780892E-003 -3.7120045E-004 0.0 -6.8789622E+001  7.9624448E+001 0.0
        </DataArray>
        <DataArray type="Float64" Name="jxb im" NumberOfComponents="3" format="ascii">
 -1.3420109E+002 -1.9970247E+001 0.0 -4.1118570E+000 -4.2943760E-001 0.0 -1.1634401E+001  7.8566345E+000 0.0 -1.3000900E+002  2.0351486E+002 0.0 -2.4902281E-001  6.6803614E-003 0.0 -1.0310329E+000 -2.3824718E-001 0.0 -1.8546279E-001 -2.3604663E-002 0.0  1.1610919E-001 -1.1832274E-002 0.0 -3.3499770E-002  7.0426642E-002 0.0 -1.8647785E-006  3.4803437E-006 0.0  1.0324289E+002  4.0979983E+001 0.0 -7.6379093E+000  1.5586292E+001 0.0 -1.2938612E+001  2.2953707E+001 0.0  9.1224165E+001  3.2188833E+001 0.0 -8.7199928E-007  5.7249013E-007 0.0  1.6216409E-017 -9.7173212E-018 0.0  3.0632490E-018  3.9382475E-018 0.0 -2.2712144E-007 -2.1217359E-008 0.0  1.1325960E+000 -2.3061415E-003 0.0 -3.8324757E+002  2.7635169E+002 0.0  2.1052123E-002  2.1688004E-004 0.0  2.1039720E+001 -1.0139379E-001 0.0 -2.0879692E+001  1.5321197E+001 0.0 -2.3159009E+001  1.7726368E+001 0.0 -1.9003095E+001  1.4778165E+001 0.0 -2.1351020E+001  1.6086245E+001 0.0 -2.1047210E+001  1.5594104E+001 0.0 -1.6300073E+001  1.1729129E+001 0.0 -2.5472943E+001  1.6438815E+001 0.0 -1.8023097E+001  1.0290385E+001 0.0 -1.8815229E+001  9.6166780E+000 0.0 -1.6368229E+001  7.0268805E+000 0.0 -1.6296623E+001  5.5455410E+000 0.0 -1.3480299E+001  3.4181283E+000 0.0 -1.1964560E+001  2.1027037E+000 0.0 -1.2507896E+001  1.0800094E+000 0.0 -1.0948043E+001  2.7877505E-001 0.0 -7.5356471E+000 -3.5875104E-001 0.0 -1.9663289E+002  3.0088611E+002 0.0 -1.4767911E+002  2.0925133E+002 0.0 -1.2013446E+002  1.6232049E+002 0.0 -1.0297145E+002  1.2907353E+002 0.0 -9.3405131E+001  1.1153385E+002 0.0 -6.8174504E+001  7.4695235E+001 0.0 -5.0103880E+001  5.1382826E+001 0.0 -7.1536489E+001  6.7948177E+001 0.0 -4.7213062E+001  3.9787751E+001 0.0 -4.7297141E+001  3.7374627E+001 0.0 -3.3790054E+001  2.4075222E+001 0.0 -4.1542581E-001 -9.5795379E-002 0.0 -5.4532788E-001 -1.9831441E-001 0.0 -8.3790901E-001 -3.3601715E-001 0.0 -1.3506041E+000 -5.0440845E-001 0.0 -1.8239709E+000 -5.9069328E-001 0.0 -2.6225294E+000 -7.0502292E-001 0.0 -3.6854133E+000 -7.8354609E-001 0.0 -4.9846303E+000 -8.3295667E-001 0.0 -6.5228722E+000 -8.5741829E-001 0.0 -8.1107157E+000 -8.6945875E-001 0.0 -7.5215311E+000 -6.4475975E-001 0.0 -1.2698422E+001 -9.7037169E-001 0.0 -1.2547897E+001 -7.1608060E-001 0.0 -1.3625245E+001 -6.6892199E-001 0.0 -1.3093734E+001 -4.6150244E-001 0.0 -1.9006962E+001 -5.7569594E-001 0.0 -1.6215559E+001 -4.5004523E-001 0.0 -1.5930996E+001 -3.1270374E-001 0.0 -1.5297755E+001 -2.4724124E-001 0.0 -1.5643442E+001 -1.1781007E-001 0.0 -2.0158691E+001 -1.4987418E-001 0.0 -1.4662240E+001 -6.8484974E-002 0.0 -1.7373941E+001 -1.5812751E-001 0.0 -1.7077953E+001 -7.1535022E-002 0.0 -1.5960335E+001 -7.2865516E-003 0.0 -1.9141633E+001  3.5123860E-002 0.0 -1.6205789E+001  6.3554199E-002 0.0 -1.2597750E+001  1.0993043E-001 0.0 -1.3587224E+001  6.5058917E-002 0.0 -2.0323495E+001  1.0965712E-001 0.0 -1.3566152E+001  6.6411603E-002 0.0 -1.9772032E+001  2.1610200E-001 0.0 -1.5196690E+001  9.7427010E-002 0.0 -1.5109867E+001  1.1727564E-001 0.0 -1.3712360E+001  1.3625066E-001 0.0 -1.3089975E+001  1.6572303E-001 0.0 -1.6757061E+001  1.9661016E-001 0.0 -1.2811157E+001  9.8160698E-002 0.0 -1.2638512E+001  1.1557225E-001 0.0 -1.1392945E+001  1.4110093E-001 0.0 -1.5068148E+001  2.0920013E-001 0.0 -1.2070206E+001  1.0236146E-001 0.0 -1.1829322E+001  1.3943786E-001 0.0 -9.7192817E+000  1.4761241E-001 0.0 -1.3711485E+001  2.1771995E-001 0.0 -1.0415829E+001  1.1899067E-001 0.0 -1.0584913E+001  1.2598924E-001 0.0 -8.9457915E+000  1.5633240E-001 0.0 -1.1519950E+001  1.9503594E-001 0.0 -8.8655637E+000  1.2363737E-001 0.0 -8.7764110E+000  1.3396963E-001 0.0 -7.8311659E+000  1.5452810E-001 0.0 -1.0094469E+001  1.8277359E-001 0.0 -7.9534985E+000  1.2417131E-001 0.0 -7.6581972E+000  1.2141854E-001 0.0 -6.1883318E+000  1.1583938E-001 0.0 -8.6904177E+000  1.5288865E-001 0.0 -6.3982111E+000  9.0986797E-002 0.0 -5.9402597E+000  1.1358302E-001 0.0 -7.6796159E+000  1.2689465E-001 0.0 -5.1418710E+000  8.2407283E-002 0.0 -7.2107676E+000  1.5206221E-001 0.0 -5.6474885E+000  8.2478990E-002 0.0 -5.2575652E+000  8.7429482E-002 0.0 -4.8237806E+000  8.3813306E-002 0.0 -4.6408929E+000  9.1538425E-002 0.0 -5.8213446E+000  1.0961704E-001 0.0 -3.8443473E+000  6.7938885E-002 0.0 -3.7342811E+000  6.2995435E-002 0.0 -5.5056477E+000  9.2784125E-002 0.0 -3.6240173E+000  6.2656548E-002 0.0 -5.0587848E+000  1.0262759E-001 0.0 -3.8278341E+000  5.8294068E-002 0.0 -3.7363489E+000  6.3701934E-002 0.0 -3.5393447E+000  5.6625722E-002 0.0 -3.3480345E+000  6.6019264E-002 0.0 -3.7879617E+000  7.2591461E-002 0.0 -2.8510597E+000  4.5267286E-002 0.0 -2.6093625E+000  5.2324760E-002 0.0 -3.2699709E+000  6.4420272E-002 0.0 -2.2957245E+000  3.6340686E-002 0.0 -2.4835931E+000  5.1454828E-002 0.0 -2.9593982E+000  7.0398022E-002 0.0 -2.1902961E+000  2.7489977E-002 0.0 -2.4124098E+000  3.4384335E-002 0.0 -2.0000158E+000  3.5335777E-002 0.0 -2.7871777E+000  4.7284822E-002 0.0 -2.0400161E+000  2.3004361E-002 0.0 -1.9943241E+000  3.7844451E-002 0.0 -2.4618998E+000  3.8981157E-002 0.0 -1.8393737E+000  3.3477623E-002 0.0 -1.8574424E+000  2.7099354E-002 0.0 -1.8776496E+000  9.8572467E-003 0.0 -1.7227267E+000  7.3640871E-003 0.0 -1.3804334E+000  3.8450627E-003 0.0 -2.1952400E+000 -2.6553855E-002 0.0 -1.7367450E+000 -7.8096271E-002 0.0 -1.8539407E+000 -1.5994959E-001 0.0 -2.2762963E+000 -2.9532187E-001 0.0 -9.4663947E-001 -2.4369194E-001 0.0 -5.0271900E-001 -1.1072129E-001 0.0 -1.9089943E-001 -2.9155557E-002 0.0 -2.9077289E-003 -2.2742071E-004 0.0 -1.5647388E-003 -5.2591965E-004 0.0  2.1818209E-003  1.0525212E-003 0.0  8.4219576E-004  5.1965063E-004 0.0  9.9634224E-003  4.1820330E-003 0.0  1.8490384E-002  7.1877472E-003 0.0  2.1052815E-002  1.2519965E-002 0.0  4.6195464E-002  2.5072676E-002 0.0  6.0352371E-002  3.3507790E-002 0.0  5.5983542E-002  2.6906347E-002 0.0  1.7385769E-001  1.0124195E-001 0.0  1.6160623E-001  9.1658173E-002 0.0  4.6872942E-002  3.6414883E-002 0.0  7.0872093E-002  5.4584722E-002 0.0  1.0015643E-002  2.8484810E-002 0.0  4.3613701E-002  5.2500085E-002 0.0  6.8946601E-002  9.0953127E-002 0.0  9.2046838E-002  1.2172916E-001 0.0 -3.3451416E-002 -3.3945443E-002 0.0  2.3678104E-002  3.6436918E-002 0.0  2.9182588E-002  8.9405334E-002 0.0  6.2172036E-002  1.6455410E-001 0.0 -3.5099945E-002 -8.0594667E-002 0.0 -1.3330167E-002 -8.3756981E-003 0.0 -7.9762936E-003 -9.5543399E-003 0.0 -2.2070116E-003  2.4199289E-002 0.0 -2.5259986E-003  2.9436708E-002 0.0  4.9293382E-004  1.0408524E-002 0.0 -2.9453366E-003  5.9920371E-003 0.0 -1.9867007E-002  6.1521489E-002 0.0 -3.7244699E-002  1.1875520E-001 0.0 -4.0447916E-002  9.9478289E-002 0.0 -7.4212168E-002  1.9965917E-001 0.0 -8.6488287E-002  2.3102274E-001 0.0 -1.0356581E-002  1.7355974E-002 0.0  1.3084295E-003 -2.8239568E-003 0.0 -5.1117379E-005  1.2099359E-004 0.0  2.6177222E-006 -5.8233901E-006 0.0  2.3055069E+002  1.0112929E+002 0.0  2.5880272E+002  1.2577399E+002 0.0  2.0793236E+002  1.1871399E+002 0.0  2.8052605E+002  1.8034633E+002 0.0  1.8093054E+002  1.3347701E+002 0.0  2.4452843E+002  2.0110722E+002 0.0  1.6065980E+002  1.5191199E+002 0.0  2.0490665E+002  2.1603190E+002 0.0  1.4586597E+002  1.7968565E+002 0.0  1.2575105E+002  1.7472730E+002 0.0  1.0751877E+002  1.7280223E+002 0.0  1.2120170E+002  2.3452790E+002 0.0  6.9990389E+001  1.6105467E+002 0.0  5.2172359E+001  1.4525626E+002 0.0  5.4003838E+001  1.9594561E+002 0.0  3.0163207E+001  1.5107244E+002 0.0  1.7927989E+001  1.3871952E+002 0.0  7.6110763E+000  1.2329496E+002 0.0  5.0151932E-001  1.1300985E+002 0.0 -7.6008539E+000  1.3002877E+002 0.0 -1.0118762E+001  8.4581763E+001 0.0 -1.3304112E+001  7.7599012E+001 0.0 -2.1423445E+001  9.5330174E+001 0.0 -2.0489899E+001  7.0794786E+001 0.0 -2.2086697E+001  6.5168806E+001 0.0 -1.8467554E+001  4.8323346E+001 0.0 -2.2081571E+001  5.2887785E+001 0.0 -1.7358617E+001  3.3064575E+001 0.0 -2.2445175E+001  4.3985324E+001 0.0 -2.9584775E+001  6.4790069E+001 0.0 -2.1109366E+001  5.2833745E+001 0.0 -1.9452441E+001  5.5450937E+001 0.0 -2.0424609E+001  7.1394747E+001 0.0 -2.2752522E+001  1.0196112E+002 0.0 -1.8516890E+001  1.1031744E+002 0.0 -1.2165819E+001  1.2239977E+002 0.0 -4.7080185E+000  1.3477432E+002 0.0  4.9578427E+000  1.3226685E+002 0.0  1.5894157E+001  1.4985274E+002 0.0  4.1680637E+001  2.1306771E+002 0.0  3.8205182E+001  1.3856088E+002 0.0  4.9326905E+001  1.3611444E+002 0.0  8.3807476E+001  1.8310598E+002 0.0  1.1538922E+002  2.0901285E+002 0.0  1.1319941E+002  1.6989977E+002 0.0  1.3187969E+002  1.7019986E+002 0.0  1.8006322E+002  2.0426479E+002 0.0  2.0882384E+002  2.0360032E+002 0.0  2.2623806E+002  1.9640601E+002 0.0  2.3361145E+002  1.7654109E+002 0.0  2.0703600E+002  1.4053470E+002 0.0  2.6552589E+002  1.5540197E+002 0.0  2.3668829E+002  1.2327334E+002 0.0  3.2102869E+002  1.4607791E+002 0.0  2.5738244E+002  1.0310296E+002 0.0  1.7321919E+002  6.3916375E+001 0.0 -6.8356112E-007  1.2777237E-006 0.0 -2.4538281E-006  3.1694567E-006 0.0  1.0672806E-006 -1.6877962E-006 0.0 -2.0643419E-004  2.6735253E-004 0.0 -2.8771221E-004  3.7076996E-004 0.0 -2.5217354E-004  3.1982251E-004 0.0  5.8780742E-004 -6.7829897E-004 0.0  5.1408344E-003 -7.1332055E-003 0.0 -7.5473355E-002  1.1338716E-001 0.0 -4.1218264E-001  6.4379696E-001 0.0  2.6746575E+000 -4.2609039E+000 0.0 -6.4208989E+000 -7.3020078E-001 0.0 -9.8059735E+000 -1.2750779E+000 0.0 -9.3468206E+000 -1.2483563E+000 0.0 -8.1804350E+000 -1.0950167E+000 0.0 -8.3498012E+000 -1.0517164E+000 0.0 -8.3221474E+000 -9.0939798E-001 0.0 -7.2349078E+000 -7.2515114E-001 0.0 -1.9496644E+002 -3.1610563E+001 0.0 -1.6123974E+002 -3.0168690E+001 0.0 -1.3070350E+002 -2.6128988E+001 0.0 -1.0801691E+002 -2.4231346E+001 0.0 -8.3817281E+001 -2.0095008E+001 0.0 -7.3077184E+001 -1.8469841E+001 0.0 -5.8700232E+001 -1.5773279E+001 0.0 -4.5717198E+001 -1.2785974E+001 0.0 -3.9483569E+001 -1.1332979E+001 0.0 -3.2909667E+001 -1.0756716E+001 0.0 -2.6826651E+001 -8.9061994E+000 0.0 -2.0387571E+001 -7.4920000E+000 0.0 -1.5859212E+001 -6.0258557E+000 0.0 -1.2413669E+001 -5.3122830E+000 0.0 -1.0063309E+001 -4.5357934E+000 0.0 -7.5020619E+000 -3.8469382E+000 0.0 -5.7756501E+000 -3.1734575E+000 0.0 -5.3068006E+000 -3.3204559E+000 0.0 -3.9426737E+000 -2.6984215E+000 0.0 -2.8072573E+000 -2.1894941E+000 0.0 -2.6248151E+000 -2.2401492E+000 0.0 -2.0044258E+000 -1.9320962E+000 0.0 -1.4244123E+000 -1.5026509E+000 0.0 -1.1474094E+000 -1.3027976E+000 0.0 -9.5847027E-001 -1.1871783E+000 0.0 -8.0843695E-001 -1.0412218E+000 0.0 -7.3169946E-001 -9.8878569E-001 0.0 -5.8283873E-001 -7.8395731E-001 0.0 -5.0124873E-001 -6.7129029E-001 0.0 -4.6522492E-001 -6.0757538E-001 0.0 -3.5396823E-001 -4.3332160E-001 0.0 -3.3722653E-001 -3.8443889E-001 0.0 -3.3141122E-001 -3.4290785E-001 0.0 -2.7057136E-001 -2.4951854E-001 0.0 -2.3369684E-001 -1.8047503E-001 0.0 -2.1780071E-001 -1.3449793E-001 0.0 -1.7513160E-001 -8.2280476E-002 0.0 -1.4385814E-001 -4.1860411E-002 0.0 -1.3757295E-001 -1.5087850E-002 0.0  7.2120084E-002  3.9091252E-002 0.0 -8.8993916E-002 -3.3841554E-002 0.0  1.8220094E-001  6.6405062E-002 0.0 -1.5390038E-002 -5.5667159E-003 0.0  1.1854063E-002  4.4230868E-003 0.0 -8.7109377E-004 -3.2726216E-004 0.0  2.4696895E-004  8.9408547E-005 0.0 -2.0095023E-005 -9.9835745E-006 0.0  6.2141485E-006  4.3461641E-006 0.0  5.8344724E-009 -2.6877002E-007 0.0  3.2173348E-007  1.4309463E-007 0.0 -1.8862294E-008  1.2439161E-006 0.0 -9.0737044E-009  3.9401045E-007 0.0  1.3788039E-008 -2.9601469E-009 0.0  3.2128478E-008 -8.9561437E-008 0.0  9.5824730E-009 -2.8345437E-008 0.0 -4.2371210E-010  1.3074087E-009 0.0  3.3596524E-011 -9.5999910E-011 0.0 -1.0138841E-012  3.4909140E-012 0.0  3.8074091E-013 -8.1055342E-013 0.0 -1.1635569E-014  2.6245190E-014 0.0  1.0459371E-015 -1.9753421E-015 0.0 -5.0227283E-017  1.0401016E-016 0.0 -6.6627944E-018 -3.9675385E-018 0.0  3.0808778E-017 -3.1696638E-017 0.0  1.3775573E-017 -2.2345112E-017 0.0  2.8117952E-018  3.1422065E-018 0.0 -5.0417609E-017  1.0642584E-016 0.0  1.3238846E-016 -2.5263661E-016 0.0  1.0643104E-016 -1.8172035E-016 0.0  4.3000342E-017 -5.7579681E-017 0.0  8.4716175E-017 -2.8586511E-016 0.0  7.8157367E-017 -2.5551298E-016 0.0 -2.8680435E-017  2.3654625E-017 0.0 -2.6704109E-017  1.8032927E-017 0.0 -9.6209757E-019  1.9941068E-018 0.0 -1.0399067E-018  9.7030636E-018 0.0  7.4423678E-019  7.7465249E-019 0.0  4.5373964E-018  7.0715736E-018 0.0  2.2952510E-018  2.5779227E-018 0.0  2.1502721E-018  2.7892660E-018 0.0  5.1968730E-018  7.9907130E-018 0.0 -6.5587631E-018 -1.0986231E-017 0.0  5.2948156E-018  8.3729776E-018 0.0  4.0852332E-018  7.1214959E-018 0.0  3.6775894E-018  5.0224335E-018 0.0 -4.5000598E-019 -4.3047848E-018 0.0  7.8870518E-009  7.5018060E-010 0.0 -1.6300785E-010 -1.8619097E-011 0.0  4.2960068E-011  4.6747397E-012 0.0 -1.9418143E-011 -1.9872285E-012 0.0  1.3474951E-011  1.1814188E-012 0.0 -4.0089864E-011 -3.2310084E-012 0.0  1.4759719E-010  1.2380595E-011 0.0 -4.8156700E-010 -3.5403500E-011 0.0  1.5478027E-009  5.8623880E-011 0.0 -1.5265608E-008 -1.2026521E-009 0.0  2.2468639E-008 -2.1089735E-009 0.0 -4.6973075E-007 -1.9620468E-008 0.0  4.1623314E-006 -4.8221707E-007 0.0 -5.2559523E-005 -1.0974926E-005 0.0 -5.4050186E-005 -1.9655654E-005 0.0 -4.8631894E-003 -9.8973188E-004 0.0  3.4565244E-003 -5.4652957E-004 0.0  2.6267953E-018  3.6992727E-018 0.0 -7.0940698E-018 -8.8678145E-018 0.0  3.8825989E-018  8.2303380E-018 0.0  1.1423178E-018 -1.6181123E-018 0.0  5.6549310E-018  7.7494334E-018 0.0  7.2896218E-018  1.1855323E-017 0.0  2.0840628E-017  1.0102017E-017 0.0 -3.5182942E-016 -5.3139238E-017 0.0 -1.3530686E-015 -1.3220960E-016 0.0 -1.4259783E-013 -1.3402724E-014 0.0  3.3864669E-012  3.1839763E-013 0.0 -8.2116412E-011 -7.6896220E-012 0.0  2.4320829E-009  2.2739933E-010 0.0  2.1773661E-008  2.0304803E-009 0.0 -1.1722988E+000  9.7336993E-002 0.0 -2.2145034E+000  3.7125941E-001 0.0 -3.2909784E+000  7.9919993E-001 0.0 -4.4646399E+000  1.4860132E+000 0.0 -6.0055033E+000  2.5210946E+000 0.0 -7.1029857E+000  3.4965765E+000 0.0 -7.6113145E+000  4.4405601E+000 0.0 -9.0259471E+000  5.9716827E+000 0.0 -1.0580599E+001  7.9105954E+000 0.0 -1.1295475E+001  9.4357278E+000 0.0 -1.2300197E+001  1.1253658E+001 0.0 -1.3789685E+001  1.4015324E+001 0.0 -1.4457170E+001  1.5605853E+001 0.0 -1.5171541E+001  1.8006858E+001 0.0 -1.7888401E+001  2.2802996E+001 0.0 -1.7594417E+001  2.3849090E+001 0.0 -1.8789923E+001  2.7190735E+001 0.0 -2.1051638E+001  3.2259780E+001 0.0 -2.1519389E+001  3.5584108E+001 0.0 -2.0893849E+001  3.6372327E+001 0.0 -2.1144706E+001  3.8642550E+001 0.0 -2.4385706E+001  4.7019880E+001 0.0 -2.8850439E+001  5.9360655E+001 0.0 -2.5056849E+001  5.3552663E+001 0.0 -2.4850746E+001  5.5143187E+001 0.0 -2.7657916E+001  6.3921341E+001 0.0 -2.9333495E+001  7.0034467E+001 0.0 -3.0786058E+001  7.5142798E+001 0.0 -3.5188649E+001  8.8176627E+001 0.0 -3.7427790E+001  9.3913442E+001 0.0 -4.0625639E+001  1.0194364E+002 0.0 -4.2879633E+001  1.0583961E+002 0.0 -4.6460697E+001  1.1133889E+002 0.0 -5.1874072E+001  1.2026728E+002 0.0 -6.8835968E+001  1.5256485E+002 0.0 -6.0402945E+001  1.2476136E+002 0.0 -7.7028829E+001  1.4857980E+002 0.0 -9.7604963E+001  1.7595251E+002 0.0 -1.1510782E+002  1.9190894E+002 0.0 -1.3067831E+002  1.9918091E+002 0.0 -1.6526545E+002  2.3184860E+002 0.0 -1.9674024E+002  2.5404663E+002 0.0 -2.1766854E+002  2.5898047E+002 0.0 -2.8532855E+002  3.0924921E+002 0.0 -3.0210296E+002  3.0416503E+002 0.0 -3.3828382E+002  3.1652388E+002 0.0 -4.4990724E+002  3.8876633E+002 0.0 -5.0560317E+002  4.1071931E+002 0.0 -4.7260356E+002  3.6245420E+002 0.0 -4.9092257E+002  3.2142870E+002 0.0 -5.5578062E+002  3.3843695E+002 0.0 -5.7013603E+002  3.2215433E+002 0.0 -4.8313009E+002  2.4701150E+002 0.0 -3.9696840E+002  1.8479211E+002 0.0 -4.0681528E+002  1.7304163E+002 0.0 -3.6861775E+002  1.3844310E+002 0.0 -3.3827227E+002  1.1350961E+002 0.0 -3.1893183E+002  9.1724184E+001 0.0 -2.9775730E+002  7.3976565E+001 0.0 -3.0527380E+002  6.1381920E+001 0.0 -2.7950260E+002  4.6041323E+001 0.0 -2.5175178E+002  3.0047249E+001 0.0 -2.5161608E+002  2.1187112E+001 0.0 -2.4389413E+002  9.6935708E+000 0.0 -2.4375349E+002  1.1804145E+000 0.0 -2.4619680E+002 -9.0376945E+000 0.0 -2.3542559E+002 -1.6853821E+001 0.0 -2.1531290E+002 -2.1756585E+001 0.0 -2.9696212E-001  4.1386103E-002 0.0 -2.6291763E-001  4.7270652E-002 0.0 -2.4027479E-001  4.2912229E-002 0.0 -2.2390470E-001  3.2387996E-002 0.0 -1.7551574E-001  2.1811507E-002 0.0 -1.4594740E-001  1.3008384E-002 0.0 -1.2973849E-001  7.5086781E-003 0.0 -8.1102587E-002  2.8257431E-003 0.0 -4.1539687E-002  7.7142740E-004 0.0 -1.1170378E-002  3.6141632E-004 0.0  2.8729174E-003  3.1431432E-004 0.0 -8.1541919E-004  4.2618993E-004 0.0  3.8228786E-004  6.1068031E-004 0.0 -7.7482100E-004  1.4592598E-003 0.0  1.5624618E-003  1.9702310E-003 0.0 -1.1065692E-002  5.8056957E-003 0.0 -3.4653006E-003  8.6174607E-003 0.0 -3.5918023E-003  1.4037068E-002 0.0 -6.1050438E-003  1.2667472E-002 0.0  1.0726433E-003  3.2188095E-002 0.0 -1.7685690E-002  7.3585638E-002 0.0 -2.1697399E-003  3.2408886E-002 0.0 -1.3957553E-001  6.2954645E-002 0.0 -5.0268456E-001  2.6488860E-002 0.0  1.2147180E-001  3.2231697E-004 0.0 -2.9787638E-002  8.8917820E-003 0.0 -4.4128419E-003  1.5923336E-002 0.0 -7.3840679E-003  1.1851219E-002 0.0 -6.9584266E-004  2.6700654E-002 0.0  1.0306545E-002  3.1485860E-002 0.0 -5.1443923E-002  1.7049258E-001 0.0  1.0672379E-001  1.3901740E-001 0.0 -2.8720595E-001  1.6058451E-001 0.0  6.9941734E-001  3.4071315E-001 0.0 -2.5760156E+000  9.6587648E-001 0.0 -1.6882090E+001  1.6324118E+000 0.0 -3.3950797E+001  6.4708465E+000 0.0 -4.9427472E+001  1.3778761E+001 0.0 -6.5669617E+001  2.5710525E+001 0.0 -7.5332584E+001  3.4290284E+001 0.0 -1.0399853E+002  5.8647459E+001 0.0 -1.3534628E+002  8.7307731E+001 0.0 -1.2835478E+002  9.3020329E+001 0.0 -1.3311325E+002  1.0826145E+002 0.0 -1.5015518E+002  1.3296684E+002 0.0 -1.6068494E+002  1.5410035E+002 0.0 -1.7391467E+002  1.7798595E+002 0.0 -1.7785301E+002  1.9445497E+002 0.0 -2.0631333E+002  2.3871217E+002 0.0 -2.1717620E+002  2.6327352E+002 0.0 -1.9853426E+002  2.5256949E+002 0.0 -2.0366474E+002  2.6983729E+002 0.0 -2.0998085E+002  2.8802720E+002 0.0 -2.2048303E+002  3.1172968E+002 0.0 -2.2268883E+002  3.2473438E+002 0.0 -2.4859171E+002  3.7165424E+002 0.0 -2.5156614E+002  3.8637608E+002 0.0 -2.1171504E+002  3.3712916E+002 0.0  8.1836610E-002  1.1654928E-002 0.0 -9.7501700E-003 -3.2693370E-003 0.0  1.8685396E-002  1.5725977E-003 0.0  2.9650512E-003 -2.0894227E-003 0.0  9.1761319E-003 -1.0065160E-003 0.0  3.7905732E-003 -1.9660189E-004 0.0  8.4985961E-003  1.2442970E-004 0.0  3.4725821E-003  5.1876150E-004 0.0  5.5385372E-003  1.0032456E-003 0.0  8.3442416E-003  1.5908275E-003 0.0  2.7677648E-003  3.4255072E-004 0.0  6.1369232E-003  2.8372690E-003 0.0  5.2311074E-003  1.0289078E-003 0.0  1.0916276E-002  1.4064517E-003 0.0  1.7405640E-003  8.6354868E-004 0.0  8.1340042E-003  1.5833247E-003 0.0  5.9971770E-003  1.2470300E-003 0.0  1.2879451E-002  2.5173034E-003 0.0  3.2308188E-003  2.2568671E-004 0.0  8.4817016E-003  3.1476088E-003 0.0  6.0068596E-003  1.2741600E-003 0.0  1.2020846E-002  1.7110012E-003 0.0  1.2597364E-002  5.7618644E-004 0.0  4.6608936E-003  1.5118610E-003 0.0  8.2472107E-003  1.7271671E-003 0.0  1.3034658E-002  3.1142736E-003 0.0  5.0936938E-003  1.4414716E-003 0.0  1.1574088E-002  2.1096703E-003 0.0  1.2628520E-002  1.8930613E-003 0.0  8.1632523E-003  1.5160274E-003 0.0  1.7939317E-002  2.3147927E-003 0.0  5.5119361E-003  1.7567557E-003 0.0  1.6524688E-002  4.8366640E-003 0.0  6.2115974E-003  2.0531471E-004 0.0  1.7317380E-002  5.8712169E-003 0.0  7.3002430E-003  2.5834841E-003 0.0  5.7813657E-002  6.6683550E-003 0.0  1.4578355E-002  1.1184146E-003 0.0  1.1085357E-002  3.7866068E-003 0.0  1.9862930E-002  3.7158877E-003 0.0  7.5479904E-003  2.6826161E-003 0.0  2.8462425E-002  8.2346143E-003 0.0  1.1869213E-002  6.1052265E-004 0.0  1.8876162E-002  7.8403435E-003 0.0  1.6291296E-002  4.9832721E-003 0.0  3.6586112E-002  6.3035125E-003 0.0  1.5963336E-002  3.1268595E-003 0.0  2.5166501E-002  3.4360009E-003 0.0  1.6184623E-002  9.0036097E-003 0.0  2.5297033E-002  6.5402328E-003 0.0  4.3340479E-002  2.2015247E-003 0.0  1.3397018E-002  3.9772569E-003 0.0  2.2234365E-002  4.1647382E-003 0.0  3.3528353E-002  1.2014404E-002 0.0  2.5363954E-002  5.3490864E-003 0.0  5.0159611E-002  1.2246024E-003 0.0  1.5150278E-002  4.3444986E-003 0.0  2.6674557E-002  4.2095127E-003 0.0  2.7026107E-002  1.3726455E-002 0.0  2.5607032E-002  5.4984523E-003 0.0  5.1789444E-002  4.1641360E-003 0.0  2.0205817E-002  6.8745943E-003 0.0  4.6351143E-002  7.3132377E-003 0.0  2.1681181E-002  3.9823512E-003 0.0  3.5177171E-002  1.8061388E-002 0.0  2.8019739E-002  4.4371184E-003 0.0  6.2787761E-002  1.3438215E-002 0.0  1.0672115E-002  9.3882868E-004 0.0  4.3201218E-002  7.5866817E-003 0.0  4.2601145E-002  3.0564958E-003 0.0  6.9532157E-002  4.9655619E-003 0.0  2.4700368E-002  3.5408598E-003 0.0  5.3784257E-002  1.8227308E-002 0.0  4.3279155E-002  5.7129783E-003 0.0  7.6598874E-002  6.2092050E-003 0.0  3.2906812E-002 -4.4451070E-004 0.0  8.2612075E-002 -4.2138441E-003 0.0  2.7417725E-002  4.2951935E-003 0.0  5.5816714E-002  5.8686432E-003 0.0  3.0745667E-002 -2.6288128E-003 0.0  4.3021731E-002 -6.9074957E-004 0.0  4.9569208E-002  3.2159036E-003 0.0  3.2878512E-002 -3.1283839E-003 0.0  6.2646446E-002 -7.5849765E-003 0.0  1.9177134E-002 -9.4635901E-003 0.0  4.0161982E-002 -1.1163997E-002 0.0  3.4942321E-002 -1.8867491E-002 0.0  6.3958473E-002 -2.9372665E-002 0.0  1.8391516E-002 -1.1463478E-002 0.0  1.9191801E-002 -1.5927532E-002 0.0  1.7150835E-002 -2.0490620E-002 0.0  1.9292771E-002 -1.4177138E-002 0.0  1.7259523E-002 -1.5074345E-002 0.0  2.1027487E-003 -4.0626313E-003 0.0  2.1456441E-003 -4.4050072E-003 0.0  7.2562188E-004 -6.0166740E-004 0.0  7.4309272E-004 -9.4899471E-004 0.0  3.3095903E-004  2.1038518E-004 0.0 -2.0011190E-003  1.2747076E-004 0.0 -8.9167457E+000  3.0855889E-001 0.0  1.6386840E+000 -5.4786913E-002 0.0 -4.5380455E-001  1.7768360E-002 0.0 -6.0621350E+001  1.4674713E+002 0.0 -2.9206409E+001  4.7166274E+001 0.0 -3.6640167E+001  8.1602747E+001 0.0 -2.6947729E+001 -1.8673155E+000 0.0 -2.3001525E+001  2.6310069E+001 0.0 -1.9301835E+002  2.5718421E+002 0.0 -2.0305974E-001  5.2690443E-002 0.0 -3.8060174E+000 -7.5390978E-001 0.0 -8.6887526E-001 -5.2826126E-001 0.0 -4.1277414E-001 -1.4324488E-001 0.0 -4.3684752E+002  1.0441829E+002 0.0 -1.0421560E+001 -1.1548422E+000 0.0 -9.6625470E+001  1.8255586E+002 0.0 -6.8184139E+001 -5.7441777E+000 0.0 -1.5305501E+001  1.2038683E+001 0.0 -3.9856147E+002  3.7793122E+002 0.0 -1.6086983E-001  1.7703442E-002 0.0 -5.7779357E+002  2.4793990E+002 0.0 -3.7719721E+002  2.3949912E+001 0.0 -1.8573241E+000 -8.0184373E-001 0.0 -1.0907380E+001  5.8560941E+000 0.0 -1.2158247E+002 -1.0164782E+001 0.0 -5.6550984E-001 -3.1727974E-001 0.0 -4.4914205E+001  1.1135400E+002 0.0 -1.4105326E-001  3.8837144E-002 0.0 -3.1146248E+001  5.9776510E+001 0.0 -8.9248430E-002  1.3348719E-002 0.0 -3.8503721E-001  2.5557550E-002 0.0 -7.4326295E+002  4.1647281E+002 0.0 -3.8155443E-002  1.5130652E-003 0.0 -2.2642619E+002 -2.7124358E+001 0.0 -6.4168919E+002  4.8474733E+002 0.0 -5.7281660E+000  1.6444452E+000 0.0 -6.2549464E+000 -8.8577456E-001 0.0 -1.2168877E+000 -6.0741374E-001 0.0 -4.9989295E+002  1.7024770E+002 0.0 -1.6680012E+001 -1.1725407E+000 0.0 -3.5524263E+002 -6.4960994E+000 0.0 -4.0237609E+002  6.0932416E+001 0.0 -4.2843249E+001 -3.1640371E+000 0.0 -2.7773126E+002  3.1150787E+002 0.0 -1.8545663E+001  1.7911349E+001 0.0 -2.3138562E+001  3.0762742E+001 0.0 -2.9862426E-001 -5.9239402E-003 0.0 -1.3836239E+002  2.2849367E+002 0.0 -7.5494343E+001  1.6789113E+002 0.0 -4.0349489E+001  9.6364968E+001 0.0 -5.1739159E-002  3.7404881E-003 0.0 -1.1225339E+000  1.1049444E-001 0.0 -2.3664367E-002  8.7270514E-004 0.0 -8.6263303E+002  6.0048678E+002 0.0 -3.2536870E+002 -3.9311278E+001 0.0 -2.4805288E+000  3.1489877E-001 0.0 -9.2946841E-002  6.7742640E-003 0.0 -2.4033486E-001  4.3109539E-002 0.0 -4.5185735E-001  1.0560585E-001 0.0 -5.3686643E-001  1.7738647E-001 0.0 -3.2938732E-001  7.8307583E-002 0.0 -5.2229669E-001  1.8811570E-001 0.0 -9.6816683E-001  4.5923544E-001 0.0 -9.2870878E-001  5.2100341E-001 0.0 -5.9437659E-001  2.4356794E-001 0.0 -9.3895580E-001  5.2856029E-001 0.0 -6.3284401E-001  2.7519101E-001 0.0 -8.9437006E-001  5.1832334E-001 0.0 -1.4021659E+000  1.1117545E+000 0.0 -1.3172306E+000  1.0405906E+000 0.0 -9.0365606E-001  4.8580169E-001 0.0 -1.1845936E+000  7.3605320E-001 0.0 -1.9258260E+000  2.1560312E+000 0.0 -1.7635517E+000  1.7143701E+000 0.0 -1.3234654E+000  7.2509213E-001 0.0 -1.8882746E+000  1.2629343E+000 0.0 -1.6088373E+000  6.7801820E-001 0.0 -2.1807104E+000  9.4427499E-001 0.0 -2.5945963E+000  2.4777344E+000 0.0 -3.0280968E+000  1.5913214E+000 0.0 -2.9238041E+000  8.6077622E-001 0.0 -4.1085021E+000  9.2881495E-001 0.0 -4.1680081E+000  1.0741660E+000 0.0 -5.8518930E+000  8.3676570E-001 0.0 -5.5998149E+000  1.8269754E+000 0.0 -8.5405198E+000  9.8313083E-001 0.0 -8.6877732E+000  1.3692421E+000 0.0 -1.2528226E+001  1.0297615E+000 0.0 -1.2788524E+001  1.9925407E+000 0.0 -1.8606526E+001  5.7489277E-001 0.0 -1.8329507E+001  2.5179498E+000 0.0 -2.6218973E+001  6.2325373E-001 0.0 -2.5666039E+001  5.2441534E+000 0.0 -3.6207418E+001  4.6905640E+000 0.0 -3.8350547E+001  2.8343810E+000 0.0 -5.2274648E+001  5.5170990E+000 0.0 -4.8951333E+001  9.7122784E+000 0.0 -6.8678315E+001  1.2413812E+001 0.0 -7.6327782E+001  1.4060440E+001 0.0 -9.7346703E+001  2.1129998E+001 0.0 -8.7238202E+001  1.9648019E+001 0.0 -3.7935793E+000  5.5150634E+000 0.0 -3.8542269E+000  6.6554718E+000 0.0 -1.8854072E+001  6.1011178E+000 0.0 -1.1255549E+002  3.2554706E+001 0.0 -1.3979450E+002  4.2394499E+001 0.0 -1.6732121E+000  1.1153237E+000 0.0 -1.3026966E+001  9.9123446E+000 0.0 -8.3904436E+001  2.5504264E+001 0.0 -1.7487194E+000  9.3551374E-001 0.0 -1.1377709E+000  5.8726030E-001 0.0 -4.4687100E-001  1.5656487E-001 0.0 -4.8596325E-001  1.9997492E-001 0.0 -1.6334739E+002  6.1179249E+001 0.0 -1.7121965E+001  5.2133156E+000 0.0 -2.3695062E+001  8.1370248E+000 0.0 -1.3182413E+000  7.3896513E-001 0.0 -1.9796617E+002  7.4786994E+001 0.0 -1.7434582E+002  5.7793098E+001 0.0 -5.7808756E+000  1.1837931E+001 0.0 -6.7172489E+000  1.3347568E+001 0.0 -2.2924430E+002  1.0485958E+002 0.0 -1.9667393E+001  1.9119785E+001 0.0 -2.8208329E+000  1.9290903E+000 0.0 -3.4003804E-001  1.3349247E-001 0.0 -1.6676281E+001  2.6982505E+001 0.0 -9.3081836E-001  6.5084165E-001 0.0 -3.2050192E+000  1.8240750E+000 0.0 -3.6992093E-001  1.7874304E-001 0.0 -2.7164271E+002  1.2099481E+002 0.0 -3.1029848E+002  1.6071171E+002 0.0 -1.9148714E+002  9.5768401E+001 0.0 -1.6002999E+001  7.6671747E+000 0.0 -1.0344075E+000  7.7089232E-001 0.0 -1.8748715E+000  8.1534433E-001 0.0 -3.0764658E+000  1.3956244E+000 0.0 -2.0612323E+001  9.3299105E+000 0.0 -1.0045631E+001  2.0575889E+001 0.0 -8.5203229E+000  1.9458698E+001 0.0 -2.7212609E+000  1.1622186E+000 0.0 -3.8161317E+000  1.6497777E+000 0.0 -2.4274333E+000  1.5349598E+000 0.0 -3.0732963E+000  1.9942580E+000 0.0 -1.2601606E+001  5.2013364E+000 0.0 -3.6510182E+002  1.8067181E+002 0.0 -1.1398313E+001  2.2623169E+001 0.0 -8.0442809E+000  1.5058726E+001 0.0 -8.5667644E-001  5.1218699E-001 0.0 -6.8050560E-001  5.2777306E-001 0.0 -6.4261758E-001  4.3400123E-001 0.0 -4.8242852E-001  2.4422922E-001 0.0 -4.7085468E+000  3.1936262E+000 0.0 -4.3309993E+000  3.5258584E+000 0.0 -3.3084646E-001  9.6063943E-002 0.0 -1.1168415E+001  1.5550934E+001 0.0 -1.5112703E+001  3.1191577E+001 0.0 -3.2676756E+002  1.4568724E+002 0.0 -1.0409985E+001  2.0434473E+001 0.0 -1.1386834E+001  6.4213591E+000 0.0 -9.1317659E+000  4.8582151E+000 0.0 -4.3804075E+000  2.2895506E+000 0.0 -3.6152688E+000  2.3946713E+000 0.0 -2.4796615E+001  3.8987524E+001 0.0 -2.7945738E+001  3.3637269E+001 0.0 -2.5751583E-001  9.0073761E-002 0.0 -2.4202219E-001  6.1708935E-002 0.0 -3.7062503E-001  2.1856376E-001 0.0 -2.8093496E+001  1.0724638E+001 0.0 -4.1333450E+002  2.3181065E+002 0.0 -2.5599991E+001  1.0940185E+001 0.0 -3.3890932E+001  1.2910557E+001 0.0 -1.5821101E+001  3.6862403E+001 0.0 -1.4270380E+001  3.0520018E+001 0.0 -3.6422884E+002  2.1905915E+002 0.0 -3.5166306E+001  5.8407864E+001 0.0 -4.1889119E+001  5.7525340E+001 0.0 -3.4812232E+001  2.9571910E+001 0.0 -4.8864348E+001  4.7716698E+001 0.0 -2.0248175E+000  1.5011186E+000 0.0 -1.6901757E+000  1.2393920E+000 0.0 -3.1957619E+001  1.2004767E+001 0.0 -4.1071770E+001  1.4682994E+001 0.0 -1.9151653E+000  6.5303023E-001 0.0 -3.0119494E+000  1.0405525E+000 0.0 -1.3502848E+001  2.4149493E+001 0.0 -9.9751029E+000  1.6909032E+001 0.0 -5.7641947E+000  1.0496886E+001 0.0 -7.2828077E+000  1.1750320E+001 0.0 -1.1897232E+001  1.8776466E+001 0.0 -8.8827956E+000  1.3057998E+001 0.0 -1.2123390E+001  2.8363575E+001 0.0 -1.9618547E-001  5.9781753E-002 0.0 -1.8074083E-001  4.0356584E-002 0.0 -2.0326994E-001  7.7974489E-002 0.0 -1.5100320E-001  3.8476012E-002 0.0 -1.3506772E-001  2.4691789E-002 0.0 -1.5601102E-001  2.7270045E-002 0.0 -1.1057069E-001  1.4581754E-002 0.0 -5.0837993E-001  3.8497436E-001 0.0 -4.8306230E-001  3.4076125E-001 0.0 -8.0534315E+000  1.8057623E+001 0.0 -5.8413725E-001  3.5016954E-001 0.0 -1.2452379E-001  1.5001687E-002 0.0 -4.4167051E+001  2.6420184E+001 0.0 -5.9398469E+001  4.3264252E+001 0.0 -6.7150423E+001  7.2941701E+001 0.0 -8.0269581E+001  7.0674862E+001 0.0 -6.8965524E+000  5.2040520E+000 0.0 -6.5213028E+000  5.8609882E+000 0.0 -4.1012388E+000  3.7688197E+000 0.0 -6.2003607E+000  6.1976756E+000 0.0 -7.1909005E+000  4.7831012E+000 0.0 -3.7634221E+000  3.9138480E+000 0.0 -5.4823363E+000  6.3975963E+000 0.0 -8.8677665E+000  9.4132465E+000 0.0 -2.8698058E-001  1.6291920E-001 0.0 -3.3404107E+000  3.8858980E+000 0.0 -8.0873148E+000  4.7326141E+000 0.0 -6.6181056E+000  3.8485743E+000 0.0 -6.9555104E+000  3.4986339E+000 0.0 -4.6019535E+000  1.9829905E+000 0.0 -3.2024787E+001  6.6783334E+001 0.0 -5.5506771E-001  3.8825999E-001 0.0 -2.2555023E+001  5.1522198E+001 0.0 -5.3683711E+000  8.2201956E+000 0.0 -1.8650864E+001  8.5256014E+000 0.0 -2.8746701E-001  1.6848263E-001 0.0 -4.7320642E+002  2.5092369E+002 0.0 -5.3500487E+002  3.1612072E+002 0.0 -7.7960641E+000  9.6782807E+000 0.0 -1.4796757E+000  9.3283189E-001 0.0 -4.3713361E+001  1.3901744E+001 0.0 -5.2826432E+001  1.6462727E+001 0.0 -5.1221278E+001  1.4061366E+001 0.0 -6.4440281E+001  1.6843946E+001 0.0 -6.8008575E+001  1.8072306E+001 0.0 -8.0848973E+001  1.9373067E+001 0.0 -7.9234640E+001  1.4829004E+001 0.0 -9.9508242E+001  1.7785001E+001 0.0 -1.0142057E+002  2.0233406E+001 0.0 -1.2442854E+002  1.7922285E+001 0.0 -1.2645500E+002  2.3438381E+001 0.0 -1.6254014E+002  2.0060649E+001 0.0 -1.6223548E+002  2.8077236E+001 0.0 -1.5640399E+002  1.0729157E+001 0.0 -1.9738110E+002  1.2257517E+001 0.0 -1.9331608E+002  2.4279995E+000 0.0 -1.5777888E+002  4.7046605E+000 0.0 -9.7578959E+001  1.0693410E+001 0.0 -1.3319873E+002  2.8806318E+001 0.0 -1.6995978E+002  3.9528103E+001 0.0 -2.0858902E+002  3.7151781E+001 0.0 -2.2220544E+002  5.5612308E+001 0.0 -5.6215312E+001  2.4849308E+001 0.0 -1.4081299E+001  2.0235137E+001 0.0 -1.0376911E+001  5.0476820E+000 0.0 -9.6079482E+000  8.0369399E+000 0.0 -2.4123546E+002  4.2919454E+000 0.0 -2.4536027E+002  1.3243252E+001 0.0 -1.8099819E-001  2.8816592E-002 0.0 -2.8972351E-001  7.0953651E-002 0.0 -2.4530646E+001  5.8790552E+001 0.0 -1.7785478E+000  4.3499610E-001 0.0 -1.1359601E+000  3.2876158E-001 0.0 -2.7461459E+000  7.1091507E-001 0.0 -1.8416651E+001  4.4215455E+001 0.0 -1.4197777E+000  9.3943348E-001 0.0 -1.2048479E+000  8.7957610E-001 0.0 -1.7915022E+001  3.3787086E+001 0.0 -9.1941459E+001  1.0975605E+002 0.0 -1.0863586E+002  1.0320748E+002 0.0 -9.9187971E+001  7.1056934E+001 0.0 -1.3067884E+002  1.0140752E+002 0.0 -1.2275306E+002  7.2751013E+001 0.0 -1.5948141E+002  1.0937200E+002 0.0 -1.4295718E+002  3.5998027E+001 0.0 -2.3716038E+002 -7.8027122E+000 0.0 -1.9736652E+001  4.4719119E+001 0.0 -2.1625561E+001  4.6318669E+001 0.0 -1.2111187E+001  1.3943660E+001 0.0 -3.2527903E+001  1.5804725E+001 0.0 -2.6748431E+000  2.5313601E+000 0.0 -3.6658218E-001  2.4265396E-001 0.0 -4.8061457E+001  8.9128418E+001 0.0 -1.3098179E+001  1.4013741E+001 0.0 -8.3072156E-002  7.3888642E-003 0.0 -7.3980179E-002  7.9905853E-003 0.0 -5.9187516E+000  3.0148696E+000 0.0 -4.8148885E+000  2.7288653E+000 0.0 -1.8146003E+000  9.7427931E-001 0.0 -1.7423910E+002  1.5260358E+002 0.0 -2.1808187E+002  1.6587261E+002 0.0 -1.3351249E-001  1.5071167E-002 0.0 -2.7600535E+002  5.2412359E+001 0.0 -2.5312346E+002  3.4230261E+001 0.0 -2.8639468E+002  7.5472146E+001 0.0 -2.4868302E+002  7.3807268E+001 0.0 -3.1706334E+002  9.8994733E+001 0.0 -2.7995137E+002  9.7837702E+001 0.0 -4.4230170E-001  2.0512715E-001 0.0 -2.0291906E+001  3.5367587E+001 0.0 -1.8125825E+001  2.7535480E+001 0.0 -7.8703359E+001  7.5735003E+000 0.0 -7.6386948E+000  1.0277854E+001 0.0 -2.6817881E+000  3.8524026E+000 0.0 -1.5394554E+000  2.4917731E-001 0.0 -1.0623772E+000  3.1866134E-001 0.0 -9.2184265E-001  4.8466295E-001 0.0 -1.4048034E+002  6.2162376E+001 0.0 -3.3733323E+002  1.2307240E+002 0.0 -1.1169409E+001  1.4628022E+001 0.0 -9.9426060E+000  9.4711735E+000 0.0 -2.1427357E+000  9.4080787E-001 0.0 -7.8251574E+001  1.1912400E+002 0.0 -5.7694716E+001  8.1724691E+001 0.0 -7.0011891E+001  1.2699008E+002 0.0 -1.6634019E+001  2.0466259E+001 0.0 -1.2128348E+002  1.2499860E+001 0.0 -7.3813835E-001  5.9396446E-001 0.0 -6.0337418E-001  3.2853884E-001 0.0 -7.9060092E-001  5.7763633E-001 0.0 -6.7133486E-001  1.3529244E-001 0.0 -1.6150472E+001  2.6262031E+001 0.0 -1.2028820E+001  3.1663201E+000 0.0 -1.0502116E+001  7.6536383E+000 0.0 -9.8913768E+000  6.3299200E+000 0.0 -6.9314085E+000  4.0321138E+000 0.0 -1.0780640E+000  7.9089062E-001 0.0 -2.4148109E+001  8.8885114E+000 0.0 -3.0492725E+001  7.4042870E+000 0.0 -4.2983295E+000  1.4325854E+000 0.0 -6.4477275E+000  2.6550080E+000 0.0 -1.5891336E-001  5.2998775E-002 0.0 -1.6680753E-001  6.4569283E-002 0.0 -2.1130927E-001  9.7898108E-002 0.0 -2.7707741E-001  1.3273039E-001 0.0 -2.7105478E+000  3.6546266E+000 0.0 -4.3627615E+001  8.9409581E+001 0.0 -1.3083960E-001  3.2254259E-002 0.0 -7.4641878E+000  2.6111901E+000 0.0 -6.2602768E+001  1.2997639E+001 0.0 -5.1228871E+001  8.9909987E+000 0.0 -4.0665762E+001  1.1242360E+001 0.0 -2.2456110E+001  4.8606885E+001 0.0 -3.0481245E+001  7.2757875E+001 0.0 -2.2835532E-001  1.1371115E-001 0.0 -2.5819172E-001  8.4805171E-002 0.0 -4.2604347E+002  2.0386419E+002 0.0 -5.3471503E+002  2.6961577E+002 0.0 -3.9827543E+002  1.7168357E+002 0.0 -9.6774920E+001  8.5115823E-001 0.0 -2.5110132E+000  1.7561357E+000 0.0 -3.0456988E+000  1.6240989E+000 0.0 -4.0699930E-001  2.4573110E-001 0.0 -6.5328520E-001  3.0452652E-001 0.0 -1.4495981E+001  7.5661171E+000 0.0 -1.4683240E+001  5.4647685E+000 0.0 -9.9460558E-001  5.1149209E-001 0.0 -2.3588708E+002  8.8635414E+001 0.0 -1.6916558E+001  3.3601848E+001 0.0 -2.6749052E+002  1.5080503E+002 0.0 -3.1823107E+002  2.1566708E+002 0.0 -4.1658606E+002  2.8649138E+002 0.0 -2.3955506E+002  1.5555313E+002 0.0 -2.8901584E+002  2.2405454E+002 0.0 -2.0017370E+002  2.5767923E+001 0.0 -3.4371886E+001  8.6435059E+000 0.0 -1.1583087E-001  2.2944427E-002 0.0 -1.0004762E-001  1.4873232E-002 0.0 -4.9822797E-001  7.9155943E-002 0.0 -1.2488020E+002  3.1708704E+001 0.0 -2.1460230E+002  7.0986031E+001 0.0 -4.6373623E+002  2.8749820E+002 0.0 -1.3176168E+002  2.1011450E+000 0.0 -1.6161752E+002 -7.1477370E+000 0.0 -1.9507289E+002 -5.3181084E+000 0.0 -1.0540741E+002  1.6244298E+002 0.0 -5.7809385E+000  1.6330238E+000 0.0 -1.4657391E+002  1.6318613E+002 0.0 -6.1611908E+002  4.0988856E+002 0.0 -6.8227796E+002  4.1844480E+002 0.0 -7.5267212E-002  8.5406658E-003 0.0 -4.7773697E+000  2.5541573E+000 0.0 -2.9107722E+002 -4.8493645E+000 0.0 -9.5450827E-001  3.8693941E-001 0.0 -1.1085008E+001  2.5928895E+001 0.0 -1.9692747E+000  1.2160233E+000 0.0 -4.8145275E-001  2.8499345E-001 0.0 -3.0886393E-001  1.5341670E-001 0.0 -3.2243097E-001  9.6036549E-002 0.0 -3.5169747E+002  7.9458224E+001 0.0 -3.0712578E+002  1.2070834E+002 0.0 -7.0757205E+000  9.6218987E+000 0.0 -4.0459887E+000  5.6747650E+000 0.0 -1.8585035E-001  5.8492128E-002 0.0 -5.6779645E+001  1.2897730E+001 0.0 -2.6295895E+001  5.2188473E+001 0.0 -3.2718667E+001  6.6761694E+001 0.0 -2.0404014E+001  2.8675949E+001 0.0 -2.3251780E+000  4.3379741E-001 0.0 -1.8697938E+001  5.5925233E+000 0.0 -5.0018352E+000  2.9797553E+000 0.0 -4.3480671E-001 -1.1708215E-001 0.0 -2.9617022E+002 -2.0926867E+001 0.0 -3.1878584E+002 -1.6407797E+001 0.0 -2.4915582E+001  3.7192274E+001 0.0 -2.9886395E+002  7.3838052E+000 0.0 -2.8321914E+001  6.7837636E+001 0.0 -2.4387297E-001  3.2880619E-002 0.0 -3.3140375E-001  3.7199243E-002 0.0 -7.0704294E-002  4.6063237E-003 0.0 -1.8182668E-002  4.2659038E-004 0.0 -4.4259696E-002  2.8356768E-003 0.0 -6.3158239E+001  1.5446878E+001 0.0 -8.2725348E+001  1.9732305E+001 0.0 -1.3483174E+001  1.2141590E+001 0.0 -7.2411165E+000  1.3866207E+001 0.0 -5.1444118E+000  8.7774063E+000 0.0 -2.9032907E-002  1.2273963E-003 0.0 -2.1510955E+000  7.1310617E-001 0.0 -2.7076558E+000  5.1698172E-001 0.0 -3.5194797E+000  1.2235023E+000 0.0 -5.1347637E+002  3.7783070E+002 0.0 -4.4037876E+002  3.6411765E+002 0.0 -6.0325411E+002  3.3396144E+002 0.0 -6.9844323E+002  4.9215798E+002 0.0 -8.0195164E+000  2.9659880E+000 0.0 -3.1774196E+001  7.5907107E+001 0.0 -3.5583490E+001  8.3409828E+001 0.0 -3.2438547E+001  7.4619527E+001 0.0 -2.2146208E+001  5.3938283E+001 0.0 -2.6020097E+001  4.6601793E+001 0.0 -2.6820651E+001  3.6003244E+000 0.0 -6.1005492E+002  2.8764227E+002 0.0 -7.5565446E+000 -7.5953346E-001 0.0 -4.4593952E+000 -7.6791941E-001 0.0 -1.1725194E+001 -7.5550827E-001 0.0 -3.7351230E+000  8.0941337E-001 0.0 -6.9714520E+000  2.7415416E+000 0.0 -7.9515352E+002  4.8816939E+002 0.0 -8.8011330E-001 -4.0296575E-001 0.0 -3.1350327E+001 -1.4892381E+000 0.0 -1.3834619E+000 -6.0286161E-001 0.0 -1.9316558E+001 -7.0224076E-001 0.0 -3.3083446E+002  6.1189607E+000 0.0 -3.5243030E+002  3.6871011E+001 0.0 -3.1185109E+002  2.8970074E+001 0.0 -4.2955197E+002  1.1890214E+002 0.0 -6.8982188E-001 -3.6168668E-001 0.0 -4.9197373E+001 -1.7074642E+000 0.0 -2.9211935E+002  3.0008635E+002 0.0 -4.9182286E+002  1.8352459E+002 0.0 -7.9974879E+001 -3.9936246E+000 0.0 -2.1433899E+002  2.6184816E+002 0.0 -1.4638690E+001  1.3082802E+001 0.0 -1.4432418E+002  2.1378371E+002 0.0 -1.7393306E+001  1.8815700E+001 0.0 -2.0508900E+001  2.5426023E+001 0.0 -2.4693553E+002 -3.1147074E+001 0.0 -6.1013349E+001  1.4149460E+002 0.0 -2.7250754E+001  4.7396115E+001 0.0 -5.2926411E+001  1.3245732E+002 0.0 -4.2905939E+001  1.0225771E+002 0.0 -4.5393335E+001  1.1328600E+002 0.0 -6.6469935E-001  1.1975580E-001 0.0 -1.4715039E+000  1.0450525E+000 0.0 -2.1056688E+000  2.2137052E+000 0.0 -5.5028364E+001  1.5419739E+001 0.0 -3.8044492E+000  9.5901776E-001 0.0 -1.2002318E+002  1.5857874E+002 0.0 -3.7272993E-001  2.3272982E-001 0.0 -7.2782630E-001  3.6282781E-001 0.0 -4.0371319E-001  1.2741762E-001 0.0 -4.6757769E+000  1.2596538E+000 0.0 -1.6399502E+000  1.2900306E+000 0.0 -7.4782084E+001  4.2996102E+001 0.0 -1.1067433E-001  2.3117395E-002 0.0 -4.2320321E+000  3.2390949E+000 0.0 -5.5991206E+002  2.8984341E+002 0.0 -9.8088634E+000  4.0142995E+000 0.0 -7.8055835E-001  4.1965845E-001 0.0 -7.4740469E+001  1.5846596E+002 0.0 -2.2299738E+002  2.2131120E+002 0.0 -1.9142574E+002  1.1877324E+002 0.0 -1.3124363E+001  9.0702942E+000 0.0 -9.1827238E+000  5.7458925E+000 0.0 -5.7611286E+000  6.1875139E+000 0.0 -7.8844876E-001  2.2608102E-001 0.0 -4.5294657E+000  8.5730379E+000 0.0 -5.5419564E-001 -2.6457641E-001 0.0 -3.6699533E+001  1.1674086E+001 0.0 -4.9299575E+002  2.2271055E+002 0.0 -8.8118854E+002  5.8159891E+002 0.0 -1.1534525E+000  1.0451097E-001 0.0 -2.2485227E-001  3.7842469E-002 0.0 -2.0983415E-001  3.5120311E-002 0.0 -1.9167920E+002  5.2908516E+001 0.0 -1.0753072E+001  6.7505707E+000 0.0 -5.7860891E+001  1.2395032E+002 0.0 -8.4202465E-002  8.1017152E-003 0.0 -4.1787694E+000  2.3979843E+000 0.0 -9.9326986E+000  2.2357416E+000 0.0 -1.6687451E+002 -1.8884475E+001 0.0 -7.9379745E+000  3.7757458E+000 0.0 -2.1501580E-001  4.3092386E-002 0.0 -2.0556591E-001  5.2432328E-002 0.0 -9.2371620E+001  4.5570640E+001 0.0 -2.1179109E-001  9.0882956E-002 0.0 -2.9020829E+001  6.2622357E+001 0.0 -3.9893685E-002  1.6940981E-003 0.0 -2.6995803E+000  2.3240790E+000 0.0 -3.7875481E+001  4.5257042E+000 0.0 -2.5372812E+001  1.7978532E+001 0.0 -3.2281357E-001 -5.8412413E-002 0.0 -1.5445486E+001  2.1379837E+001 0.0 -5.0860542E-002  3.5406998E-003 0.0 -1.0405191E+002  2.2423470E+001 0.0 -4.1075614E+001  1.2253292E+001 0.0 -2.2316031E+000  2.3252241E+000 0.0 -3.0023110E+002  1.4947936E+001 0.0 -4.7565743E+000  6.2481143E+000 0.0 -2.6878893E+000 -5.7795096E-001 0.0 -4.5744205E+001  1.2151487E+001 0.0 -1.2335212E+001  1.0347892E+001 0.0 -1.6573866E+002  4.7552829E+001 0.0 -6.2307556E+001  7.1626455E+000 0.0 -2.3542300E+001  4.6606212E+000 0.0 -3.6819312E+002  2.8215547E+002 0.0 -4.3554958E+000  7.3475690E+000 0.0 -1.0729761E+002  2.4277446E+001 0.0 -3.1939053E+002  4.6079858E+001 0.0 -1.3841148E+000  2.9512307E-001 0.0 -2.7171383E+001  6.2363614E+001 0.0 -7.6094560E-001  1.0117612E-001 0.0 -4.1578469E-001 -1.6877927E-001 0.0 -2.1469268E+001  3.5770459E+001 0.0 -1.2173396E+001  2.2176815E+000 0.0 -1.4314718E-001  2.1269603E-002 0.0 -2.0520236E+001  2.9249153E+001 0.0 -8.0280933E+001 -6.8287260E+000 0.0 -4.0249688E+001  9.9908935E+001 0.0 -3.0274768E+002 -2.4974736E+001 0.0 -6.6536336E+000  3.3479911E+000 0.0 -8.7999452E-001  1.8573150E-001 0.0 -3.1722227E+000  4.6754449E+000 0.0 -1.5614364E+001  1.8299803E+001 0.0 -1.5006196E+001  3.7613463E+001 0.0 -4.4578479E+002  3.6034389E+002 0.0 -6.0931660E-002  5.7339166E-003 0.0 -5.7408392E+000  1.2066294E+001 0.0 -3.6277602E+000  6.1593886E+000 0.0 -4.4871966E-001  3.0170369E-001 0.0 -7.0551935E+001  2.5548250E+001 0.0 -5.8667999E-001  3.0724316E-001 0.0 -3.5626188E-001  9.3835519E-002 0.0 -4.8064535E+002  1.9667165E+002 0.0 -1.4652263E+001  2.8155359E+000 0.0 -1.8681853E+000 -3.7246189E-001 0.0 -2.1609329E-001  8.0187975E-003 0.0 -2.3619578E+002 -1.6351010E+001 0.0 -2.5827614E+002  2.4032603E+002 0.0 -3.9610078E+002  1.2944870E+002 0.0 -3.5447775E+002  9.6501806E+001 0.0 -1.3122631E+002 -1.6509362E+001 0.0 -2.4826742E+002  1.9884910E+001 0.0 -3.8239437E+002  6.8782846E+001 0.0 -2.3744100E-001  1.2635175E-001 0.0 -1.4198259E+001  1.4408840E+001 0.0 -5.4909600E+000  3.2453577E+000 0.0 -7.4816079E+002  4.8608441E+002 0.0 -1.8764364E+002  2.0657336E+002 0.0 -4.2623211E+002  1.6265014E+002 0.0 -5.6709550E+000  1.2897047E+000 0.0 -1.6995114E+000  2.0922307E-001 0.0 -9.0307528E-001  4.6931983E-001 0.0 -2.5292258E+001  4.6421310E+001 0.0 -1.6601760E-001  3.4621626E-002 0.0 -1.1312560E+002  4.4732260E+001 0.0 -2.9430476E+001  6.3321690E+001 0.0 -1.2441726E+000  4.9170325E-001 0.0 -5.6238870E-001  1.5788580E-001 0.0 -3.7349316E+001  9.1112226E+001 0.0 -7.1074128E+000  4.4345680E+000 0.0 -3.9334198E-001  8.0978816E-002 0.0 -6.4018542E+001  1.2983894E+002 0.0 -2.7860592E+001  5.6140737E+001 0.0 -3.6368041E+001  8.9467609E+001 0.0 -2.1987760E+001  3.5422210E+001 0.0 -5.1920196E+000  1.8834570E+000 0.0 -2.5544078E-001  5.0968423E-002 0.0 -3.3674827E-001  9.2350090E-002 0.0 -1.5190030E+002  8.2667205E+001 0.0 -2.2897486E+000  4.9377395E-001 0.0 -8.2732650E-001  4.4914056E-001 0.0 -6.0560284E+000  2.7184478E+000 0.0 -2.1238657E+002 -2.2702166E+001 0.0 -5.6364497E+002  3.7274892E+002 0.0 -9.5247738E+001  1.7128746E+002 0.0 -3.1173972E+001  7.3375384E+001 0.0 -2.7635527E-002  8.6794572E-004 0.0 -9.6366430E-002  9.5007123E-003 0.0 -3.2657223E+001  7.6529012E+001 0.0 -7.1785225E+001  2.3894384E+000 0.0 -5.6192071E-001  3.7274102E-002 0.0 -8.7186556E+000  4.8891891E+000 0.0 -9.5463041E-001  1.3069949E-001 0.0 -5.6494669E-002  4.5946543E-003 0.0 -1.6562160E+000  8.2445714E-001 0.0 -1.0764196E+001  1.5163768E+001 0.0 -7.0358202E+002  4.1004763E+002 0.0 -2.2890604E+001  4.4551605E+001 0.0 -2.0651004E+002  1.8108239E+001 0.0 -2.6651909E+000  3.3820884E+000 0.0 -8.4616235E+001  2.0005740E+001 0.0 -2.5542186E+002  9.2203389E+001 0.0 -3.3005546E+002  5.9191613E+001 0.0 -1.0977945E+002  6.3677544E+000 0.0 -4.4069944E+001  4.6693055E+000 0.0 -8.6959167E-001  6.8063585E-002 0.0 -1.2236564E+001  4.7989329E+000 0.0 -2.5289927E-001  1.0811820E-001 0.0 -2.4123242E+001  4.9253571E+001 0.0 -1.3459665E+002 -6.6561570E+000 0.0 -5.2178078E+001  1.1970863E+002 0.0 -5.1564523E+000  3.1996201E+000 0.0 -7.9594244E+000  4.0719819E+000 0.0 -3.2028311E+000  4.1103554E+000 0.0 -1.1063530E+001  2.7166014E+001 0.0 -5.4601578E+001  9.4521061E+001 0.0 -4.9256982E+001  2.9267920E+001 0.0 -3.5415142E+001  1.2160941E+001 0.0 -3.5580744E+001  5.8624434E+000 0.0 -1.8071109E+000  2.0535265E+000 0.0 -2.4566014E+000  3.8077684E+000 0.0 -3.1580053E+000  6.3084466E+000 0.0 -4.2371011E+000  9.8001739E+000 0.0 -8.0444065E+000  1.7729527E+001 0.0 -1.1498880E+001  1.9240994E+001 0.0 -2.7363265E+001  3.1477749E+001 0.0 -2.4723242E+001  5.7944862E-001 0.0 -2.3344188E+001 -2.3825070E+000 0.0 -4.9343038E+001  4.2820655E+001 0.0 -1.4098858E+000  1.1566243E+000 0.0 -4.5312394E+001  2.5918868E+001 0.0 -3.1706419E+002  3.6909126E+002 0.0 -4.0438159E+000  2.0893802E-001 0.0 -9.9789761E-001  4.8204899E-001 0.0 -1.8855762E+001 -2.0399890E+000 0.0 -1.4644765E+002  1.8330134E+002 0.0 -6.2137017E+001  2.9824317E+001 0.0 -3.4797501E+001  1.0906730E+001 0.0 -8.7150610E-001  4.8378922E-002 0.0 -4.8386131E+001  3.8176464E+001 0.0 -2.7481514E+002  2.8027817E+002 0.0 -3.6420546E+002  4.7654542E+002 0.0 -1.9740649E+002  1.5602913E+002 0.0 -8.0695767E+001  2.9282120E+001 0.0 -4.1060911E-001  1.0875484E-001 0.0 -2.6765353E+001  3.9520938E+000 0.0 -9.0421241E+001  9.2916800E+001 0.0 -1.8026396E+001 -1.5328177E+000 0.0 -3.6908143E-001  2.3953657E-002 0.0 -2.0991127E+002  2.9145939E+002 0.0 -1.3344614E+002  7.2343209E+001 0.0 -2.4545074E+002  2.2422052E+002 0.0 -3.6425164E+002  5.1076266E+002 0.0 -2.3748849E+001 -1.0038209E+000 0.0 -2.3999340E+001  3.2252700E+001 0.0 -3.4469186E+001  3.4250962E+001 0.0 -2.7071104E+001  2.4264952E+000 0.0 -3.1088515E+001  8.2177665E+000 0.0 -1.0594443E+000  6.8813694E-001 0.0 -1.1322036E+001  2.1567588E+001 0.0 -1.5603685E+000  1.5093124E+000 0.0 -2.0018976E+000  2.5740041E+000 0.0 -5.2584880E+000  1.1998786E+001 0.0 -3.1101566E+000  5.4822375E+000 0.0 -3.6202806E+000  7.9037481E+000 0.0 -5.3248513E+001  4.3664951E+001 0.0 -1.7976678E-001  9.7103203E-003 0.0 -3.2662092E+001  5.4346165E+000 0.0 -6.5495647E+001  5.6152202E+001 0.0 -3.5511546E+002  5.3545218E+002 0.0 -1.9558684E+001 -1.4140642E-001 0.0 -2.0228538E-001  2.0665419E-002 0.0 -2.1678735E+001  1.2763339E+000 0.0 -2.7557692E+001  3.0076092E+000 0.0 -2.9863034E+001  5.8240713E+000 0.0 -3.1167077E+001  4.7030519E+000 0.0 -2.7783243E+001  2.2488364E+000 0.0 -3.1826271E+001  3.8300746E+000 0.0 -3.4376314E+001  6.6268315E+000 0.0 -3.5240235E+001  5.5491077E+000 0.0 -3.8479128E+001  8.4574177E+000 0.0 -3.9597217E+001  7.6489119E+000 0.0 -4.2962618E+001  1.1278233E+001 0.0 -4.5134887E+001  1.0599512E+001 0.0 -4.8337616E+001  1.4392905E+001 0.0 -5.0367234E+001  1.4400158E+001 0.0 -5.4090466E+001  1.9039606E+001 0.0 -5.7394972E+001  1.9566075E+001 0.0 -6.0736828E+001  2.4386620E+001 0.0 -6.5052955E+001  2.6204717E+001 0.0 -6.8499783E+001  3.1650517E+001 0.0 -7.3788147E+001  3.4764479E+001 0.0 -7.8063671E+001  4.0383047E+001 0.0 -8.5122832E+001  4.6210119E+001 0.0 -8.9856015E+001  5.2228490E+001 0.0 -9.7734130E+001  6.0040774E+001 0.0 -1.0540900E+002  6.9869910E+001 0.0 -9.5052518E+001  5.9033021E+001 0.0 -1.1248585E+002  8.0411389E+001 0.0 -1.0005629E+002  6.8330909E+001 0.0 -1.1913681E+002  9.2288800E+001 0.0 -1.0493633E+002  7.8751608E+001 0.0 -1.2450608E+002  1.0542531E+002 0.0 -1.0732154E+002  8.8872933E+001 0.0 -1.2891218E+002  1.1930069E+002 0.0 -8.9690556E+001  5.1903280E+001 0.0 -1.0314941E+002  6.7109866E+001 0.0 -9.5267389E+001  6.0882455E+001 0.0 -1.0790762E+002  7.5223540E+001 0.0 -1.0197079E+002  7.1346762E+001 0.0 -1.1293169E+002  8.4119072E+001 0.0 -1.0566493E+002  7.9466555E+001 0.0 -1.1967128E+002  8.9592837E+001 0.0 -1.1879655E+002  9.3865347E+001 0.0 -1.0835701E+002  8.6427630E+001 0.0 -5.1850970E+001  1.8354227E+001 0.0 -1.1034234E+002  1.0044037E+002 0.0 -8.5058582E+001  4.8491957E+001 0.0 -9.5284318E+001  7.2854650E+001 0.0 -9.6468999E+001  7.8926848E+001 0.0 -5.7795834E+001  2.0519449E+001 0.0 -1.1080266E+002  9.2797013E+001 0.0 -9.9720764E+001  8.5621402E+001 0.0 -8.7163053E+001  7.4972811E+001 0.0 -8.8689346E+001  7.9197863E+001 0.0 -7.7533595E+001  7.0300319E+001 0.0 -7.5869247E+001  7.1930352E+001 0.0 -9.0129781E+001  8.3309096E+001 0.0 -7.8173820E+001  7.5422555E+001 0.0 -6.5251171E+001  6.6618087E+001 0.0 -6.6635484E+001  6.8019142E+001 0.0 -5.5158516E+001  6.0420613E+001 0.0 -5.3871046E+001  5.9377565E+001 0.0 -6.7997950E+001  6.9163095E+001 0.0 -5.6909030E+001  6.0715008E+001 0.0 -9.3820883E+001  8.7310321E+001 0.0 -4.4110192E+001  5.2938540E+001 0.0 -4.6149684E+001  5.2502203E+001 0.0 -5.9755747E+001  6.1348807E+001 0.0 -4.6217237E+001  5.0270667E+001 0.0 -6.2992285E+001  6.0658352E+001 0.0 -5.0296672E+001  4.9584617E+001 0.0 -3.6781147E+001  4.2637595E+001 0.0 -3.9771461E+001  4.0771192E+001 0.0 -2.8851371E+001  3.5077012E+001 0.0 -3.0710402E+001  3.3177538E+001 0.0 -1.3106528E+002  1.3292057E+002 0.0 -7.7685387E+001  6.6050024E+001 0.0 -3.5386032E+001  4.5576207E+001 0.0 -4.3653068E+001  9.5317267E+000 0.0 -4.2514444E+001  3.9403323E+001 0.0 -3.2535965E+001  3.1592231E+001 0.0 -6.9937761E+001  6.1548179E+001 0.0 -2.2631974E+001  2.6630060E+001 0.0 -2.4563503E+001  2.4655294E+001 0.0 -3.4190761E+001  2.9647296E+001 0.0 -2.5676232E+001  2.2518439E+001 0.0 -3.5816960E+001  2.6557442E+001 0.0 -2.6578021E+001  2.0148300E+001 0.0 -1.9210839E+001  1.7771565E+001 0.0 -1.9533202E+001  1.5116374E+001 0.0 -2.6643087E+001  1.7644479E+001 0.0 -1.9482992E+001  1.2893657E+001 0.0 -1.3937238E+001  1.1518934E+001 0.0 -1.4043476E+001  9.4006584E+000 0.0 -1.8816829E+001  1.0809290E+001 0.0 -1.3101399E+001  7.3531734E+000 0.0 -1.7920500E+001  8.5070405E+000 0.0 -1.2285274E+001  5.6528634E+000 0.0 -1.7683186E+001  2.1418145E+001 0.0 -8.9453995E+000  5.2928160E+000 0.0 -8.4823250E+000  3.9665696E+000 0.0 -1.4384485E+002  1.2203390E+002 0.0 -9.0130909E+001  6.9165899E+001 0.0 -1.1083859E+002  1.1245932E+002 0.0 -1.6114133E+001  2.1876504E+001 0.0 -9.9439267E+000  8.3307668E+000 0.0 -1.0352998E+001  9.7325354E+000 0.0 -1.5887886E+001  6.2621229E+000 0.0 -3.5571124E+001  4.9885062E+000 0.0 -1.5658060E+002  1.5572737E+002 0.0 -2.4296766E+001  1.1956916E+001 0.0 -9.4430002E+001  8.7377402E+001 0.0 -1.5954687E+002  1.7271464E+002 0.0 -1.1575237E+002  1.0008861E+002 0.0 -6.8828339E+001  6.2343957E+001 0.0 -6.0450810E+000  3.6027704E+000 0.0 -5.8461152E+000  2.7184821E+000 0.0 -4.7455615E+001  3.5628468E+001 0.0 -4.9106276E+001  3.0639604E+001 0.0 -7.4785554E+000  2.9196419E+000 0.0 -5.1519208E+000  1.9400888E+000 0.0 -7.7590202E+001  7.1854101E+001 0.0 -3.4930848E+001  4.5067034E+001 0.0 -8.5388945E+001  5.2654738E+001 0.0 -2.7523695E+001  3.9124851E+001 0.0 -6.9503737E+001  5.8593422E+001 0.0 -1.2912181E+002  1.1023037E+002 0.0 -7.4743600E+000  7.3916066E+000 0.0 -1.2752752E+001  1.8021933E+001 0.0 -4.0089781E+000  1.9289529E+000 0.0 -3.3481993E+000  1.2618206E+000 0.0 -4.2563514E+000  1.2923253E+000 0.0 -2.8193347E+001  1.6986084E+000 0.0 -7.2877729E+000  8.0386824E+000 0.0 -2.8259504E+000  7.9987315E-001 0.0 -2.6979935E+001  3.8260183E+001 0.0 -1.1224111E+001  1.7713396E+001 0.0 -9.4256251E+001  9.7485469E+001 0.0 -6.4305424E+001  2.9496836E+001 0.0 -8.1416282E+001  7.6617290E+001 0.0 -4.1663702E+001  1.1739183E+001 0.0 -1.9013318E+002  2.0516943E+002 0.0 -1.9297289E+002  2.2697146E+002 0.0 -6.5834195E+000  4.5479154E+000 0.0 -4.7236614E+000  3.3971695E+000 0.0 -4.9354117E+000  3.9892055E+000 0.0 -6.1034241E+001  5.5619003E+001 0.0 -2.2293789E+000  8.3954902E-001 0.0 -1.8563137E+000  5.1469915E-001 0.0 -2.0769417E+001  3.2681665E+001 0.0 -2.2172548E+001  3.3285243E+001 0.0 -1.2872142E+002  9.5406260E+001 0.0 -3.3527281E+001  4.3696662E+001 0.0 -6.2550881E+001  5.2305022E+001 0.0 -6.8738430E+001  5.4464795E+001 0.0 -1.3831222E+002  1.2099857E+002 0.0 -1.5511646E+002  1.3653096E+002 0.0 -1.4656771E+001  2.1826411E+001 0.0 -1.0633257E+001  1.8184042E+001 0.0 -1.3622114E+001  2.1826142E+001 0.0 -1.6123539E+002  1.9014754E+002 0.0 -5.3195277E+000  6.2438651E+000 0.0 -9.1360665E+000  1.4878119E+001 0.0 -1.0179333E+001  1.4659181E+001 0.0 -9.5763020E+000  1.0322974E+001 0.0 -6.9617182E+000  8.6001408E+000 0.0 -9.0202276E+000  1.0795530E+001 0.0 -6.5736513E+000  9.0554151E+000 0.0 -5.4734222E+001  5.7739349E+001 0.0 -2.5142288E+001  7.2198966E-001 0.0 -2.5396898E+001 -5.4349739E-002 0.0 -8.1391198E+001  8.3472552E+001 0.0 -9.7027719E+001  1.0846728E+002 0.0 -6.4154969E+001  4.9518942E+001 0.0 -6.9105757E+001  5.0917483E+001 0.0 -6.4840598E+001  4.6063680E+001 0.0 -6.9296568E+001  4.7450641E+001 0.0 -6.5395143E+001  4.2396070E+001 0.0 -6.9456326E+001  4.4081464E+001 0.0 -6.5624949E+001  3.9203499E+001 0.0 -7.4636547E+001  5.0592498E+001 0.0 -6.9492180E+001  4.1118203E+001 0.0 -6.5287312E+001  3.5834323E+001 0.0 -6.9740766E+001  3.8143585E+001 0.0 -6.4637559E+001  3.2803624E+001 0.0 -7.5064608E+001  4.5188899E+001 0.0 -5.9538998E+001  3.0089767E+001 0.0 -5.9867172E+001  2.7799355E+001 0.0 -6.4004737E+001  3.0071134E+001 0.0 -5.8497990E+001  2.4793251E+001 0.0 -6.3403720E+001  2.7969201E+001 0.0 -5.8449125E+001  2.2917540E+001 0.0 -5.3447252E+001  1.9862430E+001 0.0 -5.3202853E+001  1.8566163E+001 0.0 -4.8638960E+001  1.5823044E+001 0.0 -4.8127534E+001  1.4846787E+001 0.0 -4.7505048E+001  1.7309197E+001 0.0 -6.3249784E+001  2.5828355E+001 0.0 -2.8298766E+001  1.1592493E+000 0.0 -7.4542478E+001  5.6682136E+001 0.0 -2.6641596E+001  3.7267333E+001 0.0 -3.2587720E+001  4.1744200E+001 0.0 -3.6044003E+000  2.9954262E+000 0.0 -3.4843554E+000  2.5225034E+000 0.0 -1.5163690E+000  5.4959854E-001 0.0 -1.2188527E+000  3.1831577E-001 0.0 -1.8118328E+000  7.8869699E-001 0.0 -4.3715547E+001  1.2208463E+001 0.0 -4.3919973E+001  1.1517238E+001 0.0 -4.8126012E+001  1.3900599E+001 0.0 -4.3851017E+001  1.0683651E+001 0.0 -3.9717891E+001  8.5419561E+000 0.0 -3.9549187E+001  8.1370117E+000 0.0 -3.6708615E+000  3.4183897E+000 0.0 -2.3168341E+002  2.7131137E+002 0.0 -2.2358447E+002  2.4510259E+002 0.0 -2.3764191E+002  2.9710815E+002 0.0 -5.6695458E+000  5.6743358E+000 0.0 -7.2104170E+000  1.2323493E+001 0.0 -7.8995903E+000  1.2007924E+001 0.0 -1.0623505E+001  1.4117970E+001 0.0 -3.2967542E+000  7.0280392E-001 0.0 -5.1665712E+000  1.2413473E+000 0.0 -1.6765583E+001  2.8405360E+001 0.0 -1.7535277E+001  2.8750070E+001 0.0 -2.2958029E+001  3.3637567E+001 0.0 -1.8074951E+001  2.8249621E+001 0.0 -1.3608566E+001  2.4474809E+001 0.0 -4.8145508E+001  1.3005618E+001 0.0 -6.8667803E+001  3.2402215E+001 0.0 -9.8114619E+000  1.8105241E+001 0.0 -4.1452694E+000  4.8883790E+000 0.0 -7.0276455E+001  6.6367840E+001 0.0 -7.0123036E+001  6.0298316E+001 0.0 -5.4660902E+001  2.5129970E+001 0.0 -1.0227017E+000  3.4963008E-001 0.0 -3.5459472E+000  5.4947502E-001 0.0 -1.3974150E+000  2.8177573E-001 0.0 -7.1617582E+001  7.2218054E+001 0.0 -1.2493637E+001  2.1620269E+001 0.0 -8.8954332E-001  1.5765552E-001 0.0 -6.0373415E+000  1.0996504E+000 0.0 -5.6078391E+000  1.0046736E+001 0.0 -3.5591607E+001  6.1055181E+000 0.0 -3.6169408E+001  5.7164994E+000 0.0 -3.5124889E+001  7.1720027E+000 0.0 -3.9600931E+001  7.6821126E+000 0.0 -3.6009984E+001  5.4368500E+000 0.0 -3.2844955E+001  3.5260341E+000 0.0 -3.2744310E+001  3.3752789E+000 0.0 -3.6025603E+001  5.1211168E+000 0.0 -3.2573920E+001  3.3370696E+000 0.0 -7.6561257E+000  1.5082852E+001 0.0 -6.7371791E+000  1.2334916E+001 0.0 -5.5364981E+001  5.0127286E+001 0.0 -5.3542377E+001  5.1704309E+001 0.0 -4.8110571E+001  4.6547043E+001 0.0 -4.5873889E+001  4.7613257E+001 0.0 -2.9918843E+001  1.4785736E+000 0.0 -2.9426669E+001  1.7479498E+000 0.0 -2.5264360E+001 -5.7875644E-001 0.0 -6.7632391E+001  4.3611908E+001 0.0 -6.9616182E+001  3.7092464E+001 0.0 -5.3693835E+001  2.7468269E+001 0.0 -5.0185091E+000  7.2543088E+000 0.0 -4.9141137E+000  7.6308671E+000 0.0 -1.6909933E+001  2.5354064E+001 0.0 -6.0837446E+000  9.7634901E+000 0.0 -6.5381084E+000  5.2981215E+000 0.0 -2.6505150E+001  3.5897313E+001 0.0 -3.2205117E+001  4.0480830E+001 0.0 -2.1340807E+001  3.1749741E+001 0.0 -9.0942123E+000  1.7957933E+001 0.0 -3.8749391E+001  4.5742525E+001 0.0 -2.7385494E+000  2.6356388E+000 0.0 -1.6280726E+001  2.7378363E+001 0.0 -3.9285664E+000  5.1097550E+000 0.0 -3.0412900E+000  4.1106420E+000 0.0 -8.8030100E+001  5.4763955E+001 0.0 -8.8826950E+001  6.0253365E+001 0.0 -7.4574309E+001  4.1504233E+001 0.0 -8.1194323E+001  4.2613965E+001 0.0 -1.7046870E+002  1.5113630E+002 0.0 -1.4442965E+002  1.2665809E+002 0.0 -2.4881739E+001  3.4279161E+001 0.0 -4.4596505E+000  4.5917982E+000 0.0 -3.6900391E+000  4.4052098E-001 0.0 -2.2880933E+001 -6.8677816E-001 0.0 -2.2354674E+001  9.2197060E-002 0.0 -4.6208511E+001  2.3303541E+001 0.0 -6.7458350E+001  2.9404981E+001 0.0 -6.0801409E+001  5.4442131E+001 0.0 -2.7869484E+001  7.5571247E-001 0.0 -2.5236941E+001 -8.4908385E-001 0.0 -2.9912386E+001  3.8947626E+001 0.0 -6.1995232E+001  4.2368573E+001 0.0 -1.9181975E+002  1.7516002E+002 0.0 -1.6737089E+002  1.4704577E+002 0.0 -8.4760641E+000  1.1226153E+001 0.0 -1.1305333E+001  1.3044966E+001 0.0 -7.9495685E+000  2.1521172E+000 0.0 -9.7950618E+000  1.9827938E+000 0.0 -5.9737383E+001  4.7483842E+001 0.0 -9.2463998E+001  6.1924872E+001 0.0 -2.7345201E+001  1.8348018E-001 0.0 -3.8537077E+001  4.4727361E+001 0.0 -3.2253691E+001  3.8091706E+001 0.0 -4.1167269E+001  4.2591336E+001 0.0 -2.7777545E+002  3.4879785E+002 0.0 -2.9253713E+002  3.9583889E+002 0.0 -2.3820253E+002  3.2062671E+002 0.0 -1.3315424E+001  2.4257496E+001 0.0 -5.2444859E+001  1.5369142E+001 0.0 -1.0435764E+002  9.3807056E+001 0.0 -8.4396498E+001  6.8148354E+001 0.0 -8.6084973E+001  6.4202074E+001 0.0 -1.1401060E+001  2.1095944E+001 0.0 -5.2718511E+001  1.6716730E+001 0.0 -6.4229705E+001  6.2443925E+001 0.0 -5.3688101E+000  6.9578330E+000 0.0 -4.0585814E+000  6.0283001E+000 0.0 -1.0364955E+001  7.3705462E+000 0.0 -3.0535984E+001  2.4616639E+000 0.0 -3.3022962E+001  3.5634621E+000 0.0 -2.8386812E+000  2.9749490E+000 0.0 -3.0080236E+002  4.3019927E+002 0.0 -7.8492688E+000  1.6120718E+001 0.0 -4.0104131E+001  7.4086530E+000 0.0 -4.3543032E+000  2.5409981E+000 0.0 -3.0883285E+000  1.8073142E+000 0.0 -2.7743367E+000  1.3817849E+000 0.0 -2.2075390E+000  1.3001828E+000 0.0 -2.4388005E+000  1.6272939E+000 0.0 -1.7448890E+000  1.2033525E+000 0.0 -1.6521558E+000  9.5922835E-001 0.0 -5.1139670E+001  5.3370536E+001 0.0 -5.9068508E+001  4.7321985E+001 0.0 -6.8247359E+001  5.5363483E+001 0.0 -5.8747401E+001  4.2780489E+001 0.0 -6.7422796E+001  4.9084797E+001 0.0 -5.7421447E+001  3.8053706E+001 0.0 -6.5984628E+001  4.2632380E+001 0.0 -4.3217782E+001  1.3491876E+001 0.0 -3.8672429E+001  1.0450945E+001 0.0 -4.2732030E+001  1.5171852E+001 0.0 -4.5320798E+001  1.7760556E+001 0.0 -5.1864159E+001  2.1141896E+001 0.0 -4.6838690E+001  1.8618775E+001 0.0 -3.9553344E+001  9.3045843E+000 0.0 -5.9526565E+001  3.3251170E+001 0.0 -3.5113031E+001  8.0927583E+000 0.0 -1.8189541E+001  1.9357084E+001 0.0 -2.2630696E+001 -1.3410869E+000 0.0 -7.2398943E+000  1.5147064E+001 0.0 -5.2809558E+000  1.1592969E+001 0.0 -6.2808122E+000  1.2707282E+001 0.0 -8.1269898E+000  1.5068868E+001 0.0 -1.2761342E+000  5.7535347E-001 0.0 -2.3176190E+001  2.9580290E+001 0.0 -5.3494523E+000  1.0417080E+001 0.0 -4.4548143E+000  9.1153495E+000 0.0 -6.3673759E+001  3.8912275E+001 0.0 -4.8582198E+001  2.2077343E+001 0.0 -6.2940653E+001  3.2574991E+001 0.0 -4.3113113E+000  8.1763831E+000 0.0 -1.3431190E+001  2.4574684E+001 0.0 -1.0315723E+001  2.0217261E+001 0.0 -2.6423554E+000  2.2544164E+000 0.0 -5.6394397E+001  4.6526083E+001 0.0 -2.2132694E+001 -1.6976067E+000 0.0 -3.2900028E+000  3.8891218E+000 0.0 -1.9002768E+001 -1.7411422E+000 0.0 -2.1639941E+001  3.2889214E+001 0.0 -1.6787430E+001  2.6764360E+001 0.0 -2.1399188E+001  3.0782599E+001 0.0 -1.4094999E+001  1.3605437E+001 0.0 -3.5289869E+001  6.4996134E+000 0.0 -6.7198393E+001  4.9909000E+001 0.0 -7.3363254E+000  6.4401456E+000 0.0 -1.1577757E+002  1.0376195E+002 0.0 -1.3796795E+002  1.1945499E+002 0.0 -9.9828081E+001  9.0775825E+001 0.0 -1.2043158E+002  1.0342721E+002 0.0 -4.1163749E+001  3.8069345E+001 0.0 -9.3248682E-001  4.0232201E-001 0.0 -6.9471103E-001  2.1451976E-001 0.0 -7.7112877E-001  2.0028700E-001 0.0 -5.4572061E-001  9.4489919E-002 0.0 -4.2313804E+001  5.0115378E+001 0.0 -4.7180535E+000  7.9454449E+000 0.0 -6.4527367E+001  2.7356768E+001 0.0 -4.1745740E+001  1.6655075E+001 0.0 -4.9984210E+001  3.4941041E+001 0.0 -2.2260537E+002  2.1334174E+002 0.0 -1.8933022E+002  1.7159055E+002 0.0 -2.3915223E+002  2.3902538E+002 0.0 -2.0586030E+002  1.9390788E+002 0.0 -1.6164353E+002  1.3684692E+002 0.0 -1.7935952E+002  1.5946414E+002 0.0 -2.2020156E+002  2.1785860E+002 0.0 -1.9165798E+002  1.7893899E+002 0.0 -2.3466064E+002  2.4397310E+002 0.0 -2.0280487E+002  2.0015631E+002 0.0 -2.4941675E+002  2.7310722E+002 0.0 -2.8593434E+002  3.2766642E+002 0.0 -1.5582553E+002  1.3137783E+002 0.0 -1.5237410E+002  1.2802534E+002 0.0 -3.7715401E+001  1.5645152E+001 0.0 -4.2486493E+001  1.5648692E+001 0.0 -4.5453337E+001  2.1550906E+001 0.0 -5.1659779E+001  2.2066903E+001 0.0 -5.4028136E+001  2.8139732E+001 0.0 -3.6879026E+001  1.0380894E+001 0.0 -6.1605414E+001  2.9688826E+001 0.0 -6.4638516E+001  3.6785239E+001 0.0 -5.0759165E-001  5.9051177E-002 0.0 -1.9256584E+000  1.5118162E+000 0.0 -1.1333301E+001  2.2123937E+001 0.0 -7.5945812E+000  1.5884871E+001 0.0 -7.2411981E+001  5.6870256E+001 0.0 -7.6222072E+000  5.6183868E-001 0.0 -5.4065846E+001  3.2140467E+001 0.0 -7.6458208E+001  4.6964108E+001 0.0 -2.7005943E+001  3.4979760E+001 0.0 -5.7158350E+001  3.1602676E+001 0.0 -2.9913241E+001  1.8979060E+000 0.0 -3.4088101E+001  7.5806446E+000 0.0 -3.1819766E+001  4.1608622E+000 0.0 -3.0132671E+001  2.2623292E+000 0.0 -1.1433448E+002  7.9095715E+001 0.0 -6.1404491E+001  2.3942436E+001 0.0 -1.3515941E+001  1.3590924E+000 0.0 -2.0602442E+001  3.7152399E+000 0.0 -4.0758701E+001  1.0442936E+001 0.0 -2.8466398E+001  8.6734748E+000 0.0 -1.7773442E+000  1.7321714E-001 0.0 -4.7674346E+000  4.4029960E+000 0.0 -9.1107621E-001  1.0926073E-001 0.0 -1.4899373E+000  2.3304917E-001 0.0 -3.1984488E+001  5.0142858E+000 0.0 -1.2484296E+001  3.7718544E+000 0.0 -1.6182485E+001  4.2291243E+000 0.0 -2.4210205E+001  1.4578625E+000 0.0 -5.5140298E-001  4.1955661E-002 0.0 -2.8147674E+001  2.9580826E-001 0.0 -5.3965588E+001  4.7051286E+001 0.0 -2.5560224E+002  2.6720950E+002 0.0 -4.5374061E+001  5.0835489E+001 0.0 -2.6528755E+001  5.6676466E+000 0.0 -1.5085438E+002  1.3915674E+002 0.0 -7.9022057E+001  6.1427018E+001 0.0 -1.8352852E+002  1.8300528E+002 0.0 -1.3228524E+002  1.4666447E+002 0.0 -1.3688229E+002  1.5899577E+002 0.0 -1.6500748E+002  2.1232875E+002 0.0 -1.4144231E+002  1.7554550E+002 0.0 -1.7228352E+002  2.3036574E+002 0.0 -1.2078670E+002  1.4242759E+002 0.0 -1.1055174E+002  1.2612843E+002 0.0 -9.0785864E+001  7.7261814E+001 0.0 -1.9377765E+002  2.4971164E+002 0.0 -8.3919965E+001  9.1766125E+001 0.0 -2.6541081E+002  3.1313794E+002 0.0 -6.2165916E+001  5.8893625E+001 0.0 -6.6004011E+001  6.2426161E+001 0.0 -7.8965046E+001  6.8570769E+001 0.0 -3.4114335E+002  4.2801896E+002 0.0 -1.3275871E+002  8.5810465E+001 0.0 -3.0413062E+002  4.3501778E+002 0.0 -2.9860426E+002  4.4829718E+002 0.0 -2.2895675E+002  2.2114620E+002 0.0 -8.4658279E+001  4.3303932E+001 0.0 -1.5486665E+002  1.1291472E+002 0.0 -1.3494528E+002  1.0850512E+002 0.0 -2.0026405E+002  1.7269718E+002 0.0 -7.2947471E+001  6.4411352E+001 0.0 -1.0676453E+002  1.1650190E+002 0.0 -3.1359310E+002  4.2052298E+002 0.0 -1.9967921E+002  2.7644195E+002 0.0 -7.5053811E+001  7.7791720E+001 0.0 -2.0585190E+001 -1.1589411E+000 0.0 -1.9945425E+001 -4.4763833E-001 0.0 -3.7849649E+000  6.2604864E+000 0.0 -3.9136595E+000  7.1358892E+000 0.0 -2.7283758E+001  4.3912236E-001 0.0 -2.5618503E+001 -1.0569424E+000 0.0 -1.0658741E+002  7.0553508E+001 0.0 -7.2017033E-001  1.5266900E-001 0.0 -2.9971455E-001  4.2101084E-002 0.0 -7.7684736E+001  7.7782232E+001 0.0 -6.6515431E+001 -2.5975946E+000 0.0 -6.4588408E+001  7.4856036E+001 0.0 -6.5516394E+001  2.2286607E+000 0.0 -7.0990671E+001  7.7773324E+000 0.0 -8.1397247E+001  2.4963199E+001 0.0 -3.6940705E+001  1.1346347E+001 0.0 -2.1362437E+000  1.2999321E+000 0.0 -2.9949447E+000  2.3253355E+000 0.0 -2.1333912E+001  3.2443217E+001 0.0 -3.6365483E+000  3.3975327E+000 0.0 -2.1263987E+000  1.8440440E+000 0.0 -2.6744684E+001  4.6478191E+001 0.0 -3.8554323E+000  4.2590716E+000 0.0 -2.9162156E+000  4.1032375E+000 0.0 -4.6975199E+000  6.0054892E+000 0.0 -2.7220186E+000  3.1976617E+000 0.0 -9.6051966E+000  2.3101259E+001 0.0 -1.3948037E+001  3.2194214E+001 0.0 -6.1850048E+000  9.5315067E+000 0.0 -6.0098403E+000  1.0440008E+001 0.0 -8.3501561E+000  1.9785301E+001 0.0 -1.1488305E+002  8.7213991E+001 0.0 -1.6625878E+001 -9.6606235E-001 0.0 -3.6310269E+001  5.2723400E+000 0.0 -5.4424247E+001  4.5602098E+001 0.0 -4.6863078E+001  3.8450191E+001 0.0 -4.6019487E+001  5.3026082E+001 0.0 -5.7500379E+001  2.0826886E+001 0.0 -3.1626583E+001  2.8399863E+000 0.0 -3.9671217E+001  7.4439278E+000 0.0 -4.4116774E+001  1.0091345E+001 0.0 -2.6221355E+002  2.8038361E+002 0.0 -2.3964904E+002  3.4787529E+002 0.0 -1.1295545E+002  1.3243958E+002 0.0 -5.1529827E+001 -4.9833839E+000 0.0 -1.3418306E+002  1.0209919E+002 0.0 -9.7130384E+001  1.1168637E+002 0.0 -8.0087388E+001  6.4548124E+001 0.0 -5.2360611E+001  1.1991025E+001 0.0 -8.1648258E+001  4.4585636E+001 0.0 -2.9165768E+002  3.5003570E+002 0.0 -1.5601245E+001  2.5033169E+001 0.0 -9.4874338E+000  1.9481201E+001 0.0 -1.4347421E+001  2.4490718E+001 0.0 -2.0459317E+001  2.9033221E+001 0.0 -4.8608961E+000  9.8103425E+000 0.0 -5.3350459E-001  1.3610425E-001 0.0 -2.0344154E+000  1.9996263E+000 0.0 -1.0656769E+001  4.1794988E+000 0.0 -7.7976696E+000  1.7216557E+001 0.0 -6.6383940E+001  2.7777688E+001 0.0 -1.1164369E+000  5.7035587E-001 0.0 -1.3632116E+001  1.7212114E+001 0.0 -6.5578825E+000  1.3210896E+001 0.0 -7.5670308E+001  6.0604116E+001 0.0 -1.8177504E+002  1.6051382E+002 0.0 -7.5925094E+001  3.8858711E+001 0.0 -4.3592487E+001  1.0585377E+001 0.0 -1.7990853E+001  2.5198443E+001 0.0 -5.6931036E+001  4.6434135E+001 0.0 -2.2310995E+001  3.0526563E+001 0.0 -2.6060922E+000  1.9222076E+000 0.0 -9.9544401E+000  1.9955353E+000 0.0 -6.5209874E+000  9.5424732E+000 0.0 -3.8423956E+001  1.8856744E+001 0.0 -2.0399595E+000  3.5821339E-001 0.0 -1.4159313E+002  1.1790420E+002 0.0 -1.5880358E+002  1.3666655E+002 0.0 -5.2620011E+001  1.7728507E+001 0.0 -2.4257304E+002  2.6724684E+002 0.0 -5.2711964E+001  2.2467489E+001 0.0 -1.2138505E-001  1.6405041E-002 0.0 -4.7180860E+001  1.6867057E+001 0.0 -1.2015962E+001  1.2584065E+001 0.0 -4.7493647E+000  1.0162715E+001 0.0 -2.9122014E+001  3.8973458E+001 0.0 -6.0655559E+001  5.8464177E+001 0.0 -3.5633537E+000  3.7633508E+000 0.0 -3.3745667E+000  4.7860493E+000 0.0 -7.9649836E+001  4.7680564E+001 0.0 -8.1452377E+001  5.2279473E+001 0.0 -8.4804412E+001  5.9130190E+001 0.0 -1.7248149E+001 -1.6645313E+000 0.0 -7.2945864E+001  5.2587145E+001 0.0 -9.9371306E+001  8.7185992E+001 0.0 -3.6328453E+001  3.9255850E+001 0.0 -5.6471509E+001  5.0596485E+001 0.0 -9.0218156E+001  6.5705951E+001 0.0 -9.4500640E+001  5.3976392E+001 0.0 -1.2847816E+001  3.1567676E+001 0.0 -2.1540859E+000  5.1011386E-001 0.0 -3.9857100E+001  4.7808394E+001 0.0 -6.5165421E+000  2.0622659E+000 0.0 -6.8891953E+001  3.5829960E+001 0.0 -1.9016507E+001  6.4582649E+000 0.0 -2.1512747E+001  4.1678868E-001 0.0 -2.7736907E+001  3.5487058E+001 0.0 -7.9356986E+001  7.6963253E+001 0.0 -1.0882833E+001  2.0421201E+001 0.0 -7.4730767E+001  4.7889906E+001 0.0 -2.7015570E+002  2.9463831E+002 0.0 -3.6757965E+001  4.5453728E+001 0.0 -8.7682621E+001  6.0526636E+001 0.0 -1.0298163E+002  9.0909999E+001 0.0 -2.5307821E+001  1.1276855E+001 0.0 -2.3179101E-001  2.6689007E-002 0.0 -3.5540304E+001  2.2988739E+001 0.0 -5.3530110E+000  1.1469707E+001 0.0 -7.6697579E+001  5.4144217E+001 0.0 -3.8587295E+001  4.2498049E+001 0.0 -1.6188201E+001 -1.5517890E+000 0.0 -2.2361111E+001  3.0063464E+001 0.0 -1.7644653E+002  1.6584190E+002 0.0 -8.4768700E-001  3.2767185E-001 0.0 -2.4404582E+000  2.6636539E+000 0.0 -8.8684306E+000  2.0121565E+001 0.0 -1.3002751E+001  1.5325248E+001 0.0 -2.6037165E+001  1.4849611E+001 0.0 -3.3394934E+001  1.7345134E+001 0.0 -7.2269103E+001  7.0697359E+001 0.0 -8.3502508E+001  3.2806218E+001 0.0 -6.8354600E+001  3.3772363E+001 0.0 -4.2984060E+001  3.7094904E+001 0.0 -1.2363380E+002  1.0217609E+002 0.0 -1.4809200E+001  1.5650501E+001 0.0 -3.0360855E+001  6.0520833E+001 0.0 -2.9222453E+000  1.3505656E+000 0.0 -1.1918019E+002  8.6123185E+001 0.0 -3.3670156E+001  1.4271647E+000 0.0 -3.1950564E+001  8.1178396E+000 0.0 -9.1676312E+001  8.4274710E+001 0.0 -1.3472462E+002  1.0734056E+002 0.0 -1.2937357E+002  1.0282105E+002 0.0 -1.6140867E+002  7.1031700E+001 0.0 -2.6679837E+002  3.1937758E+002 0.0 -7.2451334E+001  3.8893157E+001 0.0 -1.9307352E+002  2.8067518E+002 0.0 -8.2600365E+000  1.1573396E+001 0.0 -3.7804114E+001  9.9238910E+000 0.0 -3.0191939E+001  2.3851767E+000 0.0 -1.3158542E+002  1.1323737E+002 0.0 -5.6996894E+000  9.4017911E-001 0.0 -4.5920787E+001  1.4451297E+001 0.0 -3.5449621E+001  4.0391161E+001 0.0 -3.1627327E+000  4.7360491E+000 0.0 -3.2387997E+001  3.5598116E+000 0.0 -5.0482317E+001  2.1845192E+001 0.0 -2.8185519E+001 -2.0424621E+000 0.0 -1.5032459E+002  1.2291960E+002 0.0 -5.6724339E+001  2.2889711E+001 0.0 -7.3430870E+001  3.9175115E+001 0.0 -3.3337684E+001  1.9410228E+001 0.0 -3.8751174E+001  7.0717404E+000 0.0 -2.0866114E+002  1.9462396E+002 0.0 -1.4055910E+002  1.8625505E+002 0.0 -9.3735688E+001  5.7559331E+001 0.0 -7.3317170E+001  3.6448207E+001 0.0 -7.2763127E+001  3.4117950E+001 0.0 -8.0926136E+001  7.0136715E+001 0.0 -4.4161947E+001  4.8103968E+001 0.0 -2.0223785E+000  1.0173328E+000 0.0 -1.4998410E+000  7.9812331E-001 0.0 -2.0251785E+001 -1.4311302E+000 0.0 -3.4071599E+000  2.1847374E+000 0.0 -6.5533584E+000  1.2459882E+001 0.0 -5.3151272E+001  1.5554547E+001 0.0 -5.0238834E+001  1.8523737E+001 0.0 -4.0468344E+001  2.5417365E+001 0.0 -3.9796858E+000  6.6055629E+000 0.0 -1.2034178E+001  2.3865550E+001 0.0 -2.4589529E+000  4.2969641E-001 0.0 -1.3439596E+000  8.2591611E-001 0.0 -7.2311626E+001  3.6400424E+001 0.0 -9.4796587E+001  1.1193950E+002 0.0 -7.9112940E+001  4.4556717E+001 0.0 -8.8867582E+001  9.6949386E+001 0.0 -4.3320169E+000  8.2365328E+000 0.0 -6.2314545E+001  5.4105023E+001 0.0 -2.1204526E+002  2.2091217E+002 0.0 -1.0600365E+001 -4.5939586E-001 0.0 -7.9137679E+001  5.7063000E+001 0.0 -1.3506959E+002  9.6795806E+001 0.0 -1.3297475E+000  9.1483341E-001 0.0 -4.7078215E+001  2.5608374E+001 0.0 -5.1428024E+001  1.5359115E+001 0.0 -4.7367639E+001  1.2517517E+001 0.0 -2.4069731E+002  1.2924210E+002 0.0 -3.2687223E+001 -7.8873700E-001 0.0 -5.7466169E+000  5.3259572E+000 0.0 -4.2748975E+001  1.1835115E+001 0.0 -8.4728687E+000  5.8753218E+000 0.0 -1.6467380E+002  1.4657639E+002 0.0 -5.9902039E+001  5.0798269E+001 0.0 -2.3357070E+002  3.5396504E+002 0.0 -1.8627032E+000  1.4251910E+000 0.0 -8.0431978E+001  6.2426419E+001 0.0 -3.7771690E+001  4.9860364E+000 0.0 -7.9262473E+001  1.0716352E+002 0.0 -3.5365271E-001  5.1904903E-002 0.0 -5.0001512E+001  3.8545748E+001 0.0 -5.7154895E+001  4.7802325E+001 0.0 -3.4090695E+001  4.1515005E+001 0.0 -3.3066275E+001  7.0937817E+001 0.0 -1.0269155E+001  1.3082871E+001 0.0 -1.5248817E+001  2.7532311E+001 0.0 -3.4178478E+001  2.8355341E+001 0.0 -1.3120307E+002  2.4205467E+001 0.0 -8.2673884E+000  1.4493898E+001 0.0 -1.0652127E+001  2.1929521E+000 0.0 -5.7108121E+001  2.2875946E+001 0.0 -1.5306184E+001  2.4775411E+001 0.0 -5.3208221E+001  4.5055339E+001 0.0 -9.6532009E+001  6.8686979E+001 0.0 -5.0840561E-001  3.7676858E-002 0.0 -5.2400968E+000  1.1162266E+001 0.0 -2.7793380E+000  3.6199436E+000 0.0 -9.5472450E+001  8.0041608E+001 0.0 -6.5919773E+001  3.9526066E+001 0.0 -1.3529948E+002  1.0696848E+002 0.0 -6.6098426E+001  6.2210403E+001 0.0 -6.6973728E+000  1.5284552E+001 0.0 -4.1174770E+001  1.3151138E+001 0.0 -3.3543282E+001  3.8865207E+000 0.0 -1.3838723E+001  2.3974374E+001 0.0 -3.1154339E+002  3.9682289E+002 0.0 -1.7685382E+001  2.8632026E+001 0.0 -4.2164491E+000  5.7666951E+000 0.0 -7.8929335E+001  5.3267115E+001 0.0 -1.4146407E+002  1.2097956E+002 0.0 -2.2424531E+001  2.8974116E+001 0.0 -6.8557600E+000  1.5487239E+001 0.0 -2.9250792E+000  3.4551816E+000 0.0 -2.4563973E+002  2.7620632E+002 0.0 -3.3278105E+001  3.9056633E+001 0.0 -5.5516363E+001  2.4201940E+001 0.0 -1.1483680E+000  1.8055554E-001 0.0 -2.2630184E+002  2.1892004E+002 0.0 -8.9411880E+000  3.0966581E+000 0.0 -8.1960545E+001  7.8333887E+001 0.0 -3.7059776E+001  2.7417536E+001 0.0 -1.0238382E+001  6.4843945E+000 0.0 -5.6709373E+001  5.3819155E+001 0.0 -6.9245786E+001  6.4792975E+001 0.0 -9.2847977E+001  6.1889010E+001 0.0 -5.6715646E+001  1.9896124E+001 0.0 -7.8742322E+001  4.0577329E+001 0.0 -5.7621993E+001  5.7969250E+001 0.0 -2.4035732E+000  1.0701450E+000 0.0 -4.9000823E+001  3.1670355E+001 0.0 -3.1388953E+002  4.1541816E+002 0.0 -4.7422726E+001  5.4062729E+001 0.0 -8.8817470E+001  6.9495834E+001 0.0 -4.7510815E+001  1.2135183E+001 0.0 -8.3399530E+000  6.6856924E+000 0.0 -1.8806926E+001  2.5035504E+001 0.0 -3.6521411E+001  5.5673167E+000 0.0 -1.1967345E+002  1.0541428E+002 0.0 -4.3762507E+000  2.8846876E+000 0.0 -4.7623667E+001  1.7244908E+001 0.0 -3.3266696E+001  3.8611311E+000 0.0 -2.7316863E-001  2.6125299E-002 0.0 -8.4555851E-002 -2.9584212E-003 0.0 -1.6254529E+000 -5.6107952E-001 0.0 -1.9263703E-001 -1.4875244E-002 0.0 -1.9665190E-001  9.8893692E-003 0.0 -3.7802858E-001  3.6079338E-002 0.0 -2.7207349E+000 -6.6450729E-001 0.0 -3.6873582E+000 -5.5496589E-001 0.0 -1.4546489E+000 -1.4784140E-001 0.0 -1.6566264E+000  3.8109536E-002 0.0 -2.7767727E+000  4.7578897E-002 0.0 -4.7912707E-001  6.7595146E-003 0.0 -2.1460491E+000  4.4388996E-002 0.0 -1.9580924E-001 -1.5407447E-003 0.0 -1.9857248E-001  1.2615559E-003 0.0 -1.4545063E+000  2.8866166E-002 0.0 -2.5309967E-001  1.0192494E-003 0.0 -2.1393961E+000  4.6500511E-002 0.0 -3.1860451E-001  5.1726598E-003 0.0 -3.7557855E+000  6.9983570E-002 0.0 -4.5382213E+000  9.3329488E-002 0.0 -6.3195242E-001  4.0755813E-003 0.0 -1.2693166E+000  2.7162718E-002 0.0 -1.0317066E+000  1.8107055E-003 0.0 -5.2319703E+000  1.1625072E-001 0.0 -4.7126823E-001  4.0105393E-003 0.0 -1.3094331E+000  1.7780137E-002 0.0 -1.7016573E+000 -1.9475391E-003 0.0 -3.9415049E-001  4.3360591E-003 0.0 -6.2196379E-001  2.9103624E-003 0.0 -8.3651750E-001  5.0413533E-003 0.0 -7.8891162E-001  1.4247956E-002 0.0 -8.8118596E-001 -3.1338836E-002 0.0 -1.2261364E+000 -2.3065732E-002 0.0 -1.5290332E+000  2.0098325E-002 0.0 -1.0881211E+000  1.6210651E-002 0.0 -1.3925407E+000  2.5656174E-003 0.0 -1.2164143E+000  1.2187852E-003 0.0 -1.5645271E+000  1.4719543E-002 0.0 -1.6210927E+000  5.7914096E-003 0.0 -1.0005185E+001  1.1475107E-001 0.0 -1.8116537E+000  2.1837262E-002 0.0 -1.7964406E+000 -2.9887952E-003 0.0 -1.8062410E+000 -2.4171217E-003 0.0 -1.7213308E+000  7.1060919E-003 0.0 -1.6992633E+000 -4.9314271E-003 0.0 -1.5692902E+000 -2.3527829E-002 0.0 -6.2866232E-002 -2.7916764E-004 0.0 -7.4137036E+000 -5.1324283E-001 0.0 -1.0240580E+001 -7.3080341E-002 0.0 -7.1079867E+000  1.1388853E-001 0.0 -3.6875739E+000  7.5109273E-002 0.0 -6.0789192E+000  1.1728925E-001 0.0 -2.6275751E-001  2.7061140E-003 0.0 -2.1603394E-001 -3.2105396E-003 0.0 -2.0463668E-001  1.6267912E-003 0.0 -1.2462008E+000 -2.6617268E-002 0.0 -2.8130468E-001  2.8975501E-003 0.0 -2.3517230E-001  3.7443375E-003 0.0 -4.3111490E-001  1.9745185E-003 0.0 -2.0212165E+000  4.5042167E-002 0.0 -1.1908338E+000  7.3814934E-003 0.0 -3.5865350E-001  1.1268354E-003 0.0 -1.5823897E+000  2.5333523E-002 0.0 -2.9497806E+000  7.1522619E-002 0.0 -1.6671146E+000  2.4461305E-002 0.0 -4.4672816E+000  9.9044319E-002 0.0 -5.6094362E-001  9.3045683E-003 0.0 -5.1170220E+000  9.2028159E-002 0.0 -9.5889939E-001  1.8364831E-002 0.0 -6.1778296E+000  1.1590548E-001 0.0 -2.8544267E+000  4.4654350E-002 0.0 -7.5415625E+000  1.1616719E-001 0.0 -8.6034211E+000  1.2400989E-001 0.0 -1.0175994E+001  1.1125198E-001 0.0 -1.0909486E+001  9.5087800E-002 0.0 -1.0643235E+001  1.1960028E-001 0.0 -1.0582841E+001  5.8446881E-002 0.0 -1.1953635E+001  2.5433740E-002 0.0 -1.0524689E+001  6.6189476E-003 0.0 -9.3735637E+000 -3.9588164E-001 0.0 -1.1300279E+001 -5.1214385E-002 0.0 -1.0523322E+001 -2.8302225E-001 0.0 -8.0405088E-001 -2.6484737E-001 0.0 -5.0891010E-001 -3.4601698E-002 0.0 -5.2808420E+000 -5.3078237E-001 0.0 -1.3665139E+000  6.3575354E-003 0.0 -7.6681332E-001  8.7881214E-003 0.0 -2.5737393E+000  5.0300378E-002 0.0 -5.6777510E-001 -3.9683213E-003 0.0 -8.3242548E-002  1.4468702E-003 0.0 -2.7127016E+000 -5.2687062E-001 0.0 -1.3621738E+000 -2.8837013E-001 0.0 -1.0671460E+000 -3.0118646E-001 0.0 -6.6847097E-001 -1.3303528E-001 0.0 -4.9568159E-001 -1.1880997E-001 0.0 -8.3401446E-001 -1.4375984E-001 0.0 -3.6562839E-001 -5.6033398E-002 0.0 -2.8644259E-001 -4.4548492E-002 0.0 -3.6759185E-001 -7.9679206E-002 0.0 -2.4315114E-001 -2.5041907E-002 0.0 -2.9288717E-001 -3.2740263E-002 0.0 -4.5440634E-001 -1.1635562E-001 0.0 -3.5539916E-001 -4.2816936E-002 0.0 -2.2597325E-001 -5.7163359E-003 0.0 -1.7365979E-001 -6.7425090E-003 0.0 -5.7815446E-001 -1.6709087E-001 0.0 -4.5248406E-001 -7.6235632E-002 0.0 -2.7453707E-001  1.4815785E-003 0.0 -3.1508526E-001  1.1654571E-002 0.0 -6.3192229E-001 -1.9663892E-001 0.0 -2.2837019E-001  6.9491324E-003 0.0 -1.8459905E-001 -1.5772581E-002 0.0 -1.2035189E-001 -3.8136384E-003 0.0 -1.2714370E-001  2.6533082E-004 0.0 -1.9747855E-001 -1.9421000E-002 0.0 -3.8574411E-001 -3.8535773E-002 0.0 -1.1889293E-001 -1.1341034E-002 0.0 -5.7069173E-001 -1.0063587E-001 0.0 -1.7323397E+000 -5.1080227E-001 0.0 -8.8047265E-001 -3.1209036E-001 0.0 -1.1842833E+000 -6.4834979E-002 0.0 -7.0760058E-001 -3.6719834E-002 0.0 -2.8353038E-001  3.9990737E-003 0.0 -4.4686885E-001 -1.7487415E-002 0.0 -7.0310259E-001 -3.9124846E-002 0.0 -1.2296853E+000 -1.3587389E-001 0.0 -1.5424077E+000 -1.4101904E-001 0.0 -1.8585201E+000 -1.1833824E-001 0.0 -2.7546734E+000 -3.5850707E-001 0.0 -1.0042447E+000 -3.5445673E-002 0.0 -2.3443377E+000 -1.3943842E-001 0.0 -4.0770043E+000 -3.4346169E-001 0.0 -2.0010237E-001  1.3006846E-003 0.0 -4.0658068E-001  4.8101900E-003 0.0 -4.1015553E-001 -1.2775125E-004 0.0 -4.2958078E-001  1.0792208E-002 0.0 -7.7820039E-001  6.6730351E-003 0.0 -7.3917310E-001  2.0504910E-002 0.0 -8.6015300E+000 -1.5604310E-001 0.0 -5.2050994E+000 -1.1160515E-001 0.0 -5.6633135E+000 -5.1726367E-002 0.0 -4.6840146E+000 -1.2437144E-001 0.0 -2.5355920E+000 -3.2894659E-002 0.0 -2.2181734E-001  2.3265038E-003 0.0 -4.5341756E-001  5.1284504E-003 0.0 -1.7410721E+000  1.5268499E-002 0.0 -3.4274635E+000  5.1254747E-002 0.0 -3.5413631E+000  2.6984926E-003 0.0 -6.5484108E+000  1.0611346E-001 0.0 -1.6717502E+000  1.2750206E-002 0.0 -3.7188348E+000  4.9213459E-002 0.0 -3.8372070E+000 -2.1734122E-002 0.0 -6.8983912E+000  4.2675165E-002 0.0 -4.8260416E-001  5.8955175E-003 0.0 -9.4535473E-001  2.1785969E-002 0.0 -9.6551885E-001  8.2255428E-003 0.0 -1.7757015E+000  4.4559327E-002 0.0 -7.8906393E+000  1.2863674E-001 0.0 -4.9029571E+000  5.2158530E-002 0.0 -4.6871532E+000  1.1053268E-001 0.0 -4.7243054E+000  6.6649398E-002 0.0 -2.4442671E+000  2.0473251E-002 0.0 -1.2681707E+000  2.8421317E-002 0.0 -6.7739995E-001  1.2410903E-002 0.0 -7.1098070E-001  9.7970175E-003 0.0 -3.7169380E-001  4.5143871E-003 0.0 -2.5671639E-001  2.4964682E-003 0.0 -5.2023369E-001  7.1421840E-003 0.0 -5.6944452E-001  1.4640903E-002 0.0 -1.0009090E+000  2.9296055E-002 0.0 -6.6087930E+000  1.2449794E-001 0.0 -4.1230411E+000  5.0037652E-002 0.0 -4.1775993E+000  9.8346987E-002 0.0 -3.9182040E+000  4.3517088E-002 0.0 -2.0812068E+000  1.9394882E-002 0.0 -2.7873673E+000  7.0438564E-002 0.0 -1.5742876E+000  3.5260694E-002 0.0 -1.8109286E+000  3.8600577E-002 0.0 -8.9907470E-001  1.3574177E-002 0.0 -1.0072460E+000  1.3728799E-002 0.0 -1.7138155E+000  3.1256301E-002 0.0 -2.7488928E+000  6.8574231E-002 0.0 -1.4344606E+000  2.6048732E-002 0.0 -1.6535978E+000  3.8724571E-002 0.0 -1.0046937E+000  1.8516451E-002 0.0 -1.0210526E+000  1.8447370E-002 0.0 -9.5261486E-001  2.9833363E-002 0.0 -5.4380299E-001  9.4264509E-003 0.0 -5.2094912E-001  6.2114932E-003 0.0 -4.9696992E-001  3.2259751E-003 0.0 -1.0862443E+000  2.2032097E-002 0.0 -4.4602229E+000  1.1706681E-001 0.0 -2.6836705E+000  5.5959680E-002 0.0 -2.9277724E+000  4.8089066E-002 0.0 -1.5071754E+000  1.9279630E-002 0.0 -2.2138639E+000  5.9102174E-002 0.0 -1.3472244E+000  2.1600379E-002 0.0 -1.3349734E+000  2.8611613E-002 0.0 -6.5523029E-001  7.8279715E-003 0.0 -7.2951320E-001  1.3322184E-002 0.0 -9.9732732E-001 -6.1941402E-002 0.0 -6.2858881E-001 -2.9040529E-002 0.0 -6.0937299E-001 -8.7579565E-003 0.0 -3.1598249E-001 -8.4713215E-003 0.0 -3.5995847E-001  3.8448994E-003 0.0 -6.6946260E-001  1.0273166E-002 0.0 -6.9264101E-001  1.1726680E-002 0.0 -1.0288552E+000  9.7953962E-003 0.0 -1.9207634E+000  2.7418159E-002 0.0 -2.1659377E+000  4.5377513E-002 0.0 -9.0472010E-001  6.4394091E-003 0.0 -1.7181894E+000  3.4799034E-002 0.0 -1.6296009E+000  2.3902613E-002 0.0 -9.2802616E+000  1.2888393E-001 0.0 -5.0303342E+000  4.5068672E-002 0.0 -5.6889124E+000  1.8226516E-002 0.0 -2.8157631E+000  1.8503340E-002 0.0 -4.8416442E+000  1.0007504E-001 0.0 -2.6158926E+000  4.1831350E-002 0.0 -2.4379942E+000  7.1981076E-002 0.0 -1.2677167E+000  2.1158989E-002 0.0 -2.6795130E+000  4.8071440E-002 0.0 -4.8945446E+000  7.9331227E-002 0.0 -2.2112095E+000  3.2199608E-002 0.0 -2.2322277E+000  6.5131759E-002 0.0 -4.4239715E+000  7.4050492E-002 0.0 -1.8457162E+000  3.3383550E-002 0.0 -2.9922898E+000  7.5209339E-002 0.0 -1.1437885E+000  3.5585018E-002 0.0 -1.0002495E+000  1.9286943E-002 0.0 -6.6287648E-001  1.0625947E-002 0.0 -1.3406504E+000  2.3603730E-002 0.0 -1.3606161E+000  3.4817249E-002 0.0 -8.4067895E-001  1.3067534E-002 0.0 -8.5482195E+000  1.5964044E-001 0.0 -3.9302908E+000  5.8911123E-002 0.0 -6.7607064E+000  1.0532528E-001 0.0 -5.7598930E+000  1.3120300E-001 0.0 -3.4910149E+000  5.8192631E-002 0.0 -3.4319581E+000  5.4049968E-002 0.0 -1.7914751E+000  1.8077991E-002 0.0 -5.3986198E+000  1.4866255E-001 0.0 -5.2645750E+000  1.1178906E-001 0.0 -1.2071101E+000  1.0708926E-002 0.0 -2.2490665E+000  2.9190842E-002 0.0 -2.3138548E+000  3.1398719E-002 0.0 -1.2941637E+000  1.8628689E-002 0.0 -2.7637409E+000  5.0923800E-002 0.0 -1.5261604E+000  7.9236293E-003 0.0 -1.4351572E+000 -2.8308450E-002 0.0 -2.7403539E+000 -8.6130192E-002 0.0 -5.9329048E-001  9.6208159E-003 0.0 -1.2756073E+000  2.7760406E-002 0.0 -7.3075321E-001  4.8449890E-003 0.0 -1.4868035E+000  3.3923065E-002 0.0 -9.9535469E-001  1.3811819E-002 0.0 -4.3252006E+000  6.6867493E-002 0.0 -7.6675950E+000  3.8506051E-002 0.0 -1.1701492E+000  1.4054303E-002 0.0 -7.4860691E-001 -5.5548304E-004 0.0 -3.4751782E-001  4.6934007E-003 0.0 -4.1626872E-001  4.2372117E-003 0.0 -1.7311126E+000 -4.9476308E-003 0.0 -3.5647317E+000 -3.2540319E-002 0.0 -3.3803227E+000 -1.9254462E-002 0.0 -5.7842894E+000  7.8304957E-002 0.0 -2.6598382E-001  4.0574401E-003 0.0 -1.1144365E+000  1.6226667E-002 0.0 -6.0838685E-001  1.2110785E-002 0.0 -4.0078258E+000  5.4159454E-002 0.0 -3.5255991E+000  5.6305760E-002 0.0 -2.8091470E+000  9.6012327E-002 0.0 -2.5749004E+000  8.1745037E-002 0.0 -1.8279301E+000  4.2073618E-002 0.0 -1.1874307E+000  2.2231314E-002 0.0 -1.4003195E+000  1.9089029E-002 0.0 -2.8949501E+000  4.1703403E-002 0.0 -1.6349158E+000  4.5407076E-003 0.0 -3.2866197E+000  6.8341437E-002 0.0 -1.3893763E+000  2.0484573E-002 0.0 -8.5928673E+000  1.5378799E-001 0.0 -4.6296178E+000  5.4850099E-002 0.0 -7.1899637E+000  9.1996478E-002 0.0 -7.9460855E-001  9.3745532E-003 0.0 -1.7383747E+000  4.6435898E-002 0.0 -1.6210916E+000 -4.7723175E-005 0.0 -8.2400040E+000 -7.5893604E-002 0.0 -5.2372356E+000  8.5720030E-004 0.0 -1.6654343E+000 -3.0951320E-003 0.0 -2.8257554E-001  1.9211552E-003 0.0 -6.0630438E-001  1.3742403E-002 0.0 -6.3557904E+000 -6.0772096E-002 0.0 -6.6857103E+000 -3.7575380E-001 0.0 -3.5015598E+000 -1.7884854E-001 0.0 -6.7157762E+000 -2.7569431E-001 0.0 -1.7892980E-001 -7.9714705E-004 0.0 -1.9050233E-001  3.2287382E-003 0.0 -2.2664264E+000  4.5003912E-002 0.0 -4.4257989E-001  9.7501579E-003 0.0 -1.0378125E+000  3.1542346E-002 0.0 -1.2446546E+000  2.0048851E-002 0.0 -2.8588566E+000  6.2956434E-002 0.0 -3.6311934E+000  8.5114456E-002 0.0 -4.9875398E-001  5.3037872E-003 0.0 -2.8704066E+000 -9.2524011E-002 0.0 -7.6723675E-001  2.0480286E-002 0.0 -3.0935695E+000  2.3138088E-002 0.0 -1.3176160E-001  2.2491352E-003 0.0 -1.0600793E+000 -5.7072905E-002 0.0 -1.7429017E-001  9.0970210E-004 0.0 -9.7684478E-001  2.6275849E-002 0.0 -5.0175538E-001 -2.9360704E-003 0.0 -4.7685163E+000  6.2679757E-003 0.0 -1.5143065E+000 -2.5307401E-001 0.0 -9.3872745E-001 -1.2524562E-001 0.0 -4.2779655E-001 -6.1589954E-002 0.0 -4.6318625E-002  2.5682042E-004 0.0 -6.4686971E-001 -5.5126343E-002 0.0 -6.3847239E-002 -2.7836795E-003 0.0 -4.1658519E-001  9.8345898E-003 0.0 -7.3727917E-001 -2.4402689E-001 0.0 -8.8943423E-001 -1.3730789E-001 0.0 -2.9005982E-001  2.8815371E-002 0.0 -1.6966533E-001  1.5425875E-003 0.0 -4.6284869E-001 -6.7292743E-002 0.0 -3.6005577E-001 -2.2727618E-002 0.0 -2.7922187E+000  3.4004692E-002 0.0 -3.0583460E-001 -6.8959331E-004 0.0 -2.0138018E-001  1.3516977E-002 0.0 -4.6701099E-001  6.0206178E-003 0.0 -3.3740068E-001  4.4182199E-003 0.0 -4.7804109E-001  9.7047400E-003 0.0 -4.1692234E+000 -1.7432211E-001 0.0 -4.6626029E+000  5.2797014E-002 0.0 -5.5079134E+000  6.4537584E-002 0.0 -8.1744139E-001  1.3146854E-002 0.0 -1.8407402E+000  3.1123445E-002 0.0 -1.5643200E+000  3.6140930E-002 0.0 -7.1678385E-001  1.4562859E-002 0.0 -5.9962077E-001  1.1800045E-002 0.0 -3.1603663E+000 -4.9658968E-001 0.0 -5.5902582E+000 -3.1318329E-002 0.0 -2.4399259E+000  3.4032563E-002 0.0 -1.1436317E+000  2.2615500E-002 0.0 -1.3862348E+000  2.5956893E-002 0.0 -3.7356912E+000  6.1488041E-002 0.0 -2.7662542E+000  5.6936369E-002 0.0 -1.6527920E+000  2.0649529E-002 0.0 -3.3341024E+000  5.3995253E-002 0.0 -2.8943395E+000  3.9225402E-002 0.0 -3.1871773E+000 -4.3682651E-002 0.0 -6.0198533E-001  1.6167410E-002 0.0 -3.4668074E-001  1.0001182E-002 0.0 -2.5905933E-001  5.7599501E-003 0.0 -1.4179828E+000  8.4275244E-003 0.0 -9.9459926E-001  2.2223233E-002 0.0 -6.0817836E+000 -1.7383960E-001 0.0 -7.1816436E-001  1.5541468E-002 0.0 -1.4858633E-001  3.7271722E-003 0.0 -1.2896399E-001 -3.2179711E-003 0.0 -5.0789870E-001  1.6193119E-002 0.0 -8.4575589E-001  1.9020941E-002 0.0 -1.0304674E+000  8.1035895E-003 0.0 -2.4884294E-001  3.1224435E-003 0.0 -4.7841692E+000 -2.5387309E-002 0.0 -1.0350733E+000  1.5680513E-003 0.0 -8.1951521E-001  8.3382610E-003 0.0 -1.1074785E+000  2.5907452E-002 0.0 -6.7922724E-001  2.3107444E-003 0.0 -6.9733062E-001  1.2220141E-002 0.0 -1.5566036E+000  2.1956325E-002 0.0 -2.0197389E-001  4.3688138E-003 0.0 -3.1759811E-001  1.0839792E-002 0.0 -6.1341861E-001  1.1412196E-002 0.0 -4.4490886E+000  4.5207637E-002 0.0 -2.6597004E+000  5.3936695E-002 0.0 -2.4274418E+000  6.8546737E-002 0.0 -7.0266547E-001  1.2403304E-002 0.0 -3.6827273E+000 -2.3753864E-001 0.0 -3.1848385E+000  4.4833799E-002 0.0 -3.4261041E+000  5.1013122E-002 0.0 -1.6994603E+000  2.6656990E-002 0.0 -9.4909450E-001  3.2932513E-002 0.0 -4.1365899E-001  1.4963350E-002 0.0 -1.5649152E+000  2.8326913E-002 0.0 -2.0236185E+000  6.8821646E-002 0.0 -7.5261308E-001  2.8903367E-002 0.0 -1.4443352E+000  2.2470196E-002 0.0 -1.8176794E+000 -6.1690701E-002 0.0 -2.2418237E+000 -2.3120088E-001 0.0 -4.1930998E+000 -4.8313463E-001 0.0 -5.4401893E-002  6.3781672E-002 0.0 -1.6856629E-001  2.3448655E-002 0.0 -1.0528076E+000 -3.3409849E-001 0.0 -3.7234285E-002  4.5988112E-004 0.0 -8.8095208E-002  5.5388670E-004 0.0 -3.1724535E-001 -2.2262327E-003 0.0 -1.5357122E+000 -2.5164156E-001 0.0 -1.2681508E-001 -9.3355393E-003 0.0 -5.9827001E-001 -1.7144244E-001 0.0 -5.2625995E+000  2.2571627E-002 0.0 -4.5551746E+000  1.3237835E-001 0.0 -2.9077351E+000  5.3508001E-002 0.0 -1.6930282E+000  2.8074921E-002 0.0 -1.6218968E+000  6.5860457E-002 0.0 -1.2290081E+000  5.1404719E-002 0.0 -9.0335114E-001  2.1641021E-002 0.0 -3.8386230E-001  8.3680547E-003 0.0 -7.1228879E-001  8.0637512E-003 0.0 -6.5706465E-001  3.3220358E-002 0.0 -6.3049158E-001  2.8061619E-003 0.0 -1.0223804E+000  3.5001850E-002 0.0 -1.8709977E+000  4.1760896E-002 0.0 -4.4970346E+000 -1.6545565E-002 0.0 -1.1058233E+000  3.9976480E-002 0.0 -1.3476940E+000  4.1355496E-002 0.0 -3.0788806E-001 -7.2369424E-003 0.0 -8.0641995E-001  2.5967475E-002 0.0 -5.4085915E-001  1.7204474E-002 0.0 -1.4327873E+000  6.4872661E-002 0.0 -4.1246713E-001  1.0279562E-002 0.0 -1.8015776E+000  8.8048087E-003 0.0 -2.1189116E+000  4.2788911E-003 0.0 -6.0267801E-001  1.6980442E-002 0.0 -2.7136387E+000  6.7697086E-002 0.0 -2.2756750E+000  6.6436692E-002 0.0 -6.1711017E-001  1.7134310E-002 0.0 -5.6038108E+000  1.6374143E-001 0.0 -5.3121054E+000  2.0195648E-001 0.0 -2.9810164E+000  1.0448163E-002 0.0 -2.6552974E+000 -3.1560335E-002 0.0 -2.3222437E+000  7.5322570E-002 0.0 -1.1447350E+000  3.8546211E-002 0.0 -1.0827658E+000  2.0137150E-002 0.0 -2.9025408E+000  3.4962450E-002 0.0 -6.4870783E-001  1.4128073E-002 0.0 -1.7834455E+000  4.9165477E-002 0.0 -2.0181426E+000  5.5575436E-002 0.0 -5.2279981E-001  1.4746255E-002 0.0 -2.5375505E-001 -3.1933213E-002 0.0 -2.9344067E+000  7.3535084E-003 0.0 -2.9701410E+000 -1.8779979E-002 0.0 -2.1612508E+000  6.7756243E-002 0.0 -2.3761605E+000  5.5888265E-002 0.0 -1.4848795E+000  1.8924719E-002 0.0 -1.5952607E+000  4.3888417E-002 0.0 -3.6128949E+000 -1.7764872E-001 0.0 -3.4223697E-001 -8.6489095E-003 0.0 -5.4351294E-001 -5.9134392E-002 0.0  4.3323761E-006 -1.0829336E-005 0.0 -9.4460104E+000  1.4146574E+001 0.0 -3.6547253E-005 -2.4161466E-004 0.0 -5.1071205E-003  1.4935254E-002 0.0  3.1045810E-001 -4.8925092E-001 0.0 -5.7411898E-002  6.7696029E-002 0.0 -1.1437447E-002  1.4643074E-002 0.0 -9.3398876E+000  1.1072499E+001 0.0 -5.4832087E-002  8.0606969E-002 0.0  5.1976420E-005 -5.4378535E-005 0.0 -1.2312492E-005  2.2066848E-005 0.0 -2.2243729E+000  1.2571708E+000 0.0  4.3799209E-003 -1.1705112E-003 0.0  4.4506415E-003 -2.7631964E-003 0.0 -6.2904184E-003  2.7110604E-003 0.0 -4.3204540E-002  6.6685741E-002 0.0 -4.6630403E+000  6.4610728E+000 0.0  5.6935109E-003 -8.6380211E-003 0.0 -4.1249384E-003  1.1394005E-002 0.0 -3.7256818E+000  4.1610472E+000 0.0 -4.9391325E+000  4.4039652E+000 0.0 -1.6987618E+000  3.5521709E-001 0.0 -1.7957691E+000  9.6160087E-001 0.0 -1.7263797E-003  5.2687200E-003 0.0  1.1955981E-002 -2.8801072E-002 0.0 -1.0581371E+001  1.5394125E+001 0.0 -1.8407436E-003  2.7492829E-003 0.0  2.5562273E-004  2.4151307E-003 0.0 -3.3578191E-004  1.9120067E-004 0.0  1.3449896E-001  1.2008340E-002 0.0 -4.4646699E-005  9.5908183E-005 0.0 -2.8548713E-005  5.2396565E-005 0.0 -1.4156653E-004  3.8407644E-004 0.0  7.6583551E-006 -3.2795200E-005 0.0 -1.4900189E-003  4.0034363E-003 0.0 -5.5516127E-005  1.4862422E-004 0.0 -4.5684853E-005  1.3274269E-004 0.0 -6.8004196E-004  1.9108310E-003 0.0 -7.8814147E+000  1.2367345E+001 0.0 -3.3773582E-001  5.3015429E-001 0.0 -1.9971610E-002  3.1358547E-002 0.0  8.5960722E-001 -1.3598582E+000 0.0 -1.4568321E-002  2.2859658E-002 0.0 -3.4583940E-004  6.7792893E-004 0.0 -2.5733382E+001  3.4713372E+001 0.0 -7.4627131E-001  1.0145124E+000 0.0 -4.7415828E+000  6.8241665E+000 0.0 -3.4741690E-001  4.9279277E-001 0.0  8.6561176E-002 -1.2782956E-001 0.0 -1.5688095E-001  2.2560917E-001 0.0 -2.4939527E-004  1.5445708E-003 0.0 -7.2316343E-005  1.7872827E-004 0.0  8.0796236E-005 -2.0795368E-004 0.0  6.6704030E-005 -9.3878501E-005 0.0 -1.3213901E-002  2.5348095E-002 0.0 -3.9022407E-001  4.7224532E-001 0.0  7.6427207E-002 -9.2058226E-002 0.0 -4.3666276E+000  5.2037669E+000 0.0 -4.1017841E-002  3.8508676E-002 0.0  1.8393805E-003  5.8152170E-003 0.0 -1.3589571E-001  8.7721077E-002 0.0  4.0763825E-003 -9.6076653E-004 0.0 -1.7652511E+000  1.0440514E+000 0.0 -1.9983030E+000  1.3911993E+000 0.0 -3.2396182E+001  3.4370882E+001 0.0  7.1797233E-001 -7.7546141E-001 0.0 -3.7503736E+000  3.4616976E+000 0.0 -2.1047317E-001  2.0051484E-001 0.0 -2.7797004E+000  2.9463941E+000 0.0 -7.2330586E-002  9.8764007E-002 0.0 -2.0855637E-001  3.2519493E-001 0.0 -2.3627564E-001  3.6442328E-001 0.0 -4.8866888E+001  6.3657028E+001 0.0 -9.8457302E-003  3.4888921E-003 0.0  1.5944499E-002 -1.1422297E-002 0.0 -9.7153587E-002  2.8790061E-002 0.0 -9.5725179E-003  9.4663257E-005 0.0 -8.6897270E-001  2.3261554E-001 0.0  7.0291762E-004 -1.6185859E-004 0.0 -4.0933929E-002  6.7977199E-002 0.0 -1.2657275E+001  5.4607199E+000 0.0 -6.6999974E-001  2.8849822E-001 0.0 -7.8449370E+000  6.4215926E+000 0.0  3.8015380E-002 -4.7186329E-002 0.0 -3.1280480E+000  2.9160392E+000 0.0  5.8518231E-003 -6.2881365E-003 0.0 -7.2246913E-003  5.6716908E-003 0.0 -2.6281764E-003  7.8783223E-003 0.0 -3.3794888E-004  1.0193830E-003 0.0 -5.3427838E+000  7.6736099E+000 0.0  1.0393643E-002  2.4532922E-002 0.0  8.9930534E-002 -1.3704147E-001 0.0 -4.4770502E+000  6.8267069E+000 0.0 -6.1799863E-005  9.2836510E-005 0.0 -3.6678817E+001  5.7953208E+001 0.0  4.7869530E-003  3.0506682E-002 0.0 -2.0691472E-002  3.1397425E-002 0.0 -8.0488594E+001  1.1573792E+002 0.0 -4.2643519E-003  6.5887320E-003 0.0 -5.6050124E+001  5.1779627E+001 0.0  4.0941740E-002 -3.0472779E-002 0.0 -3.2592829E-006  4.7666430E-006 0.0 -6.3746914E-004  1.3187749E-003 0.0 -1.1681486E-001  7.5727857E-003 0.0 -7.5781857E-001  9.6209246E-002 0.0 -2.4176976E-003  5.6622596E-003 0.0 -3.0884619E-002  8.2733031E-002 0.0 -8.1024831E-002  1.2535075E-001 0.0 -3.0520611E+001  2.0933057E+001 0.0 -7.1254464E-001  1.1220527E+000 0.0 -1.0010229E+002  1.5182249E+002 0.0  2.7510340E-003  9.4631434E-002 0.0 -1.2654638E-001  1.7257440E-001 0.0  5.6417197E-004  2.6582548E-002 0.0  1.1623565E-001 -1.2536270E-001 0.0 -7.9712101E+000  1.0268695E+001 0.0 -1.5002242E-002  2.2981773E-002 0.0 -1.3869610E-003  3.8106417E-003 0.0 -1.3837934E+000  1.2861773E+000 0.0 -1.5600528E-002  4.4008605E-002 0.0 -8.3318879E+001  9.8930128E+001 0.0 -2.5866032E-002  4.3225594E-002 0.0  6.6429059E-004 -8.5239016E-004 0.0 -5.1530945E+001  3.2186175E+001 0.0 -1.3146513E-001  5.6656710E-002 0.0 -2.2744893E+000  9.4758667E-001 0.0  8.7541315E-003  2.6300141E-002 0.0 -1.5574294E-005  6.0896865E-005 0.0 -1.7561477E+001  4.4868119E+000 0.0 -5.0859991E-001  1.1027429E-001 0.0  1.2083308E-002  1.1213762E-003 0.0 -9.2246076E-006  1.9237357E-005 0.0 -9.4334259E-003  1.8854570E-002 0.0 -7.4446881E+000  5.8046864E-001 0.0 -4.8811107E-004  1.0773935E-003 0.0 -4.9661039E-001  3.0929506E-001 0.0 -5.2371734E+000  8.1784526E+000 0.0 -2.3341551E+000  3.4266925E+000 0.0 -9.0121469E-002  1.3188859E-001 0.0 -1.1078482E+000  1.2646012E+000 0.0 -7.7310005E-001  1.2019583E+000 0.0 -1.0934315E+000  6.0030434E-001 0.0 -2.6789566E-004  7.9789993E-004 0.0 -1.4631156E+000  2.1144458E+000 0.0 -5.8833922E-001  6.4079443E-001 0.0  4.5368664E-005 -8.4180398E-005 0.0 -1.2225518E-003  1.8803846E-003 0.0 -3.9985178E+000  4.8917478E+000 0.0 -6.6187886E-002  3.4956117E-002 0.0 -1.0198948E-004  3.1231173E-004 0.0 -9.3786897E-001  3.1125541E-001 0.0 -4.6834623E+001  1.0661917E+002 0.0 -4.4800569E+001  1.3217296E+002 0.0  5.1236798E+002  2.5887121E+002 0.0  4.5273204E+002  2.9753212E+002 0.0 -2.1777915E+001  2.0147550E+002 0.0 -3.7265273E+001  1.6633327E+002 0.0  4.9546173E+000  2.4481012E+002 0.0  3.9064274E+002  3.3030768E+002 0.0  3.2335749E+002  3.5235803E+002 0.0  4.6921310E+001  2.9040139E+002 0.0  2.1579995E+002  3.6494856E+002 0.0  1.0637044E+002  3.3280952E+002 0.0  1.2538216E+002  3.0734074E+002 0.0  2.2584322E+002  3.2343832E+002 0.0  2.5129947E+002  2.4342197E+002 0.0  2.8318700E+002  2.1444167E+002 0.0 -2.7867493E+001  9.8593979E+001 0.0  5.1927732E+001  2.2031875E+002 0.0  4.7532495E+002  2.0509107E+002 0.0  1.5580872E+001  1.7941793E+002 0.0  3.2787472E+002  1.9190484E+002 0.0 -2.0692986E+001  1.2367608E+002 0.0 -3.0518962E+001  7.7509164E+001 0.0 -7.0056119E+000  1.5719151E+002 0.0  1.8617243E+002  2.3284999E+002 0.0  1.1979365E+002  2.4161417E+002 0.0  4.5153645E+002  1.8290092E+002 0.0 -4.0675698E+001  8.3973738E+001 0.0 -2.6516489E+001  5.6888697E+001 0.0  2.9474234E+002  1.1940794E+002 0.0 -3.4051899E-002 -4.9164791E-005 0.0 -6.8168561E-002  1.8266306E-003 0.0 -3.9510207E-002  1.0416785E-003 0.0 -6.4006174E-002  1.8237821E-003 0.0 -1.0035153E-001  2.1336410E-003 0.0 -1.5859609E-001  3.0745957E-003 0.0 -4.9840430E-001  6.6160586E-003 0.0 -1.3884761E-001  8.1164470E-002 0.0 -1.6627478E-001 -7.4718094E-004 0.0 -1.4084343E-008 -2.2871006E-009 0.0 -4.5426945E-002  6.9768145E-004 0.0 -1.0428392E-001 -5.8298510E-002 0.0 -3.5975157E-001 -4.0301955E-003 0.0 -1.0916848E+000  7.3646746E-001 0.0 -8.5629526E-002 -7.8665399E-002 0.0 -1.3421382E-001  1.1124043E-002 0.0  2.5825957E-003 -4.4170645E-003 0.0  1.4843206E-001 -2.3903100E-001 0.0 -9.0729402E-002  1.9051105E-003 0.0 -1.3976391E-001  2.6913749E-003 0.0 -1.3500019E-001  2.2186566E-003 0.0 -1.5794037E-001 -4.7470426E-003 0.0 -1.0496012E+000  7.9235984E-001 0.0  8.5924460E-002 -5.3801697E-002 0.0 -9.9633738E-002 -9.5299291E-003 0.0 -2.2308857E-001 -8.1593389E-002 0.0 -1.7477527E-002 -2.2268880E-002 0.0 -4.2264380E-018 -9.0998135E-018 0.0 -2.8713092E-006  3.4826207E-006 0.0  8.7522556E-018 -8.0044229E-017 0.0 -1.3018229E-001  2.6773938E-003 0.0 -8.5415417E-002  1.9764198E-003 0.0 -1.6349448E-001  3.1215820E-003 0.0  2.3608185E-018  3.0436342E-018 0.0 -3.6214201E-013  1.7655061E-012 0.0 -1.5743726E-002 -2.1458670E-002 0.0 -5.9785231E-001 -1.6975997E-001 0.0  9.5627746E-016 -1.6727951E-015 0.0  2.3965324E-017  9.1724431E-018 0.0 -4.3071293E-003  5.5106515E-003 0.0  3.7750961E+000  5.4682704E+000 0.0  1.0656312E+000  3.9947111E+000 0.0  3.8536194E-002  5.4283411E+000 0.0 -2.8241648E-001  1.0686379E+000 0.0  1.9219163E+000  1.3477960E+000 0.0 -5.3529756E-001 -5.4481032E-001 0.0 -3.1618944E-002 -5.5027336E-003 0.0 -1.3950976E-001  7.0962681E-002 0.0 -6.1509056E-002  4.5697030E-002 0.0 -2.7881708E-003  1.8459268E-003 0.0  8.3659912E-003  3.5469488E-004 0.0 -6.8099540E-002 -8.2780399E-003 0.0 -1.0052132E-002 -1.1632539E-002 0.0  1.2125617E-010 -2.7319462E-010 0.0 -6.2415687E-006 -3.7431736E-006 0.0 -2.7099141E-003 -2.9954681E-004 0.0 -1.4482989E-003 -1.7658103E-004 0.0 -1.7533751E-005 -2.3884684E-006 0.0 -1.2857490E-004 -1.1719064E-005 0.0 -1.5891498E-006 -1.0157418E-007 0.0 -3.3287978E-006 -4.5919724E-007 0.0 -2.3125382E-005  2.4093103E-006 0.0  6.6014211E-007  9.2795909E-008 0.0 -1.5828046E-005  1.9859907E-007 0.0 -4.7872124E-008 -1.1025353E-008 0.0 -9.3605556E-001  1.1764341E+000 0.0 -9.2533547E-015 -8.2200186E-016 0.0  3.0022003E-018  4.0956902E-018 0.0 -6.7496047E-006 -1.1457752E-006 0.0 -6.5425443E-005  1.9427626E-005 0.0  2.5146372E-005 -4.6058502E-005 0.0  5.6793989E-007 -1.2582364E-006 0.0 -7.8789360E-006  1.3611252E-005 0.0  2.5861675E-006 -4.0245953E-007 0.0  2.1139209E-005 -3.9169025E-005 0.0 -8.7468676E-006  5.9813905E-006 0.0 -8.0313183E-006  1.4790014E-005 0.0 -7.5894958E-006  5.9372049E-006 0.0 -3.9499393E-001  3.0873354E-001 0.0 -1.2678908E+000 -2.6212195E-001 0.0 -2.1579285E-002  5.7758248E-004 0.0 -1.8499075E-002  3.1210099E-004 0.0 -4.1487795E-002  9.6533961E-004 0.0 -2.6772146E-001 -2.1649920E-003 0.0  4.4896435E-002  8.5942566E-003 0.0  2.5262856E-007 -2.1355322E-007 0.0 -3.5832458E-007  2.5941480E-007 0.0 -1.9947697E-008  5.7600820E-008 0.0 -6.7163821E-009  6.7262833E-009 0.0 -5.2573093E-007  3.9518114E-007 0.0  1.3678365E-008 -1.0206676E-008 0.0 -9.4383865E-008  7.1023252E-008 0.0  3.4859622E-009 -2.6180880E-009 0.0 -2.4498364E-009  1.8540176E-009 0.0  1.7937852E-010 -1.3522251E-010 0.0 -3.8114720E-010  2.8648941E-010 0.0  1.8868853E-011 -1.4166202E-011 0.0 -1.1566579E-008  8.6910386E-009 0.0 -3.8552349E-011  2.9594676E-011 0.0  1.2982947E-012 -1.0026038E-012 0.0 -1.7870986E-011  1.3178440E-011 0.0  5.2240965E-013 -3.8661863E-013 0.0 -3.7750215E-012  2.7896262E-012 0.0  1.5132245E-013 -1.1176662E-013 0.0 -8.7247801E-014  6.6177204E-014 0.0  9.3329342E-015 -6.9593218E-015 0.0 -6.8641987E-016  3.8863583E-016 0.0  3.0304863E-016 -2.0984198E-016 0.0  1.7699449E-016 -1.0094785E-016 0.0  2.6561569E-017 -2.2798511E-017 0.0  1.9485745E-018  4.1330817E-018 0.0  1.3248063E-005 -7.5765075E-007 0.0 -7.3328520E-005  2.9939382E-005 0.0  1.0372982E-012  1.0664506E-013 0.0  2.4167438E-007 -6.2430018E-007 0.0 -3.6566337E-002 -1.3213128E-002 0.0 -4.8689976E+000  6.7110060E+000 0.0  3.4209662E-017 -1.2154141E-017 0.0  1.5561061E-010 -1.1511447E-010 0.0  1.1094091E-014 -8.1557384E-015 0.0 -1.3131045E-001 -1.5927757E-002 0.0  1.3865411E-013 -2.7690656E-013 0.0 -9.8854873E-014  7.0757410E-014 0.0 -2.8358820E-003 -2.2291816E-003 0.0 -8.6338241E-010  2.4084750E-009 0.0  1.7551811E-008 -3.1777639E-008 0.0  4.2882230E-018  7.6901997E-018 0.0 -2.7977669E-009  1.0371825E-005 0.0  2.5046195E-017 -1.9123462E-017 0.0  3.2637198E-001  3.9656522E-002 0.0  5.3642878E-003  1.7220679E-003 0.0 -9.0972005E-006  1.6660072E-005 0.0  4.1265237E-010 -7.6580254E-010 0.0  4.4960157E-009 -7.9062822E-009 0.0  6.3858284E-018  8.0837141E-018 0.0  3.9619192E-017 -8.9122361E-018 0.0  3.1912673E-018  9.0826021E-019 0.0 -2.4335063E-004 -7.2609279E-007 0.0 -1.1288924E-004 -1.9072622E-005 0.0  4.2198791E-007  4.6363047E-008 0.0 -4.0276557E-008 -3.3017993E-009 0.0  7.1784204E-018  4.5106227E-018 0.0 -3.0940434E-008 -1.2866141E-008 0.0 -3.0013839E-009 -7.9082584E-010 0.0 -4.3357411E-008 -1.8093352E-009 0.0 -1.9918502E-009 -8.2237681E-010 0.0 -6.3571145E-008 -3.9315923E-009 0.0 -7.0414173E-009 -1.2775803E-009 0.0 -7.9781123E-007 -4.3964918E-008 0.0  1.8922940E-006  1.5164023E-007 0.0 -1.5514162E-005 -8.8384829E-007 0.0 -5.1930437E-009 -8.5707492E-010 0.0  1.2102017E-003  4.4249495E-004 0.0 -1.5515805E-003 -1.6814503E-004 0.0 -2.9627349E-008 -4.7666570E-009 0.0  3.0289165E-017  8.6639590E-018 0.0 -4.0369320E-017 -2.4069691E-018 0.0 -3.2091895E-010  2.3728603E-010 0.0 -5.2399018E-013  3.8994217E-013 0.0  1.7772185E-015 -1.3246355E-015 0.0 -4.1490580E-018 -5.5718033E-018 0.0  1.0168500E-017 -1.1525076E-016 0.0  5.9000022E-017 -6.9198693E-017 0.0  1.7588437E-003  6.2013452E-004 0.0  2.8994064E-019  2.1753470E-018 0.0 -1.2510348E-001 -4.5275986E-002 0.0 -4.1809183E-002 -3.4057490E-002 0.0 -8.4858518E-003 -7.3570719E-003 0.0 -3.0347679E-002 -4.0747837E-002 0.0 -4.2353885E-001 -1.4443972E-001 0.0 -1.2028203E+000 -2.9070163E-001 0.0 -1.3812911E-002 -2.3036249E-003 0.0  2.9316082E-006  8.4994310E-007 0.0  4.1438776E-018  4.6696794E-018 0.0 -2.9489231E-006  2.2183281E-006 0.0 -1.5357358E+000 -2.6751080E-001 0.0  1.2177324E-010 -2.1229564E-010 0.0  4.2504335E-012 -7.3201418E-012 0.0 -7.0473879E-012  2.9745333E-011 0.0  5.0918209E-009 -8.9616575E-009 0.0  3.5815010E-010  3.3497317E-011 0.0  1.6613421E-010 -2.9248042E-010 0.0 -1.3562338E+000 -5.4351271E-001 0.0  3.0176050E-018  6.6343729E-018 0.0 -6.7906557E-005 -5.9420283E-006 0.0 -4.3652007E-006 -3.8304496E-007 0.0 -4.5906831E-004  2.6211344E-004 0.0 -1.9422057E-004  1.4643507E-004 0.0 -8.9660195E-005  2.8825267E-007 0.0 -6.0976382E-005  3.8453423E-005 0.0 -4.6389909E-006 -1.3245347E-006 0.0  1.7395986E-001  6.7411322E-002 0.0  5.0429955E-018  7.8088871E-018 0.0  5.3941357E-018  2.7122995E-018 0.0  1.7233946E-018  2.1809473E-018 0.0  8.5151929E-016  7.7594587E-017 0.0  6.5999348E-016  7.1701359E-017 0.0 -5.9831733E-017  3.2007134E-017 0.0 -7.7616494E-005 -4.8540535E-006 0.0  1.8530421E-002 -1.3791968E-002 0.0  5.2080180E-012 -9.6298661E-012 0.0  4.9928135E-013 -8.8447316E-013 0.0 -1.0446633E-004 -3.0479282E-005 0.0  3.1886639E-006  1.1195469E-006 0.0  5.3937156E-005  4.8154256E-006 0.0 -9.1120897E-006 -8.5010068E-007 0.0 -3.2111986E-007 -2.9809129E-008 0.0 -1.3397788E-007 -8.7890356E-008 0.0 -1.4955294E-005 -1.3769400E-006 0.0  5.5295223E-008  4.7835699E-008 0.0 -3.9430737E-007  2.3301542E-007 0.0  1.1080546E-006 -5.9483290E-008 0.0 -3.8710240E-005 -3.7055698E-006 0.0 -2.5789472E-005 -4.1497249E-006 0.0 -1.7137102E-007 -1.0772312E-007 0.0 -5.0863224E-005 -9.8457397E-006 0.0 -4.3843769E-004 -8.5710460E-005 0.0 -2.5377616E-002 -9.2653472E-003 0.0  7.2114122E-001  4.8725658E+000 0.0  1.8893803E-001  1.1522113E+000 0.0 -8.3285925E-002  1.4602920E-001 0.0  5.7545816E+000  1.3816315E+001 0.0 -2.8654070E+000  2.9233815E+000 0.0  6.4845977E-002 -7.3281438E-002 0.0 -1.6497579E-004  1.9323821E-004 0.0 -4.8899852E-006  1.5894616E-005 0.0  2.0632186E+001  1.3910398E+001 0.0  4.6880172E-001  3.0775283E-001 0.0 -8.9048794E-001  2.2849814E+000 0.0  1.3705999E-001 -2.8186738E-001 0.0  3.7613632E-004  1.7071262E-002 0.0 -1.8723401E-002  4.6679833E-002 0.0  7.6954451E-004  2.9056224E-003 0.0  3.0264228E-004 -7.3798216E-004 0.0 -5.8722057E-004  9.5410273E-004 0.0  9.2780331E-005 -6.9004346E-004 0.0 -6.3500482E-001  3.2361007E+000 0.0  8.3927936E+000  8.4236379E+000 0.0  8.3392303E-001  1.1574055E+000 0.0 -6.6821072E-010  1.2300075E-009 0.0 -6.7841260E-001  3.7379381E-001 0.0 -1.7339040E-001  8.6861270E-002 0.0  1.9927412E-005 -3.8393673E-005 0.0 -5.9158949E-002  1.1305636E-003 0.0 -2.8035406E-002  4.4294425E-004 0.0 -2.8089962E-001  4.7962942E-003 0.0 -2.0732729E-001  1.2656327E-003 0.0 -9.2283371E-002  6.3743085E-004 0.0 -1.0303135E+000  5.3702708E-003 0.0 -5.4057880E-001  9.4546533E-003 0.0 -1.5613542E-002  2.3276612E-004 0.0 -4.9638658E-001  8.5937790E-003 0.0 -1.2192048E-002  1.8372073E-004 0.0 -1.8785197E-001 -4.5209887E-003 0.0 -9.2652540E-001 -3.8887879E-002 0.0 -3.0478383E-002 -1.1812683E-003 0.0 -4.5796390E-001  7.6171288E-003 0.0 -2.2098818E-003  1.6610266E-005 0.0 -7.9171054E-002  1.2756763E-003 0.0 -7.6043977E-001  8.1866284E-003 0.0 -4.5641476E-002  2.9151902E-004 0.0 -8.0656989E-001  1.2035172E-002 0.0 -5.9538872E-002  6.2947812E-004 0.0 -6.8698664E-001  9.1042729E-003 0.0 -5.7814183E-002  5.1923987E-004 0.0 -1.4771952E-001  2.3655161E-003 0.0 -1.2861330E-002  1.4421949E-004 0.0 -6.2017399E-001 -5.9310176E-002 0.0 -4.7283347E-006 -2.6136221E-007 0.0  1.7855514E-018  1.2526576E-018 0.0  3.8332105E-018  4.3330634E-018 0.0  5.4515569E-004 -6.4505253E-006 0.0 -3.0468795E-001  7.2294340E-001 0.0 -3.6870614E-001  4.0838556E+000 0.0  2.8315524E+000  1.3511118E+000 0.0  2.8633486E-001 -6.9862438E-001 0.0  6.2142467E-001  5.3532262E+000 0.0 -4.4301474E+000 -2.1048794E+000 0.0  2.9969829E-003  2.0069967E-001 0.0 -9.3112721E-001 -5.1594160E-001 0.0  4.9081902E-001  5.8903972E-001 0.0 -6.7077086E-001  2.2654895E+000 0.0  4.2454621E-001  7.3849714E-001 0.0  9.6010926E-001  6.8081281E-001 0.0 -3.7290677E-001 -4.2600964E-001 0.0  1.0537995E-017  4.5463237E-018 0.0  7.7342414E-015  6.9844456E-016 0.0 -4.0953100E-015 -4.1447232E-016 0.0 -2.6806968E-015 -8.5915721E-016 0.0 -2.0648856E-002  1.5304163E-002 0.0 -3.9398047E-004  2.9865495E-004 0.0  5.9953266E-012 -1.0582475E-011 0.0  4.6613175E-012 -6.9621520E-012 0.0 -3.7542502E-004 -1.1692664E-004 0.0  5.4793316E-005  1.6041924E-005 0.0 -4.0289220E-007  2.9345574E-007 0.0 -5.1387708E-007  2.5094355E-007 0.0  2.6075773E-001  9.4753270E-002 0.0 -3.5790325E-006 -3.6916547E-006 0.0 -6.9950091E-005 -1.4967550E-005 0.0  7.1970096E-006  8.7549797E-006 0.0 -3.8571023E-004  2.6518585E-004 0.0 -2.8230087E-005  2.1616506E-005 0.0 -1.3209798E-004 -3.3008945E-005 0.0 -2.1465885E-003 -6.4179999E-004 0.0 -1.3926830E-003 -3.8711993E-004 0.0 -2.1619103E-004 -1.6037971E-005 0.0 -6.9979046E-007 -8.5115020E-008 0.0 -2.8392511E-005 -2.3208158E-007 0.0 -1.7561889E-007 -3.6273412E-010 0.0 -1.2813979E-006 -8.9027311E-009 0.0 -1.5784668E-008 -2.4729844E-010 0.0  2.7706640E-009 -3.9016605E-010 0.0  1.0108676E-009 -2.8457637E-010 0.0  1.5836757E-010 -1.5919185E-010 0.0 -1.4297514E-006  4.9894864E-008 0.0  1.2010023E-008 -1.7368994E-008 0.0 -2.1256208E-006  9.1293649E-007 0.0  1.0189917E-011  8.1065773E-012 0.0 -1.5561635E-011  2.6386807E-012 0.0  4.2020293E-015  1.5460998E-016 0.0  4.3059113E-018  6.7116934E-018 0.0  3.2363441E-012  1.0922098E-011 0.0 -2.5413715E-014 -4.1582912E-013 0.0 -1.8942895E-015 -1.1653450E-015 0.0 -1.6210191E-003 -8.5014433E-005 0.0 -8.6752785E-016 -7.9050583E-017 0.0  2.5640047E-010  2.4148308E-011 0.0 -5.7462426E-001 -2.7300198E-002 0.0 -6.4699671E-005 -1.9555125E-005 0.0  5.0884444E-005  1.5757751E-005 0.0 -5.2444047E-003 -1.4744816E-003 0.0  3.4043175E-004  6.1105320E-005 0.0 -1.4227548E-007  9.7286396E-008 0.0 -4.8287364E-001 -7.6726755E-002 0.0  1.8783527E-008 -1.3662384E-008 0.0 -1.6314141E-004 -7.2411489E-005 0.0  1.5947540E-004  8.6335457E-005 0.0 -4.1060757E-006 -2.2101398E-006 0.0  8.1241023E-006  4.3775270E-006 0.0 -4.4041585E-003 -1.7337948E-003 0.0  3.0783646E-015  3.5285337E-014 0.0  1.9103444E-013 -3.2137864E-013 0.0 -1.6074439E-012  3.7347020E-012 0.0  9.9258701E-014 -1.9331050E-013 0.0 -9.8879601E-005 -1.1970088E-004 0.0  3.8400954E-004 -3.1054414E-004 0.0  4.9227993E-004 -3.6567419E-004 0.0 -2.9798478E-004 -4.2927062E-006 0.0 -6.5864443E-006 -7.5982312E-006 0.0  5.9957015E-014  6.9074643E-015 0.0 -3.5102641E-007 -9.5151958E-009 0.0  4.8290743E-004  2.6682533E-004 0.0 -1.1472685E-004 -6.9082926E-005 0.0  4.3288503E-006  2.7805690E-006 0.0  3.2506462E-005  2.6291578E-005 0.0 -1.5228556E-006 -1.3178238E-006 0.0 -1.8937676E-005 -1.6846540E-005 0.0 -2.9648618E-004 -2.3575389E-004 0.0 -3.1515882E-004 -3.0731730E-004 0.0 -3.6747550E-003 -2.3782052E-003 0.0 -5.6354860E-003 -1.7587954E-003 0.0 -2.9318297E-008 -1.6844030E-008 0.0 -2.7861078E-010 -8.7444501E-011 0.0 -1.6186014E-001 -5.9836872E-002 0.0  1.0778154E-015  1.0872809E-016 0.0  1.0473786E-016 -1.3575563E-016 0.0 -7.4489678E+000  1.1542496E+001 0.0 -7.3758274E-003 -1.2805938E-003 0.0  3.5277924E-008 -6.3090270E-008 0.0 -2.5020158E-010 -9.2882253E-010 0.0 -1.0292703E-002 -2.4639683E-003 0.0 -6.2679926E-009  4.3447515E-008 0.0  9.1589649E-008 -1.3484177E-007 0.0  1.1020517E-012 -9.4519402E-013 0.0  5.0441455E-013 -3.7401536E-013 0.0 -1.0175190E-014 -1.6133928E-014 0.0  1.3532697E-015 -1.4523311E-015 0.0  5.2223971E-013 -3.7831951E-013 0.0 -1.4834818E-014  1.0712263E-014 0.0  3.8098266E-014 -2.8307085E-014 0.0 -6.7676864E-016  5.0323438E-016 0.0  2.9450606E-014 -2.1862414E-014 0.0 -9.3517645E-016  6.9470720E-016 0.0  2.0299563E-016 -1.4317519E-016 0.0 -2.3606739E-017  2.8255796E-017 0.0  2.3299693E-016 -1.7175896E-016 0.0 -8.8630840E-018  5.0160214E-018 0.0  2.4830311E-014 -1.8435327E-014 0.0  6.9724618E-013 -5.1042796E-013 0.0  4.0427857E-018  3.0518589E-018 0.0  3.5640816E-018  4.2684716E-018 0.0  8.6663682E-017 -6.7213047E-017 0.0  1.5547293E-012 -2.7334923E-012 0.0  4.6950432E-014 -8.2064490E-014 0.0  5.2949171E-010 -8.4786031E-010 0.0  1.1403994E-017 -3.4855176E-018 0.0 -3.5055795E-017  4.9907180E-018 0.0  2.8001818E-010 -2.5197704E-010 0.0  1.3991425E-011 -1.1951885E-011 0.0  3.7266582E-018  7.0184646E-018 0.0 -4.4466019E-019 -1.6468677E-018 0.0  1.4155197E-002  5.5594588E-003 0.0  8.9862708E-002  4.0157571E-002 0.0 -1.8610848E-004 -2.2692203E-004 0.0  6.5913802E-006  8.6654363E-006 0.0 -3.1789693E-002 -2.0175937E-003 0.0 -1.3843344E-004  1.0694878E-004 0.0  1.9149303E-003  8.5936530E-004 0.0 -1.9403403E-002 -4.5608270E-003 0.0 -6.3720937E-004 -1.5583443E-004 0.0  9.0425971E-004  4.0046202E-004 0.0  8.5330336E-004  1.1595020E-004 0.0  7.3461230E-004 -1.3791396E-003 0.0 -6.2276680E-007  4.5573387E-007 0.0  6.5136828E-001  2.0844322E+000 0.0  1.3733390E-001  7.1444262E-001 0.0  2.6808747E-001  1.3904807E+000 0.0 -1.9921615E+000 -1.1386179E+000 0.0 -8.2512659E-001 -3.0073778E-001 0.0  1.8051284E-002  1.2714968E+000 0.0  6.9726381E-001  3.6559704E-001 0.0 -5.0831010E-001  1.5922251E+000 0.0  1.1754324E-001 -2.1164763E-001 0.0 -1.1766802E+000 -1.0194439E+000 0.0 -4.3937824E-004 -5.5215525E-004 0.0 -4.1066508E-005 -5.4461490E-005 0.0  3.2765784E-006  2.0071686E-006 0.0 -1.3260323E-001 -2.7743711E-002 0.0 -2.0895188E-003 -5.0848954E-004 0.0 -2.1994645E-003 -2.7104640E-003 0.0 -6.7134854E-004 -1.5200896E-005 0.0 -2.3432169E-003 -2.4432414E-005 0.0 -3.7773020E-018 -6.3392715E-018 0.0 -7.4280073E-002  2.7963735E-002 0.0  1.0439997E-011  3.4560301E-012 0.0 -6.4614067E-013 -1.0620914E-013 0.0 -1.6930753E-002  1.3590247E-002 0.0  2.3769358E-014  2.2278122E-015 0.0  3.7636300E-014  3.5287065E-015 0.0 -5.9317586E-014  1.2586033E-013 0.0  1.3933746E-003  5.4047663E-004 0.0 -5.8753453E-004 -6.5252964E-004 0.0 -7.1177749E-002 -1.7913585E-001 0.0  8.6783047E-006  8.5765486E-006 0.0  4.8943447E-006  6.0268713E-006 0.0  4.2639224E-005  9.3018997E-005 0.0 -1.9757903E-004 -2.1342872E-004 0.0  4.5386229E-006  4.7992751E-006 0.0 -3.6167831E-005 -4.2223807E-005 0.0 -2.8288180E-004 -5.5874720E-006 0.0 -6.5525633E-002 -1.9877088E-002 0.0  2.5506945E-018  3.8846536E-018 0.0 -3.8328164E-011  3.4996176E-011 0.0 -1.2605186E-011 -6.2195764E-012 0.0 -9.1230619E-002  6.4681267E-002 0.0 -1.1672911E-001  8.6235246E-002 0.0 -8.5858533E-007 -1.3915718E-006 0.0 -1.1163411E-001 -3.0327447E-002 0.0 -2.5316474E-006  4.8774984E-007 0.0 -1.5213974E-004  1.1458056E-004 0.0 -7.6454061E-006  5.7235349E-006 0.0 -2.7389711E-002  3.2437086E-001 0.0 -8.6125502E-001  4.9570758E+000 0.0 -1.0937253E-003 -1.2859702E-003 0.0 -3.8147449E-006  4.5916907E-005 0.0 -1.4095475E-001 -2.0267045E-002 0.0 -1.0863114E-013 -1.8172470E-014 0.0 -6.4585593E-003 -3.6394084E-003 0.0  1.3862461E-001  5.7359650E-002 0.0 -4.5968813E-002  8.2461448E-002 0.0 -7.7017217E-004  1.4087906E-003 0.0 -8.1028809E-002 -2.6484360E-002 0.0 -9.2817893E-003 -2.7643430E-003 0.0 -2.3453552E-005 -1.6431849E-006 0.0 -4.2414281E-007  2.6160195E-007 0.0 -2.3216799E-001 -4.8195485E-002 0.0 -1.1732853E+000 -3.9275478E-001 0.0  1.4026144E-007  1.0408354E-008 0.0 -3.8741195E-001  4.5916615E-001 0.0 -1.4546588E-002  1.2552860E-002 0.0  5.7590254E-001  1.1133118E+000 0.0 -8.5003607E-003 -8.9498306E-003 0.0  5.6669014E-003  6.5625078E-001 0.0 -4.4957817E-003 -1.6223841E-002 0.0 -5.7890676E-002 -5.8351948E-003 0.0  6.2375011E-006 -7.7585955E-006 0.0 -8.0721019E-015  1.4540460E-014 0.0  8.6456609E-015 -1.2491137E-014 0.0  1.1066830E-014  2.6964785E-015 0.0 -1.5705181E-016 -8.4924221E-018 0.0  7.1396090E-018  6.0794751E-018 0.0 -1.0311155E-002 -1.1372456E-003 0.0 -1.9074081E-001 -6.8406880E-004 0.0 -2.0856391E-005  1.4890943E-005 0.0  1.7264502E-007  1.2201376E-007 0.0 -2.2770686E-008 -2.2647655E-008 0.0  1.3322586E-014 -2.4008438E-014 0.0  4.2042590E-002  9.4222284E-003 0.0 -2.2440788E-008  1.6568645E-008 0.0 -8.1622777E-003 -4.2258513E-003 0.0  3.6710818E-015 -1.0506648E-014 0.0  1.5400523E-003  2.0859965E-003 0.0 -4.9088017E-017 -1.0404044E-017 0.0  3.4037157E-018  2.3028788E-018 0.0  7.3371864E-018  7.9534843E-018 0.0 -2.0458260E-002 -2.1050023E-003 0.0  8.0788521E-013 -1.2387209E-012 0.0 -4.9330609E-003  8.6232459E-005 0.0 -1.7738442E-002  8.5544216E-004 0.0 -3.9825915E-004  6.5838692E-005 0.0 -2.1660057E-002  4.5309110E-003 0.0 -3.1378217E-003  1.2137052E-003 0.0  1.1961674E-001  4.3356429E-002 0.0 -4.6803029E-002  7.8884909E-004 0.0  2.0976882E-003 -3.4348205E-005 0.0 -1.9426054E-002  3.4168370E-004 0.0 -7.5223238E-003  1.3298106E-004 0.0 -7.2134231E-002  8.6743202E-004 0.0 -1.3040118E-003 -7.2402229E-007 0.0 -1.2177119E-002  5.6930328E-005 0.0  1.3156813E-003 -1.1982127E-005 0.0 -4.4256285E-004  9.6213403E-006 0.0 -3.1147812E-018 -3.3531225E-018 0.0  6.7263365E-018  1.0466405E-017 0.0  2.0586261E-018  5.3826359E-018 0.0 -3.3185228E-002 -9.9772022E-003 0.0 -3.5308658E-001 -1.0470882E-001 0.0 -5.2116467E-016 -3.4091443E-017 0.0 -1.5471794E+000  2.1174850E+000 0.0 -1.9389800E-001  2.5529418E-001 0.0  3.5627194E-002  1.2532620E-002 0.0  1.8431546E-003  1.7668467E-003 0.0 -7.3863724E-002 -4.6736375E-002 0.0 -2.9638202E-002 -2.1510358E-002 0.0 -4.0020964E-003  1.8122271E-003 0.0  2.7560941E-003  1.5010755E-003 0.0  3.0333664E-002  1.6311342E-002 0.0 -1.6445732E-003 -6.3881319E-004 0.0 -4.8521752E-008 -1.6559235E-008 0.0 -1.6582433E-005  2.7229884E-005 0.0  2.0363875E-015 -3.9305779E-015 0.0 -2.5673104E-013 -9.5581154E-014 0.0 -4.2271734E-016  2.9829363E-016 0.0  3.6152762E-005  3.8480872E-006 0.0 -1.1981588E-005 -3.4329898E-007 0.0 -1.3517392E-003 -1.5370361E-004 0.0 -1.6569908E-005 -2.2209078E-005 0.0  1.7245146E-013  1.7600490E-013 0.0  5.2200254E-013  4.3865331E-014 0.0 -2.8640849E-017  1.0673560E-017 0.0 -5.8224692E-009 -1.8479388E-009 0.0 -9.5578835E-003 -3.8046983E-003 0.0  4.5044943E-007 -9.4846154E-007 0.0  3.6649520E-007 -4.4378963E-007 0.0  7.6459431E-008 -1.9181096E-007 0.0 -1.1314405E-010 -2.6123862E-009 0.0  1.9588529E-009 -3.2229734E-009 0.0 -6.3748845E-006 -4.9611582E-006 0.0 -1.7893958E-005 -2.5643359E-005 0.0 -1.2030493E-004 -4.6930524E-005 0.0 -8.7900564E-004 -3.0754068E-004 0.0 -1.1467372E-005 -7.4840423E-006 0.0 -3.6809902E-004 -1.5940791E-004 0.0 -1.7294476E-004 -1.9227662E-004 0.0 -3.3665569E-003 -1.2088744E-003 0.0  2.1877880E-003  3.3339726E-004 0.0 -6.8171949E-004 -4.5939461E-004 0.0  3.5248721E-003  1.3571874E-003 0.0 -1.8758043E-003 -1.0978152E-003 0.0 -3.2259017E-003  2.9542322E-002 0.0 -5.2849627E-005  2.2903680E-003 0.0 -1.8043498E-006  6.9632142E-005 0.0 -6.2518748E-006  1.8190893E-004 0.0 -8.0980620E-008  1.0557932E-005 0.0  2.0180376E-006 -8.3649862E-006 0.0 -4.3532759E-001 -4.3305104E-002 0.0 -3.5900993E-005  2.6452223E-005 0.0 -2.2285479E-002  1.7015928E-002 0.0 -5.7485897E-004  7.9858794E-006 0.0 -1.9567159E-005  3.8358231E-007 0.0 -1.0394892E-002  7.7030952E-003 0.0 -5.0032814E-001 -1.3453446E-001 0.0 -2.3205485E-001 -5.7110167E-002 0.0 -1.0767777E-001 -1.4399351E-002 0.0  5.3093289E-007  1.5149217E-007 0.0  6.3976654E-016 -9.4225315E-016 0.0  3.7706173E-004  3.1697373E-004 0.0 -5.0378138E-003 -3.5038417E-003 0.0 -3.0632665E-003 -2.7714067E-003 0.0 -3.9971770E-003 -4.3458009E-003 0.0 -1.1886714E-002 -1.3800714E-002 0.0  1.1008592E-018 -8.2616533E-019 0.0 -7.4859189E-002 -2.9383401E-002 0.0  9.8632204E-007 -1.7992483E-006 0.0 -1.7189261E-010  1.2692072E-010 0.0 -1.3320841E-011  9.9084982E-012 0.0 -1.0432562E-012  8.8009705E-013 0.0 -7.0481698E-004  1.2234805E-005 0.0 -4.3844179E-005  1.0727820E-006 0.0 -3.8372238E-005  1.2353288E-006 0.0 -1.7489299E-005  5.9957928E-006 0.0  6.1386518E-004 -1.0586386E-005 0.0  6.3183130E-001  2.2924351E-001 0.0 -1.1751209E-003 -1.0227438E-004 0.0 -1.7205239E-003 -1.6048051E-004 0.0 -1.8021499E-009  1.2560016E-009 0.0  5.4517925E-015 -1.6115186E-014 0.0 -1.4875902E-002 -5.2109802E-003 0.0 -5.1393802E-004  3.7865282E-004 0.0 -9.6076932E-003 -1.0746174E-002 0.0 -1.4918869E-003 -7.2101430E-003 0.0 -5.7008456E-001 -1.0497371E-001 0.0 -1.5634165E-002 -2.7865226E-003 0.0 -4.4412503E-002 -8.5502048E-003 0.0  6.7260043E-001  3.6379205E-001 0.0 -1.5657028E-014  1.8993927E-015 0.0 -3.0698336E-016  2.1035142E-016 0.0 -7.0473088E-005 -9.5581244E-005 0.0 -7.3454919E-002 -8.7738986E-003 0.0 -3.1367032E-010 -1.7044853E-010 0.0 -1.5404523E-010 -3.7796645E-011 0.0 -2.0230587E-004  7.1616405E-006 0.0 -2.3898330E-004  2.0615973E-006 0.0 -1.6198010E-004  5.0124913E-006 0.0 -3.1002974E-001 -1.0612715E-001 0.0 -9.5335606E-003 -1.2547034E-002 0.0 -1.1682559E-002 -1.5736573E-002 0.0 -6.7553959E-001  1.8826439E-001 0.0 -4.5890602E-002  1.5905222E-002 0.0 -4.2250529E-002 -3.7109754E-002 0.0  9.3893004E-019  2.9661946E-018 0.0 -1.6451110E-004 -2.1119448E-005 0.0 -6.1826226E-004  2.5264212E-004 0.0 -9.5817652E-006  7.1977720E-006 0.0  7.2827117E-016 -2.4544671E-015 0.0 -1.2190534E-015  7.9722428E-016 0.0 -2.5963724E-016  1.3064268E-016 0.0 -1.8254539E-016  1.4047375E-016 0.0 -4.5028646E-004 -2.2395301E-005 0.0 -5.7210006E-004 -2.7772600E-005 0.0 -2.0619580E-002 -1.0205104E-003 0.0 -5.5029409E-004 -1.1986755E-005 0.0 -5.2387026E-005 -1.8551491E-006 0.0  5.0703929E-009 -4.5175477E-009 0.0  6.2327486E-007  6.8225326E-007 0.0 -4.2771215E-017  7.5978097E-018 0.0 -8.9033092E-019  9.3791418E-018 0.0  4.4599920E-018  4.7929087E-018 0.0  1.2824243E-017  1.2517271E-019 0.0  5.8474798E-011 -4.2264852E-011 0.0  8.5188819E-017 -5.7525400E-017 0.0  1.7063530E-015 -1.2632986E-015 0.0  3.9716078E-015 -2.9727362E-015 0.0  2.0175949E-020  1.9430692E-018 0.0  4.8557032E-018  5.0955809E-018 0.0  9.9866353E-010 -7.2075323E-010 0.0 -1.2278503E-012  9.3948563E-013 0.0  1.6845427E-013 -8.7719320E-014 0.0 -1.1637494E-016 -1.0074444E-016 0.0 -2.2396185E-003 -4.3174385E-004 0.0 -9.6560987E-004 -7.1293048E-005 0.0  2.1080299E-012 -8.1138007E-013 0.0 -6.2889291E-007  1.1753734E-006 0.0  6.5619270E-010 -2.2773864E-010 0.0 -8.4992763E-008  6.4114202E-008 0.0  3.2782218E-011 -2.4482465E-011 0.0  2.3384137E-012 -1.7437213E-012 0.0  1.2702708E-013 -9.4728579E-014 0.0  4.8429933E-013 -3.5951453E-013 0.0  1.4213638E-012 -2.4803292E-012 0.0  1.0071082E-013 -1.7432813E-013 0.0  1.0653770E-014 -1.4344697E-014 0.0 -1.0917152E-015  2.0560020E-015 0.0  3.2736996E-011  1.9365751E-010 0.0  2.0810312E-011 -3.6385991E-011 0.0 -8.3586910E-010  6.3588976E-010 0.0  5.8716781E-008 -1.0285791E-007 0.0 -4.1990310E-011  6.7153118E-011 0.0  1.0538120E-011 -2.0036677E-011 0.0 -2.5115694E-010  3.8220907E-010 0.0  8.3667077E-014 -2.2585123E-013 0.0 -1.9898882E-013  1.9165314E-011 0.0  5.4055275E-015 -9.4362979E-015 0.0  8.6927633E-012 -6.3031947E-012 0.0  1.0454826E-016 -8.1781444E-017 0.0 -3.8100981E-016 -4.2322527E-017 0.0  5.0963810E-015  4.7186896E-016 0.0  5.0261898E-012  4.6988755E-013 0.0  5.4118435E-012  5.0657011E-013 0.0  2.4053727E-010  2.2425782E-011 0.0  1.0796632E-011  1.0073608E-012 0.0  6.7714857E-014  6.2557221E-015 0.0  2.8946172E-013  2.6982313E-014 0.0  5.4472358E-012  5.1039027E-013 0.0  8.3506800E-013  7.8092296E-014 0.0 -7.4114342E-018 -1.0728663E-017 0.0 -4.1328126E-018 -5.1839301E-018 0.0  2.5338946E-018  2.7189255E-018 0.0 -6.1776237E-020 -2.2415192E-018 0.0  5.4293330E-019  1.5789633E-019 0.0  1.0826832E-013  1.0013667E-014 0.0  1.1859414E-014  1.1145806E-015 0.0  3.8242051E-018  8.0357866E-018 0.0  4.8401305E-015 -5.3629886E-015 0.0  2.4298327E-019  1.2700283E-018 0.0  3.4224594E-009  3.2004356E-010 0.0  2.6292669E-018  2.3537101E-019 0.0  3.6902697E-017 -2.5666308E-017 0.0 -4.3900198E-018 -6.7531932E-018 0.0  3.6655588E-016 -2.8357709E-016 0.0 -3.5143241E-018 -6.7717223E-018 0.0 -1.5391969E-018  2.6010910E-018 0.0 -1.4499429E-018  6.2426598E-019 0.0  3.2000463E-018  5.1407908E-018 0.0 -9.9695981E-019 -3.7040853E-018 0.0  2.5719517E-014 -1.9006741E-014 0.0  1.1297099E-013 -8.7025547E-014 0.0 -5.1198721E-001 -3.6638220E-001 0.0  3.7029386E-015 -2.8030578E-015 0.0  3.1960965E-015 -1.9857897E-015 0.0  4.4548691E-014 -3.3579680E-014 0.0 -3.7279016E-003 -4.5488042E-003 0.0 -3.0738438E-001 -3.3334485E-001 0.0 -1.3738400E+000 -5.9636104E-001 0.0 -2.7666935E+000 -1.1117644E+000 0.0 -2.6726712E-001 -1.0551893E-001 0.0 -1.4169769E-001 -1.7828092E-001 0.0 -4.3085901E+000 -1.4949015E+000 0.0 -6.9425904E+000 -2.1077088E+000 0.0 -3.4456341E-002 -4.2060570E-002 0.0 -1.0133007E+001 -2.7682121E+000 0.0 -1.5319145E-002 -1.4590211E-002 0.0 -2.0066493E+001 -4.2287842E+000 0.0 -1.4256463E+001 -3.5010726E+000 0.0 -2.7275484E-002 -1.0937596E-002 0.0 -5.4294834E-002 -3.8623224E-002 0.0 -2.5832073E+001 -4.4606197E+000 0.0  3.0605675E-018  4.9172490E-018 0.0  5.1468342E-016 -3.3996145E-016 0.0 -1.2227231E-001 -1.8375067E-002 0.0 -1.7613274E+000 -2.0552283E-001 0.0 -1.0052294E-018 -5.5860098E-018 0.0 -3.3437274E-004  9.5136876E-004 0.0 -1.1316345E-004  2.6268333E-004 0.0  6.0613810E-001  6.0590912E-001 0.0  1.2990393E-001  9.3751515E-002 0.0  4.5910056E-003  5.5658082E-003 0.0  3.5354614E-001  9.9646779E-001 0.0 -2.4199154E-001  7.3041185E-001 0.0 -3.9610352E-002  1.9879439E-001 0.0  1.7517427E+000  1.1131197E+000 0.0 -9.7957224E-006 -1.3183238E-005 0.0  2.7803572E-018  7.5599875E-019 0.0 -1.3287321E-002 -2.8292911E-004 0.0 -5.5908821E-002 -6.8234963E-004 0.0 -3.8535497E-003  2.9285040E-003 0.0 -1.2234514E-004  9.2014481E-005 0.0 -1.2371022E-011 -1.2028395E-012 0.0 -1.9287385E-004 -1.7757653E-005 0.0 -4.6738278E-004  8.5710877E-004 0.0 -3.8449441E-015 -3.6858086E-016 0.0 -2.5687476E+000  1.0140999E+000 0.0 -1.7928285E+000 -2.3987160E-001 0.0 -1.7033112E-007  1.2757619E-007 0.0 -3.1555653E-018 -4.1434298E-018 0.0  2.2947968E-019 -3.3710683E-018 0.0 -1.1009116E+000 -5.8047783E-001 0.0 -4.2490198E-002 -5.1073873E-003 0.0  8.5386878E-005  2.4858155E-005 0.0 -6.4832700E-005 -1.5680715E-005 0.0 -5.4753671E-002  6.7764649E-005 0.0 -1.5583811E+000  2.1504260E-001 0.0 -1.2702799E+000 -2.1052805E-001 0.0 -1.3612009E-017 -1.9099211E-017 0.0 -1.8630576E-001  9.5306036E-003 0.0 -7.2763402E-018 -2.0424996E-017 0.0 -4.4515335E-007 -6.1718199E-008 0.0 -1.3194145E-007 -2.2893293E-008 0.0  8.9119645E-009 -1.3493394E-008 0.0 -4.0343733E-018 -6.4297315E-018 0.0  1.0750776E-016 -2.3482882E-016 0.0 -2.7432839E+000 -1.1494767E-002 0.0  8.1808901E-012 -1.7913598E-011 0.0 -2.0012877E-003  1.0660651E-003 0.0  3.5026850E-009  3.2687807E-010 0.0 -8.7101958E-005  1.5222707E-004 0.0  4.6185642E-002  1.0941759E-001 0.0  2.4124357E-006  9.4937293E-006 0.0 -1.9611938E-006 -1.7712370E-006 0.0 -9.3829340E+000 -1.4884212E+000 0.0 -7.6246687E-002 -2.2866041E-002 0.0 -8.4201800E-003 -3.2956451E-003 0.0 -1.4575010E-007 -2.2726121E-007 0.0 -6.2719594E-019 -2.5819869E-018 0.0 -4.0428669E-001  3.0130948E-001 0.0  7.0119104E-006 -1.2745055E-005 0.0 -3.2280073E-012  2.4131138E-012 0.0  7.5971201E-007  4.4798118E-007 0.0 -1.3000517E-003  1.1467734E-005 0.0 -9.7221189E-003 -1.2642534E-004 0.0 -4.6166457E-002 -4.3382620E-003 0.0  1.8786305E-018 -2.8445855E-018 0.0 -4.2875232E-007 -4.2508940E-008 0.0  2.7974006E-007 -2.4730772E-007 0.0 -5.0286841E-003  6.3988065E-005 0.0 -1.8230341E-002  2.3311025E-004 0.0 -2.6525251E-002  3.6750541E-004 0.0 -1.7714566E-003  2.6563877E-005 0.0 -1.2021075E-002  2.1369656E-004 0.0 -5.6461859E-002  3.6451102E-004 0.0 -2.7636512E-002  3.7445755E-004 0.0 -2.4649890E-001 -5.5898458E-003 0.0 -6.0374518E-002  9.6260521E-004 0.0 -5.8974403E-003  9.0936467E-005 0.0 -3.9916349E-002  6.1816426E-004 0.0 -1.3066740E-002  2.4374856E-004 0.0 -7.1268097E-004  1.1140825E-005 0.0 -3.8897262E-001  1.6674517E+000 0.0  1.5170833E-001  1.0821348E+000 0.0 -2.4269513E-001  3.5559428E+000 0.0  2.9850957E-012 -5.7096379E-012 0.0 -1.8271165E-004 -2.6364020E-005 0.0 -2.8830486E-002 -1.0413707E-002 0.0 -1.0050113E-003 -1.9308778E-004 0.0 -1.9692106E+000 -5.4055446E-001 0.0 -1.0694799E-006 -1.3860657E-006 0.0 -2.2346708E-003  1.6824275E-003 0.0 -1.6060641E-009 -4.7016276E-010 0.0 -2.2638441E-008 -8.1833238E-009 0.0 -1.6692074E-001 -7.5112155E-002 0.0 -1.0622153E-003 -2.7469628E-004 0.0  2.4155605E-018  2.2692758E-017 0.0 -3.0523507E-004  8.4154251E-006 0.0 -5.4115942E-007 -1.8839069E-007 0.0  7.6591345E-007  7.7402247E-007 0.0  3.8368361E-005 -1.1907627E-004 0.0 -1.2399201E-002 -1.5632951E-002 0.0 -8.7487129E-001 -2.6857489E-001 0.0 -1.5026080E-003 -1.2128042E-004 0.0  5.2453346E-007 -1.6100366E-006 0.0  3.0695488E-002  1.1382221E-002 0.0  1.3553597E-013  1.2682386E-014 0.0 -1.6390793E-002 -6.3136323E-003 0.0  1.3925408E+001  5.0615715E+000 0.0 -1.1954295E+000  2.3240762E+000 0.0 -3.7534931E-002  6.7610075E-002 0.0 -3.8400800E-001  8.2079624E-001 0.0 -4.3316485E+000  9.6933307E+000 0.0 -2.0065359E-003 -2.0906087E-003 0.0 -1.2531956E-005 -3.0174951E-007 0.0 -1.5773853E-004 -4.0520788E-006 0.0 -3.6869714E-002  7.1878803E-002 0.0 -1.7987640E-002 -2.0009142E-003 0.0 -1.3995358E-006 -6.2341253E-008 0.0 -2.6641682E+000  1.8942232E+000 0.0 -9.2344741E-002  1.4045584E-003 0.0 -1.9135445E+000 -1.2539373E+000 0.0  9.9775377E-013  8.7759259E-014 0.0  6.2942488E-014  5.8554051E-015 0.0  8.0957205E-011  7.5595136E-012 0.0  9.1133347E-013  8.5192755E-014 0.0 -3.8845468E-001 -4.5875137E-002 0.0 -1.8785223E-001 -2.4894358E-001 0.0 -4.8087269E-009  3.5436360E-009 0.0 -1.3066405E-003 -1.7524137E-003 0.0  1.7117362E-013 -2.6838417E-013 0.0 -5.0674503E-002 -1.8692773E-002 0.0 -2.5515562E-001 -3.4378430E-001 0.0 -3.1196641E-001 -3.4900929E-002 0.0  5.4103979E-018  6.9194643E-018 0.0 -2.8181629E-002 -1.0421703E-002 0.0 -1.7047016E-003  1.7130797E-005 0.0  4.5519523E-008  4.1183126E-006 0.0 -2.1838159E-001  1.2829569E-003 0.0 -8.7581403E-003 -1.7032985E-003 0.0 -4.4696535E-007 -2.0609324E-008 0.0  4.8531922E-007  3.6807444E-007 0.0 -3.8829024E-004 -8.3568651E-005 0.0  1.3532060E-007 -3.9546756E-007 0.0 -3.1032453E+000 -7.6142564E-001 0.0  1.1309281E-009 -2.8470843E-009 0.0 -9.4023446E-001  2.5212435E+000 0.0 -1.1229649E-002  1.6174646E-004 0.0 -3.1829796E-002  5.4342040E-004 0.0  7.1811433E-007  9.6831593E-008 0.0 -4.1515137E-001 -1.4538817E-001 0.0 -3.3465844E-001 -1.6485528E-002 0.0 -1.9289738E-002 -1.7360780E-002 0.0 -5.5176464E-003  2.1879334E-003 0.0 -1.7939167E-002  1.0663122E-004 0.0  5.7290442E-015  4.1723156E-016 0.0 -1.2950363E-004  2.3716243E-004 0.0 -7.1114545E-007 -4.0844811E-008 0.0 -2.2818755E-006  1.7186514E-006 0.0 -1.0673287E+000  1.9146323E+000 0.0 -8.8610172E-001 -8.0042466E-001 0.0  3.8949185E-001  9.3402109E-002 0.0  7.5899973E+000  4.6819038E+001 0.0  6.0766641E-004 -1.1090142E-003 0.0  2.1859778E+001  2.3142260E+001 0.0  1.7272456E+000  2.2460570E+001 0.0 -4.1166684E-005  5.0637513E-005 0.0 -6.3302035E-006  1.0106992E-005 0.0 -5.7875464E-003  7.4173623E-003 0.0  8.5372021E-003 -1.0346709E-002 0.0 -1.6627378E+001  1.9228884E+001 0.0 -4.3566912E+001  6.0486760E+001 0.0 -7.4931121E-002  3.0292228E-001 0.0 -3.5886823E+000  3.0782394E+000 0.0 -1.4332006E+001  1.0877099E+001 0.0  1.5004343E+000  1.9380940E+000 0.0  7.7173074E-001  1.9338273E+000 0.0  8.0258819E-001  5.6520300E-001 0.0 -1.7365302E+000  2.6393380E+000 0.0  2.3473174E+000  1.2991668E+000 0.0  3.1317002E+001  1.8638702E+001 0.0  2.0195105E-001  7.4775318E-002 0.0 -3.3288886E+001  4.0715232E+001 0.0  3.0191886E+001  1.4143229E+001 0.0  5.2695948E+001  2.2826566E+001 0.0 -7.5667274E+000  3.8834840E+001 0.0  4.3762117E+001  5.7552891E+001 0.0  3.2571162E+001  6.5206307E+001 0.0  1.8212466E+001  3.6136065E+001 0.0  1.0809781E+000  3.6856291E+001 0.0  2.6832916E+001  2.1708622E+001 0.0 -1.5016008E+000  1.0025986E+001 0.0 -3.1324898E+000  4.6306947E+001 0.0 -6.6441460E+000  2.1212628E+001 0.0 -4.0146460E-001  1.2740730E+000 0.0 -2.1528209E-001 -4.1265911E-001 0.0  4.6553617E-002  1.7019377E-002 0.0  1.4899624E+000  7.7875850E-001 0.0 -4.5382841E-012 -2.9615590E-013 0.0 -2.4554573E-002 -2.9693123E-002 0.0 -6.5541723E-007 -3.0781955E-007 0.0  1.1857003E-009 -2.2359999E-009 0.0 -5.5404977E-007  4.1662059E-007 0.0 -6.9474625E-004 -6.1629667E-005 0.0 -4.4184129E-005  3.3245338E-005 0.0 -4.3587355E+000  1.3717228E+001 0.0  1.3723635E+001  1.9263502E+001 0.0  8.0335462E+000  2.5407168E+001 0.0  5.5776397E-001  6.6172213E-001 0.0 -1.0785372E+000  8.1512200E-001 0.0 -2.8771753E+000  2.0985267E+000 0.0 -6.1295398E+000  3.3415701E+000 0.0 -1.2429757E-002  2.2732014E-002 0.0 -4.6338767E-006  7.2663330E-008 0.0 -1.7318125E-004 -8.3895887E-006 0.0  1.6929527E-016 -2.6333532E-016 0.0 -1.2047366E-006  1.3628317E-004 0.0 -2.0366876E-002 -6.6135144E-005 0.0 -1.8819879E-001 -9.8846704E-004 0.0  6.3895135E-010 -2.3584864E-009 0.0 -1.9216071E-002 -6.6934950E-003 0.0 -8.6250695E-002 -2.2587265E-002 0.0 -1.0089825E-001 -2.3346037E-002 0.0  2.4846974E-006 -3.9874482E-006 0.0 -2.7357649E+000  2.9167563E-002 0.0 -3.7829580E-001  6.0514366E-003 0.0 -8.2006293E-001  1.3426996E-002 0.0 -8.9500419E-002  1.5367761E-003 0.0 -3.3184317E+000  2.4009672E-002 0.0 -1.5090077E+000  2.4082442E-002 0.0 -3.1357189E+000 -7.2525328E-002 0.0 -1.6334592E-001  4.4211139E-004 0.0 -4.7585189E-001  4.9014831E-003 0.0 -4.5675988E-001 -3.5286335E-002 0.0 -1.2157903E+000  1.9304797E-002 0.0 -1.2363888E+000  2.1196659E-002 0.0 -2.8292931E+000  3.2594848E-002 0.0 -7.9978047E-001  1.4618522E-002 0.0 -2.9862324E+000  2.6330334E-002 0.0 -4.6824572E-001  8.7116021E-003 0.0 -2.4966944E+000  3.0079721E-002 0.0 -1.6508554E-001  3.1464485E-003 0.0 -5.5884598E-001  7.8530462E-003 0.0 -1.8456673E+000  2.7700605E-002 0.0 -3.1713972E+000 -1.6441038E-001 0.0 -7.9457002E-001  1.3693369E-002 0.0 -2.8358107E+000 -3.1744830E-002 0.0 -2.9225624E+000  1.7889942E-002 0.0 -1.7403294E+000  4.2340033E-003 0.0 -1.0281680E+000  1.9279476E-002 0.0 -4.7613048E-001 -1.8877612E-004 0.0 -3.7934461E+000 -2.3157485E-002 0.0 -2.8021185E+000  2.5517141E-003 0.0 -3.2247480E+000 -6.7524199E-001 0.0  5.6010867E-016 -5.1471047E-017 0.0 -5.2489250E-005  1.0947957E-003 0.0 -3.5484349E-005 -4.2508650E-007 0.0 -5.6884423E-003 -5.6825504E-003 0.0  7.4300771E-006  6.7311971E-007 0.0 -1.4609813E-017 -2.2402995E-017 0.0  3.4950643E-017 -5.5573541E-017 0.0  7.8134943E-013  6.9883507E-014 0.0 -1.3326573E-001 -1.4614970E-001 0.0 -1.8687971E-002 -2.1518141E-003 0.0 -8.5681944E-016 -1.0074622E-016 0.0 -6.0682824E-017  1.0635097E-016 0.0 -1.6729102E-001 -2.2291790E-002 0.0 -1.6669187E-006 -5.5230774E-007 0.0 -6.7358304E-004 -7.5243925E-005 0.0 -7.5470358E+000  1.1653694E+001 0.0 -4.6190467E-002  1.8393776E-002 0.0 -5.6620963E-003 -2.5624995E-003 0.0  4.5374193E+000  1.6488357E+000 0.0  2.6949563E-015 -3.5687061E-015 0.0 -4.2152276E-014 -1.5704644E-014 0.0 -5.5998906E-003  6.6906433E-005 0.0 -9.1254018E-004 -4.9899143E-006 0.0 -1.0265261E-010  7.5874142E-011 0.0 -4.3715272E-001  7.5683125E-002 0.0  2.0575965E-008  1.5094771E-008 0.0  2.6792985E-018  9.3844572E-018 0.0  3.8464378E-008  3.5986672E-009 0.0 -9.3048719E-005  6.0871225E-005 0.0 -1.1658250E-011 -3.5461286E-012 0.0  2.0108450E-014 -3.4942861E-014 0.0 -6.8589150E-001 -1.0139251E-001 0.0 -7.0539907E-001  5.3314955E-001 0.0 -5.0624394E-001  2.0159570E-001 0.0 -1.8916898E-012 -4.5067078E-013 0.0  3.0060861E-012  2.5261926E-013 0.0 -1.2488807E-003  2.1905223E-005 0.0 -7.4950263E-004 -6.4276656E-004 0.0 -6.2962815E-006 -1.7583892E-007 0.0 -6.9208455E-002 -7.5435710E-002 0.0 -4.8451110E-014 -4.6821287E-015 0.0 -1.3615589E-001 -9.9672798E-002 0.0 -2.5416054E-001 -1.3620347E-001 0.0  1.7803240E-006  5.5945028E-006 0.0  6.5055824E-016 -1.1450825E-015 0.0 -1.1525871E-007 -9.1797737E-008 0.0 -1.2557100E+000 -4.2873938E-001 0.0  1.7302388E+000  8.9205237E+000 0.0  4.0555978E+000  7.0192923E+000 0.0  8.7056842E+000  6.0626878E+000 0.0  7.1921034E+000  8.5687139E+000 0.0  1.1488680E+001  6.0289816E+000 0.0 -7.5536605E+001 -1.1819447E+001 0.0 -3.2262855E-003 -1.0100746E-003 0.0  2.7322805E+000  1.3276436E+000 0.0 -1.2798592E-002 -8.8314564E-003 0.0 -4.1818299E+000  3.2026617E+000 0.0 -6.1940384E-003  1.2312285E-004 0.0  4.5591010E-012  4.2066153E-013 0.0 -4.6142613E-003 -5.2137213E-003 0.0  5.8838249E-016 -1.1429828E-015 0.0 -1.0637672E-004  2.2599165E-006 0.0 -2.4056095E-001  2.2986850E+000 0.0  8.0601274E-006  9.2649153E-007 0.0  7.0565251E-006 -2.2089799E-005 0.0 -8.0947612E-002 -1.6509529E-002 0.0 -2.7401690E-001 -1.3792078E-001 0.0 -4.2630434E-006 -5.9133716E-006 0.0 -3.5821479E-003  4.6166007E-003 0.0 -5.1042266E-002  6.5321222E-002 0.0  2.9281175E-019 -3.6961390E-018 0.0 -1.7807326E-002 -2.5374956E-003 0.0 -2.8787890E-004 -3.8623656E-004 0.0  1.5911107E-003  1.4618405E-002 0.0 -9.3618928E-008 -2.7421223E-008 0.0 -1.1284655E-005  8.2507045E-006 0.0  1.7205257E-010 -3.5295356E-010 0.0 -2.5292966E+000 -2.9128858E-001 0.0 -1.6981306E-002 -1.4649547E-003 0.0 -7.6117143E+001  1.1749406E+002 0.0
        </DataArray>
        <DataArray type="Float64" Name="current density re" NumberOfComponents="3" format="ascii">
 0.0 0.0 -1.9111495E+005 0.0 0.0 -9.7343057E+003 0.0 0.0 -1.9663914E+004 0.0 0.0 -4.7971688E+004 0.0 0.0  4.7045348E+003 0.0 0.0 -1.4078895E+004 0.0 0.0 -7.8036575E+003 0.0 0.0 -8.2492163E+000 0.0 0.0  1.0402098E+003 0.0 0.0  4.7314924E-002 0.0 0.0  3.3155843E+005 0.0 0.0  2.7250108E+005 0.0 0.0  3.8951453E+005 0.0 0.0  2.5009160E+005 0.0 0.0  6.2646467E-003 0.0 0.0 -2.7685070E-013 0.0 0.0  1.0681847E-014 0.0 0.0 -5.4813316E-004 0.0 0.0  6.8752110E+003 0.0 0.0 -4.4709767E+005 0.0 0.0 -1.3751746E+003 0.0 0.0  7.6542890E+003 0.0 0.0 -4.2294283E+004 0.0 0.0 -5.1913695E+004 0.0 0.0 -4.5720974E+004 0.0 0.0 -5.2303211E+004 0.0 0.0 -5.2964578E+004 0.0 0.0 -4.1113498E+004 0.0 0.0 -6.2724034E+004 0.0 0.0 -4.3268156E+004 0.0 0.0 -4.3418946E+004 0.0 0.0 -3.6828669E+004 0.0 0.0 -3.5758194E+004 0.0 0.0 -2.9048752E+004 0.0 0.0 -2.5871937E+004 0.0 0.0 -2.7049876E+004 0.0 0.0 -2.4231478E+004 0.0 0.0 -1.7373990E+004 0.0 0.0 -9.4016062E+004 0.0 0.0 -8.5772312E+004 0.0 0.0 -8.3961251E+004 0.0 0.0 -8.3281998E+004 0.0 0.0 -8.8523946E+004 0.0 0.0 -7.1996597E+004 0.0 0.0 -5.9818426E+004 0.0 0.0 -9.3932029E+004 0.0 0.0 -6.7122588E+004 0.0 0.0 -7.3466186E+004 0.0 0.0 -5.5046035E+004 0.0 0.0  1.5574711E+003 0.0 0.0 -3.0009738E+003 0.0 0.0 -8.5433143E+003 0.0 0.0 -1.5933742E+004 0.0 0.0 -2.1419876E+004 0.0 0.0 -2.9032467E+004 0.0 0.0 -3.7050192E+004 0.0 0.0 -4.5762447E+004 0.0 0.0 -5.4916294E+004 0.0 0.0 -6.3190451E+004 0.0 0.0 -5.5389703E+004 0.0 0.0 -8.9587861E+004 0.0 0.0 -8.4704956E+004 0.0 0.0 -8.9917794E+004 0.0 0.0 -8.4374350E+004 0.0 0.0 -1.2139309E+005 0.0 0.0 -1.0216951E+005 0.0 0.0 -9.9830513E+004 0.0 0.0 -9.6554630E+004 0.0 0.0 -9.8360335E+004 0.0 0.0 -1.2821052E+005 0.0 0.0 -9.2791408E+004 0.0 0.0 -1.1183403E+005 0.0 0.0 -1.0946593E+005 0.0 0.0 -1.0359281E+005 0.0 0.0 -1.2515614E+005 0.0 0.0 -1.0727492E+005 0.0 0.0 -8.3861324E+004 0.0 0.0 -9.2550342E+004 0.0 0.0 -1.3933630E+005 0.0 0.0 -9.3895873E+004 0.0 0.0 -1.3911388E+005 0.0 0.0 -1.0816193E+005 0.0 0.0 -1.0832290E+005 0.0 0.0 -9.9637721E+004 0.0 0.0 -9.6570048E+004 0.0 0.0 -1.2536738E+005 0.0 0.0 -9.6589162E+004 0.0 0.0 -9.6941008E+004 0.0 0.0 -8.7985093E+004 0.0 0.0 -1.1872561E+005 0.0 0.0 -9.6954133E+004 0.0 0.0 -9.5366011E+004 0.0 0.0 -7.9456045E+004 0.0 0.0 -1.1382280E+005 0.0 0.0 -8.7604662E+004 0.0 0.0 -9.0885381E+004 0.0 0.0 -7.7319050E+004 0.0 0.0 -1.0209975E+005 0.0 0.0 -7.8887921E+004 0.0 0.0 -8.0068115E+004 0.0 0.0 -7.2086450E+004 0.0 0.0 -9.5532955E+004 0.0 0.0 -7.6109590E+004 0.0 0.0 -7.4080707E+004 0.0 0.0 -6.0928878E+004 0.0 0.0 -8.7732868E+004 0.0 0.0 -6.4822358E+004 0.0 0.0 -6.1294583E+004 0.0 0.0 -8.1144223E+004 0.0 0.0 -5.4395899E+004 0.0 0.0 -7.9064514E+004 0.0 0.0 -6.2737984E+004 0.0 0.0 -5.8688253E+004 0.0 0.0 -5.5004045E+004 0.0 0.0 -5.3396413E+004 0.0 0.0 -6.9239281E+004 0.0 0.0 -4.5641331E+004 0.0 0.0 -4.5629570E+004 0.0 0.0 -6.8416319E+004 0.0 0.0 -4.5477244E+004 0.0 0.0 -6.5220685E+004 0.0 0.0 -5.0206012E+004 0.0 0.0 -4.9350432E+004 0.0 0.0 -4.8041940E+004 0.0 0.0 -4.5783283E+004 0.0 0.0 -5.3315631E+004 0.0 0.0 -4.0296151E+004 0.0 0.0 -3.7418868E+004 0.0 0.0 -4.8436936E+004 0.0 0.0 -3.3982879E+004 0.0 0.0 -3.7919160E+004 0.0 0.0 -4.6009326E+004 0.0 0.0 -3.4618122E+004 0.0 0.0 -3.8398958E+004 0.0 0.0 -3.2499886E+004 0.0 0.0 -4.6021121E+004 0.0 0.0 -3.4155304E+004 0.0 0.0 -3.3729672E+004 0.0 0.0 -4.3008231E+004 0.0 0.0 -3.2149964E+004 0.0 0.0 -3.2680775E+004 0.0 0.0 -3.3922059E+004 0.0 0.0 -3.0928325E+004 0.0 0.0 -2.4945403E+004 0.0 0.0 -3.9967352E+004 0.0 0.0 -3.1272427E+004 0.0 0.0 -3.2728081E+004 0.0 0.0 -3.7933666E+004 0.0 0.0 -2.2064853E+004 0.0 0.0 -1.6145555E+004 0.0 0.0 -7.6847701E+003 0.0 0.0 -3.3445904E+000 0.0 0.0 -4.4460605E+000 0.0 0.0  7.2232856E+000 0.0 0.0  3.2783270E+000 0.0 0.0  3.0140680E+001 0.0 0.0  5.3514953E+001 0.0 0.0  6.7075274E+001 0.0 0.0  1.4279284E+002 0.0 0.0  1.8787636E+002 0.0 0.0  1.6664109E+002 0.0 0.0  5.5035767E+002 0.0 0.0  5.0848361E+002 0.0 0.0  1.6813571E+002 0.0 0.0  2.5574235E+002 0.0 0.0  1.1085716E+002 0.0 0.0  2.2836225E+002 0.0 0.0  3.9200066E+002 0.0 0.0  5.2400914E+002 0.0 0.0 -1.5168572E+002 0.0 0.0  1.6165783E+002 0.0 0.0  4.1319303E+002 0.0 0.0  7.7116069E+002 0.0 0.0 -3.8801234E+002 0.0 0.0 -2.3776623E+001 0.0 0.0 -4.0536879E+001 0.0 0.0  1.6655016E+002 0.0 0.0  2.1279625E+002 0.0 0.0  5.7853116E+001 0.0 0.0  7.8156008E+001 0.0 0.0  6.6953031E+002 0.0 0.0  1.2720734E+003 0.0 0.0  1.2940036E+003 0.0 0.0  2.4238794E+003 0.0 0.0  2.8200704E+003 0.0 0.0  3.0980113E+002 0.0 0.0 -4.0827220E+001 0.0 0.0  1.6272692E+000 0.0 0.0 -8.1527518E-002 0.0 0.0  7.5485987E+005 0.0 0.0  8.7503784E+005 0.0 0.0  7.4379123E+005 0.0 0.0  1.0532573E+006 0.0 0.0  7.2501169E+005 0.0 0.0  1.0489223E+006 0.0 0.0  7.5302702E+005 0.0 0.0  1.0497531E+006 0.0 0.0  8.4833260E+005 0.0 0.0  8.2602143E+005 0.0 0.0  8.1538979E+005 0.0 0.0  1.1169945E+006 0.0 0.0  7.9106645E+005 0.0 0.0  7.3664674E+005 0.0 0.0  1.0471772E+006 0.0 0.0  8.5888257E+005 0.0 0.0  8.4072880E+005 0.0 0.0  8.0914594E+005 0.0 0.0  8.0607935E+005 0.0 0.0  1.0155505E+006 0.0 0.0  7.3441312E+005 0.0 0.0  7.3303176E+005 0.0 0.0  1.0087787E+006 0.0 0.0  8.3203957E+005 0.0 0.0  8.4674847E+005 0.0 0.0  6.8973237E+005 0.0 0.0  8.4358368E+005 0.0 0.0  5.7534329E+005 0.0 0.0  6.9326692E+005 0.0 0.0  9.2309701E+005 0.0 0.0  6.7546872E+005 0.0 0.0  6.3006910E+005 0.0 0.0  7.3008624E+005 0.0 0.0  9.2920846E+005 0.0 0.0  9.0995584E+005 0.0 0.0  9.0613292E+005 0.0 0.0  9.0673642E+005 0.0 0.0  8.0859805E+005 0.0 0.0  8.4414326E+005 0.0 0.0  1.1112693E+006 0.0 0.0  6.7954450E+005 0.0 0.0  6.3357009E+005 0.0 0.0  8.1824204E+005 0.0 0.0  9.0526648E+005 0.0 0.0  7.3274457E+005 0.0 0.0  7.3294046E+005 0.0 0.0  8.7956751E+005 0.0 0.0  9.0639308E+005 0.0 0.0  8.9488797E+005 0.0 0.0  8.4883000E+005 0.0 0.0  7.0264132E+005 0.0 0.0  8.4404684E+005 0.0 0.0  7.2111321E+005 0.0 0.0  9.3645927E+005 0.0 0.0  7.1914500E+005 0.0 0.0  5.1484016E+005 0.0 0.0  8.6640656E-003 0.0 0.0  4.0527362E-003 0.0 0.0  1.3496124E-002 0.0 0.0 -1.4760933E-001 0.0 0.0 -2.0886993E-001 0.0 0.0 -1.9411747E-001 0.0 0.0  5.4119263E-001 0.0 0.0  3.3209172E+000 0.0 0.0 -3.9093709E+001 0.0 0.0 -1.5844037E+002 0.0 0.0  7.4220220E+002 0.0 0.0 -1.0409424E+004 0.0 0.0 -1.6102357E+004 0.0 0.0 -1.6273464E+004 0.0 0.0 -1.5321312E+004 0.0 0.0 -1.6510749E+004 0.0 0.0 -1.7752663E+004 0.0 0.0 -1.6349394E+004 0.0 0.0 -2.8218794E+005 0.0 0.0 -2.3236644E+005 0.0 0.0 -1.8892502E+005 0.0 0.0 -1.5584436E+005 0.0 0.0 -1.2053386E+005 0.0 0.0 -1.0372035E+005 0.0 0.0 -8.2048528E+004 0.0 0.0 -6.2684506E+004 0.0 0.0 -5.2607818E+004 0.0 0.0 -4.2996454E+004 0.0 0.0 -3.4057281E+004 0.0 0.0 -2.5657772E+004 0.0 0.0 -1.9539599E+004 0.0 0.0 -1.5489805E+004 0.0 0.0 -1.2751701E+004 0.0 0.0 -1.0200389E+004 0.0 0.0 -8.4792860E+003 0.0 0.0 -8.9263596E+003 0.0 0.0 -7.7738976E+003 0.0 0.0 -6.7719991E+003 0.0 0.0 -7.8060497E+003 0.0 0.0 -7.5228565E+003 0.0 0.0 -6.6807510E+003 0.0 0.0 -6.5899951E+003 0.0 0.0 -6.7671726E+003 0.0 0.0 -6.7039151E+003 0.0 0.0 -7.2016634E+003 0.0 0.0 -6.3671927E+003 0.0 0.0 -6.0740068E+003 0.0 0.0 -6.0582822E+003 0.0 0.0 -4.7532697E+003 0.0 0.0 -4.5866689E+003 0.0 0.0 -4.4484554E+003 0.0 0.0 -3.4294317E+003 0.0 0.0 -2.6430072E+003 0.0 0.0 -1.9928245E+003 0.0 0.0 -1.0590095E+003 0.0 0.0 -1.4981941E+002 0.0 0.0  8.1872884E+002 0.0 0.0  2.9041716E+002 0.0 0.0 -2.6682793E+002 0.0 0.0  5.2780143E+002 0.0 0.0 -4.3919540E+001 0.0 0.0  3.4683678E+001 0.0 0.0 -2.2575465E+000 0.0 0.0  6.7648768E-001 0.0 0.0 -3.8464145E-002 0.0 0.0  2.4525032E-002 0.0 0.0 -1.6651214E-003 0.0 0.0  3.0785534E-004 0.0 0.0  9.4117068E-003 0.0 0.0  3.1336478E-003 0.0 0.0 -2.7335989E-004 0.0 0.0 -1.2502023E-003 0.0 0.0 -3.8517800E-004 0.0 0.0  1.7421537E-005 0.0 0.0 -1.3261451E-006 0.0 0.0  4.4310732E-008 0.0 0.0 -1.3039315E-008 0.0 0.0  4.0893357E-010 0.0 0.0 -3.3891711E-011 0.0 0.0  1.7275457E-012 0.0 0.0  6.1725752E-014 0.0 0.0 -7.2580437E-013 0.0 0.0 -3.9589214E-013 0.0 0.0  2.0744343E-014 0.0 0.0  1.6333621E-012 0.0 0.0 -4.0591979E-012 0.0 0.0 -3.1934014E-012 0.0 0.0 -9.4091758E-013 0.0 0.0 -6.5520405E-012 0.0 0.0 -5.8424639E-012 0.0 0.0 -2.4152973E-014 0.0 0.0 -1.7952487E-013 0.0 0.0  6.7344725E-016 0.0 0.0  5.4196924E-015 0.0 0.0  4.3968238E-015 0.0 0.0  2.7879074E-014 0.0 0.0  1.3842733E-014 0.0 0.0  5.1665391E-015 0.0 0.0  3.4110906E-014 0.0 0.0 -5.7238505E-014 0.0 0.0  3.5003944E-014 0.0 0.0  1.9119512E-014 0.0 0.0  1.9795823E-014 0.0 0.0 -2.2465770E-015 0.0 0.0  1.9062382E-005 0.0 0.0 -4.0236909E-007 0.0 0.0  1.1112132E-007 0.0 0.0 -7.0249135E-008 0.0 0.0  2.0359612E-007 0.0 0.0 -8.1686431E-007 0.0 0.0  3.0688634E-006 0.0 0.0 -1.0030458E-005 0.0 0.0  3.2282716E-005 0.0 0.0 -3.1784105E-004 0.0 0.0  4.7562732E-004 0.0 0.0 -9.8252768E-003 0.0 0.0  7.9305500E-002 0.0 0.0 -1.3298643E+000 0.0 0.0  1.1542079E+000 0.0 0.0 -1.5137093E+002 0.0 0.0  2.6234825E+002 0.0 0.0  1.3886915E-014 0.0 0.0 -5.5803638E-014 0.0 0.0  2.6410273E-014 0.0 0.0  2.4687946E-014 0.0 0.0  3.0712265E-014 0.0 0.0  5.0358371E-014 0.0 0.0  7.2388671E-014 0.0 0.0 -9.0936030E-013 0.0 0.0 -3.2764777E-012 0.0 0.0 -3.4425552E-010 0.0 0.0  8.1759534E-009 0.0 0.0 -1.9820114E-007 0.0 0.0  5.8696307E-006 0.0 0.0  5.2536013E-005 0.0 0.0 -7.2578413E+003 0.0 0.0 -1.3742322E+004 0.0 0.0 -2.0504154E+004 0.0 0.0 -2.7771661E+004 0.0 0.0 -3.7400994E+004 0.0 0.0 -4.4128660E+004 0.0 0.0 -4.7363153E+004 0.0 0.0 -5.6247061E+004 0.0 0.0 -6.6194530E+004 0.0 0.0 -7.0549899E+004 0.0 0.0 -7.6752979E+004 0.0 0.0 -8.6329182E+004 0.0 0.0 -9.0311865E+004 0.0 0.0 -9.5211642E+004 0.0 0.0 -1.1283365E+005 0.0 0.0 -1.1076876E+005 0.0 0.0 -1.1793116E+005 0.0 0.0 -1.3332547E+005 0.0 0.0 -1.3693877E+005 0.0 0.0 -1.3279133E+005 0.0 0.0 -1.3338648E+005 0.0 0.0 -1.5544676E+005 0.0 0.0 -1.8564722E+005 0.0 0.0 -1.5819041E+005 0.0 0.0 -1.5634592E+005 0.0 0.0 -1.7229107E+005 0.0 0.0 -1.8151639E+005 0.0 0.0 -1.8543819E+005 0.0 0.0 -2.0880745E+005 0.0 0.0 -2.1368449E+005 0.0 0.0 -2.2299829E+005 0.0 0.0 -2.2120919E+005 0.0 0.0 -2.2514107E+005 0.0 0.0 -2.3351147E+005 0.0 0.0 -2.8724205E+005 0.0 0.0 -2.2739499E+005 0.0 0.0 -2.6361489E+005 0.0 0.0 -3.0159717E+005 0.0 0.0 -3.2363054E+005 0.0 0.0 -3.2703905E+005 0.0 0.0 -3.7628885E+005 0.0 0.0 -4.0500312E+005 0.0 0.0 -4.1101311E+005 0.0 0.0 -4.8693166E+005 0.0 0.0 -4.7694071E+005 0.0 0.0 -5.0018757E+005 0.0 0.0 -6.1613226E+005 0.0 0.0 -6.5378449E+005 0.0 0.0 -5.8157473E+005 0.0 0.0 -5.7712077E+005 0.0 0.0 -6.5057967E+005 0.0 0.0 -6.6602316E+005 0.0 0.0 -5.5357520E+005 0.0 0.0 -4.5106531E+005 0.0 0.0 -4.5633975E+005 0.0 0.0 -4.0497903E+005 0.0 0.0 -3.6890641E+005 0.0 0.0 -3.4168333E+005 0.0 0.0 -3.1812621E+005 0.0 0.0 -3.2400023E+005 0.0 0.0 -2.9875420E+005 0.0 0.0 -2.7040877E+005 0.0 0.0 -2.7522720E+005 0.0 0.0 -2.7317728E+005 0.0 0.0 -2.8260123E+005 0.0 0.0 -2.9935324E+005 0.0 0.0 -3.0185045E+005 0.0 0.0 -2.9139090E+005 0.0 0.0  1.0541029E+004 0.0 0.0  1.2894923E+004 0.0 0.0  1.3745997E+004 0.0 0.0  1.4155416E+004 0.0 0.0  1.1380217E+004 0.0 0.0  9.6866626E+003 0.0 0.0  8.6260241E+003 0.0 0.0  5.3739813E+003 0.0 0.0  2.7388358E+003 0.0 0.0  7.4299534E+002 0.0 0.0 -1.9369011E+002 0.0 0.0  4.0135515E+001 0.0 0.0 -8.4850902E+000 0.0 0.0  1.5567685E+001 0.0 0.0  2.9100487E+001 0.0 0.0  7.2788469E+001 0.0 0.0  1.7816547E+001 0.0 0.0  3.0121027E+001 0.0 0.0 -1.2999723E+001 0.0 0.0  4.7498321E+001 0.0 0.0  3.5531242E+001 0.0 0.0 -6.5311596E-001 0.0 0.0 -8.0674029E+002 0.0 0.0 -3.0725867E+003 0.0 0.0  7.4061384E+002 0.0 0.0 -1.6249158E+002 0.0 0.0  4.3618562E+001 0.0 0.0 -7.8866126E+000 0.0 0.0  7.9990849E+000 0.0 0.0  3.2625866E+001 0.0 0.0 -2.7633757E+000 0.0 0.0  7.3062105E+001 0.0 0.0 -7.2637783E+001 0.0 0.0  3.2849408E+002 0.0 0.0 -8.9991290E+002 0.0 0.0 -6.3950282E+003 0.0 0.0 -1.2952494E+004 0.0 0.0 -1.8875549E+004 0.0 0.0 -2.5299085E+004 0.0 0.0 -2.9148411E+004 0.0 0.0 -4.0404871E+004 0.0 0.0 -5.3760755E+004 0.0 0.0 -5.1482760E+004 0.0 0.0 -5.4257456E+004 0.0 0.0 -6.2447214E+004 0.0 0.0 -6.8246582E+004 0.0 0.0 -7.5683239E+004 0.0 0.0 -7.9472018E+004 0.0 0.0 -9.4248212E+004 0.0 0.0 -1.0104890E+005 0.0 0.0 -9.3851600E+004 0.0 0.0 -9.6992884E+004 0.0 0.0 -1.0016129E+005 0.0 0.0 -1.0483380E+005 0.0 0.0 -1.0444861E+005 0.0 0.0 -1.1421413E+005 0.0 0.0 -1.1095539E+005 0.0 0.0 -8.8972984E+004 0.0 0.0  3.2973360E+003 0.0 0.0 -3.1802129E+002 0.0 0.0  6.4785903E+002 0.0 0.0  3.7559897E+002 0.0 0.0  4.3908929E+002 0.0 0.0  5.7459294E+002 0.0 0.0  5.9804516E+002 0.0 0.0  6.3104055E+002 0.0 0.0  5.9880799E+002 0.0 0.0  5.6064612E+002 0.0 0.0  6.1689344E+002 0.0 0.0  7.1731860E+002 0.0 0.0  4.9345828E+002 0.0 0.0  5.0330668E+002 0.0 0.0  7.4799447E+002 0.0 0.0  7.3286385E+002 0.0 0.0  7.3693100E+002 0.0 0.0  7.7273449E+002 0.0 0.0  7.0870787E+002 0.0 0.0  7.7928357E+002 0.0 0.0  6.3712760E+002 0.0 0.0  3.3326911E+002 0.0 0.0  5.8146994E+002 0.0 0.0  8.8704800E+002 0.0 0.0  8.1879096E+002 0.0 0.0  8.4787495E+002 0.0 0.0  7.2984536E+002 0.0 0.0  3.8625314E+002 0.0 0.0  5.8566249E+002 0.0 0.0  8.7826056E+002 0.0 0.0  9.0851011E+002 0.0 0.0  9.7234908E+002 0.0 0.0  9.4114346E+002 0.0 0.0  8.8291392E+002 0.0 0.0  1.0440427E+003 0.0 0.0  7.6253501E+002 0.0 0.0  5.6220058E+002 0.0 0.0  9.2394601E+002 0.0 0.0  1.1139311E+003 0.0 0.0  9.9123630E+002 0.0 0.0  1.0431650E+003 0.0 0.0  1.3378650E+003 0.0 0.0  1.3536410E+003 0.0 0.0  1.2547282E+003 0.0 0.0  9.0604376E+002 0.0 0.0  8.6965370E+002 0.0 0.0  1.2881811E+003 0.0 0.0  1.2393759E+003 0.0 0.0  1.3974381E+003 0.0 0.0  1.0289141E+003 0.0 0.0  1.0198362E+003 0.0 0.0  1.5148358E+003 0.0 0.0  1.3750918E+003 0.0 0.0  1.3480404E+003 0.0 0.0  9.9246133E+002 0.0 0.0  1.0840887E+003 0.0 0.0  1.6278019E+003 0.0 0.0  1.4825778E+003 0.0 0.0  1.5015090E+003 0.0 0.0  1.1323565E+003 0.0 0.0  1.1265900E+003 0.0 0.0  1.6512644E+003 0.0 0.0  1.4391719E+003 0.0 0.0  1.4471740E+003 0.0 0.0  1.6109980E+003 0.0 0.0  1.1930635E+003 0.0 0.0  1.2118309E+003 0.0 0.0  1.7925225E+003 0.0 0.0  1.5940261E+003 0.0 0.0  1.4760289E+003 0.0 0.0  1.5721003E+003 0.0 0.0  1.7102055E+003 0.0 0.0  1.7816543E+003 0.0 0.0  1.2560095E+003 0.0 0.0  1.1126521E+003 0.0 0.0  1.5522271E+003 0.0 0.0  1.5324745E+003 0.0 0.0  1.4856057E+003 0.0 0.0  1.3353297E+003 0.0 0.0  1.4018041E+003 0.0 0.0  1.3739188E+003 0.0 0.0  1.3719633E+003 0.0 0.0  9.6126279E+002 0.0 0.0  9.4978439E+002 0.0 0.0  1.2807581E+003 0.0 0.0  1.0530655E+003 0.0 0.0  8.9820089E+002 0.0 0.0  9.0775819E+002 0.0 0.0  8.2556974E+002 0.0 0.0  7.1423241E+002 0.0 0.0  5.2485668E+002 0.0 0.0  4.7467694E+002 0.0 0.0  1.4582281E+002 0.0 0.0  2.4949991E+001 0.0 0.0  9.4765190E+000 0.0 0.0 -2.6390270E+000 0.0 0.0  5.7839340E+000 0.0 0.0 -2.4011312E+001 0.0 0.0  1.3440920E+002 0.0 0.0 -3.2854211E+003 0.0 0.0  6.0126666E+002 0.0 0.0 -1.5740594E+002 0.0 0.0 -3.4626014E+005 0.0 0.0 -2.0868588E+005 0.0 0.0 -2.6243196E+005 0.0 0.0  4.3302779E+003 0.0 0.0 -1.5876474E+005 0.0 0.0 -4.9114247E+005 0.0 0.0  5.4556733E+003 0.0 0.0  7.8278654E+003 0.0 0.0 -9.4708795E+002 0.0 0.0  7.9916181E+001 0.0 0.0 -4.6674602E+005 0.0 0.0  1.0952942E+004 0.0 0.0 -3.8219650E+005 0.0 0.0 -4.4820089E+004 0.0 0.0 -1.0732012E+005 0.0 0.0 -6.8778585E+005 0.0 0.0  1.0334461E+003 0.0 0.0 -6.6429069E+005 0.0 0.0 -4.0887058E+005 0.0 0.0  2.1944985E+003 0.0 0.0 -7.5067751E+004 0.0 0.0 -1.1670071E+005 0.0 0.0 -1.2016379E+003 0.0 0.0 -3.0162465E+005 0.0 0.0  7.3508985E+003 0.0 0.0 -2.2758738E+005 0.0 0.0  5.3655068E+003 0.0 0.0 -3.2801441E+003 0.0 0.0 -9.0084883E+005 0.0 0.0  1.5828023E+003 0.0 0.0 -2.8671923E+005 0.0 0.0 -8.9584657E+005 0.0 0.0 -3.9838108E+004 0.0 0.0  1.0360397E+004 0.0 0.0  8.5990665E+002 0.0 0.0 -5.5081520E+005 0.0 0.0  1.0891648E+004 0.0 0.0 -4.1710942E+005 0.0 0.0 -4.2769245E+005 0.0 0.0 -1.2913122E+004 0.0 0.0 -5.7680867E+005 0.0 0.0 -1.3034037E+005 0.0 0.0 -1.6815577E+005 0.0 0.0  2.6641219E+003 0.0 0.0 -4.4454726E+005 0.0 0.0 -3.6907139E+005 0.0 0.0 -2.8269645E+005 0.0 0.0  3.1928955E+003 0.0 0.0 -9.0370502E+003 0.0 0.0  1.2608580E+003 0.0 0.0 -1.0872883E+006 0.0 0.0 -4.3946030E+005 0.0 0.0 -1.7075103E+004 0.0 0.0  1.9737052E+003 0.0 0.0  3.5946210E+003 0.0 0.0 -3.3370348E+002 0.0 0.0  2.4499166E+003 0.0 0.0  6.2224085E+003 0.0 0.0  6.5747650E+003 0.0 0.0 -1.3499892E+003 0.0 0.0  3.1851567E+003 0.0 0.0  9.8360478E+003 0.0 0.0  7.7731848E+003 0.0 0.0  1.3295567E+004 0.0 0.0  1.2586682E+004 0.0 0.0  2.5151120E+003 0.0 0.0  9.0309505E+003 0.0 0.0  1.7267732E+004 0.0 0.0  1.7858074E+004 0.0 0.0  1.3850359E+002 0.0 0.0  1.1006907E+004 0.0 0.0  2.4203842E+004 0.0 0.0  2.1496556E+004 0.0 0.0  3.2296895E+004 0.0 0.0  3.3015007E+004 0.0 0.0  1.3823472E+004 0.0 0.0  2.9532922E+004 0.0 0.0  4.4588015E+004 0.0 0.0  4.5548815E+004 0.0 0.0  5.6225396E+004 0.0 0.0  6.2921952E+004 0.0 0.0  4.1463366E+004 0.0 0.0  6.1213254E+004 0.0 0.0  8.0142221E+004 0.0 0.0  8.8830673E+004 0.0 0.0  5.8771952E+004 0.0 0.0  9.0174818E+004 0.0 0.0  1.1341071E+005 0.0 0.0  1.1867291E+005 0.0 0.0  1.3309248E+005 0.0 0.0  1.4134011E+005 0.0 0.0  1.0901508E+005 0.0 0.0  1.3198330E+005 0.0 0.0  1.5398240E+005 0.0 0.0  1.4051781E+005 0.0 0.0  9.5213961E+004 0.0 0.0  9.5538692E+004 0.0 0.0  1.2675148E+005 0.0 0.0 -2.6123758E+003 0.0 0.0 -1.8308376E+004 0.0 0.0  4.1344133E+004 0.0 0.0  2.0243234E+004 0.0 0.0  1.1563403E+004 0.0 0.0 -9.1578791E+003 0.0 0.0  8.1735417E+003 0.0 0.0  2.5057473E+004 0.0 0.0 -1.2316651E+004 0.0 0.0  2.8074488E+004 0.0 0.0  1.2418529E+004 0.0 0.0  1.4540575E+004 0.0 0.0 -7.3595068E+004 0.0 0.0  1.1640374E+005 0.0 0.0  1.2659138E+005 0.0 0.0  3.1385733E+004 0.0 0.0 -1.0287724E+005 0.0 0.0 -3.7617321E+004 0.0 0.0 -4.3639143E+004 0.0 0.0 -5.9624410E+004 0.0 0.0 -1.9970537E+005 0.0 0.0 -2.4888631E+004 0.0 0.0 -2.3781417E+004 0.0 0.0  1.2306566E+004 0.0 0.0 -6.6501545E+004 0.0 0.0  2.5747595E+004 0.0 0.0 -2.8055883E+004 0.0 0.0  1.3345467E+004 0.0 0.0 -2.4032766E+005 0.0 0.0 -3.4353297E+005 0.0 0.0 -1.8802825E+005 0.0 0.0  1.0521158E+005 0.0 0.0  2.6222141E+004 0.0 0.0 -1.5617559E+004 0.0 0.0 -2.6955554E+004 0.0 0.0  1.0675817E+005 0.0 0.0 -8.9644445E+004 0.0 0.0 -7.5355129E+004 0.0 0.0  4.7863827E+004 0.0 0.0  5.4899320E+004 0.0 0.0  4.3638215E+004 0.0 0.0  4.6544158E+004 0.0 0.0  9.8200134E+004 0.0 0.0 -4.0111768E+005 0.0 0.0 -1.0558639E+005 0.0 0.0 -7.6386481E+004 0.0 0.0  2.3943386E+004 0.0 0.0  2.0273821E+004 0.0 0.0  1.9693504E+004 0.0 0.0  1.5623316E+004 0.0 0.0 -4.1177862E+004 0.0 0.0 -3.8792523E+004 0.0 0.0  1.0979262E+004 0.0 0.0 -2.6417238E+004 0.0 0.0 -9.1451007E+004 0.0 0.0 -3.2073704E+005 0.0 0.0 -5.7989073E+004 0.0 0.0  8.3329520E+004 0.0 0.0  7.9649790E+004 0.0 0.0  5.8817199E+004 0.0 0.0  4.7370652E+004 0.0 0.0 -1.0093806E+005 0.0 0.0 -7.0081753E+004 0.0 0.0  1.0403353E+004 0.0 0.0  9.3774179E+003 0.0 0.0  1.3311625E+004 0.0 0.0  1.2634991E+005 0.0 0.0 -5.0781465E+005 0.0 0.0  1.0126884E+005 0.0 0.0  1.2019148E+005 0.0 0.0 -1.2091804E+005 0.0 0.0 -1.2600582E+005 0.0 0.0 -4.7255925E+005 0.0 0.0 -1.5218451E+005 0.0 0.0 -1.3842397E+005 0.0 0.0 -4.5365842E+004 0.0 0.0 -1.0198018E+005 0.0 0.0  3.4358137E+004 0.0 0.0  3.3191679E+004 0.0 0.0  8.9056216E+004 0.0 0.0  1.0638957E+005 0.0 0.0 -1.6785541E+004 0.0 0.0 -2.5666818E+004 0.0 0.0 -1.2085274E+005 0.0 0.0 -9.2379801E+004 0.0 0.0 -5.3987719E+004 0.0 0.0 -6.8807127E+004 0.0 0.0 -1.0654002E+005 0.0 0.0 -8.2206368E+004 0.0 0.0 -1.0753551E+005 0.0 0.0  8.8711563E+003 0.0 0.0  7.9086787E+003 0.0 0.0  9.2510942E+003 0.0 0.0  7.5209331E+003 0.0 0.0  6.5848830E+003 0.0 0.0  6.6468834E+003 0.0 0.0  5.2909758E+003 0.0 0.0  1.5215364E+004 0.0 0.0  1.5471386E+004 0.0 0.0 -6.1320808E+004 0.0 0.0  1.8353474E+004 0.0 0.0  5.1349588E+003 0.0 0.0 -1.8332411E+004 0.0 0.0 -7.5989568E+004 0.0 0.0 -1.6952738E+005 0.0 0.0 -1.4967857E+005 0.0 0.0 -5.8084545E+004 0.0 0.0 -5.6887374E+004 0.0 0.0 -3.6547682E+004 0.0 0.0 -5.4539362E+004 0.0 0.0 -5.9266634E+004 0.0 0.0 -3.2452688E+004 0.0 0.0 -5.0088931E+004 0.0 0.0 -7.6835647E+004 0.0 0.0  1.1196561E+004 0.0 0.0 -2.6720421E+004 0.0 0.0  6.2565188E+004 0.0 0.0  6.1515761E+004 0.0 0.0  7.2646270E+004 0.0 0.0 -3.8060974E+004 0.0 0.0 -1.8183196E+005 0.0 0.0  1.4194772E+004 0.0 0.0 -1.6037681E+005 0.0 0.0 -4.9883394E+004 0.0 0.0  8.0010270E+004 0.0 0.0  9.9445643E+003 0.0 0.0 -5.7053399E+005 0.0 0.0 -6.7872067E+005 0.0 0.0 -7.1240924E+004 0.0 0.0  3.3787128E+004 0.0 0.0  1.3439643E+005 0.0 0.0  1.1917714E+005 0.0 0.0  8.2574739E+004 0.0 0.0  9.1582854E+004 0.0 0.0  1.2729934E+005 0.0 0.0  8.9759217E+004 0.0 0.0  5.1605168E+004 0.0 0.0  4.1106463E+004 0.0 0.0  7.1257976E+004 0.0 0.0  1.2605744E+004 0.0 0.0  3.5996042E+004 0.0 0.0 -4.7951348E+004 0.0 0.0 -2.8330167E+004 0.0 0.0 -6.6137768E+004 0.0 0.0 -1.3173031E+005 0.0 0.0 -1.5451428E+005 0.0 0.0 -1.0590024E+005 0.0 0.0  4.5228422E+002 0.0 0.0  4.2285742E+004 0.0 0.0 -3.3851405E+004 0.0 0.0 -1.1634971E+005 0.0 0.0 -1.3507103E+005 0.0 0.0  1.9859198E+003 0.0 0.0 -1.1986728E+005 0.0 0.0  6.0999842E+004 0.0 0.0 -7.8001626E+004 0.0 0.0 -2.2580109E+005 0.0 0.0 -2.1266005E+005 0.0 0.0  6.4637993E+003 0.0 0.0  9.2132788E+003 0.0 0.0 -1.8835429E+005 0.0 0.0 -1.5704092E+004 0.0 0.0 -9.7007119E+003 0.0 0.0 -2.2708085E+004 0.0 0.0 -1.5372797E+005 0.0 0.0  2.3626272E+004 0.0 0.0  2.3929806E+004 0.0 0.0 -1.5334872E+005 0.0 0.0 -2.4958869E+005 0.0 0.0 -2.3371093E+005 0.0 0.0 -1.3679559E+005 0.0 0.0 -2.2732758E+005 0.0 0.0 -1.3475767E+005 0.0 0.0 -2.3364285E+005 0.0 0.0  2.9914874E+004 0.0 0.0 -2.4991460E+005 0.0 0.0 -1.6821828E+005 0.0 0.0 -1.8087968E+005 0.0 0.0 -1.0048196E+005 0.0 0.0  1.7192959E+004 0.0 0.0 -2.0719630E+004 0.0 0.0  1.2514800E+004 0.0 0.0 -2.2252528E+005 0.0 0.0 -1.0625783E+005 0.0 0.0  3.8455757E+003 0.0 0.0  3.9139700E+003 0.0 0.0  4.4332570E+004 0.0 0.0  4.4140669E+004 0.0 0.0  2.3492064E+004 0.0 0.0 -3.3094708E+005 0.0 0.0 -3.5931183E+005 0.0 0.0  4.5687201E+003 0.0 0.0 -2.3571879E+005 0.0 0.0 -2.0757158E+005 0.0 0.0 -2.5028761E+005 0.0 0.0 -1.7104752E+005 0.0 0.0 -2.9514708E+005 0.0 0.0 -2.2753598E+005 0.0 0.0  9.0413571E+003 0.0 0.0 -1.6533380E+005 0.0 0.0 -1.4722052E+005 0.0 0.0  2.1096882E+003 0.0 0.0 -7.0610452E+003 0.0 0.0 -1.0648386E+004 0.0 0.0 -1.3401180E+004 0.0 0.0  1.2714257E+004 0.0 0.0  1.5769410E+004 0.0 0.0 -8.0730447E+004 0.0 0.0 -3.3369703E+005 0.0 0.0 -9.7731117E+004 0.0 0.0 -8.2855322E+004 0.0 0.0  4.0469353E+004 0.0 0.0 -2.7405546E+005 0.0 0.0 -1.9716633E+005 0.0 0.0 -2.9247287E+005 0.0 0.0 -1.3044132E+005 0.0 0.0 -2.5613009E+004 0.0 0.0  1.9849533E+004 0.0 0.0  1.2214101E+004 0.0 0.0  1.8288193E+004 0.0 0.0  8.3682413E+003 0.0 0.0 -1.3688153E+005 0.0 0.0  9.9164817E+004 0.0 0.0 -8.1202271E+004 0.0 0.0 -7.5021141E+004 0.0 0.0 -5.6566318E+004 0.0 0.0  2.4259563E+004 0.0 0.0  7.0308050E+004 0.0 0.0  5.0378175E+004 0.0 0.0 -3.4066875E+004 0.0 0.0 -4.8667415E+004 0.0 0.0  7.9960192E+003 0.0 0.0  8.0022352E+003 0.0 0.0  9.2162812E+003 0.0 0.0  1.1221479E+004 0.0 0.0 -2.2732109E+003 0.0 0.0 -2.3239560E+005 0.0 0.0  7.2131848E+003 0.0 0.0  3.7401333E+004 0.0 0.0  5.0547233E+004 0.0 0.0  3.7365264E+004 0.0 0.0  6.3907603E+004 0.0 0.0 -1.4212384E+005 0.0 0.0 -2.1047799E+005 0.0 0.0  7.9275601E+003 0.0 0.0  5.9784997E+003 0.0 0.0 -4.8315590E+005 0.0 0.0 -6.4012452E+005 0.0 0.0 -4.2945836E+005 0.0 0.0 -4.8932611E+004 0.0 0.0  3.4877034E+004 0.0 0.0  3.2440068E+004 0.0 0.0  1.0647018E+004 0.0 0.0  1.6733209E+004 0.0 0.0  8.0744961E+004 0.0 0.0  5.7218920E+004 0.0 0.0  2.4109294E+004 0.0 0.0 -1.6025722E+005 0.0 0.0 -1.4607563E+005 0.0 0.0 -3.2234393E+005 0.0 0.0 -4.6082783E+005 0.0 0.0 -6.0061272E+005 0.0 0.0 -3.3350202E+005 0.0 0.0 -4.8081527E+005 0.0 0.0 -1.1401939E+005 0.0 0.0  1.4660237E+005 0.0 0.0  6.3742540E+003 0.0 0.0  5.4258152E+003 0.0 0.0  6.1307237E+003 0.0 0.0  5.9946264E+004 0.0 0.0 -1.1191389E+005 0.0 0.0 -6.2672009E+005 0.0 0.0 -8.5599705E+004 0.0 0.0 -1.5196963E+005 0.0 0.0 -1.9993114E+005 0.0 0.0 -3.4871075E+005 0.0 0.0  6.8024157E+004 0.0 0.0 -3.5225887E+005 0.0 0.0 -8.2326784E+005 0.0 0.0 -8.6577177E+005 0.0 0.0  4.4683142E+003 0.0 0.0 -4.0614150E+004 0.0 0.0 -3.2604863E+005 0.0 0.0 -4.7838472E+003 0.0 0.0 -8.7715115E+004 0.0 0.0  3.9481859E+004 0.0 0.0  1.5894283E+004 0.0 0.0  8.3181880E+003 0.0 0.0  6.0221914E+003 0.0 0.0 -3.5034108E+005 0.0 0.0 -2.8785633E+005 0.0 0.0 -6.6003893E+004 0.0 0.0 -3.4494078E+004 0.0 0.0  7.1827867E+003 0.0 0.0  7.1975175E+004 0.0 0.0 -2.0409471E+005 0.0 0.0 -2.3966632E+005 0.0 0.0 -1.5603122E+005 0.0 0.0 -1.8492955E+004 0.0 0.0  4.8194091E+004 0.0 0.0  5.9871379E+004 0.0 0.0  1.2024710E+003 0.0 0.0 -3.6693635E+005 0.0 0.0 -4.0201595E+005 0.0 0.0 -1.8119288E+005 0.0 0.0 -3.0999956E+005 0.0 0.0 -2.2017939E+005 0.0 0.0 -8.0561645E+002 0.0 0.0 -2.4731938E+003 0.0 0.0  2.3123013E+003 0.0 0.0  1.0707695E+003 0.0 0.0  2.4936835E+003 0.0 0.0  1.5099910E+005 0.0 0.0  1.2610864E+005 0.0 0.0 -1.0286626E+005 0.0 0.0 -3.3418300E+004 0.0 0.0 -1.3812485E+004 0.0 0.0  1.3731019E+003 0.0 0.0  1.9043396E+004 0.0 0.0  1.7691454E+004 0.0 0.0  2.6742531E+004 0.0 0.0 -7.4009698E+005 0.0 0.0 -6.8727525E+005 0.0 0.0 -7.4690420E+005 0.0 0.0 -9.1495350E+005 0.0 0.0  8.0501909E+004 0.0 0.0 -2.2897552E+005 0.0 0.0 -2.5084848E+005 0.0 0.0 -2.4289554E+005 0.0 0.0 -1.8852256E+005 0.0 0.0 -1.9714760E+005 0.0 0.0  7.0254569E+004 0.0 0.0 -7.1285720E+005 0.0 0.0  1.2439096E+004 0.0 0.0  9.1707363E+003 0.0 0.0  1.3152714E+004 0.0 0.0 -2.6260086E+004 0.0 0.0 -4.8667595E+004 0.0 0.0 -9.8328928E+005 0.0 0.0  1.0943000E+003 0.0 0.0  3.5898274E+003 0.0 0.0  2.0173705E+003 0.0 0.0  1.2346275E+004 0.0 0.0 -3.6472562E+005 0.0 0.0 -3.6983803E+005 0.0 0.0 -3.0507575E+005 0.0 0.0 -4.5418591E+005 0.0 0.0 -2.3674455E+002 0.0 0.0 -1.0376932E+004 0.0 0.0 -5.5116113E+005 0.0 0.0 -5.4317673E+005 0.0 0.0 -5.6313062E+004 0.0 0.0 -4.8433566E+005 0.0 0.0 -1.0513428E+005 0.0 0.0 -4.1464421E+005 0.0 0.0 -1.2651704E+005 0.0 0.0 -1.4965522E+005 0.0 0.0 -3.2283848E+005 0.0 0.0 -3.2058539E+005 0.0 0.0 -1.9962312E+005 0.0 0.0 -3.2552117E+005 0.0 0.0 -2.6597823E+005 0.0 0.0 -2.8953370E+005 0.0 0.0 -5.7634195E+003 0.0 0.0  3.1448820E+004 0.0 0.0 -7.2011498E+003 0.0 0.0  1.4263735E+005 0.0 0.0 -2.9252790E+004 0.0 0.0 -3.3668823E+005 0.0 0.0  1.0869658E+004 0.0 0.0  1.9417929E+004 0.0 0.0  9.9215779E+003 0.0 0.0  2.6960653E+004 0.0 0.0 -5.5753040E+003 0.0 0.0 -6.1065008E+004 0.0 0.0  6.6222529E+003 0.0 0.0  2.1654006E+004 0.0 0.0 -6.7607591E+005 0.0 0.0  8.7520546E+004 0.0 0.0  2.1728177E+004 0.0 0.0 -3.3824438E+005 0.0 0.0 -4.5031911E+005 0.0 0.0 -2.4405312E+005 0.0 0.0 -9.2825497E+004 0.0 0.0  2.8035162E+004 0.0 0.0  9.5421126E+003 0.0 0.0 -4.6483192E+003 0.0 0.0 -3.6801700E+004 0.0 0.0 -1.1375278E+001 0.0 0.0  1.3993046E+005 0.0 0.0 -5.6980859E+005 0.0 0.0 -1.0856073E+006 0.0 0.0 -8.4619908E+003 0.0 0.0  3.9605361E+003 0.0 0.0  5.8931775E+003 0.0 0.0 -6.4005098E+004 0.0 0.0 -7.6663136E+004 0.0 0.0 -2.9662516E+005 0.0 0.0  3.4103190E+003 0.0 0.0  4.5223972E+004 0.0 0.0  3.5887598E+004 0.0 0.0 -2.0261471E+005 0.0 0.0 -5.5602286E+004 0.0 0.0  8.0023097E+003 0.0 0.0  9.1198714E+003 0.0 0.0 -5.4488795E+004 0.0 0.0  7.9263774E+003 0.0 0.0 -2.2107520E+005 0.0 0.0  2.5212467E+003 0.0 0.0 -2.2868696E+004 0.0 0.0  3.0112534E+004 0.0 0.0 -3.8808506E+003 0.0 0.0  1.2950797E+003 0.0 0.0 -1.2880374E+005 0.0 0.0  2.5581502E+003 0.0 0.0  8.8442894E+004 0.0 0.0  5.0028953E+004 0.0 0.0 -1.3499172E+004 0.0 0.0 -2.9696035E+005 0.0 0.0 -4.3346477E+004 0.0 0.0  6.0849884E+003 0.0 0.0  1.5075989E+005 0.0 0.0 -9.4318921E+004 0.0 0.0 -1.7467875E+004 0.0 0.0  9.5701132E+003 0.0 0.0  3.8767902E+004 0.0 0.0 -5.7793543E+005 0.0 0.0 -3.7767183E+004 0.0 0.0  9.1638473E+004 0.0 0.0 -3.1094072E+005 0.0 0.0  1.3205944E+004 0.0 0.0 -2.1568791E+005 0.0 0.0  8.3991270E+003 0.0 0.0  5.5747988E+001 0.0 0.0 -1.7044991E+005 0.0 0.0  3.5106213E+004 0.0 0.0  3.8043828E+003 0.0 0.0 -1.4785333E+005 0.0 0.0 -7.2302451E+004 0.0 0.0 -2.6653830E+005 0.0 0.0 -4.0563876E+005 0.0 0.0 -5.2187922E+004 0.0 0.0 -7.9862071E+003 0.0 0.0 -2.2281326E+004 0.0 0.0 -1.2204409E+005 0.0 0.0 -1.3533233E+005 0.0 0.0 -6.5999802E+005 0.0 0.0  3.5159575E+003 0.0 0.0 -3.6757355E+004 0.0 0.0 -2.3924207E+004 0.0 0.0  1.4811715E+004 0.0 0.0  9.5303456E+003 0.0 0.0  1.7540718E+004 0.0 0.0  5.8893066E+003 0.0 0.0 -5.3935706E+005 0.0 0.0  3.3821714E+004 0.0 0.0  5.2894860E+003 0.0 0.0  2.3823719E+003 0.0 0.0 -2.8039785E+005 0.0 0.0 -4.8134928E+005 0.0 0.0 -4.1462818E+005 0.0 0.0 -3.5874135E+005 0.0 0.0 -1.5209740E+005 0.0 0.0 -2.0543415E+005 0.0 0.0 -4.0225970E+005 0.0 0.0  9.6634558E+003 0.0 0.0 -1.1083049E+005 0.0 0.0  5.7403595E+004 0.0 0.0 -9.5533932E+005 0.0 0.0 -4.1951739E+005 0.0 0.0 -4.5977220E+005 0.0 0.0  2.6243876E+004 0.0 0.0  1.2682076E+004 0.0 0.0  2.0901759E+004 0.0 0.0 -1.8245063E+005 0.0 0.0  9.7306672E+003 0.0 0.0 -5.0825576E+004 0.0 0.0 -2.1141654E+005 0.0 0.0 -9.9869590E+003 0.0 0.0 -4.0535963E+003 0.0 0.0 -2.5353595E+005 0.0 0.0  2.9457493E+004 0.0 0.0  5.6085655E+003 0.0 0.0 -2.9791636E+005 0.0 0.0 -2.0242987E+005 0.0 0.0 -2.4853293E+005 0.0 0.0 -1.7274272E+005 0.0 0.0 -3.9126559E+004 0.0 0.0  7.5967980E+003 0.0 0.0  8.2788225E+003 0.0 0.0 -1.5444305E+005 0.0 0.0 -1.7773680E+004 0.0 0.0  1.5301374E+004 0.0 0.0  6.8806761E+004 0.0 0.0 -2.9585036E+005 0.0 0.0 -7.0045788E+005 0.0 0.0 -3.4062227E+005 0.0 0.0 -2.0200224E+005 0.0 0.0  1.7817275E+003 0.0 0.0  6.1964356E+003 0.0 0.0 -2.3109202E+005 0.0 0.0 -1.9483118E+004 0.0 0.0  5.5640075E+003 0.0 0.0 -6.6363846E+004 0.0 0.0 -6.7440515E+003 0.0 0.0  2.5556911E+003 0.0 0.0  3.4996540E+004 0.0 0.0 -9.6702901E+004 0.0 0.0 -8.7214411E+005 0.0 0.0 -1.8517960E+005 0.0 0.0 -1.3656898E+005 0.0 0.0 -1.5032155E+004 0.0 0.0  1.0634788E+005 0.0 0.0 -1.9265918E+005 0.0 0.0 -3.2992147E+005 0.0 0.0 -4.6887369E+004 0.0 0.0  2.1745249E+004 0.0 0.0  7.9311615E+003 0.0 0.0  5.4982111E+004 0.0 0.0  1.0554216E+004 0.0 0.0 -1.3599032E+005 0.0 0.0 -1.2357062E+005 0.0 0.0 -2.9261009E+005 0.0 0.0 -4.4906534E+004 0.0 0.0 -5.9399196E+004 0.0 0.0 -2.4291491E+004 0.0 0.0 -9.7108815E+004 0.0 0.0 -2.2689033E+005 0.0 0.0 -5.6417257E+004 0.0 0.0 -3.9222190E+004 0.0 0.0 -3.9126091E+004 0.0 0.0 -9.6572313E+003 0.0 0.0 -1.3037477E+004 0.0 0.0 -1.6871471E+004 0.0 0.0 -2.1252044E+004 0.0 0.0 -3.2427049E+004 0.0 0.0 -3.0401516E+004 0.0 0.0 -4.6970183E+004 0.0 0.0 -2.9988303E+004 0.0 0.0 -3.4878068E+004 0.0 0.0 -6.5442832E+004 0.0 0.0 -7.6005031E+003 0.0 0.0 -1.0046496E+005 0.0 0.0 -1.9486341E+005 0.0 0.0 -4.6451733E+003 0.0 0.0 -5.4350439E+003 0.0 0.0 -3.3878922E+004 0.0 0.0 -1.8609879E+005 0.0 0.0 -7.0351587E+004 0.0 0.0 -7.0077746E+004 0.0 0.0 -1.8455076E+003 0.0 0.0 -1.2021424E+005 0.0 0.0 -1.6232570E+005 0.0 0.0 -2.2312224E+005 0.0 0.0 -1.0843856E+005 0.0 0.0 -4.2661065E+004 0.0 0.0 -2.1593781E+003 0.0 0.0 -5.4884461E+004 0.0 0.0 -1.5767498E+005 0.0 0.0 -3.6416684E+004 0.0 0.0 -1.0948972E+003 0.0 0.0 -2.0248949E+005 0.0 0.0 -6.8018317E+004 0.0 0.0 -1.3722696E+005 0.0 0.0 -2.2266797E+005 0.0 0.0 -3.1431493E+004 0.0 0.0 -4.8925237E+004 0.0 0.0 -5.1145073E+004 0.0 0.0 -3.0907244E+004 0.0 0.0 -3.4062835E+004 0.0 0.0 -5.6176910E+003 0.0 0.0 -3.6249328E+004 0.0 0.0 -8.1596987E+003 0.0 0.0 -1.0600961E+004 0.0 0.0 -2.3239559E+004 0.0 0.0 -1.6776843E+004 0.0 0.0 -1.8658275E+004 0.0 0.0 -1.2949197E+005 0.0 0.0 -7.7095370E+002 0.0 0.0 -1.7669132E+004 0.0 0.0 -1.3144179E+005 0.0 0.0 -2.0616562E+005 0.0 0.0 -4.1628763E+004 0.0 0.0 -1.0880784E+003 0.0 0.0 -4.4179448E+004 0.0 0.0 -5.2236800E+004 0.0 0.0 -5.7967931E+004 0.0 0.0 -5.5694549E+004 0.0 0.0 -4.9926478E+004 0.0 0.0 -5.2955026E+004 0.0 0.0 -5.8883908E+004 0.0 0.0 -5.5507529E+004 0.0 0.0 -6.2695842E+004 0.0 0.0 -5.9197118E+004 0.0 0.0 -6.7367475E+004 0.0 0.0 -6.4953030E+004 0.0 0.0 -7.3328133E+004 0.0 0.0 -7.0380052E+004 0.0 0.0 -8.0328004E+004 0.0 0.0 -7.8731975E+004 0.0 0.0 -8.9055941E+004 0.0 0.0 -8.8245806E+004 0.0 0.0 -9.9313530E+004 0.0 0.0 -9.9337260E+004 0.0 0.0 -1.1096691E+005 0.0 0.0 -1.1329881E+005 0.0 0.0 -1.2551592E+005 0.0 0.0 -1.2726117E+005 0.0 0.0 -1.4173188E+005 0.0 0.0 -1.3828220E+005 0.0 0.0 -1.5621135E+005 0.0 0.0 -1.5193560E+005 0.0 0.0 -1.6968615E+005 0.0 0.0 -1.6433494E+005 0.0 0.0 -1.8183000E+005 0.0 0.0 -1.7484669E+005 0.0 0.0 -1.9170613E+005 0.0 0.0 -1.1314997E+005 0.0 0.0 -1.2747014E+005 0.0 0.0 -1.1471767E+005 0.0 0.0 -1.2795062E+005 0.0 0.0 -1.1850751E+005 0.0 0.0 -1.2894320E+005 0.0 0.0 -1.1945374E+005 0.0 0.0 -1.3784338E+005 0.0 0.0 -1.3030818E+005 0.0 0.0 -1.1946471E+005 0.0 0.0 -8.1864530E+004 0.0 0.0 -1.8361306E+005 0.0 0.0 -1.0388380E+005 0.0 0.0 -1.0907155E+005 0.0 0.0 -1.0864859E+005 0.0 0.0 -7.5666664E+004 0.0 0.0 -1.1930989E+005 0.0 0.0 -1.0975855E+005 0.0 0.0 -1.0027588E+005 0.0 0.0 -1.0085229E+005 0.0 0.0 -9.2453475E+004 0.0 0.0 -9.1178339E+004 0.0 0.0 -1.0103922E+005 0.0 0.0 -9.2206241E+004 0.0 0.0 -8.3005558E+004 0.0 0.0 -8.3609954E+004 0.0 0.0 -7.5429939E+004 0.0 0.0 -7.4294031E+004 0.0 0.0 -8.3586016E+004 0.0 0.0 -7.5359715E+004 0.0 0.0 -1.0144147E+005 0.0 0.0 -6.6675510E+004 0.0 0.0 -6.7434157E+004 0.0 0.0 -7.5624145E+004 0.0 0.0 -6.5898904E+004 0.0 0.0 -7.4903286E+004 0.0 0.0 -6.5988218E+004 0.0 0.0 -5.7990409E+004 0.0 0.0 -5.7720176E+004 0.0 0.0 -5.0801835E+004 0.0 0.0 -5.0441059E+004 0.0 0.0 -1.9930283E+005 0.0 0.0 -9.1400565E+004 0.0 0.0 -5.9156295E+004 0.0 0.0 -5.9966083E+004 0.0 0.0 -5.7093865E+004 0.0 0.0 -4.9622617E+004 0.0 0.0 -7.5187517E+004 0.0 0.0 -4.3228163E+004 0.0 0.0 -4.2658666E+004 0.0 0.0 -4.8294041E+004 0.0 0.0 -4.1261956E+004 0.0 0.0 -4.6269797E+004 0.0 0.0 -3.9323278E+004 0.0 0.0 -3.5206688E+004 0.0 0.0 -3.3149784E+004 0.0 0.0 -3.6767573E+004 0.0 0.0 -3.0853664E+004 0.0 0.0 -2.7617851E+004 0.0 0.0 -2.5698965E+004 0.0 0.0 -2.8202249E+004 0.0 0.0 -2.2914951E+004 0.0 0.0 -2.5154173E+004 0.0 0.0 -2.0338430E+004 0.0 0.0 -3.7567539E+004 0.0 0.0 -1.8555922E+004 0.0 0.0 -1.6405425E+004 0.0 0.0 -1.8765526E+005 0.0 0.0 -1.5764711E+005 0.0 0.0 -1.9004440E+005 0.0 0.0 -3.7144215E+004 0.0 0.0 -2.2672716E+004 0.0 0.0 -2.4282485E+004 0.0 0.0 -2.1428262E+004 0.0 0.0 -5.3662483E+004 0.0 0.0 -2.0739321E+005 0.0 0.0 -3.0263372E+004 0.0 0.0 -1.7490554E+005 0.0 0.0 -2.1339234E+005 0.0 0.0 -1.1984011E+005 0.0 0.0 -8.4441027E+004 0.0 0.0 -1.4740673E+004 0.0 0.0 -1.3206326E+004 0.0 0.0 -5.4396073E+004 0.0 0.0 -5.0838754E+004 0.0 0.0 -1.4037673E+004 0.0 0.0 -1.1216784E+004 0.0 0.0 -8.4169803E+004 0.0 0.0 -5.8411567E+004 0.0 0.0 -1.3537768E+005 0.0 0.0 -5.2048527E+004 0.0 0.0 -8.3259117E+004 0.0 0.0 -1.2990162E+005 0.0 0.0 -2.0571939E+004 0.0 0.0 -3.2753438E+004 0.0 0.0 -1.0654407E+004 0.0 0.0 -8.7049866E+003 0.0 0.0 -9.0695522E+003 0.0 0.0 -4.7290907E+004 0.0 0.0 -2.1176734E+004 0.0 0.0 -7.0664408E+003 0.0 0.0 -5.0708596E+004 0.0 0.0 -3.1618601E+004 0.0 0.0 -1.8008439E+005 0.0 0.0 -1.0033735E+005 0.0 0.0 -1.6585361E+005 0.0 0.0 -6.9683000E+004 0.0 0.0 -2.2068551E+005 0.0 0.0 -2.2469097E+005 0.0 0.0 -1.6395829E+004 0.0 0.0 -1.3737984E+004 0.0 0.0 -1.4756482E+004 0.0 0.0 -7.6732103E+004 0.0 0.0 -6.7469549E+003 0.0 0.0 -5.3984799E+003 0.0 0.0 -4.4772552E+004 0.0 0.0 -4.6358066E+004 0.0 0.0 -1.6151917E+005 0.0 0.0 -5.6685265E+004 0.0 0.0 -7.5618772E+004 0.0 0.0 -8.2093957E+004 0.0 0.0 -1.2977005E+005 0.0 0.0 -1.4164515E+005 0.0 0.0 -3.6091372E+004 0.0 0.0 -3.1438389E+004 0.0 0.0 -3.5419927E+004 0.0 0.0 -2.1608275E+005 0.0 0.0 -1.8094371E+004 0.0 0.0 -2.8301410E+004 0.0 0.0 -2.8875051E+004 0.0 0.0 -2.4514531E+004 0.0 0.0 -2.1615177E+004 0.0 0.0 -2.4720341E+004 0.0 0.0 -2.1775592E+004 0.0 0.0 -7.4063490E+004 0.0 0.0 -4.4965341E+004 0.0 0.0 -4.2314779E+004 0.0 0.0 -1.6970623E+005 0.0 0.0 -1.8212490E+005 0.0 0.0 -7.5660658E+004 0.0 0.0 -8.1154758E+004 0.0 0.0 -7.5128728E+004 0.0 0.0 -8.0686046E+004 0.0 0.0 -7.4556681E+004 0.0 0.0 -8.0526457E+004 0.0 0.0 -7.4419687E+004 0.0 0.0 -8.6771149E+004 0.0 0.0 -8.0789593E+004 0.0 0.0 -7.4172322E+004 0.0 0.0 -8.1286903E+004 0.0 0.0 -7.4625150E+004 0.0 0.0 -8.8028812E+004 0.0 0.0 -6.7403078E+004 0.0 0.0 -6.8245241E+004 0.0 0.0 -7.5161863E+004 0.0 0.0 -6.7455901E+004 0.0 0.0 -7.6055323E+004 0.0 0.0 -6.9325387E+004 0.0 0.0 -6.1201406E+004 0.0 0.0 -6.2857646E+004 0.0 0.0 -5.5281066E+004 0.0 0.0 -5.6824259E+004 0.0 0.0 -5.3346897E+004 0.0 0.0 -7.7375469E+004 0.0 0.0 -4.4457708E+004 0.0 0.0 -8.7764002E+004 0.0 0.0 -4.9552405E+004 0.0 0.0 -5.4846678E+004 0.0 0.0 -1.2455730E+004 0.0 0.0 -1.1538689E+004 0.0 0.0 -5.3382517E+003 0.0 0.0 -4.1668957E+003 0.0 0.0 -6.3396891E+003 0.0 0.0 -4.9536651E+004 0.0 0.0 -5.1274670E+004 0.0 0.0 -5.8508398E+004 0.0 0.0 -5.3134726E+004 0.0 0.0 -4.6100503E+004 0.0 0.0 -4.8146161E+004 0.0 0.0 -1.3142168E+004 0.0 0.0 -2.3013278E+005 0.0 0.0 -2.2516364E+005 0.0 0.0 -2.3191326E+005 0.0 0.0 -1.7624716E+004 0.0 0.0 -2.5117891E+004 0.0 0.0 -2.5375077E+004 0.0 0.0 -2.8663803E+004 0.0 0.0 -6.9354990E+003 0.0 0.0 -9.2439895E+003 0.0 0.0 -4.0334346E+004 0.0 0.0 -4.1519867E+004 0.0 0.0 -4.7211100E+004 0.0 0.0 -4.1765597E+004 0.0 0.0 -3.6561669E+004 0.0 0.0 -6.0207532E+004 0.0 0.0 -8.4680456E+004 0.0 0.0 -3.0692675E+004 0.0 0.0 -1.5631160E+004 0.0 0.0 -1.5654874E+005 0.0 0.0 -1.5146660E+005 0.0 0.0 -6.1339397E+004 0.0 0.0 -4.1610510E+003 0.0 0.0 -6.3076964E+003 0.0 0.0 -4.0282718E+003 0.0 0.0 -1.5902006E+005 0.0 0.0 -3.4450685E+004 0.0 0.0 -2.9852208E+003 0.0 0.0 -9.0038018E+003 0.0 0.0 -2.2055129E+004 0.0 0.0 -4.1362650E+004 0.0 0.0 -4.3707941E+004 0.0 0.0 -3.9558838E+004 0.0 0.0 -5.0057375E+004 0.0 0.0 -4.5874121E+004 0.0 0.0 -3.9806429E+004 0.0 0.0 -4.1989248E+004 0.0 0.0 -4.7859977E+004 0.0 0.0 -4.4170847E+004 0.0 0.0 -2.7163681E+004 0.0 0.0 -2.4630963E+004 0.0 0.0 -7.0134783E+004 0.0 0.0 -7.0417639E+004 0.0 0.0 -6.4022695E+004 0.0 0.0 -6.3898055E+004 0.0 0.0 -3.8712472E+004 0.0 0.0 -4.0837940E+004 0.0 0.0 -3.9566003E+004 0.0 0.0 -6.0326097E+004 0.0 0.0 -5.4794496E+004 0.0 0.0 -6.0156388E+004 0.0 0.0 -1.8951301E+004 0.0 0.0 -1.9276253E+004 0.0 0.0 -3.9487103E+004 0.0 0.0 -2.2150072E+004 0.0 0.0 -1.7435028E+004 0.0 0.0 -4.8143287E+004 0.0 0.0 -5.3378257E+004 0.0 0.0 -4.3312687E+004 0.0 0.0 -3.0084717E+004 0.0 0.0 -6.0199659E+004 0.0 0.0 -1.1271600E+004 0.0 0.0 -3.8929800E+004 0.0 0.0 -1.5838033E+004 0.0 0.0 -1.4067142E+004 0.0 0.0 -1.0391928E+005 0.0 0.0 -1.0377107E+005 0.0 0.0 -8.8535729E+004 0.0 0.0 -1.0149859E+005 0.0 0.0 -1.3906410E+005 0.0 0.0 -1.2534404E+005 0.0 0.0 -4.8575132E+004 0.0 0.0 -1.5489773E+004 0.0 0.0 -5.6746303E+003 0.0 0.0 -4.0519643E+004 0.0 0.0 -4.2907737E+004 0.0 0.0 -4.4418929E+004 0.0 0.0 -8.5669865E+004 0.0 0.0 -1.4304798E+005 0.0 0.0 -4.1317448E+004 0.0 0.0 -3.7230849E+004 0.0 0.0 -5.3484400E+004 0.0 0.0 -7.1771941E+004 0.0 0.0 -1.5197884E+005 0.0 0.0 -1.5421812E+005 0.0 0.0 -2.4867188E+004 0.0 0.0 -2.8004426E+004 0.0 0.0 -1.2267738E+004 0.0 0.0 -1.2341265E+004 0.0 0.0 -6.3334360E+004 0.0 0.0 -7.2989770E+004 0.0 0.0 -3.6477496E+004 0.0 0.0 -5.8807513E+004 0.0 0.0 -5.1818015E+004 0.0 0.0 -5.8695641E+004 0.0 0.0 -2.3349722E+005 0.0 0.0 -2.3132860E+005 0.0 0.0 -2.2873000E+005 0.0 0.0 -3.5877042E+004 0.0 0.0 -6.9687245E+004 0.0 0.0 -1.0872712E+005 0.0 0.0 -9.7802735E+004 0.0 0.0 -9.9684803E+004 0.0 0.0 -3.3226253E+004 0.0 0.0 -6.6086169E+004 0.0 0.0 -8.1528352E+004 0.0 0.0 -1.8866242E+004 0.0 0.0 -1.7080976E+004 0.0 0.0 -2.1804410E+004 0.0 0.0 -4.6492231E+004 0.0 0.0 -4.6762139E+004 0.0 0.0 -1.1973470E+004 0.0 0.0 -2.2513463E+005 0.0 0.0 -2.6946061E+004 0.0 0.0 -5.6999801E+004 0.0 0.0 -1.1903792E+004 0.0 0.0 -9.7896681E+003 0.0 0.0 -8.6482123E+003 0.0 0.0 -8.1077045E+003 0.0 0.0 -8.9599266E+003 0.0 0.0 -7.5592720E+003 0.0 0.0 -6.8489973E+003 0.0 0.0 -7.0185153E+004 0.0 0.0 -1.3563246E+005 0.0 0.0 -1.4404516E+005 0.0 0.0 -1.2984248E+005 0.0 0.0 -1.3553092E+005 0.0 0.0 -1.2154795E+005 0.0 0.0 -1.2675737E+005 0.0 0.0 -4.7881911E+004 0.0 0.0 -4.2992222E+004 0.0 0.0 -4.7209607E+004 0.0 0.0 -5.0710022E+004 0.0 0.0 -5.8555334E+004 0.0 0.0 -5.1959716E+004 0.0 0.0 -4.4404375E+004 0.0 0.0 -6.7094204E+004 0.0 0.0 -3.8609540E+004 0.0 0.0 -3.6311951E+004 0.0 0.0 -3.7910251E+004 0.0 0.0 -2.6763540E+004 0.0 0.0 -2.1796215E+004 0.0 0.0 -2.4612848E+004 0.0 0.0 -2.7738657E+004 0.0 0.0 -5.2103032E+003 0.0 0.0 -4.4972521E+004 0.0 0.0 -2.2255299E+004 0.0 0.0 -2.1270267E+004 0.0 0.0 -7.1568262E+004 0.0 0.0 -5.4172173E+004 0.0 0.0 -7.1011497E+004 0.0 0.0 -1.9748191E+004 0.0 0.0 -3.6285161E+004 0.0 0.0 -3.1379630E+004 0.0 0.0 -1.0487496E+004 0.0 0.0 -6.8442814E+004 0.0 0.0 -3.4824463E+004 0.0 0.0 -1.3741922E+004 0.0 0.0 -3.1871105E+004 0.0 0.0 -4.4547356E+004 0.0 0.0 -3.7620081E+004 0.0 0.0 -4.5267125E+004 0.0 0.0 -2.9277944E+004 0.0 0.0 -3.8904564E+004 0.0 0.0 -7.8421670E+004 0.0 0.0 -1.9482978E+004 0.0 0.0 -1.1254868E+005 0.0 0.0 -1.1559245E+005 0.0 0.0 -1.0095408E+005 0.0 0.0 -1.0326424E+005 0.0 0.0 -5.5114024E+004 0.0 0.0 -4.5921376E+003 0.0 0.0 -3.2618822E+003 0.0 0.0 -3.1563605E+003 0.0 0.0 -2.1700878E+003 0.0 0.0 -6.4487519E+004 0.0 0.0 -1.9645049E+004 0.0 0.0 -4.5618938E+004 0.0 0.0 -3.6817883E+004 0.0 0.0 -1.1764786E+005 0.0 0.0 -1.6755256E+005 0.0 0.0 -1.7103110E+005 0.0 0.0 -1.8137108E+005 0.0 0.0 -1.8562259E+005 0.0 0.0 -1.6994048E+005 0.0 0.0 -1.8611933E+005 0.0 0.0 -1.9868216E+005 0.0 0.0 -1.9885910E+005 0.0 0.0 -2.1013820E+005 0.0 0.0 -2.0934756E+005 0.0 0.0 -2.2030367E+005 0.0 0.0 -2.1547907E+005 0.0 0.0 -1.8281321E+005 0.0 0.0 -1.5602926E+005 0.0 0.0 -7.8952151E+004 0.0 0.0 -7.9131676E+004 0.0 0.0 -9.0137667E+004 0.0 0.0 -9.0785009E+004 0.0 0.0 -1.0215159E+005 0.0 0.0 -6.9057490E+004 0.0 0.0 -1.0351625E+005 0.0 0.0 -1.1618435E+005 0.0 0.0 -1.7337135E+003 0.0 0.0 -8.5529258E+003 0.0 0.0 -3.4882711E+004 0.0 0.0 -2.5926467E+004 0.0 0.0 -8.9435581E+004 0.0 0.0 -6.5876152E+003 0.0 0.0 -1.1097971E+005 0.0 0.0 -1.3102666E+005 0.0 0.0 -4.7411991E+004 0.0 0.0 -6.4360580E+004 0.0 0.0 -3.6956942E+004 0.0 0.0 -6.1785239E+004 0.0 0.0 -3.7153705E+004 0.0 0.0 -3.5663769E+004 0.0 0.0 -1.4275518E+005 0.0 0.0 -7.7814951E+004 0.0 0.0 -8.6015292E+003 0.0 0.0 -1.6525012E+004 0.0 0.0 -2.6495427E+004 0.0 0.0 -2.5266836E+004 0.0 0.0 -3.0381726E+003 0.0 0.0 -1.5270341E+004 0.0 0.0 -2.5447986E+003 0.0 0.0 -3.7327010E+003 0.0 0.0 -3.6367273E+004 0.0 0.0 -1.6702276E+004 0.0 0.0 -1.7310040E+004 0.0 0.0 -4.6898870E+004 0.0 0.0 -1.3736350E+003 0.0 0.0 -3.5718350E+004 0.0 0.0 -6.9057178E+004 0.0 0.0 -1.9428372E+005 0.0 0.0 -6.5738647E+004 0.0 0.0 -5.3300755E+004 0.0 0.0 -1.9840454E+005 0.0 0.0 -1.5103263E+005 0.0 0.0 -2.1370869E+005 0.0 0.0 -2.0409854E+005 0.0 0.0 -2.0535952E+005 0.0 0.0 -2.1449029E+005 0.0 0.0 -2.0220374E+005 0.0 0.0 -2.0562504E+005 0.0 0.0 -1.8473991E+005 0.0 0.0 -1.9352624E+005 0.0 0.0 -1.6727068E+005 0.0 0.0 -2.2480185E+005 0.0 0.0 -1.7032856E+005 0.0 0.0 -2.3047653E+005 0.0 0.0 -1.4688769E+005 0.0 0.0 -1.4839190E+005 0.0 0.0 -1.5941993E+005 0.0 0.0 -2.1109827E+005 0.0 0.0 -7.7069065E+004 0.0 0.0 -1.9124466E+005 0.0 0.0 -2.0288082E+005 0.0 0.0 -1.3557005E+005 0.0 0.0 -5.0393024E+004 0.0 0.0 -8.7645912E+004 0.0 0.0 -9.8794414E+004 0.0 0.0 -1.1350898E+005 0.0 0.0 -1.3383069E+005 0.0 0.0 -1.6739601E+005 0.0 0.0 -2.0256625E+005 0.0 0.0 -2.1960036E+005 0.0 0.0 -1.5678432E+005 0.0 0.0 -3.8996973E+004 0.0 0.0 -4.0703620E+004 0.0 0.0 -1.7018728E+004 0.0 0.0 -1.9427935E+004 0.0 0.0 -3.8700612E+004 0.0 0.0 -3.5765198E+004 0.0 0.0 -1.2421126E+005 0.0 0.0 -4.1863032E+003 0.0 0.0 -1.3694000E+003 0.0 0.0 -1.2017025E+005 0.0 0.0 -8.3669206E+004 0.0 0.0 -1.1625843E+005 0.0 0.0 -7.5753632E+004 0.0 0.0 -7.8065541E+004 0.0 0.0 -8.8829741E+004 0.0 0.0 -4.0587733E+004 0.0 0.0 -1.2459971E+004 0.0 0.0 -1.7684545E+004 0.0 0.0 -5.1080792E+004 0.0 0.0 -2.1067014E+004 0.0 0.0 -9.7144727E+003 0.0 0.0 -7.7643855E+004 0.0 0.0 -2.2536649E+004 0.0 0.0 -1.6249095E+004 0.0 0.0 -2.7755213E+004 0.0 0.0 -1.2576102E+004 0.0 0.0 -4.7982801E+004 0.0 0.0 -6.2135472E+004 0.0 0.0 -3.6605083E+004 0.0 0.0 -3.5670680E+004 0.0 0.0 -4.6243655E+004 0.0 0.0 -8.4258532E+004 0.0 0.0 -3.6076443E+004 0.0 0.0 -5.0341406E+004 0.0 0.0 -1.2642833E+005 0.0 0.0 -1.1489588E+005 0.0 0.0 -6.7677557E+004 0.0 0.0 -7.0661467E+004 0.0 0.0 -5.0006067E+004 0.0 0.0 -5.2155900E+004 0.0 0.0 -5.7263000E+004 0.0 0.0 -1.6202033E+005 0.0 0.0 -2.1564836E+005 0.0 0.0 -1.9277899E+005 0.0 0.0 -7.1769893E+004 0.0 0.0 -1.5700117E+005 0.0 0.0 -1.7918292E+005 0.0 0.0 -7.5254126E+004 0.0 0.0 -5.6873131E+004 0.0 0.0 -1.2300457E+005 0.0 0.0 -2.2569189E+005 0.0 0.0 -3.8322065E+004 0.0 0.0 -3.2965024E+004 0.0 0.0 -3.6692264E+004 0.0 0.0 -4.3756563E+004 0.0 0.0 -2.0736704E+004 0.0 0.0 -2.5550483E+003 0.0 0.0 -9.2579221E+003 0.0 0.0 -1.7304866E+004 0.0 0.0 -3.1157536E+004 0.0 0.0 -8.6771553E+004 0.0 0.0 -5.0766482E+003 0.0 0.0 -3.2879554E+004 0.0 0.0 -3.9044762E+004 0.0 0.0 -8.9528440E+004 0.0 0.0 -1.3014810E+005 0.0 0.0 -9.2800897E+004 0.0 0.0 -5.5181902E+004 0.0 0.0 -4.0119944E+004 0.0 0.0 -1.2240480E+005 0.0 0.0 -4.2537557E+004 0.0 0.0 -9.8734860E+003 0.0 0.0 -1.0729015E+004 0.0 0.0 -2.2110670E+004 0.0 0.0 -8.1100276E+004 0.0 0.0 -4.3158598E+003 0.0 0.0 -1.4418497E+005 0.0 0.0 -1.1191387E+005 0.0 0.0 -6.4443096E+004 0.0 0.0 -1.5827207E+005 0.0 0.0 -5.8896311E+004 0.0 0.0 -6.0673029E+002 0.0 0.0 -8.0225640E+004 0.0 0.0 -2.7696699E+004 0.0 0.0 -2.6680809E+004 0.0 0.0 -5.3228236E+004 0.0 0.0 -7.7867858E+004 0.0 0.0 -1.3708391E+004 0.0 0.0 -1.5663378E+004 0.0 0.0 -9.4324770E+004 0.0 0.0 -9.5276977E+004 0.0 0.0 -9.8277606E+004 0.0 0.0 -3.2055485E+004 0.0 0.0 -8.5995041E+004 0.0 0.0 -9.1698560E+004 0.0 0.0 -5.5432577E+004 0.0 0.0 -6.6100138E+004 0.0 0.0 -1.0497396E+005 0.0 0.0 -1.0874828E+005 0.0 0.0 -6.8767037E+004 0.0 0.0 -5.3515093E+003 0.0 0.0 -6.2179707E+004 0.0 0.0 -1.1757092E+004 0.0 0.0 -8.1759268E+004 0.0 0.0 -2.1576011E+004 0.0 0.0 -4.3429241E+004 0.0 0.0 -5.0615250E+004 0.0 0.0 -9.1931938E+004 0.0 0.0 -3.2507024E+004 0.0 0.0 -8.7358944E+004 0.0 0.0 -2.0415381E+005 0.0 0.0 -6.0153258E+004 0.0 0.0 -1.4800063E+005 0.0 0.0 -1.1028441E+005 0.0 0.0 -2.8288872E+004 0.0 0.0 -8.0659747E+002 0.0 0.0 -4.3452082E+004 0.0 0.0 -2.3817842E+004 0.0 0.0 -1.4177808E+005 0.0 0.0 -5.7793187E+004 0.0 0.0 -2.5948303E+004 0.0 0.0 -4.4983408E+004 0.0 0.0 -2.0515662E+005 0.0 0.0 -4.7961047E+003 0.0 0.0 -1.1872426E+004 0.0 0.0 -5.1793177E+004 0.0 0.0 -3.0911085E+004 0.0 0.0 -3.3895381E+004 0.0 0.0 -3.6017856E+004 0.0 0.0 -8.4024567E+004 0.0 0.0 -9.2917858E+004 0.0 0.0 -8.2409190E+004 0.0 0.0 -5.4653463E+004 0.0 0.0 -1.3020931E+005 0.0 0.0 -3.1614936E+004 0.0 0.0 -1.0685064E+005 0.0 0.0 -1.7717856E+004 0.0 0.0 -1.4139456E+005 0.0 0.0 -4.0637461E+004 0.0 0.0 -6.2109968E+004 0.0 0.0 -9.2901305E+004 0.0 0.0 -1.7471187E+005 0.0 0.0 -1.4215804E+005 0.0 0.0 -1.8211439E+005 0.0 0.0 -1.7284724E+005 0.0 0.0 -1.1715470E+005 0.0 0.0 -1.6024153E+005 0.0 0.0 -2.5164918E+004 0.0 0.0 -6.6055896E+004 0.0 0.0 -4.3824019E+004 0.0 0.0 -1.7699321E+005 0.0 0.0 -7.4634816E+003 0.0 0.0 -7.4512160E+004 0.0 0.0 -5.7873080E+004 0.0 0.0 -1.4513432E+004 0.0 0.0 -3.6848825E+004 0.0 0.0 -5.7110226E+004 0.0 0.0 -4.1137040E+004 0.0 0.0 -1.7203118E+005 0.0 0.0 -9.2054688E+004 0.0 0.0 -8.8271155E+004 0.0 0.0 -3.8993344E+004 0.0 0.0 -5.3369890E+004 0.0 0.0 -1.4323312E+005 0.0 0.0 -1.5502375E+005 0.0 0.0 -6.4756326E+004 0.0 0.0 -9.3814458E+004 0.0 0.0 -9.4307118E+004 0.0 0.0 -8.2368216E+004 0.0 0.0 -6.3557510E+004 0.0 0.0 -7.2572062E+003 0.0 0.0 -6.1538656E+003 0.0 0.0 -3.6114991E+004 0.0 0.0 -1.0763938E+004 0.0 0.0 -2.4602368E+004 0.0 0.0 -2.7657305E+004 0.0 0.0 -3.5071581E+004 0.0 0.0 -9.3247992E+004 0.0 0.0 -2.0248413E+004 0.0 0.0 -7.4881661E+004 0.0 0.0 -3.4424668E+003 0.0 0.0 -6.4562110E+003 0.0 0.0 -1.1025910E+005 0.0 0.0 -1.3527608E+005 0.0 0.0 -9.5745012E+004 0.0 0.0 -1.6707081E+005 0.0 0.0 -2.1883730E+004 0.0 0.0 -1.3755369E+005 0.0 0.0 -2.1797337E+005 0.0 0.0 -2.3505219E+004 0.0 0.0 -9.2484919E+004 0.0 0.0 -1.5831450E+005 0.0 0.0 -6.2276862E+003 0.0 0.0 -9.7350369E+004 0.0 0.0 -6.6855780E+004 0.0 0.0 -6.2159384E+004 0.0 0.0 -2.7797448E+005 0.0 0.0 -4.2742386E+004 0.0 0.0 -1.7128156E+004 0.0 0.0 -4.7002903E+004 0.0 0.0 -1.8999895E+004 0.0 0.0 -1.9412329E+005 0.0 0.0 -1.3885555E+005 0.0 0.0 -1.3221138E+005 0.0 0.0 -9.4620054E+003 0.0 0.0 -9.4621500E+004 0.0 0.0 -4.2646689E+004 0.0 0.0 -1.7076155E+005 0.0 0.0 -1.4009314E+003 0.0 0.0 -1.2105871E+005 0.0 0.0 -1.3656333E+005 0.0 0.0 -5.6685001E+004 0.0 0.0 -1.2990313E+005 0.0 0.0 -2.7525018E+004 0.0 0.0 -4.3868585E+004 0.0 0.0 -7.1871327E+004 0.0 0.0 -1.4061729E+005 0.0 0.0 -2.7298946E+004 0.0 0.0 -5.9577954E+003 0.0 0.0 -8.8879039E+004 0.0 0.0 -3.7203123E+004 0.0 0.0 -1.3013781E+005 0.0 0.0 -1.1174037E+005 0.0 0.0 -3.0774933E+003 0.0 0.0 -2.6051331E+004 0.0 0.0 -1.3542046E+004 0.0 0.0 -8.4686629E+004 0.0 0.0 -7.5317275E+004 0.0 0.0 -1.5184881E+005 0.0 0.0 -1.4177132E+005 0.0 0.0 -3.1694226E+004 0.0 0.0 -7.3603848E+004 0.0 0.0 -4.9232057E+004 0.0 0.0 -3.6521720E+004 0.0 0.0 -2.2856956E+005 0.0 0.0 -4.0409838E+004 0.0 0.0 -1.6913627E+004 0.0 0.0 -9.2348437E+004 0.0 0.0 -1.3984188E+005 0.0 0.0 -4.1180065E+004 0.0 0.0 -2.9459604E+004 0.0 0.0 -1.5045676E+004 0.0 0.0 -2.2511867E+005 0.0 0.0 -5.7431050E+004 0.0 0.0 -6.2983860E+004 0.0 0.0 -2.7393501E+003 0.0 0.0 -1.5479422E+005 0.0 0.0 -1.4424353E+004 0.0 0.0 -9.0826831E+004 0.0 0.0 -9.1192992E+004 0.0 0.0 -2.0574880E+004 0.0 0.0 -7.9248004E+004 0.0 0.0 -8.5642405E+004 0.0 0.0 -1.0982870E+005 0.0 0.0 -7.1505959E+004 0.0 0.0 -1.0304341E+005 0.0 0.0 -7.5916561E+004 0.0 0.0 -7.4998734E+003 0.0 0.0 -1.0908441E+005 0.0 0.0 -2.2624323E+005 0.0 0.0 -6.8969970E+004 0.0 0.0 -1.0261446E+005 0.0 0.0 -6.4169190E+004 0.0 0.0 -1.9912215E+004 0.0 0.0 -4.0234606E+004 0.0 0.0 -5.3196090E+004 0.0 0.0 -1.1807540E+005 0.0 0.0 -1.2556720E+004 0.0 0.0 -5.2752506E+004 0.0 0.0 -5.1073280E+004 0.0 0.0  1.8618794E+004 0.0 0.0  5.0889142E+003 0.0 0.0 -1.0138570E+004 0.0 0.0  8.2404943E+003 0.0 0.0  1.3819448E+004 0.0 0.0  1.9284130E+004 0.0 0.0 -1.7134741E+004 0.0 0.0 -1.5285450E+004 0.0 0.0 -5.1736833E+004 0.0 0.0 -5.3001161E+004 0.0 0.0 -6.7436897E+004 0.0 0.0 -1.6196108E+003 0.0 0.0 -5.9945964E+004 0.0 0.0 -2.3708271E+003 0.0 0.0 -2.2984366E+003 0.0 0.0 -4.9792164E+004 0.0 0.0 -2.6272611E+003 0.0 0.0 -5.9440988E+004 0.0 0.0 -2.5918178E+003 0.0 0.0 -7.7653592E+004 0.0 0.0 -8.3513812E+004 0.0 0.0 -9.1438173E+002 0.0 0.0 -4.6649572E+004 0.0 0.0  1.1545876E+003 0.0 0.0 -8.6834776E+004 0.0 0.0 -2.0101869E+003 0.0 0.0  4.4830110E+003 0.0 0.0  1.6937141E+004 0.0 0.0 -2.0690615E+003 0.0 0.0 -1.5846668E+003 0.0 0.0  1.1122973E+002 0.0 0.0 -6.9522013E+002 0.0 0.0  1.7617213E+004 0.0 0.0  1.9017044E+004 0.0 0.0  7.4775077E+003 0.0 0.0  2.3750973E+003 0.0 0.0  4.9450101E+003 0.0 0.0  2.8713926E+003 0.0 0.0  1.0188739E+004 0.0 0.0  8.2310536E+003 0.0 0.0 -1.1045946E+005 0.0 0.0  1.3307351E+004 0.0 0.0  1.4650154E+004 0.0 0.0  1.6647631E+004 0.0 0.0  1.1661144E+004 0.0 0.0  1.9665399E+004 0.0 0.0  1.9732659E+004 0.0 0.0  4.3572190E+003 0.0 0.0 -3.7595896E+004 0.0 0.0 -6.6717887E+004 0.0 0.0 -9.5183393E+004 0.0 0.0 -7.7192931E+004 0.0 0.0 -9.1766918E+004 0.0 0.0 -2.3330342E+003 0.0 0.0 -2.9066327E+003 0.0 0.0 -2.2028846E+003 0.0 0.0 -4.6701038E+004 0.0 0.0 -2.6037642E+003 0.0 0.0 -2.7328801E+003 0.0 0.0 -2.0843568E+003 0.0 0.0 -5.8298663E+004 0.0 0.0 -4.5437013E+004 0.0 0.0 -2.5061826E+003 0.0 0.0 -5.1840208E+004 0.0 0.0 -6.9397374E+004 0.0 0.0 -5.3292762E+004 0.0 0.0 -8.3811844E+004 0.0 0.0 -1.9716815E+003 0.0 0.0 -8.7889024E+004 0.0 0.0  6.5850604E+002 0.0 0.0 -9.4710468E+004 0.0 0.0 -6.8575027E+004 0.0 0.0 -1.0183374E+005 0.0 0.0 -1.0387354E+005 0.0 0.0 -1.0510463E+005 0.0 0.0 -1.0672310E+005 0.0 0.0 -9.5259671E+004 0.0 0.0 -9.8739274E+004 0.0 0.0 -9.7475036E+004 0.0 0.0 -7.5574403E+004 0.0 0.0 -5.2997599E+004 0.0 0.0 -8.6579121E+004 0.0 0.0 -6.2847226E+004 0.0 0.0  2.9005871E+003 0.0 0.0  1.4191966E+004 0.0 0.0 -2.4157845E+004 0.0 0.0  6.2444586E+003 0.0 0.0 -1.5118290E+003 0.0 0.0 -6.5109953E+004 0.0 0.0 -2.1824445E+004 0.0 0.0  5.7205810E+003 0.0 0.0 -1.0756365E+004 0.0 0.0  1.1384767E+004 0.0 0.0  9.5012872E+003 0.0 0.0  1.8035629E+004 0.0 0.0  1.6817207E+004 0.0 0.0  1.9794109E+004 0.0 0.0  1.5796655E+004 0.0 0.0  1.5217020E+004 0.0 0.0  1.6475175E+004 0.0 0.0  1.5150054E+004 0.0 0.0  1.6935487E+004 0.0 0.0  1.5123112E+004 0.0 0.0  1.6998860E+004 0.0 0.0  1.5549521E+004 0.0 0.0  1.2142246E+004 0.0 0.0  1.1432927E+004 0.0 0.0  1.4632188E+004 0.0 0.0  1.7831964E+004 0.0 0.0  1.8794716E+004 0.0 0.0  1.3162028E+004 0.0 0.0  1.6094915E+004 0.0 0.0  1.1762449E+004 0.0 0.0  8.2006751E+003 0.0 0.0  9.0123111E+003 0.0 0.0  1.0939736E+004 0.0 0.0  1.3581773E+004 0.0 0.0  6.1297308E+003 0.0 0.0  8.9877691E+003 0.0 0.0 -9.6341165E+003 0.0 0.0  1.1883245E+003 0.0 0.0 -4.2259667E+004 0.0 0.0 -2.6058169E+004 0.0 0.0 -7.8862729E+003 0.0 0.0 -1.2656962E+004 0.0 0.0  1.6217084E+004 0.0 0.0  2.2958049E+004 0.0 0.0  2.3958229E+004 0.0 0.0  2.4857532E+004 0.0 0.0  9.8528535E+003 0.0 0.0  1.8623587E+004 0.0 0.0  2.4558936E+004 0.0 0.0  3.6603116E+003 0.0 0.0 -2.3290370E+003 0.0 0.0 -1.1567371E+004 0.0 0.0 -1.1964552E+004 0.0 0.0 -1.2179883E+004 0.0 0.0 -3.0420130E+004 0.0 0.0 -2.8761862E+004 0.0 0.0 -5.1971690E+004 0.0 0.0  3.1764839E+003 0.0 0.0 -2.3414949E+003 0.0 0.0  9.4306068E+003 0.0 0.0  2.6047251E+004 0.0 0.0 -2.3718634E+003 0.0 0.0 -1.1857016E+004 0.0 0.0  1.2516270E+004 0.0 0.0  3.8814474E+003 0.0 0.0  1.3549714E+003 0.0 0.0 -4.2146896E+004 0.0 0.0  1.6415284E+004 0.0 0.0  1.3321564E+004 0.0 0.0  1.0197004E+004 0.0 0.0 -2.8486265E+004 0.0 0.0 -1.8109828E+003 0.0 0.0 -1.4300364E+004 0.0 0.0 -1.5338956E+004 0.0 0.0 -4.2504474E+004 0.0 0.0 -8.9321515E+004 0.0 0.0 -3.2509522E+004 0.0 0.0 -3.2123571E+004 0.0 0.0 -2.6341140E+004 0.0 0.0  5.5358969E+003 0.0 0.0 -4.5083773E+004 0.0 0.0 -2.3501663E+004 0.0 0.0 -2.3504525E+004 0.0 0.0 -7.0214590E+003 0.0 0.0 -2.4209115E+003 0.0 0.0 -1.2335548E+004 0.0 0.0 -1.3201739E+004 0.0 0.0 -3.3692649E+004 0.0 0.0 -8.8614083E+004 0.0 0.0 -3.6700300E+004 0.0 0.0 -4.0005821E+004 0.0 0.0 -3.1132247E+004 0.0 0.0  6.0698297E+002 0.0 0.0 -6.4694677E+004 0.0 0.0 -3.1506783E+004 0.0 0.0 -3.3447666E+004 0.0 0.0 -7.5125691E+003 0.0 0.0 -8.6334985E+003 0.0 0.0 -3.2124660E+004 0.0 0.0 -6.4367121E+004 0.0 0.0 -3.1148084E+004 0.0 0.0 -5.2244161E+004 0.0 0.0 -2.7652971E+004 0.0 0.0 -2.7987313E+004 0.0 0.0 -2.6772239E+004 0.0 0.0 -8.7793254E+003 0.0 0.0 -7.2085318E+003 0.0 0.0 -1.5733622E+003 0.0 0.0 -1.4443372E+004 0.0 0.0 -7.6688002E+004 0.0 0.0 -3.5098672E+004 0.0 0.0 -3.6237152E+004 0.0 0.0 -4.3339281E+003 0.0 0.0 -5.7952856E+004 0.0 0.0 -3.1781424E+004 0.0 0.0 -3.0899804E+004 0.0 0.0 -7.2421205E+003 0.0 0.0 -9.9437104E+003 0.0 0.0 -4.1108701E+004 0.0 0.0 -2.4465091E+004 0.0 0.0 -2.3287110E+004 0.0 0.0 -7.1591854E+003 0.0 0.0 -2.6073498E+003 0.0 0.0 -1.2112128E+004 0.0 0.0 -1.1961089E+004 0.0 0.0  1.3472426E+003 0.0 0.0 -1.0999036E+004 0.0 0.0 -1.2428687E+004 0.0 0.0 -1.7666237E+002 0.0 0.0 -1.1900787E+004 0.0 0.0 -1.1532943E+004 0.0 0.0 -7.9971641E+004 0.0 0.0 -1.3760680E+004 0.0 0.0 -1.6414839E+004 0.0 0.0  1.5116210E+004 0.0 0.0 -8.4060112E+004 0.0 0.0 -3.8559024E+004 0.0 0.0 -3.5729492E+004 0.0 0.0 -6.2383046E+003 0.0 0.0 -3.9270441E+004 0.0 0.0 -8.6019621E+004 0.0 0.0 -3.6168768E+004 0.0 0.0 -3.6595669E+004 0.0 0.0 -8.2542296E+004 0.0 0.0 -3.3655821E+004 0.0 0.0 -7.0368071E+004 0.0 0.0 -4.5511910E+004 0.0 0.0 -4.1415718E+004 0.0 0.0 -1.0110810E+003 0.0 0.0 -1.4296154E+004 0.0 0.0 -4.6544879E+004 0.0 0.0 -2.5853689E+004 0.0 0.0 -9.9273959E+004 0.0 0.0 -2.9816969E+004 0.0 0.0 -9.5411791E+004 0.0 0.0 -8.3724871E+004 0.0 0.0 -3.7439534E+004 0.0 0.0 -3.5400996E+004 0.0 0.0 -2.3336627E+003 0.0 0.0 -7.5288792E+004 0.0 0.0 -7.9620072E+004 0.0 0.0  2.8039867E+003 0.0 0.0 -8.6371811E+003 0.0 0.0 -7.8684187E+003 0.0 0.0  5.7976483E+003 0.0 0.0 -6.7830015E+003 0.0 0.0  1.0629058E+004 0.0 0.0  1.9912100E+004 0.0 0.0  2.5250666E+004 0.0 0.0 -9.5719578E+002 0.0 0.0 -1.4753699E+004 0.0 0.0 -8.0387964E+002 0.0 0.0 -1.3941666E+004 0.0 0.0  1.8175269E+003 0.0 0.0 -7.2678226E+004 0.0 0.0 -6.3103325E+004 0.0 0.0  3.6783590E+003 0.0 0.0 -3.6051308E+004 0.0 0.0 -2.0645006E+003 0.0 0.0 -1.9672966E+003 0.0 0.0  1.8251322E+004 0.0 0.0  1.7640841E+004 0.0 0.0  1.9030884E+004 0.0 0.0 -8.0082569E+004 0.0 0.0 -2.3351513E+003 0.0 0.0 -4.2636144E+004 0.0 0.0 -2.3034763E+004 0.0 0.0 -7.3088874E+004 0.0 0.0 -7.0373888E+004 0.0 0.0 -6.6288322E+004 0.0 0.0 -6.4188914E+004 0.0 0.0 -5.3268720E+004 0.0 0.0 -3.1150926E+004 0.0 0.0  6.7074546E+003 0.0 0.0 -4.8997875E+003 0.0 0.0  9.6103918E+003 0.0 0.0  3.2553083E+002 0.0 0.0 -4.8251497E+004 0.0 0.0 -8.4483297E+004 0.0 0.0 -2.0715189E+004 0.0 0.0 -7.9102345E+004 0.0 0.0  3.1253901E+002 0.0 0.0 -5.3750864E+004 0.0 0.0  1.8229530E+004 0.0 0.0 -5.6160968E+004 0.0 0.0 -3.9380373E+003 0.0 0.0  1.4948502E+004 0.0 0.0 -2.2721211E+003 0.0 0.0 -1.2970838E+004 0.0 0.0 -4.1933504E+004 0.0 0.0 -3.2440093E+004 0.0 0.0  1.6153046E+004 0.0 0.0 -3.4403980E+004 0.0 0.0 -2.2560210E+003 0.0 0.0 -2.2502593E+003 0.0 0.0 -6.0261907E+004 0.0 0.0 -1.0997555E+004 0.0 0.0 -1.4974630E+004 0.0 0.0 -2.9605582E+004 0.0 0.0 -3.3157548E+004 0.0 0.0  5.1673708E+003 0.0 0.0 -1.2448840E+004 0.0 0.0  2.4520345E+004 0.0 0.0 -2.6288978E+004 0.0 0.0  9.4881525E+001 0.0 0.0  9.3218926E+003 0.0 0.0  1.8376638E+004 0.0 0.0  1.2748522E+004 0.0 0.0 -2.9608023E+004 0.0 0.0 -2.0953798E+004 0.0 0.0 -7.2330897E+003 0.0 0.0  1.5071124E+004 0.0 0.0 -4.4875502E+004 0.0 0.0  1.6035197E+004 0.0 0.0  3.2045379E+003 0.0 0.0 -2.7214802E+004 0.0 0.0  4.2405408E+003 0.0 0.0  1.5210759E+004 0.0 0.0  8.4703910E+003 0.0 0.0  2.1531988E+004 0.0 0.0  1.8643840E+004 0.0 0.0 -3.2759178E+003 0.0 0.0  1.3831824E+004 0.0 0.0 -1.2256057E+004 0.0 0.0  1.5141534E+004 0.0 0.0 -8.0461220E+003 0.0 0.0  1.4312110E+004 0.0 0.0 -4.7682371E+002 0.0 0.0 -1.2725203E+003 0.0 0.0 -1.0204969E+004 0.0 0.0  7.8920157E+003 0.0 0.0 -3.1329063E+004 0.0 0.0 -3.3396173E+004 0.0 0.0 -3.0256234E+004 0.0 0.0 -6.4423043E+003 0.0 0.0 -4.0683182E+004 0.0 0.0 -9.7995719E+003 0.0 0.0 -2.5812798E+004 0.0 0.0 -1.6503453E+004 0.0 0.0 -4.5895841E+003 0.0 0.0 -8.9782272E+003 0.0 0.0 -2.9559198E+004 0.0 0.0 -1.3377183E+004 0.0 0.0 -3.7026799E+004 0.0 0.0 -3.7778024E+004 0.0 0.0 -1.4150326E+004 0.0 0.0 -3.9877973E+004 0.0 0.0 -4.1215371E+003 0.0 0.0  2.1059409E+004 0.0 0.0  1.9097726E+003 0.0 0.0 -3.4048347E+002 0.0 0.0 -8.5362116E+002 0.0 0.0 -5.0245817E+004 0.0 0.0  7.0003533E+003 0.0 0.0 -5.9865827E+004 0.0 0.0  3.0798764E+003 0.0 0.0 -1.2577953E+003 0.0 0.0 -1.4481063E+003 0.0 0.0  6.8343722E+002 0.0 0.0  4.6274041E+003 0.0 0.0 -4.2080840E+004 0.0 0.0 -1.2610443E+003 0.0 0.0 -6.4312678E+004 0.0 0.0  1.5179900E+004 0.0 0.0 -3.9750752E+004 0.0 0.0  1.1440397E+004 0.0 0.0 -3.5326345E+004 0.0 0.0 -1.3803585E+004 0.0 0.0 -4.0036917E+004 0.0 0.0 -1.0145592E+003 0.0 0.0 -8.3734967E+003 0.0 0.0 -2.8573161E+004 0.0 0.0 -3.7331801E+004 0.0 0.0  1.8851626E+004 0.0 0.0  7.0200931E+003 0.0 0.0 -3.0391430E+004 0.0 0.0  4.7762576E+003 0.0 0.0 -3.8933984E+004 0.0 0.0 -3.9142022E+004 0.0 0.0 -4.0601176E+004 0.0 0.0 -9.2513972E+003 0.0 0.0 -8.4840601E+003 0.0 0.0 -4.0062046E+004 0.0 0.0  5.5986241E+001 0.0 0.0 -9.4440723E+003 0.0 0.0 -3.9123561E+004 0.0 0.0  2.5977275E+004 0.0 0.0  1.6119578E+004 0.0 0.0 -2.4683100E+004 0.0 0.0 -2.9506371E+004 0.0 0.0 -6.4561848E+003 0.0 0.0  3.8369161E+003 0.0 0.0  2.5607193E+003 0.0 0.0  6.2750393E+003 0.0 0.0  8.3234157E+003 0.0 0.0  1.6975767E+004 0.0 0.0  7.9840189E+003 0.0 0.0  9.0825329E+003 0.0 0.0 -1.6393828E+004 0.0 0.0 -2.3728306E+004 0.0 0.0  9.3129668E+003 0.0 0.0 -8.4459285E+003 0.0 0.0 -1.0234958E+004 0.0 0.0 -3.2666274E+004 0.0 0.0 -1.1698078E+004 0.0 0.0 -9.9341840E+003 0.0 0.0 -1.2259517E+004 0.0 0.0 -2.5935730E+004 0.0 0.0 -1.1721769E+004 0.0 0.0 -1.1773481E+004 0.0 0.0 -3.6668448E+004 0.0 0.0 -8.8336545E+003 0.0 0.0 -9.2970300E+003 0.0 0.0 -1.1800684E+004 0.0 0.0 -9.7680320E+003 0.0 0.0 -2.9896836E+004 0.0 0.0 -1.1149984E+004 0.0 0.0 -3.6975417E+004 0.0 0.0 -1.0055598E+004 0.0 0.0 -1.0479492E+004 0.0 0.0 -8.3436634E+003 0.0 0.0 -2.6067493E+004 0.0 0.0  6.0318569E+002 0.0 0.0 -4.4755121E+003 0.0 0.0 -2.6603956E+004 0.0 0.0 -2.1445372E+004 0.0 0.0 -3.4158614E+004 0.0 0.0  1.1967406E+004 0.0 0.0  2.3508507E+004 0.0 0.0  6.3244822E+002 0.0 0.0 -1.0333714E+004 0.0 0.0 -3.1386366E+004 0.0 0.0 -4.6228216E+004 0.0 0.0 -2.7446685E+004 0.0 0.0 -3.3684626E+004 0.0 0.0 -3.2052419E+004 0.0 0.0 -1.0211845E+004 0.0 0.0  1.1728792E+004 0.0 0.0  2.2626635E+004 0.0 0.0  4.9292354E+003 0.0 0.0 -5.6892958E+003 0.0 0.0 -3.4710402E+004 0.0 0.0 -1.0425559E+004 0.0 0.0 -3.4407484E+004 0.0 0.0  7.4460942E+003 0.0 0.0  1.7711630E+004 0.0 0.0 -3.0137926E+004 0.0 0.0 -1.2144732E-001 0.0 0.0 -4.2708819E+003 0.0 0.0 -3.5961059E+000 0.0 0.0  1.2060848E+001 0.0 0.0  1.0915210E+002 0.0 0.0  2.1537853E+000 0.0 0.0 -3.0824549E+000 0.0 0.0 -4.3069846E+003 0.0 0.0 -2.0281336E+001 0.0 0.0  2.3274917E-001 0.0 0.0  1.2987973E-001 0.0 0.0 -8.6727848E+002 0.0 0.0  2.0405815E+000 0.0 0.0  2.3227186E+000 0.0 0.0 -1.6041873E+000 0.0 0.0 -1.8908995E+001 0.0 0.0 -2.2097762E+003 0.0 0.0  1.9713987E+000 0.0 0.0  1.3560553E+002 0.0 0.0 -1.6783304E+003 0.0 0.0 -2.0492360E+003 0.0 0.0 -6.4563818E+002 0.0 0.0 -7.0900128E+002 0.0 0.0  5.8316600E+001 0.0 0.0 -2.3898387E+001 0.0 0.0 -4.9400337E+003 0.0 0.0 -9.7355697E-001 0.0 0.0  6.5345479E+000 0.0 0.0  9.0370988E+000 0.0 0.0  4.6682226E+001 0.0 0.0  1.3917703E+000 0.0 0.0  3.4333780E-001 0.0 0.0  4.6153999E+000 0.0 0.0 -2.8455109E-001 0.0 0.0  4.8646490E+001 0.0 0.0  1.7605195E+000 0.0 0.0  1.5595896E+000 0.0 0.0  2.2466030E+001 0.0 0.0 -3.0052553E+003 0.0 0.0 -1.2899400E+002 0.0 0.0 -7.5267629E+000 0.0 0.0  3.5101155E+002 0.0 0.0 -3.7216132E+000 0.0 0.0  1.3738417E+000 0.0 0.0 -1.2261024E+004 0.0 0.0 -3.5521655E+002 0.0 0.0 -2.2371229E+003 0.0 0.0 -1.6534394E+002 0.0 0.0  3.9866940E+001 0.0 0.0 -7.2938790E+001 0.0 0.0  1.3193567E+001 0.0 0.0  8.1002127E-001 0.0 0.0 -2.3341811E+000 0.0 0.0 -2.4725029E-002 0.0 0.0  1.4917461E+001 0.0 0.0 -1.8015378E+002 0.0 0.0  3.8520307E+001 0.0 0.0 -2.0176328E+003 0.0 0.0 -1.8033687E+001 0.0 0.0  1.7524058E+001 0.0 0.0 -5.2999222E+001 0.0 0.0  1.9378626E+000 0.0 0.0 -6.9225997E+002 0.0 0.0 -7.9865750E+002 0.0 0.0 -1.4301236E+004 0.0 0.0  3.1903920E+002 0.0 0.0 -1.5754815E+003 0.0 0.0 -8.0342146E+001 0.0 0.0 -1.2258568E+003 0.0 0.0 -6.2443596E+001 0.0 0.0 -8.6973483E+001 0.0 0.0 -9.8570951E+001 0.0 0.0 -2.3190965E+004 0.0 0.0 -3.0490658E+000 0.0 0.0  6.3862642E+000 0.0 0.0 -3.7111381E+001 0.0 0.0 -3.5386022E+000 0.0 0.0 -3.3205463E+002 0.0 0.0  2.2818927E-001 0.0 0.0  2.4544745E+001 0.0 0.0 -4.8891344E+003 0.0 0.0 -2.5863108E+002 0.0 0.0 -3.2039552E+003 0.0 0.0  1.6478737E+001 0.0 0.0 -1.3179765E+003 0.0 0.0  5.0832995E+000 0.0 0.0  5.4945923E+000 0.0 0.0  8.6823778E+001 0.0 0.0  1.1256007E+001 0.0 0.0 -2.5234823E+003 0.0 0.0  1.2241429E+002 0.0 0.0  5.0977942E+001 0.0 0.0 -2.0021434E+003 0.0 0.0  2.2220897E-001 0.0 0.0 -1.4704353E+004 0.0 0.0  7.2323022E+001 0.0 0.0 -1.0069650E+001 0.0 0.0 -3.7979769E+004 0.0 0.0 -1.7318327E+000 0.0 0.0 -2.3567191E+004 0.0 0.0  1.9063825E+001 0.0 0.0  8.9929612E-002 0.0 0.0  1.9738912E+001 0.0 0.0 -4.3066592E+001 0.0 0.0 -2.8541739E+002 0.0 0.0  1.7657154E+001 0.0 0.0  1.0077377E+003 0.0 0.0 -3.2606955E+001 0.0 0.0 -1.2174679E+004 0.0 0.0 -2.9511416E+002 0.0 0.0 -4.4983289E+004 0.0 0.0  1.7650519E+002 0.0 0.0 -5.9254345E+001 0.0 0.0  5.3715199E+001 0.0 0.0  5.3914969E+001 0.0 0.0 -3.7691008E+003 0.0 0.0  2.0790839E+001 0.0 0.0  4.5524883E+001 0.0 0.0 -5.7407952E+002 0.0 0.0  5.1581709E+002 0.0 0.0 -3.8448864E+004 0.0 0.0  6.3505773E+000 0.0 0.0  5.3605114E-001 0.0 0.0 -2.0337227E+004 0.0 0.0 -4.8745885E+001 0.0 0.0 -8.7760337E+002 0.0 0.0  6.7405257E+001 0.0 0.0  7.6960405E-001 0.0 0.0 -6.7036130E+003 0.0 0.0 -1.9338758E+002 0.0 0.0  8.8687889E+000 0.0 0.0  2.8054166E-001 0.0 0.0  2.9030869E+002 0.0 0.0 -2.7945583E+003 0.0 0.0  1.5300410E+001 0.0 0.0 -1.9535423E+002 0.0 0.0 -2.1608002E+003 0.0 0.0 -1.0812830E+003 0.0 0.0 -2.4506663E+001 0.0 0.0 -5.0209026E+002 0.0 0.0 -3.2514549E+002 0.0 0.0 -4.2902489E+002 0.0 0.0  9.0084649E+000 0.0 0.0 -6.8364287E+002 0.0 0.0 -2.5070929E+002 0.0 0.0 -1.5260830E-001 0.0 0.0 -4.3466529E-001 0.0 0.0 -1.8612005E+003 0.0 0.0 -2.3242568E+001 0.0 0.0  3.5421829E+000 0.0 0.0 -3.5967686E+002 0.0 0.0  1.6115288E+006 0.0 0.0  1.6120512E+006 0.0 0.0  1.6467489E+006 0.0 0.0  1.6102911E+006 0.0 0.0  1.6115622E+006 0.0 0.0  1.6327100E+006 0.0 0.0  1.6179534E+006 0.0 0.0  1.6086695E+006 0.0 0.0  1.6128861E+006 0.0 0.0  1.6317319E+006 0.0 0.0  1.6516817E+006 0.0 0.0  1.6573079E+006 0.0 0.0  1.4345469E+006 0.0 0.0  1.4407311E+006 0.0 0.0  1.1421426E+006 0.0 0.0  1.0920984E+006 0.0 0.0  1.0759603E+006 0.0 0.0  1.1654544E+006 0.0 0.0  1.4443589E+006 0.0 0.0  1.0908086E+006 0.0 0.0  1.1133427E+006 0.0 0.0  1.0941927E+006 0.0 0.0  1.0495139E+006 0.0 0.0  1.1422749E+006 0.0 0.0  1.0490699E+006 0.0 0.0  1.1110049E+006 0.0 0.0  1.3726501E+006 0.0 0.0  1.3748760E+006 0.0 0.0  9.0878981E+005 0.0 0.0  8.6996873E+005 0.0 0.0 -6.1459199E+002 0.0 0.0 -1.0435963E+003 0.0 0.0 -5.0316959E+002 0.0 0.0 -6.9605513E+002 0.0 0.0 -9.3963475E+002 0.0 0.0 -1.3116786E+003 0.0 0.0 -3.6836914E+003 0.0 0.0 -1.4764984E+002 0.0 0.0 -1.1000562E+003 0.0 0.0 -2.9063831E-004 0.0 0.0 -7.6903790E+002 0.0 0.0 -1.6199279E+002 0.0 0.0 -2.2728218E+003 0.0 0.0 -2.7051583E+003 0.0 0.0 -2.9124461E+002 0.0 0.0 -2.8928685E+002 0.0 0.0 -7.7324640E+001 0.0 0.0 -3.9224017E+003 0.0 0.0 -1.2465321E+003 0.0 0.0 -1.6300155E+003 0.0 0.0 -9.4374938E+002 0.0 0.0 -1.0217665E+003 0.0 0.0 -1.6556064E+003 0.0 0.0  1.2844204E+002 0.0 0.0 -7.3251442E+002 0.0 0.0 -2.9084343E+002 0.0 0.0 -1.4622602E+002 0.0 0.0 -7.9831132E-014 0.0 0.0 -1.8326849E-003 0.0 0.0 -2.1903137E-012 0.0 0.0 -1.1542317E+003 0.0 0.0 -8.6317554E+002 0.0 0.0 -1.2664138E+003 0.0 0.0  1.1823950E-014 0.0 0.0 -8.3555418E-009 0.0 0.0 -1.9624168E+002 0.0 0.0 -8.4079186E+002 0.0 0.0 -2.7749873E-011 0.0 0.0  7.7118551E-014 0.0 0.0 -3.4099861E+000 0.0 0.0  2.6194893E+004 0.0 0.0  2.1470471E+004 0.0 0.0  3.8357226E+004 0.0 0.0  1.1675248E+004 0.0 0.0  7.4817705E+003 0.0 0.0 -2.4626601E+003 0.0 0.0 -2.8808914E+002 0.0 0.0 -3.1601794E+002 0.0 0.0 -9.7233413E+001 0.0 0.0 -5.0851120E+000 0.0 0.0  4.4424071E+000 0.0 0.0 -1.6214668E+002 0.0 0.0 -1.4136754E+002 0.0 0.0 -4.2588649E-006 0.0 0.0 -2.0892327E-001 0.0 0.0 -5.9946792E+000 0.0 0.0 -3.4592545E+000 0.0 0.0 -4.2033616E-002 0.0 0.0 -3.0265160E-001 0.0 0.0 -4.0204635E-003 0.0 0.0 -8.3583822E-003 0.0 0.0 -4.9937057E-002 0.0 0.0  3.7285341E-003 0.0 0.0 -3.7936399E-002 0.0 0.0 -8.6248577E-005 0.0 0.0 -7.3548872E+002 0.0 0.0 -2.2252287E-011 0.0 0.0  1.8136463E-014 0.0 0.0 -5.3892761E-002 0.0 0.0 -1.4547880E-001 0.0 0.0 -7.5396408E-001 0.0 0.0 -1.9459846E-002 0.0 0.0  2.4464645E-001 0.0 0.0  3.9724363E-002 0.0 0.0 -6.6276211E-001 0.0 0.0 -3.2267385E-002 0.0 0.0  2.5207421E-001 0.0 0.0 -5.0342819E-003 0.0 0.0 -9.1480000E+002 0.0 0.0 -1.8340389E+003 0.0 0.0 -3.5184942E+002 0.0 0.0 -3.3389878E+002 0.0 0.0 -5.9062799E+002 0.0 0.0 -1.7048641E+003 0.0 0.0  4.5183311E+002 0.0 0.0 -3.0802579E-004 0.0 0.0 -8.7251474E-004 0.0 0.0  1.2556023E-003 0.0 0.0  4.0033193E-005 0.0 0.0 -8.3783471E-004 0.0 0.0  2.4049459E-005 0.0 0.0 -1.4866215E-004 0.0 0.0  5.6330918E-006 0.0 0.0 -3.7589355E-006 0.0 0.0  2.8417166E-007 0.0 0.0 -5.4681788E-007 0.0 0.0  2.9168579E-008 0.0 0.0 -1.7195405E-005 0.0 0.0 -3.7690646E-008 0.0 0.0  1.0954812E-009 0.0 0.0 -3.4885997E-008 0.0 0.0  9.7427190E-010 0.0 0.0 -7.1969780E-009 0.0 0.0  2.8932975E-010 0.0 0.0 -1.2210431E-010 0.0 0.0  1.6214078E-011 0.0 0.0 -6.1577268E-012 0.0 0.0  7.0903391E-013 0.0 0.0  4.0003539E-013 0.0 0.0  5.4354807E-014 0.0 0.0  1.6597063E-014 0.0 0.0  7.7839869E-002 0.0 0.0 -1.9951343E-001 0.0 0.0  4.8916897E-009 0.0 0.0 -9.0356608E-003 0.0 0.0 -1.0571111E+002 0.0 0.0 -3.2352085E+003 0.0 0.0 -4.4696802E-015 0.0 0.0  3.0409221E-007 0.0 0.0  2.2914671E-011 0.0 0.0 -2.6219957E+002 0.0 0.0 -4.6234112E-009 0.0 0.0 -2.6876487E-010 0.0 0.0 -3.6197144E+001 0.0 0.0  5.1850123E-005 0.0 0.0 -5.3571142E-004 0.0 0.0  2.7659297E-014 0.0 0.0  7.9153603E-002 0.0 0.0  4.6935263E-014 0.0 0.0  2.4042349E+002 0.0 0.0  3.0457114E+002 0.0 0.0  2.8242829E-001 0.0 0.0 -1.3102304E-005 0.0 0.0 -1.3198970E-004 0.0 0.0  3.9103230E-014 0.0 0.0  9.7650325E-014 0.0 0.0  4.7094420E-015 0.0 0.0 -1.5341037E+000 0.0 0.0 -8.2615828E-001 0.0 0.0  9.0136248E-004 0.0 0.0 -1.7554552E-004 0.0 0.0  3.5279359E-014 0.0 0.0 -2.7308501E-005 0.0 0.0 -2.6279908E-006 0.0 0.0 -2.5626110E-004 0.0 0.0  2.7025029E-006 0.0 0.0 -4.2825081E-004 0.0 0.0 -6.5421546E-005 0.0 0.0 -5.3656300E-003 0.0 0.0  1.3765842E-002 0.0 0.0 -1.0539838E-001 0.0 0.0 -2.2130319E-005 0.0 0.0  3.7117781E+000 0.0 0.0 -3.3290361E+000 0.0 0.0 -3.5076694E-005 0.0 0.0  8.6170707E-014 0.0 0.0 -3.2526264E-013 0.0 0.0 -6.0582724E-007 0.0 0.0 -1.0151447E-009 0.0 0.0  3.3237238E-012 0.0 0.0 -2.2659502E-014 0.0 0.0 -2.9042484E-012 0.0 0.0 -1.4957018E-012 0.0 0.0  5.5998391E+001 0.0 0.0  1.6168058E-014 0.0 0.0 -1.4296048E+002 0.0 0.0 -1.0872746E+002 0.0 0.0 -2.1378276E+001 0.0 0.0 -3.2363881E+002 0.0 0.0 -5.7212377E+002 0.0 0.0 -1.7216673E+003 0.0 0.0 -2.1789480E+002 0.0 0.0  3.8430168E-003 0.0 0.0  2.3747309E-014 0.0 0.0 -4.6586196E-003 0.0 0.0 -2.1959076E+003 0.0 0.0 -3.5269622E-006 0.0 0.0 -1.0026826E-007 0.0 0.0  7.2563561E-007 0.0 0.0 -1.5047004E-004 0.0 0.0  8.6438395E-007 0.0 0.0 -4.9289002E-006 0.0 0.0 -4.3676267E+003 0.0 0.0  2.9726505E-014 0.0 0.0 -5.0423124E-001 0.0 0.0 -3.2434814E-002 0.0 0.0 -1.0660248E+000 0.0 0.0 -4.6561816E-001 0.0 0.0 -5.6827802E-001 0.0 0.0 -2.0444196E-001 0.0 0.0 -6.0468082E-003 0.0 0.0  4.8651957E+002 0.0 0.0  3.3105330E-014 0.0 0.0  2.5866882E-014 0.0 0.0  7.6064995E-015 0.0 0.0  2.0659425E-012 0.0 0.0  1.5995834E-012 0.0 0.0  1.8702153E-012 0.0 0.0 -5.3467484E-001 0.0 0.0  2.5352730E+001 0.0 0.0 -1.6708201E-007 0.0 0.0 -1.4595435E-008 0.0 0.0 -1.3678210E-001 0.0 0.0  4.0821068E-003 0.0 0.0  4.0255087E-001 0.0 0.0 -6.8696440E-002 0.0 0.0 -2.4282815E-003 0.0 0.0 -1.2414290E-003 0.0 0.0 -1.1250268E-001 0.0 0.0  2.2087332E-004 0.0 0.0 -2.4083761E-003 0.0 0.0  8.7006737E-003 0.0 0.0 -2.9372731E-001 0.0 0.0 -2.3119921E-001 0.0 0.0 -9.3671411E-004 0.0 0.0 -4.8970578E-001 0.0 0.0 -4.2547713E+000 0.0 0.0 -7.3713164E+001 0.0 0.0  2.9157455E+004 0.0 0.0  6.7886656E+003 0.0 0.0  2.5038432E+003 0.0 0.0  6.8632016E+004 0.0 0.0 -3.4864854E+003 0.0 0.0  6.9327099E+001 0.0 0.0 -1.5692696E-001 0.0 0.0  1.0115550E-002 0.0 0.0  7.9246812E+004 0.0 0.0  1.7822495E+003 0.0 0.0  3.3989509E+004 0.0 0.0 -4.9217256E+003 0.0 0.0  1.1504192E+001 0.0 0.0  7.0646020E+002 0.0 0.0  4.5181177E+000 0.0 0.0 -1.1318747E+001 0.0 0.0  1.7874921E+001 0.0 0.0 -6.3281357E+000 0.0 0.0  3.2573879E+004 0.0 0.0  4.1416431E+004 0.0 0.0  5.4213950E+003 0.0 0.0  2.0833743E-005 0.0 0.0 -1.5936074E+003 0.0 0.0 -4.0214433E+002 0.0 0.0 -6.5311822E-001 0.0 0.0 -7.6004688E+002 0.0 0.0 -3.6936873E+002 0.0 0.0 -3.4814693E+003 0.0 0.0 -1.4697869E+003 0.0 0.0 -6.5872435E+002 0.0 0.0 -7.0694125E+003 0.0 0.0 -4.9408909E+003 0.0 0.0 -1.4159788E+002 0.0 0.0 -4.8398111E+003 0.0 0.0 -1.1787709E+002 0.0 0.0 -1.1680413E+003 0.0 0.0 -6.0450085E+003 0.0 0.0 -1.9722904E+002 0.0 0.0 -4.8000592E+003 0.0 0.0 -2.3310730E+001 0.0 0.0 -8.6732109E+002 0.0 0.0 -5.8432451E+003 0.0 0.0 -3.4972027E+002 0.0 0.0 -6.9367681E+003 0.0 0.0 -5.0564643E+002 0.0 0.0 -5.5764757E+003 0.0 0.0 -4.6586406E+002 0.0 0.0 -2.3764334E+003 0.0 0.0 -2.0429123E+002 0.0 0.0 -4.6953763E+003 0.0 0.0 -3.1510523E-002 0.0 0.0  4.1043079E-015 0.0 0.0  2.0254559E-014 0.0 0.0  1.2149680E+000 0.0 0.0  9.6815861E+003 0.0 0.0  2.9678331E+004 0.0 0.0  8.2330546E+003 0.0 0.0 -8.6639947E+003 0.0 0.0  2.9719499E+004 0.0 0.0 -1.3135378E+004 0.0 0.0  1.2022169E+003 0.0 0.0 -2.8808927E+003 0.0 0.0  2.5594770E+003 0.0 0.0  2.3691619E+004 0.0 0.0  3.2520582E+003 0.0 0.0  3.3993377E+003 0.0 0.0 -1.8005305E+003 0.0 0.0  3.7303936E-014 0.0 0.0  1.6142345E-011 0.0 0.0 -1.0588217E-011 0.0 0.0 -6.1577021E-011 0.0 0.0 -3.2864085E+001 0.0 0.0 -6.1084092E-001 0.0 0.0 -1.7804423E-007 0.0 0.0 -1.3070748E-007 0.0 0.0 -4.8964272E-001 0.0 0.0  7.3287608E-002 0.0 0.0 -2.7558085E-004 0.0 0.0 -1.0890635E-004 0.0 0.0  7.5448922E+002 0.0 0.0 -4.5108741E-002 0.0 0.0 -6.8670727E-001 0.0 0.0  9.6520155E-002 0.0 0.0 -6.5281853E-001 0.0 0.0 -6.5310639E-002 0.0 0.0 -1.8184970E-001 0.0 0.0 -2.8525160E+000 0.0 0.0 -3.1024880E+001 0.0 0.0 -3.5593410E+000 0.0 0.0 -7.1281469E-003 0.0 0.0 -5.0501870E-001 0.0 0.0 -3.3478343E-003 0.0 0.0 -2.2537693E-002 0.0 0.0 -2.6684059E-004 0.0 0.0  2.8058446E-005 0.0 0.0  1.0112705E-005 0.0 0.0  1.6183412E-007 0.0 0.0 -2.2889757E-002 0.0 0.0 -2.4959177E-004 0.0 0.0 -1.1266445E-002 0.0 0.0  3.0879684E-007 0.0 0.0 -2.1428360E-007 0.0 0.0 -1.8093071E-011 0.0 0.0  2.7884004E-014 0.0 0.0  4.0941919E-007 0.0 0.0 -1.3205967E-008 0.0 0.0 -4.6265531E-011 0.0 0.0 -2.8559566E+001 0.0 0.0 -2.0743591E-012 0.0 0.0  6.1918547E-007 0.0 0.0 -1.3231628E+003 0.0 0.0 -8.5024066E-002 0.0 0.0  6.3781943E-002 0.0 0.0 -7.1757374E+000 0.0 0.0  5.0760715E-001 0.0 0.0 -3.7290004E-004 0.0 0.0 -7.3337709E+002 0.0 0.0  4.6405032E-005 0.0 0.0 -2.1071337E-001 0.0 0.0  2.2497473E-001 0.0 0.0 -5.7536099E-003 0.0 0.0  1.1928698E-002 0.0 0.0 -5.4507273E+000 0.0 0.0  1.9767923E-010 0.0 0.0 -5.6486464E-009 0.0 0.0  5.5882944E-008 0.0 0.0 -3.4889542E-009 0.0 0.0 -1.3207603E+000 0.0 0.0  1.2679206E+000 0.0 0.0  1.0737241E+000 0.0 0.0 -5.3020178E+000 0.0 0.0 -1.1214021E-001 0.0 0.0  1.2574412E-009 0.0 0.0 -2.2524325E-003 0.0 0.0  7.1552410E-001 0.0 0.0 -1.8549034E-001 0.0 0.0  7.8804611E-003 0.0 0.0  8.5192201E-002 0.0 0.0 -4.6777918E-003 0.0 0.0 -6.3686240E-002 0.0 0.0 -7.8194090E-001 0.0 0.0 -1.2705651E+000 0.0 0.0 -6.6824941E+000 0.0 0.0 -7.3806755E+000 0.0 0.0 -1.7793824E-004 0.0 0.0 -5.8966336E-006 0.0 0.0 -4.7772905E+002 0.0 0.0  2.6256719E-012 0.0 0.0 -2.9362402E-012 0.0 0.0 -3.4311173E+003 0.0 0.0  5.2047653E+001 0.0 0.0 -1.0845357E-003 0.0 0.0  3.6631531E-006 0.0 0.0 -2.7359865E+002 0.0 0.0  2.7806558E-004 0.0 0.0 -2.7205959E-003 0.0 0.0 -1.7771802E-009 0.0 0.0  9.5908993E-010 0.0 0.0 -7.3621422E-010 0.0 0.0 -1.1348798E-011 0.0 0.0  1.2627085E-009 0.0 0.0 -3.7201098E-011 0.0 0.0  7.1051278E-011 0.0 0.0 -1.5168722E-012 0.0 0.0  5.5858111E-011 0.0 0.0 -1.7851968E-012 0.0 0.0  2.5702926E-013 0.0 0.0 -2.3096701E-014 0.0 0.0  3.1828953E-013 0.0 0.0 -1.2485398E-014 0.0 0.0  4.6518842E-011 0.0 0.0  1.5261571E-009 0.0 0.0  1.8470920E-014 0.0 0.0  1.8024886E-014 0.0 0.0  6.5119684E-014 0.0 0.0 -4.5513268E-008 0.0 0.0 -1.3595133E-009 0.0 0.0 -1.5984389E-005 0.0 0.0  2.9538943E-014 0.0 0.0 -6.1466990E-014 0.0 0.0 -1.2605164E-006 0.0 0.0 -2.7577829E-008 0.0 0.0  3.0004663E-014 0.0 0.0 -7.5451998E-015 0.0 0.0  4.4646609E+001 0.0 0.0  2.9906499E+002 0.0 0.0 -2.4823755E+000 0.0 0.0  8.4344181E-002 0.0 0.0 -2.2059128E+002 0.0 0.0 -2.1448256E-001 0.0 0.0  2.2084740E+000 0.0 0.0 -2.7810612E+001 0.0 0.0 -8.6635829E-001 0.0 0.0 -1.1457045E-001 0.0 0.0  1.6586689E+000 0.0 0.0 -2.2407921E+001 0.0 0.0 -1.3337919E-003 0.0 0.0  1.0011305E+004 0.0 0.0  3.8153720E+003 0.0 0.0  7.0865182E+003 0.0 0.0 -5.9416677E+003 0.0 0.0 -1.7292053E+003 0.0 0.0  5.5976374E+003 0.0 0.0  2.1314321E+003 0.0 0.0  1.7251971E+004 0.0 0.0 -3.7301798E+003 0.0 0.0 -4.3281752E+003 0.0 0.0 -5.8845601E+000 0.0 0.0 -4.4883140E-001 0.0 0.0  1.9748070E-002 0.0 0.0 -1.9155119E+002 0.0 0.0 -2.8952863E+000 0.0 0.0 -2.9320010E+001 0.0 0.0 -4.1986734E+000 0.0 0.0 -1.4900999E+001 0.0 0.0 -2.1351111E-014 0.0 0.0 -1.6453412E+002 0.0 0.0  2.2523458E-007 0.0 0.0 -1.2948018E-008 0.0 0.0 -3.8388315E+001 0.0 0.0  5.7378069E-011 0.0 0.0  9.0992260E-011 0.0 0.0  1.9794605E-009 0.0 0.0  4.2565501E+000 0.0 0.0 -7.9673003E+000 0.0 0.0 -4.3887149E+002 0.0 0.0  3.5997492E-002 0.0 0.0  3.2618418E-002 0.0 0.0  6.7481092E-001 0.0 0.0 -9.7660205E-001 0.0 0.0  2.1106373E-002 0.0 0.0 -2.0973565E-001 0.0 0.0 -1.6554545E+000 0.0 0.0 -8.6680749E+001 0.0 0.0  1.3169698E-014 0.0 0.0  1.2629127E-007 0.0 0.0 -2.7693192E-007 0.0 0.0 -1.7174483E+002 0.0 0.0 -2.4957572E+002 0.0 0.0 -1.4833348E-002 0.0 0.0 -1.5536878E+002 0.0 0.0 -2.2278422E-002 0.0 0.0 -2.3848547E-001 0.0 0.0 -1.2007900E-002 0.0 0.0  2.3560870E+003 0.0 0.0  4.1548621E+004 0.0 0.0 -6.9608962E+000 0.0 0.0  1.4588003E+000 0.0 0.0 -2.2650050E+003 0.0 0.0 -2.2370278E-009 0.0 0.0 -9.2779625E+000 0.0 0.0  1.7257584E+002 0.0 0.0  1.3879355E+003 0.0 0.0  2.3914174E+001 0.0 0.0 -1.0490539E+002 0.0 0.0 -1.2009445E+001 0.0 0.0 -5.3770799E-002 0.0 0.0 -2.1337656E-003 0.0 0.0 -3.3581695E+002 0.0 0.0 -3.0867977E+003 0.0 0.0  1.0239948E-003 0.0 0.0 -3.5836086E+002 0.0 0.0 -2.0552892E+001 0.0 0.0  5.3253306E+003 0.0 0.0 -4.8362593E+001 0.0 0.0  4.6809936E+003 0.0 0.0 -9.6470191E+001 0.0 0.0 -4.4480720E+002 0.0 0.0 -1.8352204E-001 0.0 0.0  2.4688205E-010 0.0 0.0 -2.5425319E-010 0.0 0.0  5.7310657E-010 0.0 0.0 -3.6434139E-013 0.0 0.0  3.6181937E-014 0.0 0.0 -2.4454684E+001 0.0 0.0 -4.2968601E+002 0.0 0.0 -4.9337752E-002 0.0 0.0  3.7300875E-004 0.0 0.0 -1.0419200E-004 0.0 0.0 -4.0776605E-010 0.0 0.0  5.1116231E+001 0.0 0.0 -4.2871506E-005 0.0 0.0 -1.1312534E+001 0.0 0.0 -2.2814531E-010 0.0 0.0  1.5150759E+001 0.0 0.0 -1.3238560E-013 0.0 0.0  1.1567262E-014 0.0 0.0  3.7738913E-014 0.0 0.0 -4.5193049E+001 0.0 0.0 -2.4085239E-008 0.0 0.0 -1.1046520E+001 0.0 0.0 -3.9478164E+001 0.0 0.0 -9.1928543E-001 0.0 0.0 -4.6886512E+001 0.0 0.0 -6.9622742E+000 0.0 0.0  3.4515579E+002 0.0 0.0 -4.8272227E+002 0.0 0.0  2.0962682E+001 0.0 0.0 -2.6490829E+002 0.0 0.0 -1.0780998E+002 0.0 0.0 -5.2947634E+002 0.0 0.0 -8.4000291E+000 0.0 0.0 -8.1805766E+001 0.0 0.0  2.0142244E+001 0.0 0.0 -6.4742055E+000 0.0 0.0 -1.9638959E-014 0.0 0.0  4.5168130E-014 0.0 0.0  2.0240726E-014 0.0 0.0 -4.3979943E+001 0.0 0.0 -4.7114336E+002 0.0 0.0 -1.3755525E-011 0.0 0.0 -1.0197114E+003 0.0 0.0 -1.4253573E+002 0.0 0.0  1.0878734E+002 0.0 0.0  8.8510345E+000 0.0 0.0 -1.2846348E+002 0.0 0.0 -6.4168406E+001 0.0 0.0 -9.0789733E+000 0.0 0.0  3.9107407E+000 0.0 0.0  4.2771858E+001 0.0 0.0 -2.0380922E+000 0.0 0.0 -6.1336166E-005 0.0 0.0 -2.1712850E-003 0.0 0.0 -7.0022994E-011 0.0 0.0 -5.5368123E-009 0.0 0.0 -1.0360893E-012 0.0 0.0  7.7173829E-002 0.0 0.0 -7.5630671E-002 0.0 0.0 -2.8139664E+000 0.0 0.0 -1.7232791E-001 0.0 0.0  4.3071572E-009 0.0 0.0  6.4092934E-009 0.0 0.0 -6.8901860E-014 0.0 0.0 -1.2476686E-004 0.0 0.0 -2.9766211E+001 0.0 0.0 -1.5097049E-002 0.0 0.0 -1.0130782E-002 0.0 0.0 -2.8101990E-003 0.0 0.0 -1.5534787E-005 0.0 0.0 -5.9356764E-005 0.0 0.0 -7.1710650E-002 0.0 0.0 -2.0678420E-001 0.0 0.0 -1.4943491E+000 0.0 0.0 -1.0329855E+001 0.0 0.0 -3.1343687E-001 0.0 0.0 -2.5886515E+000 0.0 0.0 -2.3101274E+000 0.0 0.0 -4.0064421E+001 0.0 0.0  1.9733767E+001 0.0 0.0 -7.1426866E+000 0.0 0.0  3.1008515E+001 0.0 0.0 -1.7132446E+001 0.0 0.0  2.5541855E+002 0.0 0.0  1.8522580E+001 0.0 0.0  5.5151812E-001 0.0 0.0  1.4365933E+000 0.0 0.0  7.9913952E-002 0.0 0.0 -9.8934768E-002 0.0 0.0 -9.9423573E+002 0.0 0.0 -7.7104062E-002 0.0 0.0 -5.6894045E+001 0.0 0.0 -9.6571027E+000 0.0 0.0 -3.5240379E-001 0.0 0.0 -2.2631530E+001 0.0 0.0 -6.9724127E+002 0.0 0.0 -3.3064515E+002 0.0 0.0 -1.9483042E+002 0.0 0.0  7.4546361E-004 0.0 0.0 -1.8643641E-011 0.0 0.0  1.0325458E+000 0.0 0.0 -9.9332026E+000 0.0 0.0 -1.0298176E+001 0.0 0.0 -2.0268675E+001 0.0 0.0 -6.9873190E+001 0.0 0.0  1.1017963E-014 0.0 0.0 -6.7989293E+002 0.0 0.0 -3.0583095E-002 0.0 0.0 -3.3158801E-007 0.0 0.0 -2.3289687E-008 0.0 0.0  3.9171074E-010 0.0 0.0 -8.8133681E+000 0.0 0.0 -6.6318846E-001 0.0 0.0 -3.9019450E-001 0.0 0.0 -1.0551553E-001 0.0 0.0  7.5307101E+000 0.0 0.0  1.8222190E+003 0.0 0.0 -8.7135582E+000 0.0 0.0 -1.2985899E+001 0.0 0.0 -6.2465022E-006 0.0 0.0 -3.5568041E-010 0.0 0.0 -1.7550113E+002 0.0 0.0 -1.1109290E+000 0.0 0.0 -1.2927573E+002 0.0 0.0 -1.3807316E+002 0.0 0.0 -5.4199003E+003 0.0 0.0 -1.4691373E+002 0.0 0.0 -4.2864968E+002 0.0 0.0  2.0750670E+003 0.0 0.0 -2.2453173E-010 0.0 0.0 -7.3834252E-012 0.0 0.0 -7.5701404E-001 0.0 0.0 -1.4908132E+002 0.0 0.0 -6.9968966E-006 0.0 0.0 -3.1888832E-006 0.0 0.0 -1.3781701E+000 0.0 0.0 -1.9057897E+000 0.0 0.0 -1.4551680E+000 0.0 0.0 -3.6419977E+003 0.0 0.0 -1.2083682E+002 0.0 0.0 -1.2094189E+002 0.0 0.0 -1.4545573E+003 0.0 0.0 -1.0225600E+002 0.0 0.0 -1.3393457E+002 0.0 0.0  1.4346405E-014 0.0 0.0 -1.3604579E+000 0.0 0.0 -1.3828692E+000 0.0 0.0 -1.5414587E-002 0.0 0.0 -5.6064995E-011 0.0 0.0 -5.8829901E-012 0.0 0.0 -1.6286620E-012 0.0 0.0 -3.7815767E-013 0.0 0.0 -2.9374671E+000 0.0 0.0 -3.7826023E+000 0.0 0.0 -1.3648203E+002 0.0 0.0 -3.4727489E+000 0.0 0.0 -3.3972193E-001 0.0 0.0 -1.8081822E-005 0.0 0.0  3.1732109E-003 0.0 0.0 -1.5898836E-013 0.0 0.0  2.2217516E-014 0.0 0.0  2.5804445E-014 0.0 0.0  4.8022068E-014 0.0 0.0  1.4426617E-007 0.0 0.0  1.7492374E-013 0.0 0.0  3.2112798E-012 0.0 0.0  6.1935410E-012 0.0 0.0 -1.3001631E-015 0.0 0.0  3.1649815E-014 0.0 0.0  2.4963217E-006 0.0 0.0 -1.4286174E-009 0.0 0.0  4.0262717E-010 0.0 0.0 -3.7501591E-012 0.0 0.0 -2.1586206E+001 0.0 0.0 -6.8563402E+000 0.0 0.0  1.0804132E-008 0.0 0.0  2.0227304E-002 0.0 0.0  9.0748210E-006 0.0 0.0 -1.3202681E-004 0.0 0.0  5.7798861E-008 0.0 0.0  4.2091143E-009 0.0 0.0  2.2877507E-010 0.0 0.0  9.1795337E-010 0.0 0.0 -4.1028637E-008 0.0 0.0 -2.8960684E-009 0.0 0.0 -2.9467606E-010 0.0 0.0  3.1825168E-011 0.0 0.0  6.6578864E-006 0.0 0.0 -6.0295334E-007 0.0 0.0 -9.9356225E-007 0.0 0.0 -1.7145151E-003 0.0 0.0  1.2712271E-006 0.0 0.0 -3.4420624E-007 0.0 0.0  7.5381968E-006 0.0 0.0 -4.8049349E-009 0.0 0.0  1.1925673E-007 0.0 0.0 -1.5703848E-010 0.0 0.0  2.0841148E-008 0.0 0.0  1.8131092E-013 0.0 0.0 -9.2670672E-013 0.0 0.0  1.2290627E-011 0.0 0.0  1.2130291E-008 0.0 0.0  1.3061909E-008 0.0 0.0  5.8039247E-007 0.0 0.0  2.6061882E-008 0.0 0.0  1.6322234E-010 0.0 0.0  7.1661499E-010 0.0 0.0  1.3181631E-008 0.0 0.0  2.0153977E-009 0.0 0.0 -5.1168053E-014 0.0 0.0 -2.2689936E-014 0.0 0.0  1.0833004E-014 0.0 0.0 -3.0458637E-015 0.0 0.0  1.4401291E-014 0.0 0.0  2.6253669E-010 0.0 0.0  2.8922800E-011 0.0 0.0  3.7926364E-014 0.0 0.0 -1.2935484E-010 0.0 0.0  3.5482280E-015 0.0 0.0  8.2598935E-006 0.0 0.0  1.1363705E-015 0.0 0.0  7.4664685E-014 0.0 0.0 -4.0665747E-014 0.0 0.0  6.8368701E-013 0.0 0.0 -2.9379958E-014 0.0 0.0  4.0517311E-015 0.0 0.0  5.1416741E-015 0.0 0.0  2.1898626E-014 0.0 0.0 -1.3706281E-014 0.0 0.0  4.8958418E-011 0.0 0.0  9.2229571E-011 0.0 0.0 -1.0822605E+003 0.0 0.0  4.9196790E-012 0.0 0.0  5.7302658E-012 0.0 0.0  6.4895494E-011 0.0 0.0 -4.9699943E+001 0.0 0.0 -1.5653145E+003 0.0 0.0 -1.7252830E+003 0.0 0.0 -3.4305530E+003 0.0 0.0 -3.3288699E+002 0.0 0.0 -1.0727091E+003 0.0 0.0 -5.4529363E+003 0.0 0.0 -9.1790215E+003 0.0 0.0 -4.5979882E+002 0.0 0.0 -1.4048794E+004 0.0 0.0 -1.9689724E+002 0.0 0.0 -2.8979893E+004 0.0 0.0 -2.0379718E+004 0.0 0.0 -1.1537316E+002 0.0 0.0 -5.6584761E+002 0.0 0.0 -3.7299480E+004 0.0 0.0  2.6600286E-014 0.0 0.0 -4.0467347E-013 0.0 0.0 -1.7942903E+002 0.0 0.0 -3.6382133E+003 0.0 0.0 -1.2155755E-014 0.0 0.0  5.1580457E-001 0.0 0.0  8.3252054E-002 0.0 0.0  3.0022822E+003 0.0 0.0  5.2406196E+002 0.0 0.0  3.0461013E+001 0.0 0.0  5.1454083E+003 0.0 0.0  9.2674885E+003 0.0 0.0  2.0828228E+003 0.0 0.0  6.5692182E+003 0.0 0.0 -1.0072374E-001 0.0 0.0  1.5925178E-014 0.0 0.0 -8.3278348E+001 0.0 0.0 -3.5267479E+002 0.0 0.0 -9.7620625E+000 0.0 0.0 -1.9317296E-001 0.0 0.0 -2.8445998E-008 0.0 0.0 -1.4501693E+000 0.0 0.0  1.4518717E+001 0.0 0.0 -9.3005418E-012 0.0 0.0 -5.7259329E+003 0.0 0.0 -3.2349157E+003 0.0 0.0 -2.5967085E-004 0.0 0.0 -2.7513353E-014 0.0 0.0 -1.0041993E-014 0.0 0.0 -1.5459803E+003 0.0 0.0 -8.5497228E+001 0.0 0.0  2.5824683E-001 0.0 0.0  4.5640892E-002 0.0 0.0 -3.5816557E+002 0.0 0.0 -3.3702590E+003 0.0 0.0 -1.8487285E+003 0.0 0.0 -9.6724805E-014 0.0 0.0 -4.1398696E+002 0.0 0.0 -1.8554515E-014 0.0 0.0 -5.1444460E-004 0.0 0.0 -2.7282659E-003 0.0 0.0 -2.6672883E-004 0.0 0.0 -3.1819158E-014 0.0 0.0 -3.8053116E-012 0.0 0.0 -6.1759184E+003 0.0 0.0 -2.8319933E-007 0.0 0.0 -4.6817610E+000 0.0 0.0  8.4521934E-006 0.0 0.0  2.7025769E+000 0.0 0.0  5.4963737E+002 0.0 0.0  6.6687821E-002 0.0 0.0 -6.7992047E-003 0.0 0.0 -1.3720140E+004 0.0 0.0 -9.5121192E+001 0.0 0.0 -1.0707186E+002 0.0 0.0  2.5992264E-003 0.0 0.0  3.2604424E-015 0.0 0.0 -6.4126365E+002 0.0 0.0 -2.1752392E-001 0.0 0.0 -5.4425294E-009 0.0 0.0  1.2547489E-003 0.0 0.0 -2.2907724E+001 0.0 0.0 -1.7354549E+002 0.0 0.0 -7.9280198E+002 0.0 0.0  9.8607791E-015 0.0 0.0 -3.2292076E-003 0.0 0.0 -6.9120805E-003 0.0 0.0 -8.1408435E+001 0.0 0.0 -1.3977638E+002 0.0 0.0 -2.3020366E+002 0.0 0.0 -1.5913297E+001 0.0 0.0 -1.5059217E+002 0.0 0.0 -3.8775117E+002 0.0 0.0 -2.2696755E+002 0.0 0.0 -1.5476330E+003 0.0 0.0 -5.8276800E+002 0.0 0.0 -5.3942937E+001 0.0 0.0 -4.4523644E+002 0.0 0.0 -1.4980481E+002 0.0 0.0 -7.3499263E+000 0.0 0.0  1.5666440E+004 0.0 0.0  6.0316161E+003 0.0 0.0  2.5337262E+004 0.0 0.0 -9.7591767E-008 0.0 0.0 -3.5793051E-001 0.0 0.0 -8.3037951E+001 0.0 0.0 -9.6883769E+000 0.0 0.0 -2.7294626E+003 0.0 0.0 -1.1772700E-002 0.0 0.0 -3.5171263E+000 0.0 0.0 -3.3127375E-005 0.0 0.0 -2.5233053E-005 0.0 0.0 -2.1340589E+002 0.0 0.0 -2.5728421E+001 0.0 0.0  2.5795793E-014 0.0 0.0 -2.7740673E+000 0.0 0.0 -6.4233752E-004 0.0 0.0  3.3264796E-003 0.0 0.0 -1.5831167E+000 0.0 0.0 -9.7327984E+001 0.0 0.0 -1.1523359E+003 0.0 0.0 -3.5185719E+000 0.0 0.0 -2.1520425E-002 0.0 0.0  9.0789390E+001 0.0 0.0  3.2715325E-010 0.0 0.0 -1.5006686E+002 0.0 0.0  4.0308999E+004 0.0 0.0  4.0492243E+004 0.0 0.0  1.1414456E+003 0.0 0.0  1.1962459E+004 0.0 0.0  1.3600694E+005 0.0 0.0 -2.6877054E+001 0.0 0.0 -7.8287627E-002 0.0 0.0 -9.9129618E-001 0.0 0.0  1.2468000E+003 0.0 0.0 -1.4264610E+002 0.0 0.0 -7.8075369E-003 0.0 0.0 -5.0474897E+003 0.0 0.0 -8.3603078E+002 0.0 0.0 -3.5006877E+003 0.0 0.0  2.0977735E-008 0.0 0.0  1.5428317E-010 0.0 0.0  1.9548819E-007 0.0 0.0  2.5069148E-009 0.0 0.0 -7.9425443E+002 0.0 0.0 -2.3411662E+003 0.0 0.0 -9.4690116E-006 0.0 0.0 -1.3413652E+001 0.0 0.0 -5.1586315E-009 0.0 0.0 -6.1093104E+002 0.0 0.0 -2.6349190E+003 0.0 0.0 -2.4738153E+003 0.0 0.0  3.1553098E-014 0.0 0.0 -3.5201442E+001 0.0 0.0 -1.2721890E+001 0.0 0.0  3.0064983E-002 0.0 0.0 -1.4814761E+003 0.0 0.0 -8.4791364E+001 0.0 0.0 -2.5149187E-003 0.0 0.0 -1.2480799E-003 0.0 0.0 -8.1869156E+000 0.0 0.0 -5.4029067E-003 0.0 0.0 -4.4333864E+003 0.0 0.0 -4.1864620E-005 0.0 0.0  3.0685259E+004 0.0 0.0 -1.9039591E+002 0.0 0.0 -3.8886880E+002 0.0 0.0  1.4417297E-003 0.0 0.0 -5.2698274E+002 0.0 0.0 -2.2160061E+003 0.0 0.0 -6.3193161E+001 0.0 0.0 -1.2309911E+001 0.0 0.0 -3.1980236E+002 0.0 0.0 -2.5442562E-011 0.0 0.0  4.0217570E+000 0.0 0.0 -4.7406921E-003 0.0 0.0 -3.5736790E-003 0.0 0.0  3.2209638E+004 0.0 0.0 -2.9456235E+003 0.0 0.0  5.6181679E+002 0.0 0.0  2.7561325E+005 0.0 0.0 -1.8366300E+001 0.0 0.0  1.0121843E+005 0.0 0.0  1.3150473E+005 0.0 0.0 -3.2222016E-002 0.0 0.0  2.5927680E-003 0.0 0.0 -4.5726022E+000 0.0 0.0  7.1456681E+000 0.0 0.0 -1.6269592E+004 0.0 0.0 -2.7706320E+004 0.0 0.0  2.9311964E+003 0.0 0.0 -4.9895315E+003 0.0 0.0 -2.2644808E+004 0.0 0.0  8.3916199E+003 0.0 0.0  9.0150296E+003 0.0 0.0  2.8213659E+003 0.0 0.0 -8.4238135E+002 0.0 0.0  7.3203690E+003 0.0 0.0  1.0047134E+005 0.0 0.0  5.7797873E+002 0.0 0.0 -2.9196158E+004 0.0 0.0  1.0089201E+005 0.0 0.0  1.5110054E+005 0.0 0.0  3.3690131E+005 0.0 0.0  2.7227813E+005 0.0 0.0  3.1488080E+005 0.0 0.0  1.5917647E+005 0.0 0.0  2.5388295E+005 0.0 0.0  1.0159802E+005 0.0 0.0  9.1662818E+004 0.0 0.0  3.2760708E+005 0.0 0.0  2.6225028E+005 0.0 0.0  1.3701990E+004 0.0 0.0 -1.6180459E+003 0.0 0.0  1.3501039E+002 0.0 0.0  4.5488830E+003 0.0 0.0 -9.5501552E-008 0.0 0.0 -1.6940484E+002 0.0 0.0 -8.6237089E-004 0.0 0.0 -3.8523828E-005 0.0 0.0 -5.7328798E-004 0.0 0.0 -5.1683877E+000 0.0 0.0 -6.9595422E-002 0.0 0.0  1.4812775E+005 0.0 0.0  8.3092468E+004 0.0 0.0  1.2183710E+005 0.0 0.0  2.9304217E+003 0.0 0.0 -2.3499129E+003 0.0 0.0 -7.2350597E+003 0.0 0.0 -1.4448042E+004 0.0 0.0  3.8593170E+002 0.0 0.0 -7.3258531E-002 0.0 0.0 -1.1466714E+000 0.0 0.0 -4.9519422E-012 0.0 0.0  1.0428749E+000 0.0 0.0 -1.3126653E+002 0.0 0.0 -1.2057793E+003 0.0 0.0  1.6453335E-005 0.0 0.0 -9.1774317E+001 0.0 0.0 -1.8811916E+003 0.0 0.0 -2.9996686E+003 0.0 0.0 -7.5718484E-002 0.0 0.0 -2.2024819E+004 0.0 0.0 -6.3721427E+003 0.0 0.0 -1.0789684E+004 0.0 0.0 -1.5656789E+003 0.0 0.0 -2.3708896E+004 0.0 0.0 -1.4540277E+004 0.0 0.0 -1.9697010E+004 0.0 0.0 -2.9430451E+003 0.0 0.0 -8.4774922E+003 0.0 0.0 -8.0452539E+003 0.0 0.0 -1.3536286E+004 0.0 0.0 -1.2697484E+004 0.0 0.0 -2.0738439E+004 0.0 0.0 -1.0897987E+004 0.0 0.0 -2.2736300E+004 0.0 0.0 -6.6683499E+003 0.0 0.0 -2.1261208E+004 0.0 0.0 -2.4901121E+003 0.0 0.0 -8.8726134E+003 0.0 0.0 -1.6672782E+004 0.0 0.0 -2.1107951E+004 0.0 0.0 -9.6193554E+003 0.0 0.0 -1.7858351E+004 0.0 0.0 -1.9754755E+004 0.0 0.0 -1.1441883E+004 0.0 0.0 -1.1788760E+004 0.0 0.0 -2.9735948E+003 0.0 0.0 -2.4338957E+004 0.0 0.0 -1.8282254E+004 0.0 0.0 -4.6583232E+003 0.0 0.0 -1.1494638E-011 0.0 0.0  8.4633204E+000 0.0 0.0 -6.2938500E-001 0.0 0.0 -2.4269349E+001 0.0 0.0  1.7646862E-002 0.0 0.0 -1.1981743E-013 0.0 0.0 -9.7654159E-013 0.0 0.0  6.6517333E-009 0.0 0.0 -1.8002342E+003 0.0 0.0 -3.8784177E+001 0.0 0.0 -2.1303109E-012 0.0 0.0  1.4052318E-012 0.0 0.0  1.4122390E+003 0.0 0.0 -4.1570681E-002 0.0 0.0 -1.4245869E+000 0.0 0.0 -3.3122429E+003 0.0 0.0 -1.0308239E+002 0.0 0.0 -3.1340862E+001 0.0 0.0  1.3129682E+004 0.0 0.0 -7.6711722E-011 0.0 0.0 -8.8509695E-010 0.0 0.0 -4.5507358E+001 0.0 0.0 -2.0681399E+000 0.0 0.0 -1.9489491E-007 0.0 0.0 -9.4721496E+002 0.0 0.0  4.0232229E-005 0.0 0.0  4.5353242E-014 0.0 0.0  9.2835692E-005 0.0 0.0 -2.6974723E-001 0.0 0.0 -2.4427853E-007 0.0 0.0 -5.8252298E-010 0.0 0.0 -1.1279913E+003 0.0 0.0 -1.7248908E+003 0.0 0.0 -1.1289607E+003 0.0 0.0 -4.0049186E-008 0.0 0.0  5.9730226E-008 0.0 0.0 -1.4834455E+001 0.0 0.0 -8.7412955E+000 0.0 0.0 -3.9423581E-002 0.0 0.0 -3.5817323E+002 0.0 0.0 -1.1727212E-010 0.0 0.0 -3.0092308E+002 0.0 0.0 -3.6507900E+002 0.0 0.0  4.1456548E-002 0.0 0.0 -1.8808194E-011 0.0 0.0 -3.6457020E-004 0.0 0.0 -1.6050938E+003 0.0 0.0  4.7483853E+004 0.0 0.0  3.0835010E+004 0.0 0.0  3.0428512E+004 0.0 0.0  3.7274457E+004 0.0 0.0  3.5128196E+004 0.0 0.0 -1.0886742E+005 0.0 0.0 -4.1709064E+000 0.0 0.0  9.2636046E+003 0.0 0.0 -1.2930524E+002 0.0 0.0 -1.0096454E+004 0.0 0.0 -9.1476214E+001 0.0 0.0  1.2235456E-008 0.0 0.0 -6.3404517E+001 0.0 0.0 -1.9834949E-011 0.0 0.0 -1.3228098E+000 0.0 0.0  1.9692153E+004 0.0 0.0  1.6850531E-002 0.0 0.0 -2.9261260E-001 0.0 0.0 -2.7275434E+003 0.0 0.0 -3.7436321E+002 0.0 0.0 -4.3546870E-002 0.0 0.0 -2.7847085E+000 0.0 0.0 -4.0387438E+001 0.0 0.0  1.3947893E-014 0.0 0.0 -2.6578958E+001 0.0 0.0 -2.9679605E+000 0.0 0.0  1.0598517E+002 0.0 0.0 -6.1181955E-004 0.0 0.0 -2.4698192E-002 0.0 0.0 -5.7870368E-006 0.0 0.0 -2.0237816E+004 0.0 0.0 -1.2561970E+002 0.0 0.0 -3.3297049E+004
        </DataArray>
        <DataArray type="Float64" Name="current density im" NumberOfComponents="3" format="ascii">
 0.0 0.0  1.3861711E+005 0.0 0.0  2.0383422E+003 0.0 0.0 -1.7822450E+004 0.0 0.0 -1.2241216E+005 0.0 0.0  1.4630994E+004 0.0 0.0 -1.4783796E+004 0.0 0.0 -8.3891480E+002 0.0 0.0  8.5338117E+001 0.0 0.0  4.5043008E-008 0.0 0.0 -2.4577141E-004 0.0 0.0 -2.1597332E-006 0.0 0.0  1.2279397E-009 0.0 0.0  1.0672573E-008 0.0 0.0  4.3254786E-004 0.0 0.0  2.6734007E-005 0.0 0.0  1.3078144E-016 0.0 0.0  2.4443074E-019 0.0 0.0 -2.2993015E-006 0.0 0.0 -6.3926810E+002 0.0 0.0  7.0239097E+004 0.0 0.0 -2.2232906E+002 0.0 0.0  1.3061271E+004 0.0 0.0 -3.0717754E+004 0.0 0.0 -3.0248186E+004 0.0 0.0 -2.1145714E+004 0.0 0.0 -1.9063361E+004 0.0 0.0 -1.4541054E+004 0.0 0.0 -8.3599251E+003 0.0 0.0 -8.4469985E+003 0.0 0.0 -3.2760490E+003 0.0 0.0 -1.2437792E+003 0.0 0.0  7.4678731E+002 0.0 0.0  2.2089497E+003 0.0 0.0  2.8187083E+003 0.0 0.0  3.2745028E+003 0.0 0.0  4.0801632E+003 0.0 0.0  4.2142682E+003 0.0 0.0  3.3419754E+003 0.0 0.0 -1.9341382E+005 0.0 0.0 -1.4744918E+005 0.0 0.0 -1.2389305E+005 0.0 0.0 -1.0772712E+005 0.0 0.0 -1.0152683E+005 0.0 0.0 -7.5181668E+004 0.0 0.0 -5.7234928E+004 0.0 0.0 -8.4201637E+004 0.0 0.0 -5.7501221E+004 0.0 0.0 -6.1819178E+004 0.0 0.0 -4.7214585E+004 0.0 0.0  2.0533740E+004 0.0 0.0  2.1129941E+004 0.0 0.0  2.4604957E+004 0.0 0.0  3.0489571E+004 0.0 0.0  3.1853629E+004 0.0 0.0  3.6060000E+004 0.0 0.0  3.9944006E+004 0.0 0.0  4.3662307E+004 0.0 0.0  4.6883688E+004 0.0 0.0  4.9582225E+004 0.0 0.0  4.0002710E+004 0.0 0.0  5.9286882E+004 0.0 0.0  5.2079007E+004 0.0 0.0  5.1442014E+004 0.0 0.0  4.4763276E+004 0.0 0.0  5.9906265E+004 0.0 0.0  4.5916548E+004 0.0 0.0  4.1548261E+004 0.0 0.0  3.7011246E+004 0.0 0.0  3.4855235E+004 0.0 0.0  4.1675666E+004 0.0 0.0  2.6327099E+004 0.0 0.0  2.8823807E+004 0.0 0.0  2.5756595E+004 0.0 0.0  2.0973572E+004 0.0 0.0  2.2683826E+004 0.0 0.0  1.6528171E+004 0.0 0.0  1.0599082E+004 0.0 0.0  9.8498498E+003 0.0 0.0  1.3035977E+004 0.0 0.0  5.8320322E+003 0.0 0.0  7.0509105E+003 0.0 0.0  2.8760170E+003 0.0 0.0  9.9690056E+002 0.0 0.0 -9.6745227E+002 0.0 0.0 -2.7296115E+003 0.0 0.0 -5.0722153E+003 0.0 0.0 -6.0885028E+003 0.0 0.0 -7.5998494E+003 0.0 0.0 -8.3313715E+003 0.0 0.0 -1.2422038E+004 0.0 0.0 -1.1755512E+004 0.0 0.0 -1.2876073E+004 0.0 0.0 -1.2127648E+004 0.0 0.0 -1.7988567E+004 0.0 0.0 -1.5476606E+004 0.0 0.0 -1.6959950E+004 0.0 0.0 -1.5469180E+004 0.0 0.0 -2.1270122E+004 0.0 0.0 -1.7794751E+004 0.0 0.0 -1.8847693E+004 0.0 0.0 -1.7844536E+004 0.0 0.0 -2.4303464E+004 0.0 0.0 -2.0462500E+004 0.0 0.0 -2.0641115E+004 0.0 0.0 -1.7745131E+004 0.0 0.0 -2.5643282E+004 0.0 0.0 -1.9945247E+004 0.0 0.0 -1.9482577E+004 0.0 0.0 -2.5977140E+004 0.0 0.0 -1.8386004E+004 0.0 0.0 -2.6436599E+004 0.0 0.0 -2.1752604E+004 0.0 0.0 -2.0962557E+004 0.0 0.0 -2.0147122E+004 0.0 0.0 -2.0018231E+004 0.0 0.0 -2.5947604E+004 0.0 0.0 -1.8015235E+004 0.0 0.0 -1.8276423E+004 0.0 0.0 -2.6990549E+004 0.0 0.0 -1.8746083E+004 0.0 0.0 -2.6525195E+004 0.0 0.0 -2.0992120E+004 0.0 0.0 -2.0977713E+004 0.0 0.0 -2.0606677E+004 0.0 0.0 -1.9993534E+004 0.0 0.0 -2.3377455E+004 0.0 0.0 -1.8165985E+004 0.0 0.0 -1.7165805E+004 0.0 0.0 -2.2174194E+004 0.0 0.0 -1.6043193E+004 0.0 0.0 -1.7879453E+004 0.0 0.0 -2.1767975E+004 0.0 0.0 -1.6807296E+004 0.0 0.0 -1.8649221E+004 0.0 0.0 -1.6014169E+004 0.0 0.0 -2.2528911E+004 0.0 0.0 -1.7168561E+004 0.0 0.0 -1.7070912E+004 0.0 0.0 -2.1542971E+004 0.0 0.0 -1.6555561E+004 0.0 0.0 -1.7076621E+004 0.0 0.0 -1.7760480E+004 0.0 0.0 -1.6276218E+004 0.0 0.0 -1.3345486E+004 0.0 0.0 -2.1205421E+004 0.0 0.0 -1.7185574E+004 0.0 0.0 -1.9190474E+004 0.0 0.0 -2.6704372E+004 0.0 0.0 -1.1944220E+004 0.0 0.0 -4.0848414E+003 0.0 0.0 -6.4507398E+002 0.0 0.0 -1.2571658E+000 0.0 0.0 -2.2207628E-002 0.0 0.0 -2.3244041E-001 0.0 0.0 -2.0917044E-001 0.0 0.0 -4.1149665E-001 0.0 0.0 -3.8738115E-001 0.0 0.0 -2.8933650E-002 0.0 0.0 -8.7423989E-002 0.0 0.0 -4.6579149E-001 0.0 0.0  9.3141945E-001 0.0 0.0 -3.4748624E+000 0.0 0.0 -1.0911706E+000 0.0 0.0 -2.1066812E+000 0.0 0.0 -2.1476036E+000 0.0 0.0 -2.6214362E-001 0.0 0.0 -5.5040425E-001 0.0 0.0 -1.4832542E-001 0.0 0.0 -4.9339138E-001 0.0 0.0 -1.0410372E+000 0.0 0.0  4.0878574E-001 0.0 0.0 -1.1127694E+000 0.0 0.0 -9.5216854E-002 0.0 0.0 -2.6922493E+000 0.0 0.0 -1.8697034E+000 0.0 0.0 -1.7270008E+000 0.0 0.0 -5.3880618E-001 0.0 0.0 -6.5268464E-002 0.0 0.0  6.0145375E-004 0.0 0.0 -2.9831343E-005 0.0 0.0 -5.4484725E-006 0.0 0.0  1.5491000E-006 0.0 0.0  1.2517106E-006 0.0 0.0 -2.4807356E-006 0.0 0.0 -1.1989147E-006 0.0 0.0  7.0180518E-008 0.0 0.0 -1.5447221E-006 0.0 0.0 -2.1538988E-006 0.0 0.0  4.9661966E-006 0.0 0.0  1.3655108E-006 0.0 0.0 -5.0216922E-006 0.0 0.0 -1.3549727E-005 0.0 0.0 -1.7494468E-005 0.0 0.0 -6.4156565E-006 0.0 0.0 -7.7573636E-006 0.0 0.0 -2.4460222E-006 0.0 0.0 -2.4205901E-006 0.0 0.0 -2.5355246E-006 0.0 0.0 -2.0249121E-006 0.0 0.0 -2.8170628E-007 0.0 0.0 -2.0506467E-006 0.0 0.0 -3.4607579E-006 0.0 0.0  2.8425061E-006 0.0 0.0  6.8334633E-006 0.0 0.0  5.3829763E-006 0.0 0.0 -3.7181201E-006 0.0 0.0 -3.2624419E-006 0.0 0.0 -2.5764572E-006 0.0 0.0 -3.0033276E-006 0.0 0.0 -1.2931285E-007 0.0 0.0 -3.9063162E-008 0.0 0.0 -1.1760149E-007 0.0 0.0 -7.9343356E-008 0.0 0.0 -9.1404817E-009 0.0 0.0 -1.6549220E-009 0.0 0.0 -1.9669938E-010 0.0 0.0  1.8946173E-009 0.0 0.0 -3.5829990E-008 0.0 0.0 -4.8073769E-008 0.0 0.0  9.5078550E-008 0.0 0.0 -5.3492825E-006 0.0 0.0 -4.2626795E-006 0.0 0.0 -5.3937917E-006 0.0 0.0  7.8371410E-006 0.0 0.0 -1.2067829E-004 0.0 0.0 -1.5486961E-004 0.0 0.0 -1.5113632E-004 0.0 0.0 -2.6232988E-004 0.0 0.0 -1.5707039E-004 0.0 0.0  7.5676745E-004 0.0 0.0  7.8213940E-004 0.0 0.0 -1.7753272E-004 0.0 0.0 -7.1909263E-005 0.0 0.0 -1.3252036E-005 0.0 0.0 -6.5435368E-005 0.0 0.0 -1.7167033E-004 0.0 0.0 -3.1898561E-004 0.0 0.0  9.5465079E-005 0.0 0.0 -1.6206096E-004 0.0 0.0 -5.6020835E-004 0.0 0.0 -8.6356446E-004 0.0 0.0 -8.2123606E-004 0.0 0.0 -3.1651416E-004 0.0 0.0 -9.8104217E-004 0.0 0.0 -2.8481117E-005 0.0 0.0 -3.3434632E-004 0.0 0.0 -2.3988785E-003 0.0 0.0  1.1139156E-003 0.0 0.0 -2.1583255E-001 0.0 0.0 -3.0187977E-001 0.0 0.0 -2.6590634E-001 0.0 0.0  6.2620325E-001 0.0 0.0  5.2355580E+000 0.0 0.0 -7.4978169E+001 0.0 0.0 -3.9089808E+002 0.0 0.0  2.4266844E+003 0.0 0.0  6.7919495E+003 0.0 0.0  9.3338274E+003 0.0 0.0  8.2218606E+003 0.0 0.0  6.8448821E+003 0.0 0.0  6.4084127E+003 0.0 0.0  5.9005840E+003 0.0 0.0  4.4872534E+003 0.0 0.0  2.4218366E+005 0.0 0.0  2.3272345E+005 0.0 0.0  2.2008698E+005 0.0 0.0  2.0857239E+005 0.0 0.0  1.8580943E+005 0.0 0.0  1.8407510E+005 0.0 0.0  1.6657695E+005 0.0 0.0  1.4688838E+005 0.0 0.0  1.4158511E+005 0.0 0.0  1.3354216E+005 0.0 0.0  1.2177589E+005 0.0 0.0  1.0492535E+005 0.0 0.0  9.1104026E+004 0.0 0.0  8.1049081E+004 0.0 0.0  7.3604890E+004 0.0 0.0  6.2773245E+004 0.0 0.0  5.4214724E+004 0.0 0.0  5.7110152E+004 0.0 0.0  4.7737194E+004 0.0 0.0  3.9123526E+004 0.0 0.0  4.1346193E+004 0.0 0.0  3.6160753E+004 0.0 0.0  2.9094275E+004 0.0 0.0  2.6047983E+004 0.0 0.0  2.4468248E+004 0.0 0.0  2.2458465E+004 0.0 0.0  2.2595768E+004 0.0 0.0  1.8932425E+004 0.0 0.0  1.7515150E+004 0.0 0.0  1.7142927E+004 0.0 0.0  1.3500137E+004 0.0 0.0  1.3381382E+004 0.0 0.0  1.3673371E+004 0.0 0.0  1.1550682E+004 0.0 0.0  1.0343073E+004 0.0 0.0  1.0077405E+004 0.0 0.0  8.4148632E+003 0.0 0.0  7.3701055E+003 0.0 0.0  7.4792943E+003 0.0 0.0 -2.0488973E+001 0.0 0.0  2.4937936E+000 0.0 0.0 -6.3463880E-001 0.0 0.0  1.3689885E-001 0.0 0.0 -3.6592218E-002 0.0 0.0  9.1606309E-003 0.0 0.0 -1.7308570E-003 0.0 0.0  4.5177836E-004 0.0 0.0 -1.1785829E-004 0.0 0.0 -1.7486251E-006 0.0 0.0  8.9779668E-008 0.0 0.0 -8.4490924E-009 0.0 0.0  1.2806153E-011 0.0 0.0 -5.6977810E-011 0.0 0.0 -2.5775480E-013 0.0 0.0 -8.6956142E-013 0.0 0.0 -1.8693840E-012 0.0 0.0  3.9189486E-013 0.0 0.0  1.7027106E-013 0.0 0.0  1.5349731E-013 0.0 0.0 -1.1100597E-016 0.0 0.0  3.6886276E-015 0.0 0.0  2.3306504E-017 0.0 0.0 -4.8219133E-017 0.0 0.0  7.7900378E-016 0.0 0.0  8.7636853E-017 0.0 0.0  2.6376954E-016 0.0 0.0 -4.9451350E-015 0.0 0.0  1.3095173E-014 0.0 0.0 -2.9977979E-015 0.0 0.0  9.6533559E-015 0.0 0.0 -1.6106441E-013 0.0 0.0 -1.3687106E-013 0.0 0.0 -3.8898107E-014 0.0 0.0 -4.0653418E-014 0.0 0.0 -2.6519700E-015 0.0 0.0 -4.9146848E-015 0.0 0.0  3.5510840E-017 0.0 0.0 -1.6510051E-016 0.0 0.0 -8.0044559E-018 0.0 0.0  1.2702782E-018 0.0 0.0  1.8474175E-019 0.0 0.0 -1.8622932E-019 0.0 0.0 -7.3571288E-019 0.0 0.0  3.6898643E-019 0.0 0.0  3.6878909E-019 0.0 0.0 0.0 0.0 0.0  3.6988732E-007 0.0 0.0 -9.5017914E-008 0.0 0.0  2.1702028E-008 0.0 0.0 -1.7593845E-008 0.0 0.0  9.2284107E-008 0.0 0.0 -3.8368929E-007 0.0 0.0  1.4491518E-006 0.0 0.0 -4.6258753E-006 0.0 0.0  1.3662456E-005 0.0 0.0 -1.4854059E-004 0.0 0.0  1.2681791E-004 0.0 0.0 -4.1448930E-003 0.0 0.0  2.4968747E-002 0.0 0.0 -5.9597794E-001 0.0 0.0 -1.4662141E+000 0.0 0.0 -4.5123445E+001 0.0 0.0 -1.9225148E+001 0.0 0.0  2.0068105E-019 0.0 0.0 -1.9705024E-019 0.0 0.0 0.0 0.0 0.0 -6.3280959E-018 0.0 0.0 -2.3321583E-019 0.0 0.0  1.1986137E-018 0.0 0.0  3.6922179E-018 0.0 0.0 -1.1041879E-016 0.0 0.0 -1.5472748E-015 0.0 0.0  9.1013113E-015 0.0 0.0  6.3042809E-014 0.0 0.0  4.6953291E-011 0.0 0.0 -1.8000520E-009 0.0 0.0 -1.6414205E-007 0.0 0.0  6.9041250E+002 0.0 0.0  1.2882088E+003 0.0 0.0  1.9024453E+003 0.0 0.0  2.5682281E+003 0.0 0.0  3.4208985E+003 0.0 0.0  4.0378451E+003 0.0 0.0  4.3209317E+003 0.0 0.0  5.1633755E+003 0.0 0.0  6.1230626E+003 0.0 0.0  6.5765208E+003 0.0 0.0  7.2007539E+003 0.0 0.0  8.1749511E+003 0.0 0.0  8.6459041E+003 0.0 0.0  9.2198205E+003 0.0 0.0  1.1190232E+004 0.0 0.0  1.1197853E+004 0.0 0.0  1.2150943E+004 0.0 0.0  1.4183633E+004 0.0 0.0  1.4987708E+004 0.0 0.0  1.5009561E+004 0.0 0.0  1.5650514E+004 0.0 0.0  1.9059920E+004 0.0 0.0  2.4120719E+004 0.0 0.0  2.1496729E+004 0.0 0.0  2.2440967E+004 0.0 0.0  2.6429314E+004 0.0 0.0  2.9725508E+004 0.0 0.0  3.2694368E+004 0.0 0.0  3.9631987E+004 0.0 0.0  4.3804394E+004 0.0 0.0  4.9342714E+004 0.0 0.0  5.2841296E+004 0.0 0.0  5.8159725E+004 0.0 0.0  6.4816307E+004 0.0 0.0  8.5967225E+004 0.0 0.0  7.2429150E+004 0.0 0.0  8.8889286E+004 0.0 0.0  1.0719472E+005 0.0 0.0  1.1989446E+005 0.0 0.0  1.2472619E+005 0.0 0.0  1.4592422E+005 0.0 0.0  1.5771641E+005 0.0 0.0  1.5832261E+005 0.0 0.0  1.8242296E+005 0.0 0.0  1.6983511E+005 0.0 0.0  1.6512959E+005 0.0 0.0  1.8392207E+005 0.0 0.0  1.6891620E+005 0.0 0.0  1.2265734E+005 0.0 0.0  1.4526978E+005 0.0 0.0  2.2232228E+005 0.0 0.0  2.8685056E+005 0.0 0.0  2.8422339E+005 0.0 0.0  2.7097462E+005 0.0 0.0  3.0982016E+005 0.0 0.0  3.0650557E+005 0.0 0.0  3.0705276E+005 0.0 0.0  3.0707876E+005 0.0 0.0  3.0529264E+005 0.0 0.0  3.2700638E+005 0.0 0.0  3.1243391E+005 0.0 0.0  2.8896744E+005 0.0 0.0  2.9544889E+005 0.0 0.0  2.8957794E+005 0.0 0.0  2.9040044E+005 0.0 0.0  2.9228491E+005 0.0 0.0  2.7410259E+005 0.0 0.0  2.3922009E+005 0.0 0.0  1.8218757E+004 0.0 0.0  1.4846739E+004 0.0 0.0  1.1236091E+004 0.0 0.0  8.4842673E+003 0.0 0.0  5.0756898E+003 0.0 0.0  3.1902333E+003 0.0 0.0  2.1271534E+003 0.0 0.0  1.0019394E+003 0.0 0.0  4.1258146E+002 0.0 0.0  1.0792555E+002 0.0 0.0 -3.8815854E+001 0.0 0.0 -1.7527803E+000 0.0 0.0 -1.4527858E+001 0.0 0.0 -5.7264908E+001 0.0 0.0 -3.9444652E+001 0.0 0.0 -6.8689806E+001 0.0 0.0  1.8340332E+001 0.0 0.0  1.1188934E+001 0.0 0.0  1.6201977E+001 0.0 0.0  1.3959539E+001 0.0 0.0  3.9205679E+001 0.0 0.0 -3.5041387E+001 0.0 0.0  1.4731564E+001 0.0 0.0  2.9317069E+002 0.0 0.0 -6.9329503E+001 0.0 0.0  1.2736273E+001 0.0 0.0 -5.0358128E+000 0.0 0.0  2.0272293E+000 0.0 0.0  5.4855804E+000 0.0 0.0  4.1501718E+001 0.0 0.0 -5.3288793E+000 0.0 0.0  1.2539971E+002 0.0 0.0 -8.9398292E+001 0.0 0.0  6.4727719E+002 0.0 0.0 -1.6253677E+003 0.0 0.0 -1.0752875E+004 0.0 0.0 -2.1774484E+004 0.0 0.0 -3.1637279E+004 0.0 0.0 -4.2209285E+004 0.0 0.0 -4.8240127E+004 0.0 0.0 -6.6473431E+004 0.0 0.0 -8.7188645E+004 0.0 0.0 -8.2479297E+004 0.0 0.0 -8.5797506E+004 0.0 0.0 -9.7424776E+004 0.0 0.0 -1.0523891E+005 0.0 0.0 -1.1548660E+005 0.0 0.0 -1.2039771E+005 0.0 0.0 -1.4237429E+005 0.0 0.0 -1.5293017E+005 0.0 0.0 -1.4334393E+005 0.0 0.0 -1.5063107E+005 0.0 0.0 -1.5948754E+005 0.0 0.0 -1.7306366E+005 0.0 0.0 -1.8071843E+005 0.0 0.0 -2.1037537E+005 0.0 0.0 -2.2165884E+005 0.0 0.0 -1.9822279E+005 0.0 0.0  3.5830017E+002 0.0 0.0  1.5758632E+002 0.0 0.0  1.7206286E+002 0.0 0.0  6.0814359E+001 0.0 0.0  8.5390236E+001 0.0 0.0  9.5626286E+001 0.0 0.0  9.8006344E+001 0.0 0.0  9.8628147E+001 0.0 0.0  9.7256027E+001 0.0 0.0  8.8226287E+001 0.0 0.0  9.1813408E+001 0.0 0.0  1.1630353E+002 0.0 0.0  9.1353607E+001 0.0 0.0  7.3121494E+001 0.0 0.0  1.1791422E+002 0.0 0.0  1.0022943E+002 0.0 0.0  9.6158854E+001 0.0 0.0  1.1613205E+002 0.0 0.0  9.3772409E+001 0.0 0.0  8.8384327E+001 0.0 0.0  6.7592593E+001 0.0 0.0  2.7927467E+001 0.0 0.0  5.5791011E+001 0.0 0.0  1.1202123E+002 0.0 0.0  1.0132735E+002 0.0 0.0  7.8219017E+001 0.0 0.0  4.3830952E+001 0.0 0.0  1.5721554E+001 0.0 0.0  3.6145794E+001 0.0 0.0  7.6954555E+001 0.0 0.0  5.8307056E+001 0.0 0.0  5.5047273E+001 0.0 0.0  5.2943397E+001 0.0 0.0  3.4595103E+001 0.0 0.0  4.0015935E+001 0.0 0.0  4.8524915E+001 0.0 0.0  2.7172552E+001 0.0 0.0  1.3658221E+001 0.0 0.0  3.3445346E+001 0.0 0.0 -3.5755893E+000 0.0 0.0 -5.5225363E+000 0.0 0.0  5.8490337E-001 0.0 0.0 -1.4088085E+001 0.0 0.0 -4.9939154E+001 0.0 0.0 -1.7307673E+001 0.0 0.0 -7.4880295E+001 0.0 0.0 -6.4560673E+001 0.0 0.0 -8.3184205E+001 0.0 0.0 -1.1962169E+002 0.0 0.0 -6.9896573E+001 0.0 0.0 -1.1564070E+002 0.0 0.0 -1.5242586E+002 0.0 0.0 -1.6220244E+002 0.0 0.0 -1.9752261E+002 0.0 0.0 -1.3709864E+002 0.0 0.0 -1.9135149E+002 0.0 0.0 -2.5560646E+002 0.0 0.0 -2.4852014E+002 0.0 0.0 -3.1126799E+002 0.0 0.0 -2.3587701E+002 0.0 0.0 -2.7666016E+002 0.0 0.0 -3.8174635E+002 0.0 0.0 -3.9112136E+002 0.0 0.0 -4.2055101E+002 0.0 0.0 -4.9252183E+002 0.0 0.0 -3.6877175E+002 0.0 0.0 -4.1439573E+002 0.0 0.0 -6.4045050E+002 0.0 0.0 -6.3808425E+002 0.0 0.0 -6.2429238E+002 0.0 0.0 -7.0707659E+002 0.0 0.0 -8.1104667E+002 0.0 0.0 -8.8637230E+002 0.0 0.0 -6.3536548E+002 0.0 0.0 -6.1963949E+002 0.0 0.0 -9.2025736E+002 0.0 0.0 -9.7490241E+002 0.0 0.0 -1.0029942E+003 0.0 0.0 -9.4682848E+002 0.0 0.0 -1.0457267E+003 0.0 0.0 -1.0898930E+003 0.0 0.0 -1.1537571E+003 0.0 0.0 -8.9676459E+002 0.0 0.0 -8.4162191E+002 0.0 0.0 -1.3104730E+003 0.0 0.0 -1.1609062E+003 0.0 0.0 -1.0415751E+003 0.0 0.0 -1.0862333E+003 0.0 0.0 -1.0957187E+003 0.0 0.0 -1.0259018E+003 0.0 0.0 -8.8153905E+002 0.0 0.0 -7.6810723E+002 0.0 0.0 -6.8442059E+002 0.0 0.0 -2.2399598E+002 0.0 0.0 -1.3178368E+002 0.0 0.0 -9.1104140E+001 0.0 0.0 -6.0765176E+001 0.0 0.0 -4.9803646E+001 0.0 0.0  6.9506196E+000 0.0 0.0 -5.5807862E+003 0.0 0.0  1.0259810E+003 0.0 0.0 -2.8645316E+002 0.0 0.0  1.3625416E+005 0.0 0.0  5.1708704E+004 0.0 0.0  7.7875229E+004 0.0 0.0  1.7218679E+005 0.0 0.0  3.3171168E+004 0.0 0.0  2.9345575E+005 0.0 0.0  1.1913686E+004 0.0 0.0  6.5063103E+004 0.0 0.0  3.3763432E+004 0.0 0.0  2.1276158E+004 0.0 0.0  5.9887260E+005 0.0 0.0  1.0556022E+005 0.0 0.0  2.0376825E+005 0.0 0.0  2.7786801E+005 0.0 0.0  2.5766394E+004 0.0 0.0  3.9233377E+005 0.0 0.0  4.3488106E+003 0.0 0.0  6.0661304E+005 0.0 0.0  5.7472982E+005 0.0 0.0  4.7796490E+004 0.0 0.0  1.6434606E+004 0.0 0.0  3.6485201E+005 0.0 0.0  2.6358557E+004 0.0 0.0  1.0766119E+005 0.0 0.0  6.3908527E+003 0.0 0.0  6.4531610E+004 0.0 0.0  2.3485107E+003 0.0 0.0  4.0491329E+003 0.0 0.0  5.3650116E+005 0.0 0.0  9.7621516E+002 0.0 0.0  4.5527342E+005 0.0 0.0  4.2571570E+005 0.0 0.0  9.2285872E+003 0.0 0.0  8.2300466E+004 0.0 0.0  3.9699103E+004 0.0 0.0  6.1233925E+005 0.0 0.0  1.3402243E+005 0.0 0.0  5.4741117E+005 0.0 0.0  5.8822163E+005 0.0 0.0  2.1888217E+005 0.0 0.0  3.4168468E+005 0.0 0.0  3.0892197E+004 0.0 0.0  4.4821304E+004 0.0 0.0  1.6696179E+004 0.0 0.0  2.3675422E+005 0.0 0.0  1.6470991E+005 0.0 0.0  8.9328257E+004 0.0 0.0  9.4933124E+002 0.0 0.0  4.9100484E+003 0.0 0.0  4.8714026E+002 0.0 0.0  3.8760938E+005 0.0 0.0  4.8186349E+005 0.0 0.0  3.7983925E+003 0.0 0.0  2.8683797E+003 0.0 0.0  7.4892047E+003 0.0 0.0  1.0944897E+004 0.0 0.0  1.4656473E+004 0.0 0.0  1.0167771E+004 0.0 0.0  1.6023062E+004 0.0 0.0  2.3136408E+004 0.0 0.0  2.5221076E+004 0.0 0.0  1.8507294E+004 0.0 0.0  2.6866519E+004 0.0 0.0  1.9543680E+004 0.0 0.0  2.7647463E+004 0.0 0.0  3.7309178E+004 0.0 0.0  3.7867391E+004 0.0 0.0  2.7190981E+004 0.0 0.0  3.4835432E+004 0.0 0.0  5.1271770E+004 0.0 0.0  4.9277606E+004 0.0 0.0  3.5092809E+004 0.0 0.0  4.7408442E+004 0.0 0.0  3.3327273E+004 0.0 0.0  4.4725948E+004 0.0 0.0  6.2818210E+004 0.0 0.0  5.9511083E+004 0.0 0.0  4.3131160E+004 0.0 0.0  5.7381202E+004 0.0 0.0  4.3114197E+004 0.0 0.0  5.7398402E+004 0.0 0.0  7.5813546E+004 0.0 0.0  8.1481285E+004 0.0 0.0  6.0835020E+004 0.0 0.0  8.4495029E+004 0.0 0.0  1.1106738E+005 0.0 0.0  1.1759124E+005 0.0 0.0  9.6291799E+004 0.0 0.0  1.3432416E+005 0.0 0.0  1.1824247E+005 0.0 0.0  1.6328216E+005 0.0 0.0  1.8882030E+005 0.0 0.0  2.2734376E+005 0.0 0.0  2.0561609E+005 0.0 0.0  2.7612295E+005 0.0 0.0  3.0566226E+005 0.0 0.0  3.5981806E+005 0.0 0.0  3.3556370E+005 0.0 0.0  8.2679039E+004 0.0 0.0  8.1878826E+004 0.0 0.0  1.4853673E+005 0.0 0.0  3.8826603E+005 0.0 0.0  4.4581843E+005 0.0 0.0  3.3099641E+004 0.0 0.0  1.3946203E+005 0.0 0.0  3.2958109E+005 0.0 0.0  2.8906621E+004 0.0 0.0  2.6875694E+004 0.0 0.0  1.3723201E+004 0.0 0.0  1.4758124E+004 0.0 0.0  4.6832209E+005 0.0 0.0  8.9180178E+004 0.0 0.0  1.1294806E+005 0.0 0.0  2.6785745E+004 0.0 0.0  5.2195202E+005 0.0 0.0  5.0499463E+005 0.0 0.0  9.6971222E+004 0.0 0.0  9.4293540E+004 0.0 0.0  5.3058720E+005 0.0 0.0  1.6988677E+005 0.0 0.0  3.6941900E+004 0.0 0.0  1.0770649E+004 0.0 0.0  1.6142265E+005 0.0 0.0  2.3658887E+004 0.0 0.0  3.2195388E+004 0.0 0.0  1.2455870E+004 0.0 0.0  5.7553520E+005 0.0 0.0  5.7139995E+005 0.0 0.0  4.7713816E+005 0.0 0.0  9.2302400E+004 0.0 0.0  2.5117998E+004 0.0 0.0  2.4947071E+004 0.0 0.0  2.5893872E+004 0.0 0.0  1.1565954E+005 0.0 0.0  1.0393177E+005 0.0 0.0  1.0907805E+005 0.0 0.0  3.4605007E+004 0.0 0.0  3.7216570E+004 0.0 0.0  3.3182391E+004 0.0 0.0  3.7464680E+004 0.0 0.0  7.4252407E+004 0.0 0.0  6.0639920E+005 0.0 0.0  9.7508622E+004 0.0 0.0  9.1104142E+004 0.0 0.0  2.2583654E+004 0.0 0.0  2.1517205E+004 0.0 0.0  1.9950868E+004 0.0 0.0  1.5117608E+004 0.0 0.0  3.8309703E+004 0.0 0.0  4.3610258E+004 0.0 0.0  9.8629174E+003 0.0 0.0  1.3630336E+005 0.0 0.0  1.4926155E+005 0.0 0.0  6.0975480E+005 0.0 0.0  1.3252586E+005 0.0 0.0  8.0276056E+004 0.0 0.0  6.5946851E+004 0.0 0.0  4.1063730E+004 0.0 0.0  4.3302107E+004 0.0 0.0  1.8277747E+005 0.0 0.0  1.9788947E+005 0.0 0.0  8.2812760E+003 0.0 0.0  7.1471074E+003 0.0 0.0  1.3822410E+004 0.0 0.0  1.3801544E+005 0.0 0.0  5.8859853E+005 0.0 0.0  1.4302670E+005 0.0 0.0  1.6697153E+005 0.0 0.0  1.3995384E+005 0.0 0.0  1.1007475E+005 0.0 0.0  5.4924122E+005 0.0 0.0  1.9905337E+005 0.0 0.0  2.2327686E+005 0.0 0.0  2.1669105E+005 0.0 0.0  2.4693020E+005 0.0 0.0  3.5524968E+004 0.0 0.0  3.1484235E+004 0.0 0.0  1.7336239E+005 0.0 0.0  2.0077208E+005 0.0 0.0  2.0237417E+004 0.0 0.0  2.0047194E+004 0.0 0.0  8.9937272E+004 0.0 0.0  8.6133010E+004 0.0 0.0  8.2970457E+004 0.0 0.0  8.0249363E+004 0.0 0.0  7.9401818E+004 0.0 0.0  7.5938671E+004 0.0 0.0  1.1747712E+005 0.0 0.0  6.4090959E+003 0.0 0.0  5.2364114E+003 0.0 0.0  7.6431539E+003 0.0 0.0  4.8478621E+003 0.0 0.0  3.7856158E+003 0.0 0.0  4.2346039E+003 0.0 0.0  2.8462281E+003 0.0 0.0  2.0084887E+004 0.0 0.0  1.8270340E+004 0.0 0.0  1.1461527E+005 0.0 0.0  1.8196342E+004 0.0 0.0  3.2871150E+003 0.0 0.0  2.3792903E+005 0.0 0.0  2.7376538E+005 0.0 0.0  2.7152224E+005 0.0 0.0  3.0402630E+005 0.0 0.0  4.1998638E+004 0.0 0.0  4.8479205E+004 0.0 0.0  4.8425072E+004 0.0 0.0  5.4484630E+004 0.0 0.0  3.5696402E+004 0.0 0.0  5.2620740E+004 0.0 0.0  5.9459767E+004 0.0 0.0  5.8320325E+004 0.0 0.0  1.2021924E+004 0.0 0.0  5.5881440E+004 0.0 0.0  7.3242982E+004 0.0 0.0  6.1340597E+004 0.0 0.0  5.3391637E+004 0.0 0.0  2.3690243E+004 0.0 0.0  1.7996897E+005 0.0 0.0  2.2291845E+004 0.0 0.0  1.4884734E+005 0.0 0.0  7.3043931E+004 0.0 0.0  1.2460811E+005 0.0 0.0  1.3787096E+004 0.0 0.0  6.1058112E+005 0.0 0.0  5.7901486E+005 0.0 0.0  6.4477180E+004 0.0 0.0  2.7599758E+004 0.0 0.0  1.9660058E+005 0.0 0.0  2.3351042E+005 0.0 0.0  2.3840185E+005 0.0 0.0  2.7479854E+005 0.0 0.0  2.7878326E+005 0.0 0.0  3.1904961E+005 0.0 0.0  3.1592419E+005 0.0 0.0  3.6348037E+005 0.0 0.0  3.7140022E+005 0.0 0.0  4.1720265E+005 0.0 0.0  4.2844036E+005 0.0 0.0  4.8095317E+005 0.0 0.0  4.8994287E+005 0.0 0.0  4.5980921E+005 0.0 0.0  5.0774402E+005 0.0 0.0  4.8901339E+005 0.0 0.0  4.4364217E+005 0.0 0.0  3.5267367E+005 0.0 0.0  4.4330930E+005 0.0 0.0  5.0577078E+005 0.0 0.0  5.4205588E+005 0.0 0.0  5.5804159E+005 0.0 0.0  2.6794184E+005 0.0 0.0  7.1839514E+004 0.0 0.0  8.7220047E+004 0.0 0.0  4.3845078E+004 0.0 0.0  5.2889673E+005 0.0 0.0  5.4368801E+005 0.0 0.0  5.0471768E+003 0.0 0.0  8.5271713E+003 0.0 0.0  1.3431143E+005 0.0 0.0  1.5125920E+004 0.0 0.0  1.5234460E+004 0.0 0.0  1.4229690E+004 0.0 0.0  1.2996846E+005 0.0 0.0  3.4593389E+004 0.0 0.0  3.0697597E+004 0.0 0.0  9.0351149E+004 0.0 0.0  2.8666672E+005 0.0 0.0  3.2455446E+005 0.0 0.0  3.3891959E+005 0.0 0.0  3.6447643E+005 0.0 0.0  3.7843639E+005 0.0 0.0  4.0706159E+005 0.0 0.0  4.6267264E+005 0.0 0.0  5.0891574E+005 0.0 0.0  1.1197378E+005 0.0 0.0  1.0022354E+005 0.0 0.0  5.9345105E+004 0.0 0.0  2.0370371E+005 0.0 0.0  4.5470474E+004 0.0 0.0  1.5321625E+004 0.0 0.0  2.0660503E+005 0.0 0.0  5.1281808E+004 0.0 0.0  2.0523224E+003 0.0 0.0  1.7279876E+003 0.0 0.0  6.8349559E+004 0.0 0.0  5.8211016E+004 0.0 0.0  3.9569634E+004 0.0 0.0  3.7936746E+005 0.0 0.0  4.2676734E+005 0.0 0.0  3.7894346E+003 0.0 0.0  5.8099262E+005 0.0 0.0  5.6481621E+005 0.0 0.0  5.9209974E+005 0.0 0.0  5.7585506E+005 0.0 0.0  6.0593002E+005 0.0 0.0  5.9467715E+005 0.0 0.0  2.1529632E+004 0.0 0.0  7.9678354E+004 0.0 0.0  7.0090903E+004 0.0 0.0  3.1288090E+005 0.0 0.0  1.1589742E+005 0.0 0.0  6.3949159E+004 0.0 0.0  9.8570280E+003 0.0 0.0  3.4274312E+004 0.0 0.0  3.0346117E+004 0.0 0.0  4.2775492E+005 0.0 0.0  6.1421664E+005 0.0 0.0  6.6349497E+004 0.0 0.0  5.0835665E+004 0.0 0.0  3.3290731E+004 0.0 0.0  2.5159346E+005 0.0 0.0  2.4355450E+005 0.0 0.0  2.2241285E+005 0.0 0.0  5.6125949E+004 0.0 0.0  4.0165154E+005 0.0 0.0  2.3451379E+004 0.0 0.0  2.4777671E+004 0.0 0.0  2.5804323E+004 0.0 0.0  2.8006226E+004 0.0 0.0  7.9965880E+004 0.0 0.0  6.9241227E+004 0.0 0.0  3.5202265E+004 0.0 0.0  2.8487391E+004 0.0 0.0  3.0431857E+004 0.0 0.0  2.7324098E+004 0.0 0.0  1.5119326E+005 0.0 0.0  1.7829789E+005 0.0 0.0  1.7490589E+004 0.0 0.0  1.8667670E+004 0.0 0.0  6.1255848E+003 0.0 0.0  7.8363560E+003 0.0 0.0  9.2268524E+003 0.0 0.0  1.0480308E+004 0.0 0.0  6.6172660E+004 0.0 0.0  1.8548782E+005 0.0 0.0  4.8318343E+003 0.0 0.0  8.1083710E+004 0.0 0.0  2.7515705E+005 0.0 0.0  2.4531557E+005 0.0 0.0  2.1022162E+005 0.0 0.0  1.6201904E+005 0.0 0.0  1.5066421E+005 0.0 0.0  1.2236109E+004 0.0 0.0  1.4438180E+004 0.0 0.0  6.2390027E+005 0.0 0.0  6.1077287E+005 0.0 0.0  6.2564067E+005 0.0 0.0  3.3899124E+005 0.0 0.0  4.1014080E+004 0.0 0.0  4.7802362E+004 0.0 0.0  1.9419501E+004 0.0 0.0  1.9593854E+004 0.0 0.0  9.9571674E+004 0.0 0.0  1.1430763E+005 0.0 0.0  2.6626581E+004 0.0 0.0  5.6779609E+005 0.0 0.0  9.9757734E+004 0.0 0.0  5.2594294E+005 0.0 0.0  5.0102475E+005 0.0 0.0  5.0351026E+005 0.0 0.0  4.7883575E+005 0.0 0.0  4.4326408E+005 0.0 0.0  5.2875550E+005 0.0 0.0  1.5103632E+005 0.0 0.0  3.5452105E+003 0.0 0.0  2.6436743E+003 0.0 0.0  2.3958617E+004 0.0 0.0  4.2855441E+005 0.0 0.0  5.5334701E+005 0.0 0.0  5.4943003E+005 0.0 0.0  4.0014909E+005 0.0 0.0  4.2744797E+005 0.0 0.0  4.6614654E+005 0.0 0.0  2.5059475E+005 0.0 0.0  4.5062122E+004 0.0 0.0  3.3210477E+005 0.0 0.0  5.1839939E+005 0.0 0.0  5.3662478E+005 0.0 0.0  1.7520910E+003 0.0 0.0  2.9340236E+004 0.0 0.0  5.3580410E+005 0.0 0.0  1.9828592E+004 0.0 0.0  1.2841750E+005 0.0 0.0  3.0322772E+004 0.0 0.0  1.6065624E+004 0.0 0.0  1.5833135E+004 0.0 0.0  1.7577223E+004 0.0 0.0  6.0127987E+005 0.0 0.0  6.0966071E+005 0.0 0.0  7.0320675E+004 0.0 0.0  6.5296221E+004 0.0 0.0  1.0421673E+004 0.0 0.0  2.6185105E+005 0.0 0.0  8.4888976E+004 0.0 0.0  7.8755285E+004 0.0 0.0  5.9099812E+004 0.0 0.0  9.6352986E+003 0.0 0.0  1.3554438E+005 0.0 0.0  4.6943307E+004 0.0 0.0  2.2361386E+004 0.0 0.0  5.1575246E+005 0.0 0.0  4.9191641E+005 0.0 0.0  5.0883226E+004 0.0 0.0  5.5202721E+005 0.0 0.0  1.1783881E+005 0.0 0.0  5.1883755E+003 0.0 0.0  5.0136046E+003 0.0 0.0  2.0016971E+003 0.0 0.0  3.2506221E+002 0.0 0.0  8.9560989E+002 0.0 0.0  2.6015294E+005 0.0 0.0  3.2527380E+005 0.0 0.0  4.0264685E+004 0.0 0.0  1.1575302E+005 0.0 0.0  9.8316999E+004 0.0 0.0  6.6954044E+002 0.0 0.0  4.5749553E+004 0.0 0.0  5.1857408E+004 0.0 0.0  5.6459765E+004 0.0 0.0  4.8115471E+005 0.0 0.0  4.0723526E+005 0.0 0.0  5.8010463E+005 0.0 0.0  3.9563627E+005 0.0 0.0  5.2859206E+004 0.0 0.0  1.3525277E+005 0.0 0.0  1.1478347E+005 0.0 0.0  9.9287320E+004 0.0 0.0  1.1671427E+005 0.0 0.0  7.3855454E+004 0.0 0.0  1.6798792E+005 0.0 0.0  5.8354889E+005 0.0 0.0  8.5052575E+004 0.0 0.0  6.7065844E+004 0.0 0.0  1.0662009E+005 0.0 0.0  6.3045862E+003 0.0 0.0  1.1407334E+004 0.0 0.0  4.9156751E+005 0.0 0.0  3.2315647E+004 0.0 0.0  1.7660463E+005 0.0 0.0  4.0198310E+004 0.0 0.0  1.3673757E+005 0.0 0.0  5.1422009E+005 0.0 0.0  5.3642553E+005 0.0 0.0  5.7779276E+005 0.0 0.0  5.6325241E+005 0.0 0.0  2.9324399E+004 0.0 0.0  2.2918122E+005 0.0 0.0  3.4305218E+005 0.0 0.0  5.6199798E+005 0.0 0.0  2.9824108E+005 0.0 0.0  2.9572065E+005 0.0 0.0  2.6665485E+004 0.0 0.0  2.5458529E+005 0.0 0.0  3.5502740E+004 0.0 0.0  3.8135658E+004 0.0 0.0  4.3433223E+005 0.0 0.0  1.3865121E+005 0.0 0.0  5.5630733E+004 0.0 0.0  1.2362807E+005 0.0 0.0  1.6139914E+005 0.0 0.0  1.0784352E+005 0.0 0.0  4.6783736E+003 0.0 0.0  2.8962162E+004 0.0 0.0  4.9620127E+004 0.0 0.0  2.3510767E+005 0.0 0.0  1.1515687E+004 0.0 0.0  2.8703305E+005 0.0 0.0  1.7296901E+004 0.0 0.0  2.0958868E+004 0.0 0.0  1.2728701E+004 0.0 0.0  6.5928273E+004 0.0 0.0  3.7141194E+004 0.0 0.0  3.0558480E+005 0.0 0.0  3.7141181E+003 0.0 0.0  7.7617891E+004 0.0 0.0  4.9507382E+005 0.0 0.0  6.1199325E+004 0.0 0.0  2.1615288E+004 0.0 0.0  1.7035555E+005 0.0 0.0  3.7674001E+005 0.0 0.0  4.4959727E+005 0.0 0.0  2.2352431E+004 0.0 0.0  1.1159168E+005 0.0 0.0  9.6526561E+004 0.0 0.0  1.4666690E+004 0.0 0.0  8.3450296E+004 0.0 0.0  2.5371149E+004 0.0 0.0  1.6592595E+005 0.0 0.0  6.2116756E+005 0.0 0.0  4.0812864E+005 0.0 0.0  2.8632237E+003 0.0 0.0  1.3129175E+004 0.0 0.0  6.4187456E+003 0.0 0.0  5.2869684E+005 0.0 0.0  1.8358520E+004 0.0 0.0  1.8186721E+005 0.0 0.0  2.2384897E+003 0.0 0.0  5.0221292E+004 0.0 0.0  9.4494471E+004 0.0 0.0  3.9379889E+005 0.0 0.0  1.3374785E+004 0.0 0.0  6.0730869E+003 0.0 0.0  1.1458161E+004 0.0 0.0  3.4014049E+005 0.0 0.0  1.0760284E+004 0.0 0.0  9.1938303E+004 0.0 0.0  6.0182459E+002 0.0 0.0  4.1810859E+004 0.0 0.0  2.0359375E+005 0.0 0.0  1.8619558E+005 0.0 0.0  1.7290880E+004 0.0 0.0  6.3561686E+004 0.0 0.0  1.1531523E+003 0.0 0.0  3.8053542E+005 0.0 0.0  2.1950409E+005 0.0 0.0  4.6821340E+004 0.0 0.0  5.6065364E+005 0.0 0.0  6.3189388E+004 0.0 0.0  5.3726199E+004 0.0 0.0  1.9796859E+005 0.0 0.0  3.5431711E+004 0.0 0.0  4.9850379E+005 0.0 0.0  2.6868543E+005 0.0 0.0  1.5489562E+005 0.0 0.0  4.5669510E+005 0.0 0.0  7.4772912E+004 0.0 0.0  3.9420387E+005 0.0 0.0  5.7993677E+005 0.0 0.0  3.8466736E+004 0.0 0.0  1.0180569E+005 0.0 0.0  3.0279894E+004 0.0 0.0  2.0377839E+004 0.0 0.0  7.0666281E+004 0.0 0.0  1.0935623E+005 0.0 0.0  4.3808616E+003 0.0 0.0  3.7470733E+004 0.0 0.0  2.6737038E+005 0.0 0.0  1.4470628E+005 0.0 0.0  4.4228883E+005 0.0 0.0  2.4962055E+004 0.0 0.0  9.6957448E+003 0.0 0.0  6.4965547E+004 0.0 0.0  4.8828558E+004 0.0 0.0  1.2345829E+005 0.0 0.0  3.3835936E+005 0.0 0.0  1.3190220E+003 0.0 0.0  1.0107767E+005 0.0 0.0  7.3925576E+004 0.0 0.0  1.6707606E+004 0.0 0.0  2.9852737E+005 0.0 0.0  1.7684783E+004 0.0 0.0  1.9111045E+004 0.0 0.0  6.2015105E+005 0.0 0.0  1.1988139E+005 0.0 0.0  4.2084892E+004 0.0 0.0  1.2260871E+004 0.0 0.0  4.7944518E+005 0.0 0.0  3.9263611E+005 0.0 0.0  6.1562005E+005 0.0 0.0  6.0025460E+005 0.0 0.0  3.4628606E+005 0.0 0.0  5.5356509E+005 0.0 0.0  5.4121231E+005 0.0 0.0  1.0796726E+004 0.0 0.0  4.2856384E+004 0.0 0.0  5.3320997E+004 0.0 0.0  4.6683474E+005 0.0 0.0  3.3989716E+005 0.0 0.0  6.1889059E+005 0.0 0.0  7.2862115E+004 0.0 0.0  4.2996290E+004 0.0 0.0  2.5614222E+004 0.0 0.0  4.6310616E+004 0.0 0.0  6.8896147E+003 0.0 0.0  3.7810768E+005 0.0 0.0  6.0824343E+004 0.0 0.0  1.9088328E+004 0.0 0.0  1.0202622E+004 0.0 0.0  1.3262761E+005 0.0 0.0  9.5658891E+004 0.0 0.0  2.0670699E+004 0.0 0.0  1.9800443E+005 0.0 0.0  5.6564726E+004 0.0 0.0  7.7368610E+004 0.0 0.0  6.4263828E+004 0.0 0.0  1.3770742E+004 0.0 0.0  7.4645236E+003 0.0 0.0  1.0323812E+004 0.0 0.0  4.2436447E+005 0.0 0.0  6.7428991E+003 0.0 0.0  2.8209947E+004 0.0 0.0  4.6369741E+004 0.0 0.0  3.0411687E+005 0.0 0.0  2.3778399E+005 0.0 0.0  1.7419016E+005 0.0 0.0  1.6495107E+005 0.0 0.0  3.5036905E+002 0.0 0.0  2.0249288E+003 0.0 0.0  6.4871350E+004 0.0 0.0  2.9087144E+005 0.0 0.0  2.5699235E+004 0.0 0.0  2.3885720E+004 0.0 0.0  1.6119825E+003 0.0 0.0  1.4107447E+003 0.0 0.0  2.9729341E+004 0.0 0.0  7.1246517E+004 0.0 0.0  5.4029315E+005 0.0 0.0  8.4655716E+004 0.0 0.0  5.2486724E+005 0.0 0.0  5.7719419E+004 0.0 0.0  3.3164576E+005 0.0 0.0  5.8292306E+005 0.0 0.0  5.8103254E+005 0.0 0.0  3.6904157E+005 0.0 0.0  2.2246669E+005 0.0 0.0  3.2063994E+004 0.0 0.0  1.0049753E+005 0.0 0.0  9.0476173E+003 0.0 0.0  1.7335680E+005 0.0 0.0  3.8412024E+005 0.0 0.0  1.6238556E+005 0.0 0.0  3.4006781E+004 0.0 0.0  1.9606174E+004 0.0 0.0  5.8748888E+004 0.0 0.0  1.2168849E+005 0.0 0.0  2.2206385E+005 0.0 0.0  1.1827531E+004 0.0 0.0  2.4652617E+004 0.0 0.0  3.4141626E+004 0.0 0.0 -1.2218030E+002 0.0 0.0 -4.1822384E+001 0.0 0.0  3.8203437E+002 0.0 0.0  1.8002113E+003 0.0 0.0  5.7385182E+003 0.0 0.0  6.5504884E+003 0.0 0.0  1.1573419E+004 0.0 0.0  2.4770625E+004 0.0 0.0  2.1531481E+004 0.0 0.0  1.0880944E+004 0.0 0.0 -1.1549271E+002 0.0 0.0  2.2437705E+003 0.0 0.0 -2.2324308E+005 0.0 0.0 -3.4855669E+003 0.0 0.0  1.1720424E+001 0.0 0.0  1.5125648E+004 0.0 0.0 -1.6052985E+005 0.0 0.0  3.1017585E+004 0.0 0.0  1.0224597E+004 0.0 0.0 -8.9990172E+002 0.0 0.0 -2.0132495E+004 0.0 0.0 -1.8386628E+005 0.0 0.0 -2.7955164E+005 0.0 0.0 -1.3220735E+005 0.0 0.0 -5.5987913E+004 0.0 0.0 -7.1921183E+001 0.0 0.0  1.0347582E+004 0.0 0.0 -1.0721725E+005 0.0 0.0  1.2484689E+004 0.0 0.0 -3.7404388E+002 0.0 0.0 -2.2099527E+005 0.0 0.0 -9.1044090E+004 0.0 0.0 -1.6254987E+005 0.0 0.0 -3.0488136E+005 0.0 0.0  2.3563617E+004 0.0 0.0  1.3038529E+004 0.0 0.0  1.0559410E+004 0.0 0.0  2.6556925E+004 0.0 0.0  2.4864144E+004 0.0 0.0 -1.1940319E+002 0.0 0.0  8.2242050E+003 0.0 0.0 -2.1398258E+002 0.0 0.0 -1.6378880E+002 0.0 0.0  2.7698127E+003 0.0 0.0  2.0520884E+002 0.0 0.0  1.0165933E+003 0.0 0.0 -4.5811352E+004 0.0 0.0 -1.2918530E+002 0.0 0.0 -2.2789354E+004 0.0 0.0 -8.5167021E+004 0.0 0.0 -3.3254504E+005 0.0 0.0  1.0023370E+004 0.0 0.0 -5.5521895E+000 0.0 0.0  1.0088994E+004 0.0 0.0  1.2866422E+004 0.0 0.0  1.2584110E+004 0.0 0.0  1.4613232E+004 0.0 0.0  1.4809636E+004 0.0 0.0  1.6099823E+004 0.0 0.0  1.5934725E+004 0.0 0.0  1.7239984E+004 0.0 0.0  1.6815775E+004 0.0 0.0  1.7969094E+004 0.0 0.0  1.7262115E+004 0.0 0.0  1.7948184E+004 0.0 0.0  1.7087385E+004 0.0 0.0  1.7424628E+004 0.0 0.0  1.6151295E+004 0.0 0.0  1.5720217E+004 0.0 0.0  1.4064895E+004 0.0 0.0  1.2674137E+004 0.0 0.0  1.0484542E+004 0.0 0.0  7.5295820E+003 0.0 0.0  4.8340848E+003 0.0 0.0 -5.1752704E+002 0.0 0.0 -3.6540379E+003 0.0 0.0 -1.1402363E+004 0.0 0.0 -1.7215494E+004 0.0 0.0 -7.6075803E+003 0.0 0.0 -2.4059314E+004 0.0 0.0 -1.4020299E+004 0.0 0.0 -3.2562449E+004 0.0 0.0 -2.2391256E+004 0.0 0.0 -4.3548192E+004 0.0 0.0 -3.2732549E+004 0.0 0.0 -5.6314909E+004 0.0 0.0 -6.0312190E+003 0.0 0.0 -1.8953533E+004 0.0 0.0 -1.4675323E+004 0.0 0.0 -2.7315097E+004 0.0 0.0 -2.4400398E+004 0.0 0.0 -3.6070047E+004 0.0 0.0 -3.2286747E+004 0.0 0.0 -3.9788885E+004 0.0 0.0 -4.5946325E+004 0.0 0.0 -3.9794967E+004 0.0 0.0  1.6040007E+004 0.0 0.0 -4.5901976E+004 0.0 0.0 -4.7244321E+003 0.0 0.0 -2.7247723E+004 0.0 0.0 -3.3179497E+004 0.0 0.0  1.4950892E+004 0.0 0.0 -4.7398473E+004 0.0 0.0 -4.1533701E+004 0.0 0.0 -3.0036307E+004 0.0 0.0 -3.6455534E+004 0.0 0.0 -2.6086094E+004 0.0 0.0 -3.0087892E+004 0.0 0.0 -4.2933253E+004 0.0 0.0 -3.7360758E+004 0.0 0.0 -2.6487331E+004 0.0 0.0 -3.2235178E+004 0.0 0.0 -2.2619058E+004 0.0 0.0 -2.6101695E+004 0.0 0.0 -3.7587268E+004 0.0 0.0 -3.2397631E+004 0.0 0.0 -5.0919755E+004 0.0 0.0 -2.2598956E+004 0.0 0.0 -2.7435817E+004 0.0 0.0 -3.7906270E+004 0.0 0.0 -3.0504672E+004 0.0 0.0 -4.2864838E+004 0.0 0.0 -3.5591192E+004 0.0 0.0 -2.5998203E+004 0.0 0.0 -2.9270298E+004 0.0 0.0 -2.1444269E+004 0.0 0.0 -2.4065426E+004 0.0 0.0 -7.1780828E+004 0.0 0.0 -2.0846955E+004 0.0 0.0 -1.8602344E+004 0.0 0.0  1.8637257E+004 0.0 0.0 -3.2664422E+004 0.0 0.0 -2.6418501E+004 0.0 0.0 -4.9686219E+004 0.0 0.0 -1.8697874E+004 0.0 0.0 -2.1014061E+004 0.0 0.0 -2.8262997E+004 0.0 0.0 -2.2317562E+004 0.0 0.0 -2.9559051E+004 0.0 0.0 -2.3158000E+004 0.0 0.0 -1.7730878E+004 0.0 0.0 -1.7972477E+004 0.0 0.0 -2.3189016E+004 0.0 0.0 -1.7799561E+004 0.0 0.0 -1.3573249E+004 0.0 0.0 -1.3471379E+004 0.0 0.0 -1.7175871E+004 0.0 0.0 -1.2503999E+004 0.0 0.0 -1.6101005E+004 0.0 0.0 -1.1685715E+004 0.0 0.0 -1.5264688E+004 0.0 0.0 -9.0768629E+003 0.0 0.0 -8.4276128E+003 0.0 0.0 -5.8104014E+004 0.0 0.0 -1.5306666E+004 0.0 0.0 -6.2060812E+004 0.0 0.0 -1.3076015E+004 0.0 0.0 -9.9481034E+003 0.0 0.0 -9.9788897E+003 0.0 0.0 -1.4216760E+004 0.0 0.0  1.8083890E+004 0.0 0.0 -8.6813782E+004 0.0 0.0 -2.0809862E+004 0.0 0.0 -4.0182807E+004 0.0 0.0 -1.0452146E+005 0.0 0.0 -5.6404402E+004 0.0 0.0 -1.7403666E+004 0.0 0.0 -6.2929590E+003 0.0 0.0 -6.0302009E+003 0.0 0.0 -3.7583461E+004 0.0 0.0 -3.8547450E+004 0.0 0.0 -7.4089114E+003 0.0 0.0 -5.2824207E+003 0.0 0.0 -5.1059947E+004 0.0 0.0 -1.4640476E+004 0.0 0.0 -1.2636550E+003 0.0 0.0 -1.1606061E+004 0.0 0.0 -1.3131141E+004 0.0 0.0 -6.4022202E+004 0.0 0.0 -7.4259039E+003 0.0 0.0 -1.0574716E+004 0.0 0.0 -4.2536651E+003 0.0 0.0 -3.4801129E+003 0.0 0.0 -4.3487070E+003 0.0 0.0  1.6243622E+004 0.0 0.0 -6.9327315E+003 0.0 0.0 -2.9518731E+003 0.0 0.0 -7.8682805E+003 0.0 0.0 -8.2512805E+003 0.0 0.0 -5.7086557E+004 0.0 0.0  1.2421249E+004 0.0 0.0 -3.8690984E+004 0.0 0.0  1.6220035E+004 0.0 0.0 -1.2470985E+005 0.0 0.0 -1.4451685E+005 0.0 0.0 -6.6990006E+003 0.0 0.0 -4.8564014E+003 0.0 0.0 -4.9228452E+003 0.0 0.0 -1.0138936E+004 0.0 0.0 -2.3215819E+003 0.0 0.0 -1.9162866E+003 0.0 0.0 -5.1245032E+003 0.0 0.0 -8.8638595E+003 0.0 0.0 -3.9530286E+004 0.0 0.0 -1.0313680E+004 0.0 0.0 -6.2973409E+003 0.0 0.0 -9.1907347E+003 0.0 0.0 -7.6548468E+004 0.0 0.0 -8.6808811E+004 0.0 0.0 -1.0689186E+004 0.0 0.0 -6.7335250E+003 0.0 0.0 -8.6840573E+003 0.0 0.0 -1.2533459E+005 0.0 0.0 -4.8680391E+003 0.0 0.0 -6.7626762E+003 0.0 0.0 -8.2771687E+003 0.0 0.0 -9.0647886E+003 0.0 0.0 -6.3358372E+003 0.0 0.0 -8.2449615E+003 0.0 0.0 -5.6089309E+003 0.0 0.0 -1.7170100E+004 0.0 0.0  1.5016268E+004 0.0 0.0  1.6343772E+004 0.0 0.0 -5.6257054E+004 0.0 0.0 -7.7134295E+004 0.0 0.0 -3.1584382E+003 0.0 0.0 -5.8597249E+003 0.0 0.0 -4.6658252E+002 0.0 0.0 -3.1552780E+003 0.0 0.0  1.9619015E+003 0.0 0.0 -8.3023209E+002 0.0 0.0  3.8347070E+003 0.0 0.0 -5.9461748E+003 0.0 0.0  1.1558594E+003 0.0 0.0  5.7647546E+003 0.0 0.0  3.0421084E+003 0.0 0.0  7.2749582E+003 0.0 0.0 -1.7931345E+003 0.0 0.0  9.9649188E+003 0.0 0.0  1.0857931E+004 0.0 0.0  8.7166283E+003 0.0 0.0  1.2455290E+004 0.0 0.0  1.0016794E+004 0.0 0.0  1.3214535E+004 0.0 0.0  1.5379587E+004 0.0 0.0  1.5806703E+004 0.0 0.0  1.7629017E+004 0.0 0.0  1.7816255E+004 0.0 0.0  1.7612436E+004 0.0 0.0  1.1281012E+004 0.0 0.0  1.7343744E+004 0.0 0.0 -1.1373210E+004 0.0 0.0 -4.3313162E+003 0.0 0.0 -6.1992252E+003 0.0 0.0 -3.4646182E+003 0.0 0.0 -3.3761587E+003 0.0 0.0 -1.4873581E+003 0.0 0.0 -1.1944412E+003 0.0 0.0 -1.7075748E+003 0.0 0.0  1.9433215E+004 0.0 0.0  1.9356054E+004 0.0 0.0  1.7959050E+004 0.0 0.0  1.9262219E+004 0.0 0.0  2.0468669E+004 0.0 0.0  2.0199111E+004 0.0 0.0 -3.3177257E+003 0.0 0.0 -1.7043288E+005 0.0 0.0 -1.5080018E+005 0.0 0.0 -1.9222853E+005 0.0 0.0 -5.4293114E+003 0.0 0.0 -5.0616106E+003 0.0 0.0 -6.2070068E+003 0.0 0.0 -9.1504516E+003 0.0 0.0 -3.3788934E+003 0.0 0.0 -5.0739314E+003 0.0 0.0 -3.9042306E+003 0.0 0.0 -6.7833337E+003 0.0 0.0 -1.1721484E+004 0.0 0.0 -9.2011098E+003 0.0 0.0 -4.4864092E+003 0.0 0.0  1.8086691E+004 0.0 0.0  7.5537004E+003 0.0 0.0 -4.9125028E+003 0.0 0.0 -3.5062950E+003 0.0 0.0 -4.0923246E+004 0.0 0.0 -2.5907686E+004 0.0 0.0  1.3219625E+004 0.0 0.0 -8.6068919E+002 0.0 0.0 -3.5190035E+003 0.0 0.0 -1.4439347E+003 0.0 0.0 -5.8883529E+004 0.0 0.0 -6.5390065E+003 0.0 0.0 -8.6060254E+002 0.0 0.0 -5.5794163E+003 0.0 0.0 -3.4568778E+003 0.0 0.0  2.1336284E+004 0.0 0.0  2.0824937E+004 0.0 0.0  2.2060328E+004 0.0 0.0  1.9917928E+004 0.0 0.0  2.0348523E+004 0.0 0.0  2.1285390E+004 0.0 0.0  2.0570973E+004 0.0 0.0  1.9847169E+004 0.0 0.0  1.9874565E+004 0.0 0.0 -3.2909224E+003 0.0 0.0 -3.8681374E+003 0.0 0.0 -3.6544876E+003 0.0 0.0 -7.2291590E+003 0.0 0.0 -1.0456996E+003 0.0 0.0 -4.1491000E+003 0.0 0.0  2.0688016E+004 0.0 0.0  1.9714593E+004 0.0 0.0  1.7510836E+004 0.0 0.0 -4.9904877E+004 0.0 0.0 -5.1288959E+004 0.0 0.0  1.2774240E+004 0.0 0.0 -3.9434263E+003 0.0 0.0 -3.3266623E+003 0.0 0.0 -1.0652211E+004 0.0 0.0 -4.3446248E+003 0.0 0.0 -6.5859224E+003 0.0 0.0 -8.2515733E+002 0.0 0.0 -2.4752042E+003 0.0 0.0  8.3053201E+002 0.0 0.0 -2.8577453E+003 0.0 0.0 -8.2296707E+003 0.0 0.0 -2.1551388E+003 0.0 0.0 -1.1484881E+003 0.0 0.0 -2.9674765E+003 0.0 0.0 -1.5606652E+003 0.0 0.0 -1.0105321E+004 0.0 0.0 -1.5004329E+004 0.0 0.0  4.0526922E+002 0.0 0.0  4.3967211E+001 0.0 0.0 -1.0289549E+005 0.0 0.0 -8.6538052E+004 0.0 0.0 -1.4896858E+004 0.0 0.0 -4.0882029E+003 0.0 0.0 -3.5020139E+003 0.0 0.0  1.5165988E+004 0.0 0.0  1.3665017E+004 0.0 0.0 -3.6245546E+004 0.0 0.0  9.3606615E+003 0.0 0.0 -3.1007746E+004 0.0 0.0  1.8332207E+004 0.0 0.0  1.8990056E+004 0.0 0.0 -1.7440482E+004 0.0 0.0  4.8851638E+003 0.0 0.0 -1.1713047E+005 0.0 0.0 -9.1797187E+004 0.0 0.0 -7.5055200E+003 0.0 0.0 -1.0319946E+004 0.0 0.0 -7.4995479E+003 0.0 0.0 -8.5768199E+003 0.0 0.0 -4.5107124E+004 0.0 0.0 -6.6608303E+004 0.0 0.0  2.0831319E+004 0.0 0.0 -4.3856865E+003 0.0 0.0  1.7756050E+003 0.0 0.0  1.8474453E+003 0.0 0.0 -2.1849796E+005 0.0 0.0 -2.5109831E+005 0.0 0.0 -2.1590892E+005 0.0 0.0  3.8411564E+002 0.0 0.0  1.7012634E+004 0.0 0.0 -5.4820938E+004 0.0 0.0 -2.3323441E+004 0.0 0.0 -1.8799922E+004 0.0 0.0 -4.4211002E+003 0.0 0.0  1.6541975E+004 0.0 0.0 -2.0828429E+004 0.0 0.0 -4.6277350E+003 0.0 0.0 -2.6723083E+003 0.0 0.0 -1.0458764E+004 0.0 0.0  1.8043173E+004 0.0 0.0  1.9187719E+004 0.0 0.0 -1.9620568E+003 0.0 0.0 -2.7832996E+005 0.0 0.0 -5.8469892E+002 0.0 0.0  1.8695926E+004 0.0 0.0 -4.5157581E+003 0.0 0.0 -3.1481634E+003 0.0 0.0 -2.8489000E+003 0.0 0.0 -2.0532272E+003 0.0 0.0 -2.1409918E+003 0.0 0.0 -1.2522178E+003 0.0 0.0 -1.2738963E+003 0.0 0.0 -1.0720227E+004 0.0 0.0 -1.7675647E+004 0.0 0.0 -1.3594647E+004 0.0 0.0 -8.1577530E+003 0.0 0.0 -4.2141283E+003 0.0 0.0 -9.6401724E+001 0.0 0.0  2.8281035E+003 0.0 0.0  1.9498564E+004 0.0 0.0  2.1319326E+004 0.0 0.0  2.0210534E+004 0.0 0.0  1.7677252E+004 0.0 0.0  1.5428806E+004 0.0 0.0  2.4807684E+004 0.0 0.0  2.0889968E+004 0.0 0.0  9.0747226E+003 0.0 0.0  2.3844115E+004 0.0 0.0 -1.6355007E+004 0.0 0.0  1.6382618E+004 0.0 0.0 -1.7577714E+003 0.0 0.0 -6.6338138E+002 0.0 0.0 -1.9368431E+003 0.0 0.0 -4.7198316E+003 0.0 0.0 -1.0546632E+003 0.0 0.0 -1.7724135E+004 0.0 0.0 -2.4050772E+003 0.0 0.0 -8.4603518E+002 0.0 0.0  7.2848321E+003 0.0 0.0  1.5979960E+004 0.0 0.0  2.3753791E+004 0.0 0.0 -1.5870059E+003 0.0 0.0 -2.1101621E+003 0.0 0.0 -6.7599819E+002 0.0 0.0 -2.2228042E+003 0.0 0.0 -7.7507886E+002 0.0 0.0  1.7767172E+004 0.0 0.0 -2.4251873E+003 0.0 0.0  1.5451388E+004 0.0 0.0 -2.3961661E+003 0.0 0.0  2.0827290E+003 0.0 0.0  8.2540903E+003 0.0 0.0 -1.3398287E+004 0.0 0.0  2.8915834E+004 0.0 0.0  3.5330803E+003 0.0 0.0 -7.4162291E+003 0.0 0.0 -6.7398970E+004 0.0 0.0 -8.7100629E+004 0.0 0.0 -6.0042577E+004 0.0 0.0 -7.8860169E+004 0.0 0.0  4.1818365E+003 0.0 0.0 -4.0207562E+002 0.0 0.0 -3.6505131E+002 0.0 0.0 -6.5931472E+002 0.0 0.0 -4.5029670E+002 0.0 0.0 -1.7228393E+004 0.0 0.0 -2.6717858E+003 0.0 0.0 -4.6951975E+004 0.0 0.0 -3.2838758E+004 0.0 0.0 -6.9619572E+003 0.0 0.0 -1.4011957E+005 0.0 0.0 -1.0730336E+005 0.0 0.0 -1.5264587E+005 0.0 0.0 -1.2021064E+005 0.0 0.0 -7.7586945E+004 0.0 0.0 -9.2635128E+004 0.0 0.0 -1.3375217E+005 0.0 0.0 -1.0553479E+005 0.0 0.0 -1.4937533E+005 0.0 0.0 -1.1944291E+005 0.0 0.0 -1.6772060E+005 0.0 0.0 -2.0025579E+005 0.0 0.0 -6.8475361E+004 0.0 0.0 -7.3697007E+004 0.0 0.0  8.2654329E+003 0.0 0.0  1.3187022E+004 0.0 0.0  1.0959354E+004 0.0 0.0  1.3906420E+004 0.0 0.0  1.1174719E+004 0.0 0.0  1.3702047E+004 0.0 0.0  1.2358071E+004 0.0 0.0  8.4523533E+003 0.0 0.0 -4.7946013E+002 0.0 0.0 -1.1554782E+003 0.0 0.0  3.4282247E+003 0.0 0.0  2.6853907E+003 0.0 0.0  1.1483766E+004 0.0 0.0 -5.9449516E+003 0.0 0.0  6.2194964E+003 0.0 0.0  2.6331590E+003 0.0 0.0  2.6222466E+003 0.0 0.0  1.4801627E+004 0.0 0.0  2.1914541E+004 0.0 0.0  1.4307282E+004 0.0 0.0  2.2260444E+004 0.0 0.0  2.4255239E+004 0.0 0.0 -2.6967201E+004 0.0 0.0  1.2868345E+004 0.0 0.0 -9.6830143E+003 0.0 0.0 -1.5996255E+004 0.0 0.0 -2.9561604E+004 0.0 0.0 -2.2074708E+004 0.0 0.0 -1.7205590E+003 0.0 0.0 -4.5987093E+003 0.0 0.0 -9.4416603E+002 0.0 0.0 -1.5633687E+003 0.0 0.0  2.3554185E+004 0.0 0.0 -1.1183020E+004 0.0 0.0 -1.3644103E+004 0.0 0.0  1.3179281E+004 0.0 0.0 -5.7712320E+002 0.0 0.0  2.4028191E+004 0.0 0.0  3.5657639E+003 0.0 0.0 -1.6741167E+005 0.0 0.0 -1.0438315E+004 0.0 0.0  8.9402315E+003 0.0 0.0 -7.1012319E+004 0.0 0.0 -1.2729888E+004 0.0 0.0 -1.0722361E+005 0.0 0.0 -9.0324985E+004 0.0 0.0 -1.1219753E+005 0.0 0.0 -1.4940333E+005 0.0 0.0 -1.3751502E+005 0.0 0.0 -1.7454828E+005 0.0 0.0 -1.2487070E+005 0.0 0.0 -8.1411859E+004 0.0 0.0 -2.6380667E+004 0.0 0.0 -1.6727807E+005 0.0 0.0 -7.6258202E+004 0.0 0.0 -1.9388868E+005 0.0 0.0 -4.6347027E+004 0.0 0.0 -6.2972133E+004 0.0 0.0 -2.4228196E+004 0.0 0.0 -2.5326858E+005 0.0 0.0 -9.1351289E+004 0.0 0.0 -2.7055507E+005 0.0 0.0 -3.0113241E+005 0.0 0.0 -1.5151806E+005 0.0 0.0 -5.9589113E+004 0.0 0.0 -1.0499679E+005 0.0 0.0 -9.3108501E+004 0.0 0.0 -1.3318942E+005 0.0 0.0 -8.5969346E+004 0.0 0.0 -1.1925737E+005 0.0 0.0 -2.5247099E+005 0.0 0.0 -1.9347671E+005 0.0 0.0 -7.9870245E+004 0.0 0.0  1.3933261E+004 0.0 0.0  1.2315041E+004 0.0 0.0 -1.9647454E+003 0.0 0.0 -8.5342818E+002 0.0 0.0  1.9395439E+004 0.0 0.0  2.1641376E+004 0.0 0.0  2.2556244E+004 0.0 0.0  1.9227794E+002 0.0 0.0 -1.8311545E+002 0.0 0.0  3.5354670E+004 0.0 0.0  7.4062407E+004 0.0 0.0  3.8682385E+004 0.0 0.0  7.3006673E+004 0.0 0.0  7.7309129E+004 0.0 0.0  7.0757140E+004 0.0 0.0  2.1099194E+004 0.0 0.0  5.7628856E+002 0.0 0.0  9.4428271E+002 0.0 0.0  1.4417549E+004 0.0 0.0  1.0333025E+003 0.0 0.0 -1.1134022E+003 0.0 0.0  2.3825050E+004 0.0 0.0  1.1352714E+003 0.0 0.0  3.5751638E+002 0.0 0.0  1.6429575E+003 0.0 0.0 -1.2988750E+003 0.0 0.0  8.4132423E+003 0.0 0.0  1.3208587E+004 0.0 0.0  2.4843247E+003 0.0 0.0  2.5846958E+003 0.0 0.0  6.1291779E+003 0.0 0.0 -8.1018260E+004 0.0 0.0  1.0407261E+004 0.0 0.0  1.9274527E+004 0.0 0.0 -5.8852227E+004 0.0 0.0 -2.9026565E+004 0.0 0.0 -1.4714361E+004 0.0 0.0  1.4109295E+004 0.0 0.0  1.7171192E+004 0.0 0.0  1.9562559E+004 0.0 0.0  1.8958620E+004 0.0 0.0 -1.7777604E+005 0.0 0.0 -2.4087590E+005 0.0 0.0 -1.0338329E+005 0.0 0.0  5.2926978E+004 0.0 0.0 -4.7586978E+004 0.0 0.0 -9.8101869E+004 0.0 0.0 -5.8412263E+004 0.0 0.0  4.9459208E+004 0.0 0.0  2.4408964E+003 0.0 0.0 -2.1375044E+005 0.0 0.0 -8.2417612E+003 0.0 0.0  2.8543254E+003 0.0 0.0  3.5693074E+003 0.0 0.0 -1.2630139E+004 0.0 0.0 -1.2734739E+003 0.0 0.0 -2.6696271E+002 0.0 0.0 -1.2161341E+003 0.0 0.0 -1.0223553E+004 0.0 0.0  1.6452857E+003 0.0 0.0  1.1051970E+004 0.0 0.0 -6.6063845E+002 0.0 0.0 -1.2060484E+004 0.0 0.0  3.4986884E+003 0.0 0.0 -1.5843646E+004 0.0 0.0 -1.1822883E+005 0.0 0.0  2.4431287E+003 0.0 0.0  1.9133795E+004 0.0 0.0 -1.2829335E+004 0.0 0.0 -7.2034036E+004 0.0 0.0  3.7693871E+003 0.0 0.0 -2.1891071E+003 0.0 0.0 -8.4694597E+003 0.0 0.0 -5.0352082E+003 0.0 0.0  5.4799861E+003 0.0 0.0 -2.1058564E+003 0.0 0.0 -6.7361327E+004 0.0 0.0 -1.0668205E+005 0.0 0.0  1.6223825E+004 0.0 0.0 -1.6740761E+005 0.0 0.0  2.4923447E+004 0.0 0.0 -5.0162194E+001 0.0 0.0  1.5515773E+004 0.0 0.0 -1.0988769E+004 0.0 0.0  1.8802418E+003 0.0 0.0 -1.5094973E+004 0.0 0.0 -1.4749077E+004 0.0 0.0 -2.9432790E+003 0.0 0.0 -1.2418874E+003 0.0 0.0 -4.1808371E+003 0.0 0.0 -7.8991837E+003 0.0 0.0 -1.3732029E+004 0.0 0.0  1.2612356E+004 0.0 0.0 -7.8065629E+003 0.0 0.0 -6.7891117E+004 0.0 0.0  5.9187807E+003 0.0 0.0 -4.1420640E+004 0.0 0.0 -2.0380523E+004 0.0 0.0  3.5788006E+004 0.0 0.0  1.2279587E+004 0.0 0.0 -2.2410378E+003 0.0 0.0 -1.2480369E+004 0.0 0.0 -6.3476885E+003 0.0 0.0  4.8516264E+003 0.0 0.0 -1.6127389E+004 0.0 0.0  1.1718460E+004 0.0 0.0 -1.8690519E+004 0.0 0.0 -4.3164969E+004 0.0 0.0 -2.1991644E+003 0.0 0.0 -3.8877256E+003 0.0 0.0 -1.8182606E+005 0.0 0.0 -2.2403418E+004 0.0 0.0 -7.9912900E+003 0.0 0.0 -4.9306320E+004 0.0 0.0 -2.1223325E+004 0.0 0.0 -2.1768418E+002 0.0 0.0 -2.9845920E+004 0.0 0.0 -1.6788228E+002 0.0 0.0 -3.9757281E+003 0.0 0.0 -7.1499197E+002 0.0 0.0  1.4346740E+004 0.0 0.0 -1.5591501E+004 0.0 0.0 -9.3408008E+004 0.0 0.0  1.0109115E+002 0.0 0.0 -9.3733805E+002 0.0 0.0  6.3313687E+003 0.0 0.0 -1.1770882E+004 0.0 0.0 -2.2599341E+004 0.0 0.0 -2.7399541E+004 0.0 0.0 -4.4108347E+004 0.0 0.0  6.1125791E+004 0.0 0.0  6.4760753E+003 0.0 0.0 -3.3827583E+004 0.0 0.0 -5.4736092E+004 0.0 0.0 -1.3619080E+004 0.0 0.0  3.1574829E+004 0.0 0.0  1.2943492E+003 0.0 0.0 -3.5131447E+004 0.0 0.0  3.1403869E+004 0.0 0.0  1.2062224E+004 0.0 0.0 -5.8043665E+004 0.0 0.0 -4.6527382E+004 0.0 0.0 -5.2356886E+004 0.0 0.0  1.1071295E+005 0.0 0.0 -1.9306920E+005 0.0 0.0  7.9198899E+003 0.0 0.0 -2.0148957E+005 0.0 0.0 -6.8784886E+003 0.0 0.0  1.5476090E+004 0.0 0.0  1.8877313E+004 0.0 0.0  4.4051961E+004 0.0 0.0 -5.1209479E+003 0.0 0.0  1.6584257E+004 0.0 0.0  9.9464999E+003 0.0 0.0 -1.4697910E+003 0.0 0.0  2.8266311E+004 0.0 0.0  1.6335137E+004 0.0 0.0  2.5211737E+004 0.0 0.0 -6.3773683E+004 0.0 0.0  1.4616406E+004 0.0 0.0  2.5082989E+003 0.0 0.0 -2.7756677E+004 0.0 0.0  1.9234604E+004 0.0 0.0 -1.3519067E+005 0.0 0.0 -1.5170658E+005 0.0 0.0 -6.7628243E+004 0.0 0.0  5.0532385E+003 0.0 0.0  7.2276347E+003 0.0 0.0 -5.5543425E+004 0.0 0.0 -6.2741129E+003 0.0 0.0 -1.9130596E+003 0.0 0.0 -1.2015699E+003 0.0 0.0  1.4925309E+004 0.0 0.0 -3.2941629E+003 0.0 0.0 -2.8701214E+003 0.0 0.0 -3.6912676E+004 0.0 0.0 -3.7464152E+004 0.0 0.0 -2.7428999E+003 0.0 0.0 -6.2610206E+002 0.0 0.0  8.1564534E+003 0.0 0.0 -2.2397087E+003 0.0 0.0 -6.0690239E+002 0.0 0.0  8.1367353E+003 0.0 0.0 -1.0608034E+005 0.0 0.0 -2.0155185E+003 0.0 0.0 -9.5584780E+004 0.0 0.0 -3.7979636E+002 0.0 0.0 -6.7973961E+004 0.0 0.0 -1.3320633E+005 0.0 0.0  5.9944921E+003 0.0 0.0 -1.2034714E+004 0.0 0.0  2.1763813E+004 0.0 0.0 -7.3335467E+002 0.0 0.0  8.0142535E+003 0.0 0.0  1.6991038E+004 0.0 0.0  1.8110506E+004 0.0 0.0  1.2545187E+005 0.0 0.0  3.1092767E+004 0.0 0.0 -5.6682395E+003 0.0 0.0  3.0547810E+004 0.0 0.0 -8.4243599E+003 0.0 0.0 -7.9336831E+004 0.0 0.0 -5.2753897E+004 0.0 0.0 -2.2769020E+005 0.0 0.0 -5.1000905E+002 0.0 0.0 -1.7253714E+004 0.0 0.0  3.3990526E+004 0.0 0.0  6.2440749E+004 0.0 0.0 -2.9164409E+002 0.0 0.0 -1.2065545E+004 0.0 0.0 -3.7939576E+004 0.0 0.0 -2.1913673E+004 0.0 0.0  3.6795957E+004 0.0 0.0 -9.1051741E+003 0.0 0.0  7.8724260E+003 0.0 0.0 -4.6819959E+004 0.0 0.0  1.3965398E+005 0.0 0.0 -5.2275910E+003 0.0 0.0 -7.7607061E+003 0.0 0.0  1.4903716E+004 0.0 0.0  4.6420057E+003 0.0 0.0 -2.4782673E+004 0.0 0.0 -2.3521378E+004 0.0 0.0  2.4694300E+002 0.0 0.0  4.3228889E+002 0.0 0.0 -1.0044058E+003 0.0 0.0 -6.6866058E+004 0.0 0.0  1.3037549E+004 0.0 0.0 -5.3969713E+004 0.0 0.0 -7.5080023E+004 0.0 0.0  2.2046242E+003 0.0 0.0  1.4948981E+004 0.0 0.0  1.8496218E+004 0.0 0.0 -5.7446408E+003 0.0 0.0 -2.4197363E+005 0.0 0.0  1.8706152E+001 0.0 0.0 -3.0963743E+003 0.0 0.0 -8.4456019E+003 0.0 0.0 -7.1472925E+004 0.0 0.0  5.3812854E+003 0.0 0.0  1.9179332E+003 0.0 0.0 -5.0720123E+002 0.0 0.0 -1.7024806E+005 0.0 0.0  1.1421981E+004 0.0 0.0  1.3485314E+004 0.0 0.0 -1.2245313E+003 0.0 0.0 -1.4747204E+005 0.0 0.0 -8.4944997E+003 0.0 0.0 -4.8387938E+004 0.0 0.0 -1.0199878E+004 0.0 0.0 -1.0102799E+004 0.0 0.0  1.2759617E+004 0.0 0.0 -2.1583314E+004 0.0 0.0 -1.6643905E+004 0.0 0.0  1.4818469E+004 0.0 0.0  2.6789475E+003 0.0 0.0 -1.5834921E+004 0.0 0.0 -2.4215670E+003 0.0 0.0  7.5771155E+002 0.0 0.0 -2.5632047E+005 0.0 0.0 -1.8575949E+004 0.0 0.0 -2.4193374E+004 0.0 0.0  1.8046995E+004 0.0 0.0 -8.4212384E+003 0.0 0.0 -1.4499300E+004 0.0 0.0  1.8677033E+004 0.0 0.0 -6.4684582E+004 0.0 0.0 -4.4620952E+003 0.0 0.0  2.9253743E+004 0.0 0.0  1.7818148E+004 0.0 0.0  9.3398452E+003 0.0 0.0  1.0546210E+003 0.0 0.0  4.9887698E+004 0.0 0.0  3.5934209E+003 0.0 0.0  3.3235497E+003 0.0 0.0  2.0985520E+004 0.0 0.0  6.4101193E+004 0.0 0.0  7.8870815E+004 0.0 0.0  4.3154066E+003 0.0 0.0  1.2928553E+004 0.0 0.0  1.7544608E+004 0.0 0.0  1.6558008E+004 0.0 0.0  1.4354729E+004 0.0 0.0  1.0447846E+004 0.0 0.0  1.0681197E+004 0.0 0.0  8.8359434E+003 0.0 0.0  1.2128993E+004 0.0 0.0  1.8223164E+004 0.0 0.0  1.3749228E+004 0.0 0.0  2.4565073E+004 0.0 0.0  3.2304809E+004 0.0 0.0  1.8977846E+004 0.0 0.0  9.7126299E+003 0.0 0.0  2.5064758E+004 0.0 0.0  4.4317160E+004 0.0 0.0  1.6689158E+004 0.0 0.0  2.7624250E+004 0.0 0.0  2.6183961E+004 0.0 0.0  1.5245335E+004 0.0 0.0  1.9419893E+004 0.0 0.0  2.2472907E+004 0.0 0.0  2.2006380E+004 0.0 0.0  1.4583091E+004 0.0 0.0  1.8648544E+004 0.0 0.0  2.9316372E+004 0.0 0.0  2.5305633E+004 0.0 0.0  2.8724316E+004 0.0 0.0  2.7096896E+004 0.0 0.0  2.8328202E+004 0.0 0.0  3.0298902E+004 0.0 0.0  7.1925954E+004 0.0 0.0  3.0583529E+004 0.0 0.0  2.8966498E+004 0.0 0.0  2.8488598E+004 0.0 0.0  2.9907994E+004 0.0 0.0  2.5115862E+004 0.0 0.0  2.3750339E+004 0.0 0.0  1.8581317E+002 0.0 0.0  1.0824470E+005 0.0 0.0  1.1924199E+005 0.0 0.0  6.2271115E+004 0.0 0.0  2.0295781E+004 0.0 0.0  5.1643326E+004 0.0 0.0  1.2391224E+004 0.0 0.0  1.0919282E+004 0.0 0.0  1.0624248E+004 0.0 0.0  7.4356705E+003 0.0 0.0  1.2785670E+004 0.0 0.0  1.1683311E+004 0.0 0.0  1.5773939E+004 0.0 0.0  1.0827816E+004 0.0 0.0  8.9114263E+003 0.0 0.0  1.4584396E+004 0.0 0.0  9.8254417E+003 0.0 0.0  2.1695427E+004 0.0 0.0  1.0610928E+004 0.0 0.0  2.5532369E+004 0.0 0.0  1.8487561E+004 0.0 0.0  3.6029631E+004 0.0 0.0  2.4296655E+004 0.0 0.0  4.4673759E+004 0.0 0.0  2.0528077E+004 0.0 0.0  5.4155528E+004 0.0 0.0  6.5970697E+004 0.0 0.0  8.2649037E+004 0.0 0.0  8.7760383E+004 0.0 0.0  9.9671557E+004 0.0 0.0  9.6239036E+004 0.0 0.0  1.0692794E+005 0.0 0.0  1.1543690E+005 0.0 0.0  1.1652138E+005 0.0 0.0  1.1292739E+005 0.0 0.0  1.2048700E+005 0.0 0.0  3.8174089E+004 0.0 0.0  9.2693026E+003 0.0 0.0  9.4479270E+004 0.0 0.0  2.7255683E+004 0.0 0.0  2.2289726E+004 0.0 0.0  1.6273141E+004 0.0 0.0  1.0017222E+004 0.0 0.0  4.9237051E+002 0.0 0.0  6.4575297E+004 0.0 0.0  4.4970815E+004 0.0 0.0  4.0241030E+004 0.0 0.0  2.3796556E+004 0.0 0.0  2.0220608E+004 0.0 0.0  2.5054344E+004 0.0 0.0  1.1200243E+004 0.0 0.0  9.2286445E+003 0.0 0.0  1.6031839E+004 0.0 0.0  7.4916562E+003 0.0 0.0  1.2560293E+004 0.0 0.0  2.2620536E+004 0.0 0.0  1.8690692E+004 0.0 0.0  6.0779907E+003 0.0 0.0  3.0038400E+003 0.0 0.0  2.9738720E+004 0.0 0.0  2.5262575E+004 0.0 0.0  1.0496402E+004 0.0 0.0  1.4588299E+004 0.0 0.0  2.8861954E+004 0.0 0.0  5.5617469E+003 0.0 0.0  3.7895535E+003 0.0 0.0  1.2315434E+003 0.0 0.0  1.0474356E+003 0.0 0.0  4.1125369E+003 0.0 0.0  7.7422931E+003 0.0 0.0  2.0321197E+003 0.0 0.0  3.2239246E+004 0.0 0.0  4.9586243E+004 0.0 0.0  3.7298404E+004 0.0 0.0  5.6691932E+003 0.0 0.0  1.7891793E+004 0.0 0.0  1.1186850E+004 0.0 0.0  1.8485618E+004 0.0 0.0  1.2266516E+004 0.0 0.0  3.0313840E+004 0.0 0.0  3.5385719E+004 0.0 0.0  3.9914863E+004 0.0 0.0  6.5959258E+004 0.0 0.0  1.6168962E+004 0.0 0.0  4.6833012E+004 0.0 0.0  8.1284904E+004 0.0 0.0  1.0799087E+004 0.0 0.0  1.8928698E+004 0.0 0.0  1.8688577E+004 0.0 0.0  1.9134735E+004 0.0 0.0  1.8357220E+004 0.0 0.0  1.9166248E+004 0.0 0.0  1.1377112E+005 0.0 0.0  8.9580887E+004 0.0 0.0  9.3169011E+004 0.0 0.0  8.4189733E+004 0.0 0.0  4.4486794E+004 0.0 0.0  1.1315697E+004 0.0 0.0  1.9995331E+004 0.0 0.0  2.9990723E+004 0.0 0.0  6.4000873E+004 0.0 0.0  6.5027254E+004 0.0 0.0  9.5058142E+004 0.0 0.0  2.6426326E+004 0.0 0.0  6.5796859E+004 0.0 0.0  6.6887792E+004 0.0 0.0  1.0284808E+005 0.0 0.0  1.6907073E+004 0.0 0.0  3.0485515E+004 0.0 0.0  3.0292897E+004 0.0 0.0  3.3457714E+004 0.0 0.0  7.9677553E+004 0.0 0.0  8.0082784E+004 0.0 0.0  7.8393987E+004 0.0 0.0  8.0820077E+004 0.0 0.0  5.0318126E+004 0.0 0.0  1.1483316E+004 0.0 0.0  2.2720577E+004 0.0 0.0  2.3536447E+004 0.0 0.0  1.8626361E+004 0.0 0.0  1.2182182E+004 0.0 0.0  2.1577485E+004 0.0 0.0  2.2494836E+004 0.0 0.0  2.2746680E+004 0.0 0.0  6.4883204E+004 0.0 0.0  7.0868605E+004 0.0 0.0  6.9718932E+004 0.0 0.0  7.2154270E+004 0.0 0.0  4.6835715E+004 0.0 0.0  2.6058021E+004 0.0 0.0  3.9491059E+004 0.0 0.0  3.9948144E+004 0.0 0.0  2.9756268E+004 0.0 0.0  3.1228172E+004 0.0 0.0  4.1712114E+004 0.0 0.0  2.3381357E+004 0.0 0.0  3.7930431E+004 0.0 0.0  1.6713795E+004 0.0 0.0  2.7850095E+004 0.0 0.0  2.8870802E+004 0.0 0.0  2.7179636E+004 0.0 0.0  2.2416117E+004 0.0 0.0  2.2038080E+004 0.0 0.0  1.6831560E+004 0.0 0.0  3.3118637E+004 0.0 0.0  4.5467571E+004 0.0 0.0  5.6399544E+004 0.0 0.0  5.7739592E+004 0.0 0.0  3.9901702E+004 0.0 0.0  2.2581267E+004 0.0 0.0  3.2559015E+004 0.0 0.0  3.1925312E+004 0.0 0.0  2.4688646E+004 0.0 0.0  2.5742691E+004 0.0 0.0  1.0641404E+004 0.0 0.0  2.0309527E+004 0.0 0.0  1.9987733E+004 0.0 0.0  1.7049834E+004 0.0 0.0  1.4521142E+004 0.0 0.0  2.5194703E+004 0.0 0.0  2.5399331E+004 0.0 0.0  2.4937869E+004 0.0 0.0  4.5984999E+004 0.0 0.0  4.8605781E+004 0.0 0.0  2.3177436E+004 0.0 0.0  4.3023030E+004 0.0 0.0  4.1878183E+004 0.0 0.0  9.7974677E+004 0.0 0.0  8.9369047E+004 0.0 0.0  9.1313888E+004 0.0 0.0  5.3019985E+004 0.0 0.0  3.8902673E+004 0.0 0.0  5.0104637E+004 0.0 0.0  4.8793093E+004 0.0 0.0  3.5835594E+004 0.0 0.0  5.1760262E+004 0.0 0.0  3.1363763E+004 0.0 0.0  4.6758551E+004 0.0 0.0  4.5055972E+004 0.0 0.0  2.7426500E+004 0.0 0.0  4.3785120E+004 0.0 0.0  2.8848397E+004 0.0 0.0  1.7603743E+004 0.0 0.0  1.4490067E+004 0.0 0.0  1.9793510E+004 0.0 0.0  3.7826352E+004 0.0 0.0  1.6116033E+004 0.0 0.0  2.6190003E+004 0.0 0.0  6.9318986E+004 0.0 0.0  7.5538869E+004 0.0 0.0  4.9733691E+004 0.0 0.0  5.5013654E+004 0.0 0.0  6.3356724E+004 0.0 0.0  6.5074750E+004 0.0 0.0  4.3526064E+004 0.0 0.0  7.4581551E+004 0.0 0.0  6.2188023E+004 0.0 0.0  2.6866589E+004 0.0 0.0  5.0554154E+004 0.0 0.0  5.0727608E+004 0.0 0.0  2.6907650E+004 0.0 0.0  5.7387959E+004 0.0 0.0  2.8233121E+004 0.0 0.0  2.1278045E+004 0.0 0.0  5.2226583E+004 0.0 0.0  1.8576696E+004 0.0 0.0  3.6369475E+004 0.0 0.0  2.0789693E+004 0.0 0.0  4.0382656E+004 0.0 0.0  2.3946812E+004 0.0 0.0  5.9179638E+004 0.0 0.0  1.0237021E+005 0.0 0.0  2.5808268E+004 0.0 0.0  1.2819901E+004 0.0 0.0  1.4142852E+004 0.0 0.0  1.5601077E+004 0.0 0.0  2.6633004E+004 0.0 0.0  6.2929973E+004 0.0 0.0  5.9688260E+004 0.0 0.0  6.7924937E+004 0.0 0.0  1.2621048E+004 0.0 0.0  1.1075796E+004 0.0 0.0  2.1630832E+004 0.0 0.0  4.9798279E+004 0.0 0.0  4.2652153E+004 0.0 0.0  3.8447656E+004 0.0 0.0  3.4395319E+004 0.0 0.0  1.9718899E+004 0.0 0.0  3.0713501E+004 0.0 0.0  2.7870236E+004 0.0 0.0  5.9030269E+004 0.0 0.0  2.9622607E+004 0.0 0.0  6.3468061E+004 0.0 0.0  1.9739091E+004 0.0 0.0  8.7717658E+004 0.0 0.0  8.5719774E+004 0.0 0.0  8.4407388E+004 0.0 0.0  2.1689285E+004 0.0 0.0  2.2196461E+004 0.0 0.0  2.4874960E+004 0.0 0.0  1.0828035E+005 0.0 0.0  9.2493553E+004 0.0 0.0  2.7764161E+004 0.0 0.0  1.2566551E+004 0.0 0.0  2.3991525E+004 0.0 0.0  1.0635841E+005 0.0 0.0  1.0266740E+005 0.0 0.0  7.4746238E+004 0.0 0.0  1.0694269E+005 0.0 0.0  1.0108164E+004 0.0 0.0  1.0386444E+004 0.0 0.0  3.3001128E+004 0.0 0.0  1.9832751E+004 0.0 0.0  3.1654931E+004 0.0 0.0  3.4487409E+004 0.0 0.0  6.2290828E+004 0.0 0.0  6.5368217E+004 0.0 0.0  2.1531551E+004 0.0 0.0  5.2569497E+004 0.0 0.0  2.5755429E+004 0.0 0.0  6.0232737E+004 0.0 0.0  1.1404029E+003 0.0 0.0  1.7187470E+004 0.0 0.0  2.6908280E+003 0.0 0.0  3.2132544E+004 0.0 0.0  2.1026630E+004 0.0 0.0  9.0666108E+004 0.0 0.0  4.8157893E+004 0.0 0.0  1.0231785E+004 0.0 0.0  1.1634125E+004 0.0 0.0  1.0636918E+002 0.0 0.0  2.0319442E+004 0.0 0.0  4.9096899E+002 0.0 0.0  2.6097757E+004 0.0 0.0  3.4380496E+004 0.0 0.0  2.5341389E+004 0.0 0.0  1.3674271E+004 0.0 0.0  8.8522765E+003 0.0 0.0  2.7690841E+004 0.0 0.0  1.9224075E+004 0.0 0.0  5.4239864E+004 0.0 0.0  1.6967826E+004 0.0 0.0  4.8788022E+003 0.0 0.0  1.6007752E+004 0.0 0.0  1.3214518E+004 0.0 0.0  2.2095722E+004 0.0 0.0  8.6226512E+004 0.0 0.0  8.5424497E+004 0.0 0.0  9.5343536E+004 0.0 0.0  2.2555855E+004 0.0 0.0  4.3442192E+004 0.0 0.0  3.5209441E+004 0.0 0.0  2.6560367E+004 0.0 0.0  2.2113907E+004 0.0 0.0  7.1200610E+004 0.0 0.0  9.1749304E+004 0.0 0.0  5.4480636E+004 0.0 0.0  2.8660507E+004 0.0 0.0  3.8084192E+004 0.0 0.0  6.5510032E+004 0.0 0.0  5.2407900E+004 0.0 0.0  4.1943112E+004 0.0 0.0  5.8453635E+004 0.0 0.0  5.9819135E+004 0.0 0.0  5.9285727E+004 0.0 0.0  1.7363760E+004 0.0 0.0  1.3062852E+004 0.0 0.0  1.0927259E+004 0.0 0.0  1.9238505E+004 0.0 0.0  2.0860507E+004 0.0 0.0  8.9952744E+004 0.0 0.0  1.8708893E+004 0.0 0.0  8.5618610E+003 0.0 0.0  7.9450153E+003 0.0 0.0  1.5779575E+004 0.0 0.0  1.9835929E+004 0.0 0.0  1.0049449E+004 0.0 0.0  1.1278275E+004 0.0 0.0  7.7529977E+004 0.0 0.0  1.6464437E+004 0.0 0.0  9.6163883E+003 0.0 0.0  2.0772136E+004 0.0 0.0  7.8465225E+003 0.0 0.0  2.7858977E+004 0.0 0.0  4.2369785E+004 0.0 0.0  9.8031460E+003 0.0 0.0  1.7572474E+004 0.0 0.0  2.0679602E+004 0.0 0.0  8.8406476E+004 0.0 0.0  5.3276256E+004 0.0 0.0  5.4158776E+004 0.0 0.0  2.6277263E+004 0.0 0.0  8.7255252E+004 0.0 0.0  7.6006010E+004 0.0 0.0  7.9267285E+004 0.0 0.0  4.8548048E+004 0.0 0.0  3.2642146E+004 0.0 0.0  2.0792098E+004 0.0 0.0  4.4739339E+004 0.0 0.0  4.9964724E+004 0.0 0.0  2.8776457E+004 0.0 0.0  3.7669977E+004 0.0 0.0  3.9373727E+004 0.0 0.0  6.2407147E+004 0.0 0.0  8.1249672E+004 0.0 0.0  9.9198630E+003 0.0 0.0  5.5689745E+003 0.0 0.0  4.0981061E+004 0.0 0.0  1.5797177E+002 0.0 0.0  4.0197533E+002 0.0 0.0  2.0127251E+004 0.0 0.0  4.9522136E+004 0.0 0.0  1.7713475E+003 0.0 0.0  3.1796809E+004 0.0 0.0  9.6079678E+004 0.0 0.0  8.9346366E+004 0.0 0.0  5.9125367E+004 0.0 0.0  4.8886840E+004 0.0 0.0  4.3629307E+004 0.0 0.0  3.5322656E+004 0.0 0.0  3.1225412E+004 0.0 0.0  1.9096127E+004 0.0 0.0  2.8373392E+004 0.0 0.0  2.3484626E+004 0.0 0.0  2.4855796E+004 0.0 0.0  3.3229493E+004 0.0 0.0  5.6355944E+004 0.0 0.0  9.7486996E+004 0.0 0.0  3.5146064E+004 0.0 0.0  3.7705895E+004 0.0 0.0  1.8452693E+004 0.0 0.0  2.3458245E+004 0.0 0.0  2.2640348E+004 0.0 0.0  3.2573663E+004 0.0 0.0  1.9757689E+004 0.0 0.0  4.5457452E+004 0.0 0.0  4.9975620E+004 0.0 0.0  1.8733665E+004 0.0 0.0  5.5941314E+004 0.0 0.0  5.1902550E+004 0.0 0.0  1.9452289E+004 0.0 0.0  9.5644879E+004 0.0 0.0  8.8721174E+004 0.0 0.0  6.3128862E+004 0.0 0.0  5.0176826E+004 0.0 0.0  5.1549180E+004 0.0 0.0  3.4517719E+004 0.0 0.0  3.0289445E+004 0.0 0.0  6.1115986E+004 0.0 0.0  3.0692747E+004 0.0 0.0  6.0696431E+004 0.0 0.0  6.8132444E+004 0.0 0.0  2.6295396E+004 0.0 0.0  5.9526640E+003 0.0 0.0  5.5993329E+004 0.0 0.0  9.1342916E+004 0.0 0.0  5.1345347E+004 0.0 0.0  6.9904843E+004 0.0 0.0  4.1155082E+004 0.0 0.0  5.4838862E+004 0.0 0.0  7.7854010E+004 0.0 0.0  1.9599702E+004 0.0 0.0  1.9721076E+004 0.0 0.0  6.1598332E-004 0.0 0.0 -8.0003742E+003 0.0 0.0 -1.0105881E-001 0.0 0.0 -6.2995008E+000 0.0 0.0  2.8918242E+002 0.0 0.0 -4.3864465E+001 0.0 0.0 -8.3566781E+000 0.0 0.0 -6.5103786E+003 0.0 0.0 -4.4370049E+001 0.0 0.0  6.0449086E-002 0.0 0.0 -8.6252199E-003 0.0 0.0 -1.4236591E+003 0.0 0.0  2.7083078E+000 0.0 0.0  2.7688752E+000 0.0 0.0 -4.2421966E+000 0.0 0.0 -3.9323021E+001 0.0 0.0 -3.5776870E+003 0.0 0.0  4.8365233E+000 0.0 0.0 -2.5179123E-005 0.0 0.0 -2.5453603E+003 0.0 0.0 -3.1971120E+003 0.0 0.0 -1.0838029E+003 0.0 0.0 -1.1570160E+003 0.0 0.0  3.0100039E-005 0.0 0.0  1.2972547E+001 0.0 0.0 -8.5779925E+003 0.0 0.0 -1.8324160E+000 0.0 0.0 -1.3779561E+000 0.0 0.0  3.8052993E-007 0.0 0.0  8.1067395E+001 0.0 0.0 -1.3508494E-005 0.0 0.0 -1.8521771E-002 0.0 0.0 -6.4394373E-004 0.0 0.0 -4.9848429E-005 0.0 0.0 -4.3726796E-005 0.0 0.0 -1.8039160E-003 0.0 0.0  1.3635890E-003 0.0 0.0  1.0682678E-004 0.0 0.0 -7.4162193E+003 0.0 0.0 -3.1744076E+002 0.0 0.0 -1.8742415E+001 0.0 0.0  8.0215734E+002 0.0 0.0 -1.3555779E+001 0.0 0.0 -2.9829885E-001 0.0 0.0 -1.9304314E+004 0.0 0.0 -5.6465544E+002 0.0 0.0 -3.7941921E+003 0.0 0.0 -2.7029325E+002 0.0 0.0  7.0932835E+001 0.0 0.0 -1.2533323E+002 0.0 0.0  1.4904403E-003 0.0 0.0 -5.3899125E-002 0.0 0.0  5.2560771E-003 0.0 0.0  6.6612067E-002 0.0 0.0 -1.1743087E+001 0.0 0.0 -2.7493886E+002 0.0 0.0  5.3316310E+001 0.0 0.0 -3.0520965E+003 0.0 0.0 -2.5371739E+001 0.0 0.0 -2.7867643E+000 0.0 0.0 -8.7512877E+001 0.0 0.0  2.4390809E+000 0.0 0.0 -1.1333112E+003 0.0 0.0 -1.2851809E+003 0.0 0.0 -2.1738325E+004 0.0 0.0  4.8374129E+002 0.0 0.0 -2.4450884E+003 0.0 0.0 -1.3946935E+002 0.0 0.0 -1.8647228E+003 0.0 0.0 -6.2693699E+001 0.0 0.0 -1.9080066E+002 0.0 0.0 -2.0897514E+002 0.0 0.0 -3.5790808E+004 0.0 0.0 -6.4920937E+000 0.0 0.0  1.0239223E+001 0.0 0.0 -6.2218384E+001 0.0 0.0 -5.9840653E+000 0.0 0.0 -5.5675538E+002 0.0 0.0  4.5647967E-001 0.0 0.0 -3.6928802E+001 0.0 0.0 -8.1151519E+003 0.0 0.0 -4.2952466E+002 0.0 0.0 -5.0631112E+003 0.0 0.0  2.4311335E+001 0.0 0.0 -2.0413084E+003 0.0 0.0  3.2560957E+000 0.0 0.0 -6.8018698E+000 0.0 0.0 -5.2248640E-005 0.0 0.0  3.3890698E-004 0.0 0.0 -4.2652337E+003 0.0 0.0  7.9955854E-001 0.0 0.0  8.0824402E+001 0.0 0.0 -3.9041624E+003 0.0 0.0 -5.6759720E-002 0.0 0.0 -3.4355568E+004 0.0 0.0 -7.0867949E+000 0.0 0.0 -2.0508091E+001 0.0 0.0 -6.4341571E+004 0.0 0.0 -4.1181676E+000 0.0 0.0 -3.6545781E+004 0.0 0.0  2.5795461E+001 0.0 0.0 -2.0572852E-004 0.0 0.0 -2.4389612E-006 0.0 0.0 -7.3284688E+001 0.0 0.0 -4.8002314E+002 0.0 0.0 -1.9262132E+000 0.0 0.0 -1.5549336E-005 0.0 0.0 -7.4203819E+001 0.0 0.0 -1.9622661E+004 0.0 0.0 -6.6025245E+002 0.0 0.0 -8.6555573E+004 0.0 0.0 -4.1042457E+001 0.0 0.0 -9.5626691E+001 0.0 0.0 -7.3930869E+000 0.0 0.0  7.7869392E+001 0.0 0.0 -5.8040523E+003 0.0 0.0 -1.2270074E+001 0.0 0.0 -4.2433323E-004 0.0 0.0 -9.0445422E+002 0.0 0.0  2.4691257E-005 0.0 0.0 -5.8143757E+004 0.0 0.0 -2.1711083E+001 0.0 0.0  6.9172669E-001 0.0 0.0 -3.3102955E+004 0.0 0.0 -8.4812002E+001 0.0 0.0 -1.4578206E+003 0.0 0.0 -9.9753532E+000 0.0 0.0  6.8529284E-003 0.0 0.0 -1.1244396E+004 0.0 0.0 -3.2459096E+002 0.0 0.0  6.4188309E+000 0.0 0.0 -1.6113662E-004 0.0 0.0 -6.7312695E-007 0.0 0.0 -4.7137247E+003 0.0 0.0 -2.1826206E-005 0.0 0.0 -3.1859941E+002 0.0 0.0 -4.8003310E+003 0.0 0.0 -1.9211817E+003 0.0 0.0 -7.0984149E+001 0.0 0.0 -7.6265138E+002 0.0 0.0 -7.0583020E+002 0.0 0.0 -7.0291416E+002 0.0 0.0  5.4278573E-004 0.0 0.0 -1.1773224E+003 0.0 0.0 -3.9944725E+002 0.0 0.0  4.0422077E-002 0.0 0.0 -1.1894718E+000 0.0 0.0 -2.8329962E+003 0.0 0.0 -4.2987486E+001 0.0 0.0  4.0338536E-003 0.0 0.0 -6.0026407E+002 0.0 0.0 -4.3128328E-009 0.0 0.0 -3.1368654E-007 0.0 0.0 -1.4047420E-005 0.0 0.0 -4.2047571E-005 0.0 0.0 -8.6065262E-006 0.0 0.0 -2.6875586E-007 0.0 0.0 -9.0627354E-006 0.0 0.0 -2.1302187E-005 0.0 0.0 -1.1640153E-005 0.0 0.0  4.8596066E-006 0.0 0.0 -1.0213603E-006 0.0 0.0  1.5871894E-005 0.0 0.0  6.9805952E-005 0.0 0.0 -9.0766803E-006 0.0 0.0 -4.5973213E-005 0.0 0.0 -1.3087260E-004 0.0 0.0 -1.7412384E-006 0.0 0.0  9.9637307E-005 0.0 0.0 -9.6854108E-005 0.0 0.0 -7.0184612E-005 0.0 0.0 -2.9266791E-004 0.0 0.0 -1.1161591E-006 0.0 0.0 -4.4530101E-008 0.0 0.0 -4.9124039E-005 0.0 0.0 -4.2671213E-005 0.0 0.0 -3.0956997E-005 0.0 0.0 -2.4796065E-005 0.0 0.0 -4.0335781E-009 0.0 0.0 -8.8838087E-010 0.0 0.0 -1.9449130E-004 0.0 0.0 -3.2957905E+002 0.0 0.0 -4.8795233E+002 0.0 0.0 -2.0101132E+002 0.0 0.0 -2.2883014E+002 0.0 0.0 -2.3009704E+002 0.0 0.0 -1.9597219E+002 0.0 0.0 -8.9272929E+001 0.0 0.0 -2.8087074E+002 0.0 0.0  2.0601639E+002 0.0 0.0 -1.6522315E-004 0.0 0.0 -3.7938801E+002 0.0 0.0  1.0142379E+003 0.0 0.0  8.8072982E+002 0.0 0.0 -4.5582058E+002 0.0 0.0  1.4584116E+003 0.0 0.0  4.1876619E+001 0.0 0.0  1.9775816E-006 0.0 0.0 -7.0957385E-009 0.0 0.0 -5.3711132E+002 0.0 0.0 -5.9910075E+002 0.0 0.0  5.9419551E+001 0.0 0.0  5.4717426E+002 0.0 0.0 -1.3818263E+003 0.0 0.0  1.3755713E+002 0.0 0.0  5.0840268E+002 0.0 0.0  9.9625969E+002 0.0 0.0  4.8439969E+002 0.0 0.0 -1.9745649E-015 0.0 0.0 -3.0886672E-003 0.0 0.0 -7.7388793E-014 0.0 0.0 -2.2757569E+002 0.0 0.0 -2.4464436E+002 0.0 0.0 -1.2178720E+002 0.0 0.0 -5.6045396E-018 0.0 0.0  3.5546496E-008 0.0 0.0  5.5818192E+002 0.0 0.0  1.7669183E+003 0.0 0.0  7.9919053E-014 0.0 0.0  5.1297686E-018 0.0 0.0 -4.5398708E+000 0.0 0.0 -1.0450585E-007 0.0 0.0  1.0030272E-007 0.0 0.0 -1.5835425E-007 0.0 0.0 -8.0499213E-010 0.0 0.0 -9.0854586E-008 0.0 0.0 -3.3025628E-007 0.0 0.0  2.8638208E+002 0.0 0.0 -3.8591039E-001 0.0 0.0 -8.2508711E+001 0.0 0.0 -4.4772231E+000 0.0 0.0 -2.1936855E+001 0.0 0.0  3.5275974E+001 0.0 0.0  3.9827159E+002 0.0 0.0  3.2913173E-012 0.0 0.0 -1.1029559E-001 0.0 0.0  1.8744704E+000 0.0 0.0  7.3955111E-001 0.0 0.0  5.4034261E-003 0.0 0.0  6.2462664E-002 0.0 0.0  4.9112792E-004 0.0 0.0  1.9765319E-003 0.0 0.0  7.3166073E-003 0.0 0.0 -1.5763265E-003 0.0 0.0  6.8827800E-003 0.0 0.0  1.5334334E-005 0.0 0.0 -9.6762132E+002 0.0 0.0 -2.9058932E-013 0.0 0.0 -4.2755386E-019 0.0 0.0  2.5775097E-002 0.0 0.0  1.0186089E-002 0.0 0.0 -6.4434614E-006 0.0 0.0 -1.8641180E-004 0.0 0.0 -1.8943096E-005 0.0 0.0  5.0949364E-003 0.0 0.0 -2.6951408E-004 0.0 0.0 -1.2380502E-002 0.0 0.0  1.0698732E-004 0.0 0.0 -9.8141419E-003 0.0 0.0 -5.1573307E+002 0.0 0.0  2.0017475E+003 0.0 0.0 -1.6794877E+002 0.0 0.0 -1.7254741E+002 0.0 0.0 -2.5963492E+002 0.0 0.0  4.5006714E+002 0.0 0.0 -3.9014360E+002 0.0 0.0  3.0728019E-004 0.0 0.0 -4.8928743E-004 0.0 0.0  2.5925793E-005 0.0 0.0 -6.8710855E-006 0.0 0.0 -6.9980552E-004 0.0 0.0  1.8299469E-005 0.0 0.0 -1.2555648E-004 0.0 0.0  4.6442915E-006 0.0 0.0 -3.2205734E-006 0.0 0.0  2.3705911E-007 0.0 0.0 -5.2089259E-007 0.0 0.0  2.5372891E-008 0.0 0.0 -1.5623531E-005 0.0 0.0 -5.5163739E-008 0.0 0.0  1.8235610E-009 0.0 0.0 -2.4842340E-008 0.0 0.0  7.2612781E-010 0.0 0.0 -5.2770318E-009 0.0 0.0  2.1285838E-010 0.0 0.0 -8.4331749E-011 0.0 0.0  1.1767139E-011 0.0 0.0 -4.1045619E-012 0.0 0.0  4.8502150E-013 0.0 0.0  4.8250221E-013 0.0 0.0  3.3962773E-014 0.0 0.0 -1.1902228E-018 0.0 0.0 -2.5260702E-002 0.0 0.0  1.2461823E-002 0.0 0.0  1.5622824E-009 0.0 0.0 -3.3906988E-011 0.0 0.0 -7.2921477E-003 0.0 0.0 -4.9872449E+003 0.0 0.0  5.4215909E-014 0.0 0.0  2.0950091E-007 0.0 0.0  1.5183190E-011 0.0 0.0  9.6326036E+001 0.0 0.0  4.8213013E-014 0.0 0.0 -1.8898590E-010 0.0 0.0  1.2482397E+002 0.0 0.0  1.0206580E-006 0.0 0.0  3.7660362E-007 0.0 0.0 -1.8388348E-015 0.0 0.0 -1.6614627E-008 0.0 0.0  3.5539884E-014 0.0 0.0  1.2935166E-004 0.0 0.0  3.1398524E+001 0.0 0.0 -4.8803349E-006 0.0 0.0 -1.1589852E-008 0.0 0.0  3.0229701E-007 0.0 0.0  2.0737977E-015 0.0 0.0  1.1794066E-013 0.0 0.0  1.0775174E-015 0.0 0.0  4.8107865E-001 0.0 0.0  2.9498002E-001 0.0 0.0 -3.3251751E-004 0.0 0.0  7.8100409E-005 0.0 0.0  4.3058371E-015 0.0 0.0  1.6386164E-004 0.0 0.0  8.2432846E-006 0.0 0.0  1.1523887E-004 0.0 0.0  6.6399883E-006 0.0 0.0  2.7039668E-004 0.0 0.0  6.4276600E-005 0.0 0.0  3.2393409E-003 0.0 0.0 -9.6549833E-003 0.0 0.0  6.4410372E-002 0.0 0.0  2.0956607E-005 0.0 0.0 -5.0246242E-004 0.0 0.0  1.0682256E+000 0.0 0.0  2.0577253E-005 0.0 0.0 -9.1695553E-015 0.0 0.0 -1.8193097E-013 0.0 0.0 -4.4755383E-007 0.0 0.0 -6.9623258E-010 0.0 0.0  2.4477210E-012 0.0 0.0 -1.0797580E-015 0.0 0.0 -9.7554130E-014 0.0 0.0  1.0395514E-014 0.0 0.0  4.9054810E+001 0.0 0.0  1.0717713E-016 0.0 0.0  7.4685576E+002 0.0 0.0  6.0656133E+002 0.0 0.0  1.3294529E+002 0.0 0.0  9.7420537E+002 0.0 0.0  1.5417522E+003 0.0 0.0  2.8124342E+003 0.0 0.0 -1.7370108E+002 0.0 0.0 -9.8379308E-003 0.0 0.0  4.9775156E-019 0.0 0.0 -3.9242496E-003 0.0 0.0  1.6439028E+003 0.0 0.0  1.0109452E-008 0.0 0.0  1.3622426E-009 0.0 0.0  2.0649431E-008 0.0 0.0  2.9912548E-007 0.0 0.0  5.2005436E-010 0.0 0.0  8.8636532E-009 0.0 0.0 -4.1150644E-005 0.0 0.0 -3.5791804E-017 0.0 0.0  3.6685569E-001 0.0 0.0  2.3627120E-002 0.0 0.0 -1.5669964E-001 0.0 0.0 -1.7732897E-001 0.0 0.0  1.5906244E-001 0.0 0.0 -3.7232091E-002 0.0 0.0  1.5103900E-002 0.0 0.0 -1.8005046E-002 0.0 0.0  1.0790349E-017 0.0 0.0  3.8459694E-015 0.0 0.0 -3.4743790E-018 0.0 0.0  1.2707836E-014 0.0 0.0 -2.0686604E-014 0.0 0.0  1.6149997E-012 0.0 0.0  3.3740997E-001 0.0 0.0  2.1626002E+001 0.0 0.0 -2.2808753E-010 0.0 0.0  3.7181307E-011 0.0 0.0  3.5513873E-001 0.0 0.0 -1.5617827E-002 0.0 0.0 -2.9514249E-001 0.0 0.0  5.0999261E-002 0.0 0.0  1.7985356E-003 0.0 0.0  2.3855412E-003 0.0 0.0  8.3212289E-002 0.0 0.0 -9.0198644E-004 0.0 0.0 -3.4031334E-003 0.0 0.0 -3.6475002E-003 0.0 0.0  2.2066446E-001 0.0 0.0  2.2189951E-001 0.0 0.0  2.4724427E-003 0.0 0.0  5.0959845E-001 0.0 0.0  4.4532816E+000 0.0 0.0  7.2289487E-002 0.0 0.0 -5.8879692E-008 0.0 0.0  1.0508640E-010 0.0 0.0 -1.7707853E-007 0.0 0.0  4.8707364E-008 0.0 0.0 -3.2847839E+003 0.0 0.0  6.9610400E+001 0.0 0.0 -1.8294145E-001 0.0 0.0  1.3069446E-003 0.0 0.0 -9.6838608E-007 0.0 0.0  6.8021322E-008 0.0 0.0  3.4058816E-012 0.0 0.0  1.5980054E-008 0.0 0.0 -6.4133680E-011 0.0 0.0  9.9127960E-010 0.0 0.0 -1.7529129E-010 0.0 0.0  1.0121474E-009 0.0 0.0  1.1583749E-007 0.0 0.0 -1.4710751E-011 0.0 0.0 -3.7439947E-009 0.0 0.0 -9.7443126E-008 0.0 0.0 -7.0870371E-009 0.0 0.0  2.2481395E-009 0.0 0.0 -9.0741414E+001 0.0 0.0 -6.0485567E+000 0.0 0.0 -5.0938899E-009 0.0 0.0 -3.2030796E+002 0.0 0.0 -1.5598033E+002 0.0 0.0 -1.4041917E+003 0.0 0.0  4.3077141E+001 0.0 0.0  1.2168089E+001 0.0 0.0  5.9744835E+002 0.0 0.0 -1.1894322E+003 0.0 0.0 -3.3652832E+001 0.0 0.0 -1.3757531E+003 0.0 0.0 -3.3535602E+001 0.0 0.0  5.4032272E+002 0.0 0.0  3.3403270E+003 0.0 0.0  1.0187038E+002 0.0 0.0 -1.5663373E+003 0.0 0.0 -7.9378899E+000 0.0 0.0 -3.0087039E+002 0.0 0.0 -4.9944093E+002 0.0 0.0 -2.8451158E+001 0.0 0.0 -1.3398546E+003 0.0 0.0 -9.1320863E+001 0.0 0.0 -7.9754165E+002 0.0 0.0 -5.9734802E+001 0.0 0.0 -1.1635039E+003 0.0 0.0 -9.9435683E+001 0.0 0.0  3.5348972E+003 0.0 0.0  1.9129948E-002 0.0 0.0  9.8717674E-017 0.0 0.0  6.1957807E-016 0.0 0.0 -2.1569895E-001 0.0 0.0 -8.7483784E-007 0.0 0.0 -9.8553295E-004 0.0 0.0 -8.3020343E-003 0.0 0.0 -5.9691961E-006 0.0 0.0 -2.4366997E-003 0.0 0.0 -4.6705694E-003 0.0 0.0  1.6023421E-003 0.0 0.0  1.6689516E-002 0.0 0.0 -4.1260440E-003 0.0 0.0  3.4849019E-005 0.0 0.0  4.0056924E-002 0.0 0.0 -7.4524690E-002 0.0 0.0 -6.1202705E-002 0.0 0.0 -6.4427001E-016 0.0 0.0 -2.1328389E-012 0.0 0.0 -3.4932294E-013 0.0 0.0 -4.0402803E-011 0.0 0.0 -2.7623690E+001 0.0 0.0 -5.0965174E-001 0.0 0.0  3.1731937E-010 0.0 0.0  3.8417238E-010 0.0 0.0  1.4715436E+000 0.0 0.0 -1.9539664E-001 0.0 0.0 -9.7324624E-003 0.0 0.0 -5.6585118E-003 0.0 0.0 -2.5176197E-003 0.0 0.0  1.1620508E-001 0.0 0.0  7.8075043E-001 0.0 0.0 -2.7651069E-001 0.0 0.0 -6.3625375E-001 0.0 0.0 -3.0123178E-002 0.0 0.0  3.5931217E-001 0.0 0.0  7.9133490E+000 0.0 0.0 -1.9058539E+001 0.0 0.0 -2.3285361E+000 0.0 0.0 -8.3056886E-003 0.0 0.0 -2.7470702E-001 0.0 0.0 -1.6744834E-003 0.0 0.0 -1.2253784E-002 0.0 0.0 -1.5220574E-004 0.0 0.0  1.2059643E-005 0.0 0.0  5.4539381E-006 0.0 0.0 -7.4437029E-007 0.0 0.0 -1.2137614E-002 0.0 0.0 -1.6735236E-004 0.0 0.0 -3.9086219E-003 0.0 0.0  2.0931002E-007 0.0 0.0 -1.0965383E-007 0.0 0.0 -2.5340339E-011 0.0 0.0 -1.4493486E-019 0.0 0.0  2.0790923E-008 0.0 0.0 -5.7062916E-010 0.0 0.0 -3.5337624E-011 0.0 0.0 -1.6552963E+001 0.0 0.0  3.8643084E-015 0.0 0.0  5.4816012E-009 0.0 0.0  2.5593957E+002 0.0 0.0  2.4126291E-001 0.0 0.0 -1.7664816E-001 0.0 0.0  1.6824238E+001 0.0 0.0 -3.2572436E-001 0.0 0.0 -1.9436312E-004 0.0 0.0  5.4267539E+002 0.0 0.0  2.9333010E-005 0.0 0.0  1.1649375E+000 0.0 0.0 -1.4392653E+000 0.0 0.0  3.6789066E-002 0.0 0.0 -7.3593507E-002 0.0 0.0  2.5967981E+001 0.0 0.0  6.4432810E-012 0.0 0.0  8.4799451E-012 0.0 0.0  1.3638788E-010 0.0 0.0 -1.6802407E-011 0.0 0.0  3.7785707E+000 0.0 0.0 -4.8971024E-002 0.0 0.0  6.0181079E-001 0.0 0.0 -2.9029610E+000 0.0 0.0 -1.6848415E-003 0.0 0.0  6.1383952E-010 0.0 0.0  1.0208903E-003 0.0 0.0 -4.4946311E+000 0.0 0.0  1.1838250E+000 0.0 0.0 -4.8349750E-002 0.0 0.0 -4.7695203E-001 0.0 0.0  2.4322236E-002 0.0 0.0  3.1411157E-001 0.0 0.0  4.2727236E+000 0.0 0.0  5.8501927E+000 0.0 0.0  4.1382705E+001 0.0 0.0  2.2299095E+001 0.0 0.0  3.8289211E-004 0.0 0.0 -3.8587528E-006 0.0 0.0  2.0900682E-003 0.0 0.0  4.0145634E-017 0.0 0.0  1.8232902E-015 0.0 0.0 -7.3036353E+003 0.0 0.0  3.9974925E+002 0.0 0.0  3.1696178E-007 0.0 0.0  1.1364743E-008 0.0 0.0 -1.1067606E+002 0.0 0.0 -2.8642636E-008 0.0 0.0 -1.0634185E-008 0.0 0.0  1.3227820E-009 0.0 0.0  6.7771729E-010 0.0 0.0 -4.2894672E-011 0.0 0.0  1.2431934E-012 0.0 0.0  7.1266615E-010 0.0 0.0 -2.0308506E-011 0.0 0.0  5.1047760E-011 0.0 0.0 -9.2542241E-013 0.0 0.0  3.9484264E-011 0.0 0.0 -1.2545088E-012 0.0 0.0  2.7898850E-013 0.0 0.0 -3.8121966E-014 0.0 0.0  3.1878696E-013 0.0 0.0 -1.1286265E-014 0.0 0.0  3.3388822E-011 0.0 0.0  9.4497960E-010 0.0 0.0  1.5850985E-015 0.0 0.0  3.7138833E-016 0.0 0.0  1.1890891E-013 0.0 0.0  1.1021006E-010 0.0 0.0  3.9333852E-012 0.0 0.0  4.1100893E-010 0.0 0.0  1.2499778E-014 0.0 0.0 -1.0135556E-018 0.0 0.0 -9.5566518E-007 0.0 0.0 -2.0470318E-008 0.0 0.0 -7.6548322E-018 0.0 0.0 -3.0427859E-018 0.0 0.0 -5.9197457E-004 0.0 0.0  5.4796862E-006 0.0 0.0  7.1001134E+000 0.0 0.0 -2.3975425E-001 0.0 0.0  1.4236108E+002 0.0 0.0 -1.8246247E-001 0.0 0.0 -1.2997159E+001 0.0 0.0  4.2667266E+001 0.0 0.0  1.4573020E+000 0.0 0.0 -3.8873785E+000 0.0 0.0 -7.8768412E-001 0.0 0.0 -6.9535087E-006 0.0 0.0 -8.0212497E-004 0.0 0.0  6.2366302E-002 0.0 0.0  2.1752891E-002 0.0 0.0  3.7136050E-003 0.0 0.0 -5.6910080E-003 0.0 0.0 -4.6586875E-003 0.0 0.0 -1.0963873E-003 0.0 0.0 -3.7084630E-002 0.0 0.0 -9.3077273E-006 0.0 0.0 -2.3374104E-008 0.0 0.0 -1.3661061E-003 0.0 0.0  1.6675191E+001 0.0 0.0  1.3426980E+000 0.0 0.0 -2.6314751E-005 0.0 0.0  2.3321233E+002 0.0 0.0  4.8079428E+000 0.0 0.0  8.3448501E+001 0.0 0.0  1.8178372E+000 0.0 0.0  4.6624391E+000 0.0 0.0 -2.0420529E-016 0.0 0.0  7.8228954E+000 0.0 0.0  1.4668383E-007 0.0 0.0 -7.4187804E-009 0.0 0.0 -2.5985780E+001 0.0 0.0  1.1964471E-014 0.0 0.0  1.9872532E-013 0.0 0.0  3.4538730E-012 0.0 0.0  1.6472496E-003 0.0 0.0  2.3569385E+001 0.0 0.0 -1.9436243E-006 0.0 0.0 -1.6384889E-001 0.0 0.0 -1.2296228E-001 0.0 0.0 -2.0797307E+000 0.0 0.0  4.1621674E+000 0.0 0.0 -9.2916477E-002 0.0 0.0  8.3007952E-001 0.0 0.0  7.6281164E-001 0.0 0.0  2.4788127E+002 0.0 0.0 -2.3601377E-018 0.0 0.0 -4.3383556E-008 0.0 0.0 -2.1335047E-007 0.0 0.0 -1.3720328E+002 0.0 0.0 -1.5062187E+002 0.0 0.0  3.8515322E-002 0.0 0.0  3.2807146E+002 0.0 0.0 -8.5077862E-003 0.0 0.0 -2.0225086E-001 0.0 0.0 -1.0346291E-002 0.0 0.0 -7.9190352E-002 0.0 0.0  1.6261517E-004 0.0 0.0  2.6206424E+001 0.0 0.0 -2.7004701E+000 0.0 0.0 -1.6987066E+003 0.0 0.0 -1.3060361E-009 0.0 0.0  6.2270377E+001 0.0 0.0 -8.8340201E+002 0.0 0.0  5.0457054E-007 0.0 0.0  1.1809521E-005 0.0 0.0  3.4703789E+002 0.0 0.0  3.2507879E+001 0.0 0.0  2.0689279E-003 0.0 0.0 -4.5591909E-003 0.0 0.0  4.0223697E+002 0.0 0.0 -1.5560214E-003 0.0 0.0 -7.0335550E-004 0.0 0.0 -4.1600138E+002 0.0 0.0 -1.8351275E+001 0.0 0.0 -1.8779346E-008 0.0 0.0 -1.4520457E-008 0.0 0.0 -1.4345107E-008 0.0 0.0 -6.4436398E-010 0.0 0.0  3.4172161E+002 0.0 0.0 -7.8653114E-008 0.0 0.0 -1.3488996E-013 0.0 0.0  1.9351060E-013 0.0 0.0  2.7830933E-010 0.0 0.0  5.8395273E-017 0.0 0.0 -2.0410119E-018 0.0 0.0  5.1785360E+000 0.0 0.0  7.7876313E+001 0.0 0.0 -2.7071097E-002 0.0 0.0 -2.1647191E-003 0.0 0.0  4.3838562E-004 0.0 0.0  2.2271294E-013 0.0 0.0 -8.5642677E+001 0.0 0.0 -2.9743548E-005 0.0 0.0  7.0437067E+001 0.0 0.0 -4.6529981E-012 0.0 0.0 -4.6925178E+001 0.0 0.0  3.9272306E-018 0.0 0.0 -8.7988440E-019 0.0 0.0  2.0307905E-019 0.0 0.0  1.3404859E+001 0.0 0.0  1.6255119E-012 0.0 0.0  1.9300438E+000 0.0 0.0  6.5141283E+000 0.0 0.0  1.0456689E-001 0.0 0.0  5.1651054E+000 0.0 0.0  2.6774017E-001 0.0 0.0  2.8138115E-002 0.0 0.0 -1.5353916E+002 0.0 0.0  6.2557796E+000 0.0 0.0 -1.1506614E+002 0.0 0.0 -4.9571678E+001 0.0 0.0 -1.1143824E+001 0.0 0.0  1.5863211E+000 0.0 0.0  1.0287811E+001 0.0 0.0  9.7572227E+000 0.0 0.0 -2.9804289E+000 0.0 0.0 -3.0777707E-019 0.0 0.0  1.6847947E-019 0.0 0.0 -8.8540665E-019 0.0 0.0  1.2377810E+002 0.0 0.0  1.2781135E+003 0.0 0.0 -1.2206516E-012 0.0 0.0 -1.5770198E+003 0.0 0.0 -2.0062699E+002 0.0 0.0 -1.8160148E-005 0.0 0.0 -1.4839472E-006 0.0 0.0  8.0938406E+002 0.0 0.0  3.8197069E+002 0.0 0.0  7.3215888E-001 0.0 0.0 -2.5061282E+001 0.0 0.0 -2.7148794E+002 0.0 0.0  9.4720485E+000 0.0 0.0  2.2746540E-004 0.0 0.0 -1.3129255E-002 0.0 0.0 -2.8119845E-013 0.0 0.0 -3.8068250E-009 0.0 0.0 -5.7325807E-013 0.0 0.0 -2.5464365E-002 0.0 0.0  3.3339264E-002 0.0 0.0  9.5991311E-001 0.0 0.0  5.2600011E-001 0.0 0.0  4.1653865E-009 0.0 0.0  2.3043101E-009 0.0 0.0 -3.2891980E-014 0.0 0.0 -8.0796766E-005 0.0 0.0  5.3376404E-001 0.0 0.0 -7.8767400E-009 0.0 0.0  5.0238495E-011 0.0 0.0 -1.6546153E-010 0.0 0.0  3.7553175E-010 0.0 0.0 -1.5651614E-011 0.0 0.0  1.3283249E-001 0.0 0.0  1.1665919E+000 0.0 0.0  2.7286322E+000 0.0 0.0  1.7744815E+001 0.0 0.0 -6.1419433E-001 0.0 0.0  1.4792954E+001 0.0 0.0  6.9283726E+000 0.0 0.0  6.9687240E+001 0.0 0.0 -1.6729166E+001 0.0 0.0  2.9815036E+001 0.0 0.0 -1.1215082E+002 0.0 0.0  8.7020162E+001 0.0 0.0 -9.8709444E-010 0.0 0.0 -1.5876884E-009 0.0 0.0  8.5934863E-011 0.0 0.0 -4.8998714E-009 0.0 0.0 -2.7527149E-009 0.0 0.0 -1.4348155E-010 0.0 0.0  2.5942957E+002 0.0 0.0 -4.5614582E-002 0.0 0.0 -1.7413556E+001 0.0 0.0 -4.8956009E+000 0.0 0.0 -1.8216034E-001 0.0 0.0 -1.2911061E+001 0.0 0.0  1.4450531E+003 0.0 0.0  5.5440092E+002 0.0 0.0  9.3869756E+001 0.0 0.0 -1.8483454E-003 0.0 0.0  1.6839077E-014 0.0 0.0 -5.7799638E+000 0.0 0.0  6.1497921E+001 0.0 0.0  5.1571226E+001 0.0 0.0  8.5144089E+001 0.0 0.0  2.7627177E+002 0.0 0.0  9.4777228E-018 0.0 0.0  2.3691921E+003 0.0 0.0  1.3373026E-006 0.0 0.0 -2.3730450E-007 0.0 0.0 -1.6776957E-008 0.0 0.0  5.2414951E-010 0.0 0.0 -3.5346546E+000 0.0 0.0 -3.0094851E-001 0.0 0.0 -1.2299805E-001 0.0 0.0 -3.2550076E-002 0.0 0.0  3.0227710E+000 0.0 0.0 -4.5770279E-003 0.0 0.0  6.3245060E+000 0.0 0.0  9.6761695E+000 0.0 0.0 -4.2986047E-006 0.0 0.0 -7.6052740E-012 0.0 0.0  2.9914439E+002 0.0 0.0 -6.5068644E-001 0.0 0.0  3.8350412E+002 0.0 0.0  3.7999173E+002 0.0 0.0  5.4390701E+003 0.0 0.0  1.4503706E+002 0.0 0.0  4.4398354E+002 0.0 0.0 -4.1553245E-002 0.0 0.0 -1.2371577E-010 0.0 0.0 -8.0858465E-013 0.0 0.0  2.2821746E+000 0.0 0.0  5.5450688E+001 0.0 0.0 -5.4386161E-006 0.0 0.0 -2.0588849E-006 0.0 0.0  9.0096444E-002 0.0 0.0 -2.1406110E-001 0.0 0.0 -3.5244952E-001 0.0 0.0  6.0176280E+003 0.0 0.0  3.4456684E+002 0.0 0.0  3.6955369E+002 0.0 0.0  1.2660806E+002 0.0 0.0  5.4843765E+000 0.0 0.0  6.8665765E+002 0.0 0.0 -1.5029714E-016 0.0 0.0  1.1752366E+000 0.0 0.0  4.8925318E-002 0.0 0.0 -1.2760475E-002 0.0 0.0 -1.3490629E-012 0.0 0.0 -1.7924256E-012 0.0 0.0 -3.7548338E-013 0.0 0.0 -2.5289203E-013 0.0 0.0  1.6246013E+000 0.0 0.0  2.1832244E+000 0.0 0.0  7.9334192E+001 0.0 0.0  1.5107367E+000 0.0 0.0  1.7268505E-001 0.0 0.0 -1.3294216E-005 0.0 0.0 -1.3328633E-002 0.0 0.0 -4.3651337E-014 0.0 0.0 -8.0831039E-015 0.0 0.0  9.3869570E-016 0.0 0.0  1.2526464E-014 0.0 0.0  7.9921151E-008 0.0 0.0  1.1547062E-013 0.0 0.0  2.3818937E-012 0.0 0.0  5.4948116E-012 0.0 0.0 -5.8505880E-019 0.0 0.0  6.0426139E-019 0.0 0.0  1.3663239E-006 0.0 0.0 -1.6195547E-009 0.0 0.0  5.9851607E-010 0.0 0.0 -2.4653824E-012 0.0 0.0  2.2482138E+001 0.0 0.0  4.5021076E+000 0.0 0.0  1.0997327E-008 0.0 0.0  2.8263056E-005 0.0 0.0  1.2008919E-006 0.0 0.0 -1.1255131E-004 0.0 0.0  4.3755105E-008 0.0 0.0  3.1236083E-009 0.0 0.0  1.7016254E-010 0.0 0.0  6.4933535E-010 0.0 0.0  1.2437665E-010 0.0 0.0  9.0728590E-012 0.0 0.0  7.9470403E-013 0.0 0.0 -1.0852224E-013 0.0 0.0  3.1290414E-007 0.0 0.0  1.7305511E-009 0.0 0.0 -1.1807674E-006 0.0 0.0  4.3128627E-006 0.0 0.0  1.0749206E-010 0.0 0.0  5.8539886E-012 0.0 0.0  2.4560419E-011 0.0 0.0 -8.9993622E-011 0.0 0.0  1.9758442E-009 0.0 0.0  4.2653810E-013 0.0 0.0  1.1855263E-008 0.0 0.0  1.4920082E-013 0.0 0.0 -1.5839947E-016 0.0 0.0  3.4975326E-014 0.0 0.0  1.6399116E-011 0.0 0.0  1.5034538E-011 0.0 0.0 -9.9561500E-010 0.0 0.0 -2.0914503E-011 0.0 0.0 -8.6012397E-013 0.0 0.0  8.1961193E-012 0.0 0.0  5.9786707E-011 0.0 0.0  2.5234925E-012 0.0 0.0 0.0 0.0 0.0 -1.5255222E-019 0.0 0.0  2.9111967E-019 0.0 0.0 -8.8690723E-019 0.0 0.0 -4.0780381E-018 0.0 0.0 -6.1869780E-013 0.0 0.0  1.3025317E-013 0.0 0.0 -1.7056894E-016 0.0 0.0  4.8309118E-014 0.0 0.0 -1.9636998E-018 0.0 0.0  7.6918318E-009 0.0 0.0 -6.1065339E-016 0.0 0.0  5.0824027E-014 0.0 0.0 -3.5928595E-019 0.0 0.0  5.2260178E-013 0.0 0.0  1.0449428E-017 0.0 0.0 -7.2115916E-017 0.0 0.0 -8.8451211E-018 0.0 0.0  6.7750045E-018 0.0 0.0 -1.9638667E-019 0.0 0.0  3.5887083E-011 0.0 0.0  1.6143708E-010 0.0 0.0  6.4906212E+003 0.0 0.0  5.1236519E-012 0.0 0.0  8.2266699E-012 0.0 0.0  6.1224216E-011 0.0 0.0  1.4206978E+002 0.0 0.0  6.5396183E+003 0.0 0.0  9.3722312E+003 0.0 0.0  1.6898395E+004 0.0 0.0  1.5783576E+003 0.0 0.0  3.7484365E+003 0.0 0.0  2.0627970E+004 0.0 0.0  2.6233341E+004 0.0 0.0  1.3143309E+003 0.0 0.0  3.0363766E+004 0.0 0.0  6.4938955E+002 0.0 0.0  3.5967637E+004 0.0 0.0  3.3540542E+004 0.0 0.0  1.3332229E+003 0.0 0.0  2.4466038E+003 0.0 0.0  3.4125275E+004 0.0 0.0  8.4070020E-017 0.0 0.0  1.0518996E-012 0.0 0.0  9.2869682E+001 0.0 0.0  1.2907587E+003 0.0 0.0  3.6088464E-018 0.0 0.0 -8.9560640E-002 0.0 0.0 -4.3439120E-002 0.0 0.0  8.4316728E-008 0.0 0.0  5.8909983E-007 0.0 0.0 -2.8130591E-008 0.0 0.0  7.5971604E-009 0.0 0.0 -6.1433607E-010 0.0 0.0 -2.1201360E-009 0.0 0.0  4.4593497E-007 0.0 0.0  3.0958271E-001 0.0 0.0 -1.4448292E-018 0.0 0.0  3.4938799E+001 0.0 0.0  1.2596457E+002 0.0 0.0 -3.0774142E+000 0.0 0.0 -1.6276949E-001 0.0 0.0 -4.7114139E-010 0.0 0.0  1.0724377E+000 0.0 0.0 -1.1991202E-006 0.0 0.0 -5.7194946E-016 0.0 0.0  2.0252275E+002 0.0 0.0  1.5427903E+003 0.0 0.0 -2.3058823E-004 0.0 0.0 -1.6431403E-018 0.0 0.0 -2.0416032E-019 0.0 0.0  9.6696842E+003 0.0 0.0  3.2286714E+001 0.0 0.0  4.9816305E-005 0.0 0.0  3.7771614E-007 0.0 0.0  6.5550159E+001 0.0 0.0  4.6018751E+002 0.0 0.0  1.5935575E+003 0.0 0.0 -1.4950438E-015 0.0 0.0  6.8008008E+001 0.0 0.0 -1.3874797E-017 0.0 0.0  1.2690652E-004 0.0 0.0 -1.5707810E-003 0.0 0.0  1.8906461E-010 0.0 0.0 -3.3421385E-019 0.0 0.0  2.2269002E-015 0.0 0.0  1.1209020E+003 0.0 0.0  6.7941118E-013 0.0 0.0 -3.4878624E-001 0.0 0.0 -8.3616599E-009 0.0 0.0 -1.1054298E-004 0.0 0.0 -3.0148808E-009 0.0 0.0 -2.2766792E-007 0.0 0.0  3.3144792E-002 0.0 0.0  1.1058283E+004 0.0 0.0  3.3191921E+003 0.0 0.0  1.8365603E+002 0.0 0.0 -5.1708696E-003 0.0 0.0 -9.0542174E-019 0.0 0.0 -5.4004156E+002 0.0 0.0 -9.1535671E-007 0.0 0.0 -3.9018418E-009 0.0 0.0 -7.6973484E-003 0.0 0.0 -1.1969786E+001 0.0 0.0 -9.4974390E+001 0.0 0.0 -4.9998023E+002 0.0 0.0 -4.5302415E-018 0.0 0.0  2.4583471E-003 0.0 0.0 -5.3641945E-010 0.0 0.0 -4.0397388E+001 0.0 0.0 -1.1804430E+001 0.0 0.0 -4.7067900E+001 0.0 0.0 -3.6068465E+000 0.0 0.0 -6.1179939E+001 0.0 0.0  3.2647011E+001 0.0 0.0 -3.4253668E+001 0.0 0.0  6.6274034E+002 0.0 0.0 -1.6128024E+002 0.0 0.0 -1.3011447E+001 0.0 0.0 -1.5737092E+002 0.0 0.0 -5.6083101E+001 0.0 0.0 -2.3115165E+000 0.0 0.0 -5.9790817E-004 0.0 0.0  3.2135702E-004 0.0 0.0 -9.9386628E-003 0.0 0.0  1.4786067E-012 0.0 0.0  2.1693700E-001 0.0 0.0 -1.0669739E-001 0.0 0.0  1.0034367E+001 0.0 0.0  5.9308433E+003 0.0 0.0  3.3679174E-002 0.0 0.0 -2.9717321E+000 0.0 0.0 -2.3223808E-005 0.0 0.0  1.1517914E-004 0.0 0.0  1.1931398E+003 0.0 0.0 -1.2547008E+001 0.0 0.0 -3.0449749E-018 0.0 0.0 -6.8392127E-001 0.0 0.0  2.3719468E-003 0.0 0.0 -1.4862996E-002 0.0 0.0 -5.5911375E-010 0.0 0.0  3.3367417E+002 0.0 0.0  3.3839554E+003 0.0 0.0  7.1585151E-001 0.0 0.0 -2.1100785E-011 0.0 0.0 -7.8235685E-003 0.0 0.0  3.6850907E-013 0.0 0.0  5.0130927E+002 0.0 0.0  4.8864882E-006 0.0 0.0  3.1702587E-008 0.0 0.0  2.5820885E-007 0.0 0.0 -2.7685327E-008 0.0 0.0 -5.7016166E-007 0.0 0.0  8.2638334E+001 0.0 0.0  3.3473390E-002 0.0 0.0  4.3558155E-001 0.0 0.0  2.5096083E-007 0.0 0.0  1.1359748E+002 0.0 0.0  3.2997039E-003 0.0 0.0 -3.9877199E+003 0.0 0.0 -1.9571503E+002 0.0 0.0  2.1883551E+004 0.0 0.0  9.6761784E-009 0.0 0.0  9.7965545E-013 0.0 0.0  4.7413831E-011 0.0 0.0  1.5624409E-010 0.0 0.0  2.8823652E+002 0.0 0.0  6.7016592E+003 0.0 0.0 -6.6951912E-006 0.0 0.0  4.1149634E+001 0.0 0.0  9.7951168E-013 0.0 0.0  1.0777229E+003 0.0 0.0  8.0593540E+003 0.0 0.0  1.9782228E+003 0.0 0.0 -5.8030730E-019 0.0 0.0  1.4906899E+002 0.0 0.0 -4.8204777E-001 0.0 0.0 -4.4411080E-009 0.0 0.0  1.5590485E+002 0.0 0.0  8.8574634E+001 0.0 0.0  1.0753498E-003 0.0 0.0 -3.4527953E-003 0.0 0.0 -4.8924164E+000 0.0 0.0 -1.3167452E-011 0.0 0.0  7.3191126E+003 0.0 0.0 -1.4499301E-011 0.0 0.0 -8.4195433E-006 0.0 0.0 -9.6999291E+001 0.0 0.0 -1.5614367E+002 0.0 0.0 -8.2415220E-004 0.0 0.0  1.9945394E+003 0.0 0.0  1.2835144E+003 0.0 0.0  3.2108843E+002 0.0 0.0  4.1895603E-001 0.0 0.0 -1.6871737E+002 0.0 0.0  4.6261363E-011 0.0 0.0 -1.3060704E-005 0.0 0.0  2.8801314E-003 0.0 0.0 -3.0306456E-003 0.0 0.0  1.2431670E-007 0.0 0.0  1.4868230E+004 0.0 0.0 -8.7802176E+002 0.0 0.0  5.7798350E-008 0.0 0.0 -3.0011956E-005 0.0 0.0 -4.1907037E-003 0.0 0.0 -3.7809641E-003 0.0 0.0 -4.3986493E-002 0.0 0.0 -5.1411562E-003 0.0 0.0 -6.1003522E+000 0.0 0.0  8.9606230E+000 0.0 0.0 -1.8098022E+004 0.0 0.0 -4.4190297E+004 0.0 0.0  9.7883042E-005 0.0 0.0 -4.3366586E+003 0.0 0.0 -1.9231121E+004 0.0 0.0 -3.9975322E-002 0.0 0.0 -4.7251666E-002 0.0 0.0 -3.7732479E-001 0.0 0.0 -1.7072113E+003 0.0 0.0 -1.5361601E-001 0.0 0.0 -1.1550149E-002 0.0 0.0 -1.4772534E-001 0.0 0.0 -3.5481463E+004 0.0 0.0 -8.9520850E-007 0.0 0.0 -1.0206511E-002 0.0 0.0 -9.2971363E-005 0.0 0.0 -7.3076274E-007 0.0 0.0 -7.8171144E-007 0.0 0.0 -9.3276226E-004 0.0 0.0 -8.9649160E-007 0.0 0.0 -6.5283528E-004 0.0 0.0 -1.4449424E-008 0.0 0.0 -2.6504606E-003 0.0 0.0 -1.2629786E-008 0.0 0.0 -1.0759951E-005 0.0 0.0 -3.0289147E-001 0.0 0.0 -7.2484091E-002 0.0 0.0 -3.0536546E-001 0.0 0.0 -4.3095380E-008 0.0 0.0  6.1484049E+002 0.0 0.0  4.8890891E-003 0.0 0.0  5.8959176E-011 0.0 0.0 -8.0206613E-004 0.0 0.0  3.7443009E+000 0.0 0.0 -5.8788685E-002 0.0 0.0 -8.2059001E-005 0.0 0.0 -7.7926031E-004 0.0 0.0  8.9927721E-003 0.0 0.0 -5.0809427E-002 0.0 0.0 -1.4544023E+003 0.0 0.0 -1.7538058E+003 0.0 0.0 -8.1517392E+002 0.0 0.0  3.0624244E-006 0.0 0.0 -3.7415294E-002 0.0 0.0  6.5991112E-001 0.0 0.0  5.9503803E-015 0.0 0.0 -4.5937820E-008 0.0 0.0  2.9230401E+001 0.0 0.0  2.9570092E+002 0.0 0.0  3.1495450E-005 0.0 0.0  7.5112864E+002 0.0 0.0 -1.1452700E+003 0.0 0.0 -9.3831740E+002 0.0 0.0 -2.1405287E-007 0.0 0.0 -2.8580159E+003 0.0 0.0 -3.2123802E+003 0.0 0.0 -4.5505025E+003 0.0 0.0 -7.9977745E+002 0.0 0.0  4.0845382E+002 0.0 0.0 -3.9975854E+003 0.0 0.0  8.5037610E+003 0.0 0.0 -1.5662074E+003 0.0 0.0 -4.4307604E+003 0.0 0.0 -4.7339390E+003 0.0 0.0 -4.7694229E+003 0.0 0.0 -3.9994585E+003 0.0 0.0 -4.1358324E+002 0.0 0.0 -4.7214975E+003 0.0 0.0 -1.6280805E+003 0.0 0.0 -3.0302078E+003 0.0 0.0 -3.8885923E+003 0.0 0.0 -1.1738316E+003 0.0 0.0 -4.3077734E+003 0.0 0.0 -3.8619490E+003 0.0 0.0  1.2410459E+004 0.0 0.0 -3.8284186E+003 0.0 0.0  6.5720436E+003 0.0 0.0  2.2128470E+003 0.0 0.0  1.9500539E+003 0.0 0.0 -4.3727972E+003 0.0 0.0  8.9785797E+002 0.0 0.0  5.9845620E+003 0.0 0.0  3.4463892E+003 0.0 0.0  5.6821171E+003 0.0 0.0  1.0370237E-013 0.0 0.0 -2.6051579E-008 0.0 0.0 -3.4342218E-001 0.0 0.0  1.0895248E+002 0.0 0.0 -5.1465358E-003 0.0 0.0  2.8895049E-019 0.0 0.0  7.6123799E-016 0.0 0.0  2.5364545E-009 0.0 0.0  5.3721340E+003 0.0 0.0  1.3612129E+001 0.0 0.0 -4.4158814E-017 0.0 0.0 -6.4367994E-015 0.0 0.0  8.8332305E+003 0.0 0.0 -2.2961518E-002 0.0 0.0  4.8187489E-001 0.0 0.0 -7.3117083E+003 0.0 0.0  3.4773802E+000 0.0 0.0  2.5916991E+002 0.0 0.0  1.7011509E-003 0.0 0.0  4.9382248E-014 0.0 0.0 -6.3279081E-010 0.0 0.0 -6.2799233E+000 0.0 0.0  3.7541599E-001 0.0 0.0 -1.4243749E-007 0.0 0.0  1.1724743E+002 0.0 0.0 -2.6826456E-004 0.0 0.0 -6.0455153E-018 0.0 0.0  1.8584549E-007 0.0 0.0 -1.2862001E-001 0.0 0.0 -1.6665920E-007 0.0 0.0  1.6341916E-012 0.0 0.0  7.0434110E+002 0.0 0.0 -6.3932608E+002 0.0 0.0  3.8982115E+001 0.0 0.0 -2.5028232E-008 0.0 0.0  2.8011314E-008 0.0 0.0 -5.7717139E+000 0.0 0.0  3.2333910E+001 0.0 0.0  1.7276249E-002 0.0 0.0  1.4847761E+003 0.0 0.0 -1.1265004E-014 0.0 0.0  1.7722548E+003 0.0 0.0  2.2840124E+003 0.0 0.0  2.0881825E-006 0.0 0.0  6.2721772E-014 0.0 0.0  1.7080608E-003 0.0 0.0  5.7660421E+003 0.0 0.0 -3.6651894E-002 0.0 0.0 -1.1117825E-002 0.0 0.0 -5.2349277E-002 0.0 0.0 -1.8283647E-002 0.0 0.0 -7.8335661E-002 0.0 0.0  8.7471068E+004 0.0 0.0  1.2631738E+001 0.0 0.0 -4.5962089E-006 0.0 0.0  5.7717127E+002 0.0 0.0 -4.2915252E+003 0.0 0.0 -4.2340511E+001 0.0 0.0  5.3302726E-010 0.0 0.0  1.8407876E+002 0.0 0.0 -6.0193168E-014 0.0 0.0 -5.2959181E-001 0.0 0.0 -2.2174999E-008 0.0 0.0 -6.6658698E-003 0.0 0.0 -1.2114391E-010 0.0 0.0 -5.2800579E+002 0.0 0.0  2.2865103E+003 0.0 0.0  1.3671126E-001 0.0 0.0 -3.7588123E+000 0.0 0.0 -5.3791111E+001 0.0 0.0 -6.1785413E-019 0.0 0.0 -6.1734285E+000 0.0 0.0  9.0896906E+000 0.0 0.0 -7.3751563E-009 0.0 0.0  7.9149680E-004 0.0 0.0 -1.4445070E-002 0.0 0.0  1.7511049E-011 0.0 0.0  1.6370863E+004 0.0 0.0  9.0822027E+001 0.0 0.0 -7.3682359E+004
        </DataArray>
        <DataArray type="Float64" Name="displacement" NumberOfComponents="3" format="ascii">
 0.0 0.0 0.0 0.0 0.0 0.0 0.0 0.0 0.0 0.0 0.0 0.0 -6.1612480E-008  1.0924519E-004 0.0 -6.8132653E-006 0.0 0.0 -6.2408784E-014 0.0 0.0 0.0 0.0 0.0 0.0 0.0 0.0 0.0 0.0 0.0 0.0 0.0 0.0 0.0 0.0 0.0 0.0 0.0 0.0 0.0 0.0 0.0 0.0 0.0 0.0 0.0 0.0 0.0 0.0 0.0 0.0 0.0 0.0 0.0 0.0 0.0 0.0 0.0 0.0 0.0 -2.5663845E-013  1.0899514E-004 0.0 0.0 0.0 0.0 0.0 0.0 0.0 0.0 0.0 0.0 0.0 0.0 0.0 0.0 0.0 0.0 0.0 0.0 0.0 0.0 0.0 0.0 0.0 0.0 0.0 0.0 0.0 0.0 0.0 0.0 0.0 0.0 0.0 0.0 0.0 0.0 0.0 0.0 0.0 0.0 0.0 0.0 0.0 0.0 0.0 0.0 0.0 0.0 0.0 0.0 0.0 0.0 0.0 0.0 0.0 0.0 0.0 0.0 0.0 0.0 0.0 0.0 0.0 0.0 0.0 0.0 0.0 0.0 0.0 0.0 0.0 0.0 0.0 0.0 0.0 0.0 0.0 0.0 0.0 0.0 0.0 0.0 0.0 0.0 0.0 -1.1816004E-007  1.0924218E-004 0.0 -1.7759162E-007  1.0922909E-004 0.0 -2.4148017E-007  1.0920654E-004 0.0 -3.1177216E-007  1.0917223E-004 0.0 -3.9074599E-007  1.0912220E-004 0.0 -4.8135799E-007  1.0905001E-004 0.0 -5.8760340E-007  1.0894520E-004 0.0 -7.1425556E-007  1.0879151E-004 0.0 -8.4696862E-007  1.0859632E-004 0.0 -9.7807965E-007  1.0836837E-004 0.0 -1.1076104E-006  1.0810809E-004 0.0 -1.2355677E-006  1.0781587E-004 0.0 -1.3619378E-006  1.0749211E-004 0.0 -1.4867411E-006  1.0713722E-004 0.0 -1.6099867E-006  1.0675157E-004 0.0 -1.7316906E-006  1.0633556E-004 0.0 -1.8518752E-006  1.0588955E-004 0.0 -1.9705298E-006  1.0541392E-004 0.0 -2.0876334E-006  1.0490904E-004 0.0 -2.2031997E-006  1.0437532E-004 0.0 -2.3172354E-006  1.0381313E-004 0.0 -2.4297447E-006  1.0322284E-004 0.0 -2.5407306E-006  1.0260484E-004 0.0 -2.6501989E-006  1.0195952E-004 0.0 -2.7581702E-006  1.0128723E-004 0.0 -2.8646378E-006  1.0058835E-004 0.0 -2.9696146E-006  9.9863265E-005 0.0 -3.0731179E-006  9.9112324E-005 0.0 -3.1751368E-006  9.8335901E-005 0.0 -3.2756765E-006  9.7534360E-005 0.0 -3.3747573E-006  9.6708072E-005 0.0 -3.4723732E-006  9.5857389E-005 0.0 -3.5685274E-006  9.4982681E-005 0.0 -3.6632270E-006  9.4084308E-005 0.0 -3.7564764E-006  9.3162631E-005 0.0 -3.8482784E-006  9.2218008E-005 0.0 -3.9386372E-006  9.1250808E-005 0.0 -4.0275797E-006  9.0261389E-005 0.0 -4.1151204E-006  8.9250092E-005 0.0 -4.2012656E-006  8.8217249E-005 0.0 -4.2859972E-006  8.7163197E-005 0.0 -4.3692917E-006  8.6088299E-005 0.0 -4.4511527E-006  8.4992916E-005 0.0 -4.5315794E-006  8.3877405E-005 0.0 -4.6105664E-006  8.2742128E-005 0.0 -4.6881300E-006  8.1587442E-005 0.0 -4.7642664E-006  8.0413696E-005 0.0 -4.8389838E-006  7.9221244E-005 0.0 -4.9122837E-006  7.8010437E-005 0.0 -4.9841647E-006  7.6781626E-005 0.0 -5.0546270E-006  7.5535164E-005 0.0 -5.1236777E-006  7.4271403E-005 0.0 -5.1913208E-006  7.2990692E-005 0.0 -5.2575522E-006  7.1693381E-005 0.0 -5.3223836E-006  7.0379822E-005 0.0 -5.3858188E-006  6.9050355E-005 0.0 -5.4478500E-006  6.7705330E-005 0.0 -5.5084898E-006  6.6345098E-005 0.0 -5.5677394E-006  6.4969996E-005 0.0 -5.6255952E-006  6.3580374E-005 0.0 -5.6820663E-006  6.2176575E-005 0.0 -5.7371466E-006  6.0758940E-005 0.0 -5.7908410E-006  5.9327821E-005 0.0 -5.8431553E-006  5.7883555E-005 0.0 -5.8940849E-006  5.6426484E-005 0.0 -5.9436318E-006  5.4956954E-005 0.0 -5.9917988E-006  5.3475312E-005 0.0 -6.0385992E-006  5.1981889E-005 0.0 -6.0840163E-006  5.0477030E-005 0.0 -6.1280501E-006  4.8961077E-005 0.0 -6.1707157E-006  4.7434375E-005 0.0 -6.2120025E-006  4.5897262E-005 0.0 -6.2519202E-006  4.4350082E-005 0.0 -6.2904678E-006  4.2793168E-005 0.0 -6.3276379E-006  4.1226868E-005 0.0 -6.3634483E-006  3.9651528E-005 0.0 -6.3979111E-006  3.8067472E-005 0.0 -6.4310090E-006  3.6475027E-005 0.0 -6.4627339E-006  3.4874540E-005 0.0 -6.4930847E-006  3.3266359E-005 0.0 -6.5220749E-006  3.1650831E-005 0.0 -6.5497176E-006  3.0028287E-005 0.0 -6.5760163E-006  2.8399054E-005 0.0 -6.6009677E-006  2.6763484E-005 0.0 -6.6246044E-006  2.5121906E-005 0.0 -6.6469500E-006  2.3474625E-005 0.0 -6.6679808E-006  2.1821946E-005 0.0 -6.6876779E-006  2.0164195E-005 0.0 -6.7060113E-006  1.8501702E-005 0.0 -6.7229592E-006  1.6834818E-005 0.0 -6.7385118E-006  1.5163887E-005 0.0 -6.7526560E-006  1.3489271E-005 0.0 -6.7653909E-006  1.1811313E-005 0.0 -6.7767034E-006  1.0130364E-005 0.0 -6.7866052E-006  8.4467746E-006 0.0 -6.7950770E-006  6.7608776E-006 0.0 -6.8020997E-006  5.0729952E-006 0.0 -6.8076026E-006  3.3834300E-006 0.0 -6.8114654E-006  1.6924393E-006 0.0 -5.1091303E-006 0.0 0.0 -3.4057233E-006 0.0 0.0 -1.7027426E-006 0.0 0.0 0.0 0.0 0.0 0.0 0.0 0.0 0.0 0.0 0.0 0.0 0.0 0.0 0.0 0.0 0.0 0.0 0.0 0.0 0.0 0.0 0.0 0.0 0.0 0.0 0.0 0.0 0.0 0.0 0.0 0.0 0.0 0.0 0.0 0.0 0.0 0.0 0.0 0.0 0.0 0.0 0.0 0.0 0.0 0.0 0.0 0.0 0.0 0.0 0.0 0.0 0.0 0.0 0.0 0.0 0.0 0.0 0.0 0.0 0.0 0.0 0.0 0.0 0.0 0.0 0.0 0.0 0.0 0.0 0.0 0.0 0.0 0.0 0.0 0.0 0.0 0.0 0.0 0.0 0.0 0.0 0.0 0.0 0.0 0.0 0.0 0.0 0.0 0.0 0.0 0.0 0.0 0.0 0.0 0.0 0.0 0.0 0.0 0.0 0.0 0.0 0.0 0.0 0.0 0.0 0.0 0.0 0.0 0.0 0.0 0.0 0.0 0.0 0.0 0.0 0.0 0.0 0.0 0.0 0.0 0.0 0.0 0.0 0.0 0.0 0.0 0.0 0.0 0.0 0.0 0.0 0.0 0.0 0.0 0.0 0.0 0.0 0.0 0.0 0.0 0.0 0.0 0.0 0.0 0.0 0.0 0.0 0.0 0.0 0.0 0.0 0.0 0.0 0.0 0.0 0.0 0.0 0.0 0.0 0.0 0.0 0.0 0.0 0.0 0.0 0.0 0.0 0.0 0.0 0.0 0.0 0.0 0.0 0.0 0.0 0.0 0.0 0.0 0.0 0.0 0.0 0.0 0.0 0.0 0.0 0.0 0.0 0.0 0.0 0.0 0.0 0.0 0.0 0.0 0.0 0.0 0.0 0.0 0.0 0.0 0.0 0.0 0.0 0.0 0.0 0.0 0.0 0.0 0.0 0.0 0.0 0.0 0.0 0.0 0.0 0.0 0.0 0.0 0.0 0.0 0.0 0.0 0.0 0.0 0.0 0.0 0.0 0.0 0.0 0.0 0.0 0.0 0.0 0.0 0.0 0.0 0.0 0.0 0.0 0.0 0.0 0.0 0.0 0.0 0.0 0.0 0.0 0.0 0.0 0.0 0.0 0.0 0.0 0.0 0.0 0.0 0.0 0.0 0.0 0.0 0.0 0.0 0.0 0.0 0.0 0.0 0.0 0.0 0.0 0.0 0.0 0.0 0.0 0.0 0.0 0.0 0.0 0.0 0.0 0.0 0.0 0.0 0.0 0.0 0.0 0.0 0.0 0.0 0.0 0.0 0.0 0.0 0.0 0.0 0.0 0.0 0.0 0.0 0.0 0.0 0.0 0.0 0.0 0.0 0.0 0.0 0.0 0.0 0.0 0.0 0.0 0.0 0.0 0.0 0.0 0.0 0.0 0.0 0.0 0.0 0.0 0.0 0.0 0.0 0.0 0.0 0.0 0.0 0.0 0.0 0.0 0.0 0.0 0.0 0.0 0.0 0.0 0.0 0.0 0.0 0.0 0.0 0.0 0.0 0.0 0.0 0.0 0.0 0.0 0.0 0.0 0.0 0.0 0.0 0.0 0.0 0.0 0.0 0.0 0.0 0.0 0.0 0.0 0.0 0.0 0.0 0.0 0.0 0.0 0.0 0.0 0.0 0.0 0.0 0.0 0.0 0.0 0.0 0.0 0.0 0.0 0.0 0.0 0.0 0.0 0.0 0.0 0.0 0.0 0.0 0.0 0.0 0.0 0.0 0.0 0.0 0.0 0.0 0.0 0.0 0.0 0.0 0.0 0.0 0.0 0.0 0.0 0.0 0.0 0.0 0.0 0.0 0.0 0.0 0.0 0.0 0.0 0.0 0.0 0.0 0.0 0.0 0.0 0.0 0.0 0.0 0.0 0.0 0.0 0.0 0.0 0.0 0.0 0.0 0.0 0.0 0.0 0.0 0.0 0.0 0.0 0.0 0.0 0.0 0.0 0.0 0.0 0.0 0.0 0.0 0.0 0.0 0.0 0.0 0.0 0.0 0.0 0.0 0.0 0.0 0.0 0.0 0.0 0.0 0.0 0.0 0.0 0.0 0.0 0.0 0.0 0.0 0.0 0.0 0.0 0.0 0.0 0.0 0.0 0.0 0.0 0.0 0.0 0.0 0.0 0.0 0.0 0.0 0.0 0.0 0.0 0.0 0.0 0.0 0.0 0.0 0.0 0.0 0.0 0.0 0.0 0.0 0.0 0.0 0.0 0.0 0.0 0.0 0.0 0.0 0.0 0.0 0.0 0.0 0.0 0.0 0.0 0.0 0.0 0.0 0.0 0.0 0.0 0.0 0.0 0.0 0.0 0.0 0.0 0.0 0.0 0.0 0.0 0.0 0.0 0.0 0.0 0.0 0.0 0.0 0.0 0.0 0.0 0.0 0.0 0.0 0.0 0.0 0.0 0.0 0.0 0.0 0.0 0.0 0.0 0.0 0.0 0.0 0.0 0.0 0.0 0.0 0.0 0.0 0.0 0.0 0.0 0.0 0.0 0.0 0.0 0.0 0.0 0.0 0.0 0.0 0.0 0.0 0.0 0.0 0.0 0.0 0.0 0.0 0.0 0.0 0.0 0.0 0.0 0.0 0.0 0.0 0.0 0.0 0.0 0.0 0.0 0.0 0.0 0.0 0.0 0.0 0.0 0.0 0.0 0.0 0.0 0.0 0.0 0.0 0.0 0.0 0.0 0.0 0.0 0.0 0.0 0.0 0.0 0.0 0.0 0.0 0.0 0.0 0.0 0.0 0.0 0.0 0.0 0.0 0.0 0.0 0.0 0.0 0.0 0.0 0.0 0.0 0.0 0.0 0.0 0.0 0.0 0.0 0.0 0.0 0.0 0.0 0.0 0.0 0.0 0.0 0.0 0.0 0.0 0.0 0.0 0.0 0.0 0.0 0.0 0.0 0.0 0.0 0.0 0.0 0.0 0.0 0.0 0.0 0.0 0.0 0.0 0.0 0.0 0.0 0.0 0.0 0.0 0.0 0.0 0.0 0.0 0.0 0.0 0.0 0.0 0.0 0.0 0.0 0.0 0.0 0.0 0.0 0.0 0.0 0.0 0.0 0.0 0.0 0.0 0.0 0.0 0.0 0.0 0.0 0.0 0.0 0.0 0.0 0.0 0.0 0.0 0.0 0.0 0.0 0.0 0.0 0.0 0.0 0.0 0.0 0.0 0.0 0.0 0.0 0.0 0.0 0.0 0.0 0.0 0.0 0.0 0.0 0.0 0.0 0.0 0.0 0.0 0.0 0.0 0.0 0.0 0.0 0.0 0.0 0.0 0.0 0.0 0.0 0.0 0.0 0.0 0.0 0.0 0.0 0.0 0.0 0.0 0.0 0.0 0.0 0.0 0.0 0.0 0.0 0.0 0.0 0.0 0.0 0.0 0.0 0.0 0.0 0.0 0.0 0.0 0.0 0.0 0.0 0.0 0.0 0.0 0.0 0.0 0.0 0.0 0.0 0.0 0.0 0.0 0.0 0.0 0.0 0.0 0.0 0.0 0.0 0.0 0.0 0.0 0.0 0.0 0.0 0.0 0.0 0.0 0.0 0.0 0.0 0.0 0.0 0.0 0.0 0.0 0.0 0.0 0.0 0.0 0.0 0.0 0.0 0.0 0.0 0.0 0.0 0.0 0.0 0.0 0.0 0.0 0.0 0.0 0.0 0.0 0.0 0.0 0.0 0.0 0.0 0.0 0.0 0.0 0.0 0.0 0.0 0.0 0.0 0.0 0.0 0.0 0.0 0.0 0.0 0.0 0.0 0.0 0.0 0.0 0.0 0.0 0.0 0.0 0.0 0.0 0.0 0.0 0.0 0.0 0.0 0.0 0.0 0.0 0.0 0.0 0.0 0.0 0.0 0.0 0.0 0.0 0.0 0.0 0.0 0.0 0.0 0.0 0.0 0.0 0.0 0.0 0.0 -6.1960768E-008  1.0919547E-004 0.0 -5.8963943E-008  1.0915228E-004 0.0 -5.4296250E-008  1.0911478E-004 0.0 -4.8404031E-008  1.0908265E-004 0.0 -4.1589702E-008  1.0905568E-004 0.0 -3.4075777E-008  1.0903376E-004 0.0 -2.6021840E-008  1.0901680E-004 0.0 -1.7573745E-008  1.0900474E-004 0.0 -8.8603133E-009  1.0899753E-004 0.0 0.0 0.0 0.0 0.0 0.0 0.0 0.0 0.0 0.0 0.0 0.0 0.0 0.0 0.0 0.0 0.0 0.0 0.0 0.0 0.0 0.0 0.0 0.0 0.0 0.0 0.0 0.0 0.0 0.0 0.0 0.0 0.0 0.0 0.0 0.0 0.0 0.0 0.0 0.0 0.0 0.0 0.0 0.0 0.0 0.0 0.0 0.0 0.0 0.0 0.0 0.0 0.0 0.0 0.0 0.0 0.0 0.0 0.0 0.0 0.0 0.0 0.0 0.0 0.0 0.0 0.0 0.0 0.0 0.0 0.0 0.0 0.0 0.0 0.0 0.0 0.0 0.0 0.0 0.0 0.0 0.0 0.0 0.0 0.0 0.0 0.0 0.0 0.0 0.0 0.0 0.0 0.0 0.0 0.0 0.0 0.0 0.0 0.0 0.0 0.0 0.0 0.0 0.0 0.0 0.0 0.0 0.0 0.0 0.0 0.0 0.0 0.0 0.0 0.0 0.0 0.0 0.0 0.0 0.0 0.0 0.0 0.0 0.0 0.0 0.0 0.0 0.0 0.0 0.0 0.0 0.0 0.0 0.0 0.0 0.0 0.0 0.0 0.0 0.0 0.0 0.0 0.0 0.0 0.0 0.0 0.0 0.0 -7.5196919E-016  1.6878319E-006 0.0  5.5406575E-015  3.3749289E-006 0.0 -4.6256062E-014  5.0609770E-006 0.0 -1.2553144E-014  6.7456098E-006 0.0 -3.8041131E-014  8.4284158E-006 0.0  1.9643111E-014  1.0109043E-005 0.0 -4.9568342E-015  1.1787100E-005 0.0  3.5405274E-014  1.3462206E-005 0.0  2.2541112E-014  1.5133999E-005 0.0 -1.3319191E-015  1.6802129E-005 0.0  2.3276595E-014  1.8466237E-005 0.0  1.5381043E-014  2.0125966E-005 0.0  1.0857377E-016  2.1780970E-005 0.0 -2.8593721E-014  2.3430935E-005 0.0  2.0014201E-014  2.5075546E-005 0.0  7.9012435E-015  2.6714447E-005 0.0  1.6671983E-014  2.8347326E-005 0.0  5.8428055E-015  2.9973859E-005 0.0  2.4922822E-014  3.1593703E-005 0.0  9.7632503E-015  3.3206513E-005 0.0  3.6916127E-014  3.4811959E-005 0.0 -2.8272359E-014  3.6409689E-005 0.0 -2.6284094E-014  3.7999377E-005 0.0  2.1869339E-014  3.9580695E-005 0.0  1.1073064E-014  4.1153298E-005 0.0 -4.5050174E-015  4.2716847E-005 0.0  3.0950391E-014  4.4271000E-005 0.0 -1.5372132E-014  4.5815407E-005 0.0 -2.9504966E-014  4.7349748E-005 0.0  1.6654340E-014  4.8873683E-005 0.0 -4.6670404E-015  5.0386864E-005 0.0  3.1325004E-014  5.1888950E-005 0.0  5.7871022E-015  5.3379596E-005 0.0  2.0227866E-014  5.4858462E-005 0.0  8.5673923E-015  5.6325207E-005 0.0  8.6490435E-015  5.7779498E-005 0.0 -4.4110087E-014  5.9220973E-005 0.0  5.8251778E-015  6.0649293E-005 0.0  2.5180867E-014  6.2064137E-005 0.0  6.4348776E-016  6.3465138E-005 0.0  7.0554462E-015  6.4851959E-005 0.0  4.8165452E-015  6.6224257E-005 0.0  3.8086300E-014  6.7581681E-005 0.0  6.4944015E-015  6.8923890E-005 0.0 -1.7883523E-015  7.0250543E-005 0.0 -3.5031498E-014  7.1561269E-005 0.0  4.0080435E-015  7.2855745E-005 0.0 -1.9468661E-015  7.4133620E-005 0.0  1.0995204E-014  7.5394540E-005 0.0 -4.3003785E-015  7.6638152E-005 0.0 -2.9700532E-014  7.7864104E-005 0.0  3.3009591E-014  7.9072056E-005 0.0  2.6240259E-014  8.0261643E-005 0.0  3.4892114E-015  8.1432520E-005 0.0 -6.8853528E-015  8.2584334E-005 0.0 -3.1796681E-014  8.3716729E-005 0.0  2.4972563E-014  8.4829361E-005 0.0  1.2629421E-014  8.5921873E-005 0.0 -1.6783080E-014  8.6993907E-005 0.0 -1.5584045E-014  8.8045095E-005 0.0 -2.8534467E-014  8.9075062E-005 0.0  3.1587725E-014  9.0083482E-005 0.0 -3.5980044E-016  9.1070024E-005 0.0  1.4479107E-014  9.2034353E-005 0.0 -6.8559183E-015  9.2976092E-005 0.0 -1.2666246E-014  9.3894858E-005 0.0 -3.0040740E-014  9.4790295E-005 0.0  3.5703970E-014  9.5662074E-005 0.0  6.2597986E-015  9.6509811E-005 0.0  1.6842736E-014  9.7333143E-005 0.0 -3.4037962E-015  9.8131717E-005 0.0  3.1732273E-014  9.8905175E-005 0.0  1.4405472E-014  9.9653127E-005 0.0 -4.9891124E-017  1.0037520E-004 0.0 -3.6745982E-014  1.0107105E-004 0.0  1.9258318E-014  1.0174032E-004 0.0  7.9172388E-016  1.0238261E-004 0.0  2.8863075E-014  1.0299755E-004 0.0 -8.4892419E-015  1.0358477E-004 0.0  1.7637914E-014  1.0414389E-004 0.0  1.6775500E-014  1.0467453E-004 0.0 -1.6939258E-014  1.0517631E-004 0.0 -1.5846675E-014  1.0564884E-004 0.0 -3.2983234E-014  1.0609175E-004 0.0  3.6435433E-014  1.0650467E-004 0.0  5.9965633E-015  1.0688718E-004 0.0  1.7096751E-014  1.0723892E-004 0.0 -3.8543542E-015  1.0755952E-004 0.0  1.3594582E-014  1.0784858E-004 0.0  2.9598415E-014  1.0810573E-004 0.0 -4.3417058E-015  1.0833058E-004 0.0 -7.5347369E-015  1.0852284E-004 0.0  3.0361667E-015  1.0867413E-004 0.0 -2.3004520E-014  1.0877754E-004 0.0 -3.2084137E-015  1.0884937E-004 0.0 -1.5169966E-014  1.0890016E-004 0.0  6.7770911E-015  1.0893654E-004 0.0  1.4688605E-015  1.0896278E-004 0.0  4.7620777E-014  1.0898169E-004 0.0 0.0 0.0 0.0 0.0 0.0 0.0 0.0 0.0 0.0 0.0 0.0 0.0 0.0 0.0 0.0 0.0 0.0 0.0 0.0 0.0 0.0 0.0 0.0 0.0 0.0 0.0 0.0 0.0 0.0 0.0 0.0 0.0 0.0 0.0 0.0 0.0 0.0 0.0 0.0 0.0 0.0 0.0 0.0 0.0 0.0 0.0 0.0 0.0 0.0 0.0 0.0 0.0 0.0 0.0 0.0 0.0 0.0 0.0 0.0 0.0 0.0 0.0 0.0 0.0 0.0 0.0 0.0 0.0 0.0 0.0 0.0 0.0 0.0 0.0 0.0 0.0 0.0 0.0 0.0 0.0 0.0 0.0 0.0 0.0 0.0 0.0 0.0 0.0 0.0 0.0 0.0 0.0 0.0 0.0 0.0 0.0 0.0 0.0 0.0 0.0 0.0 0.0 0.0 0.0 0.0 0.0 0.0 0.0 0.0 0.0 0.0 0.0 0.0 0.0 0.0 0.0 0.0 0.0 0.0 0.0 0.0 0.0 0.0 0.0 0.0 0.0 0.0 0.0 0.0 0.0 0.0 0.0 0.0 0.0 0.0 0.0 0.0 0.0 0.0 0.0 0.0 0.0 0.0 0.0 0.0 0.0 0.0 0.0 0.0 0.0 0.0 0.0 0.0 0.0 0.0 0.0 0.0 0.0 0.0 0.0 0.0 0.0 0.0 0.0 0.0 0.0 0.0 0.0 0.0 0.0 0.0 0.0 0.0 0.0 0.0 0.0 0.0 0.0 0.0 0.0 0.0 0.0 0.0 0.0 0.0 0.0 0.0 0.0 0.0 0.0 0.0 0.0 0.0 0.0 0.0 0.0 0.0 0.0 0.0 0.0 0.0 0.0 0.0 0.0 0.0 0.0 0.0 0.0 0.0 0.0 0.0 0.0 0.0 0.0 0.0 0.0 0.0 0.0 0.0 0.0 0.0 0.0 0.0 0.0 0.0 0.0 0.0 0.0 0.0 0.0 0.0 0.0 0.0 0.0 0.0 0.0 0.0 0.0 0.0 0.0 0.0 0.0 0.0 0.0 0.0 0.0 0.0 0.0 0.0 0.0 0.0 0.0 0.0 0.0 0.0 0.0 0.0 0.0 0.0 0.0 0.0 0.0 0.0 0.0 0.0 0.0 0.0 0.0 0.0 0.0 0.0 0.0 0.0 0.0 0.0 0.0 0.0 0.0 0.0 0.0 0.0 0.0 0.0 0.0 0.0 0.0 0.0 0.0 0.0 0.0 0.0 0.0 0.0 0.0 0.0 0.0 0.0 0.0 0.0 0.0 0.0 0.0 0.0 0.0 0.0 0.0 0.0 0.0 0.0 0.0 0.0 0.0 0.0 0.0 0.0 0.0 0.0 0.0 0.0 0.0 0.0 0.0 0.0 0.0 0.0 0.0 0.0 0.0 0.0 0.0 0.0 0.0 0.0 0.0 0.0 0.0 0.0 0.0 0.0 0.0 0.0 0.0 0.0 0.0 0.0 0.0 0.0 0.0 0.0 0.0 0.0 0.0 0.0 0.0 0.0 0.0 0.0 0.0 0.0 0.0 0.0 0.0 0.0 0.0 0.0 0.0 0.0 0.0 0.0 0.0 0.0 0.0 0.0 0.0 0.0 0.0 0.0 0.0 0.0 0.0 0.0 0.0 0.0 0.0 0.0 0.0 0.0 0.0 0.0 0.0 0.0 0.0 0.0 0.0 0.0 0.0 0.0 0.0 0.0 0.0 0.0 0.0 0.0 0.0 0.0 0.0 0.0 0.0 0.0 0.0 0.0 0.0 0.0 0.0 0.0 0.0 0.0 0.0 0.0 0.0 0.0 0.0 0.0 0.0 0.0 0.0 0.0 0.0 0.0 0.0 0.0 0.0 0.0 0.0 0.0 0.0 0.0 0.0 0.0 0.0 0.0 0.0 0.0 0.0 0.0 0.0 0.0 0.0 0.0 0.0 0.0 0.0 0.0 0.0 0.0 0.0 0.0 0.0 0.0 0.0 0.0 0.0 0.0 0.0 0.0 0.0 0.0 0.0 0.0 0.0 0.0 0.0 0.0 0.0 0.0 0.0 0.0 0.0 0.0 0.0 0.0 0.0 0.0 0.0 0.0 0.0 0.0 0.0 0.0 0.0 0.0 0.0 0.0 0.0 0.0 0.0 0.0 0.0 0.0 0.0 0.0 0.0 0.0 0.0 0.0 0.0 0.0 0.0 0.0 0.0 0.0 0.0 0.0 0.0 0.0 0.0 0.0 0.0 0.0 0.0 0.0 0.0 0.0 0.0 0.0 0.0 0.0 0.0 0.0 0.0 0.0 0.0 0.0 0.0 0.0 0.0 0.0 0.0 0.0 0.0 0.0 0.0 0.0 0.0 0.0 0.0 0.0 0.0 0.0 0.0 0.0 0.0 0.0 0.0 0.0 0.0 0.0 0.0 0.0 0.0 0.0 0.0 0.0 0.0 0.0 0.0 0.0 0.0 0.0 0.0 0.0 0.0 0.0 0.0 0.0 0.0 0.0 0.0 0.0 0.0 0.0 0.0 0.0 0.0 0.0 0.0 0.0 0.0 0.0 0.0 0.0 0.0 0.0 0.0 0.0 0.0 0.0 0.0 0.0 0.0 0.0 0.0 0.0 0.0 0.0 0.0 0.0 0.0 0.0 0.0 0.0 0.0 0.0 0.0 0.0 0.0 0.0 0.0 0.0 0.0 0.0 0.0 0.0 0.0 0.0 0.0 0.0 0.0 0.0 0.0 0.0 0.0 0.0 0.0 0.0 0.0 0.0 0.0 0.0 0.0 0.0 0.0 0.0 0.0 0.0 0.0 0.0 0.0 0.0 0.0 0.0 0.0 0.0 0.0 0.0 0.0 0.0 0.0 0.0 0.0 0.0 0.0 0.0 0.0 0.0 0.0 0.0 0.0 0.0 0.0 0.0 0.0 0.0 0.0 0.0 0.0 0.0 0.0 0.0 0.0 0.0 0.0 0.0 0.0 0.0 0.0 0.0 0.0 0.0 0.0 0.0 0.0 0.0 0.0 0.0 0.0 0.0 0.0 0.0 0.0 0.0 0.0 0.0 0.0 0.0 0.0 0.0 0.0 0.0 0.0 0.0 0.0 0.0 0.0 0.0 0.0 0.0 0.0 0.0 0.0 0.0 0.0 0.0 0.0 0.0 0.0 0.0 0.0 0.0 0.0 0.0 0.0 0.0 0.0 0.0 0.0 0.0 0.0 0.0 0.0 0.0 0.0 0.0 0.0 0.0 0.0 0.0 0.0 0.0 0.0 0.0 0.0 0.0 0.0 0.0 0.0 0.0 0.0 0.0 0.0 0.0 0.0 0.0 0.0 0.0 0.0 0.0 0.0 0.0 0.0 0.0 0.0 0.0 0.0 0.0 0.0 0.0 0.0 0.0 0.0 0.0 0.0 0.0 0.0 0.0 0.0 0.0 0.0 0.0 0.0 0.0 0.0 0.0 0.0 0.0 0.0 0.0 0.0 0.0 0.0 0.0 0.0 0.0 0.0 0.0 0.0 0.0 0.0 0.0 0.0 0.0 0.0 0.0 0.0 0.0 0.0 0.0 0.0 0.0 0.0 0.0 0.0 0.0 0.0 0.0 0.0 0.0 0.0 0.0 0.0 0.0 0.0 0.0 0.0 0.0 0.0 0.0 0.0 0.0 0.0 0.0 0.0 0.0 0.0 0.0 0.0 0.0 0.0 0.0 0.0 0.0 0.0 0.0 0.0 0.0 0.0 0.0 0.0 0.0 0.0 0.0 0.0 0.0 0.0 0.0 0.0 0.0 0.0 0.0 0.0 0.0 0.0 0.0 0.0 0.0 0.0 0.0 0.0 0.0 0.0 0.0 0.0 0.0 0.0 0.0 0.0 0.0 0.0 0.0 0.0 0.0 0.0 0.0 0.0 0.0 0.0 0.0 0.0 0.0 0.0 0.0 0.0 0.0 0.0 0.0 0.0 0.0 0.0 0.0 0.0 0.0 0.0 0.0 0.0 0.0 0.0 0.0 0.0 0.0 0.0 0.0 0.0 0.0 0.0 0.0 0.0 0.0 0.0 0.0 0.0 0.0 0.0 0.0 0.0 0.0 0.0 0.0 0.0 0.0 0.0 0.0 0.0 0.0 0.0 0.0 0.0 0.0 0.0 0.0 0.0 0.0 0.0 0.0 0.0 0.0 0.0 0.0 0.0 0.0 0.0 0.0 0.0 0.0 0.0 0.0 0.0 0.0 0.0 0.0 0.0 0.0 0.0 0.0 0.0 0.0 0.0 0.0 0.0 0.0 0.0 0.0 0.0 0.0 0.0 0.0 0.0 0.0 0.0 0.0 0.0 0.0 0.0 0.0 0.0 0.0 0.0 0.0 0.0 0.0 0.0 0.0 0.0 0.0 0.0 0.0 0.0 0.0 0.0 0.0 0.0 0.0 0.0 0.0 0.0 0.0 0.0 0.0 0.0 0.0 0.0 0.0 0.0 0.0 0.0 0.0 0.0 0.0 0.0 0.0 0.0 0.0 0.0 0.0 0.0 0.0 0.0 0.0 0.0 0.0 0.0 0.0 0.0 0.0 0.0 0.0 0.0 0.0 0.0 0.0 0.0 0.0 0.0 0.0 0.0 0.0 0.0 0.0 0.0 0.0 0.0 0.0 0.0 0.0 0.0 0.0 0.0 0.0 0.0 0.0 0.0 0.0 0.0 0.0 0.0 0.0 0.0 0.0 0.0 0.0 0.0 0.0 0.0 0.0 0.0 0.0 0.0 0.0 0.0 0.0 0.0 0.0 0.0 0.0 0.0 0.0 0.0 0.0 0.0 0.0 0.0 0.0 0.0 0.0 0.0 0.0 0.0 0.0 0.0 0.0 0.0 0.0 0.0 0.0 0.0 0.0 0.0 0.0 0.0 0.0 0.0 0.0 0.0 0.0 0.0 0.0 0.0 0.0 0.0 0.0 0.0 0.0 0.0 0.0 0.0 0.0 0.0 0.0 0.0 0.0 0.0 0.0 0.0 0.0 0.0 0.0 0.0 0.0 0.0 0.0 0.0 0.0 0.0 0.0 0.0 0.0 0.0 0.0 0.0 0.0 0.0 0.0 0.0 0.0 0.0 0.0 0.0 0.0 0.0 0.0 0.0 0.0 0.0 0.0 0.0 0.0 0.0 0.0 0.0 0.0 0.0 0.0 0.0 0.0 0.0 0.0 0.0 0.0 0.0 0.0 0.0 0.0 0.0 0.0 0.0 0.0 0.0 0.0 0.0 0.0 0.0 0.0 0.0 0.0 0.0 0.0 0.0 0.0 0.0 0.0 0.0 0.0 0.0 0.0 0.0 0.0 0.0 0.0 0.0 0.0 0.0 0.0 0.0 0.0 0.0 0.0 0.0 0.0 0.0 0.0 0.0 0.0 0.0 0.0 0.0 0.0 0.0 0.0 0.0 0.0 0.0 0.0 0.0 0.0 0.0 0.0 0.0 0.0 0.0 0.0 0.0 0.0 0.0 0.0 0.0 0.0 0.0 0.0 0.0 0.0 0.0 0.0 0.0 0.0 0.0 0.0 0.0 0.0 0.0 0.0 0.0 0.0 0.0 0.0 0.0 0.0 0.0 0.0 0.0 0.0 0.0 0.0 0.0 0.0 0.0 0.0 0.0 0.0 0.0 0.0 0.0 0.0 0.0 0.0 0.0 0.0 0.0 0.0 0.0 0.0 0.0 0.0 0.0 0.0 0.0 0.0 0.0 0.0 0.0 0.0 0.0 0.0 0.0 0.0 0.0 0.0 0.0 0.0 0.0 0.0 0.0 0.0 0.0 0.0 0.0 0.0 0.0 0.0 0.0 0.0 0.0 0.0 0.0 0.0 0.0 0.0 0.0 0.0 0.0 0.0 0.0 0.0 0.0 0.0 0.0 0.0 0.0 0.0 0.0 0.0 0.0 0.0 0.0 0.0 0.0 0.0 0.0 0.0 0.0 0.0 0.0 0.0 0.0 0.0 0.0 0.0 0.0 0.0 0.0 0.0 0.0 0.0 0.0 0.0 0.0 0.0 0.0 0.0 0.0 0.0 0.0 0.0 0.0 0.0 0.0 0.0 0.0 0.0 0.0 0.0 0.0 0.0 0.0 0.0 0.0 0.0 0.0 0.0 0.0 0.0 0.0 0.0 0.0 0.0 0.0 0.0 0.0 0.0 0.0 0.0 0.0 0.0 0.0 0.0 0.0 0.0 0.0 0.0 0.0 0.0 0.0 0.0 0.0 0.0 0.0 0.0 0.0 0.0 0.0 0.0 0.0 0.0 0.0 0.0 0.0 0.0 0.0 0.0 0.0 0.0 0.0 0.0 0.0 0.0 0.0 0.0 0.0 0.0 0.0 0.0 0.0 0.0 0.0 0.0 0.0 0.0 0.0 0.0 0.0 0.0 0.0 0.0 0.0 0.0 0.0 0.0 0.0 0.0 0.0 0.0 0.0 0.0 0.0 0.0 0.0 0.0 0.0 0.0 0.0 0.0 0.0 0.0 0.0 0.0 0.0 0.0 0.0 0.0 0.0 0.0 0.0 0.0 0.0 0.0 0.0 0.0 0.0 0.0 0.0 0.0 0.0 0.0 0.0 0.0 0.0 0.0 0.0 0.0 0.0 0.0 0.0 0.0 0.0 0.0 0.0 0.0 0.0 0.0 0.0 0.0 0.0 0.0 0.0 0.0 0.0 0.0 0.0 0.0 0.0 0.0 0.0 0.0 0.0 0.0 0.0 0.0 0.0 0.0 0.0 0.0 0.0 0.0 0.0 0.0 0.0 0.0 0.0 0.0 0.0 0.0 0.0 0.0 0.0 0.0 0.0 0.0 0.0 0.0 0.0 0.0 0.0 0.0 0.0 0.0 0.0 0.0 0.0 0.0 0.0 0.0 0.0 0.0 0.0 0.0 0.0 0.0 0.0 0.0 0.0 0.0 0.0 0.0 0.0 0.0 0.0 0.0 0.0 0.0 0.0 0.0 0.0 0.0 0.0 0.0 0.0 0.0 0.0 0.0 0.0 0.0 0.0 0.0 0.0 0.0 0.0 0.0 0.0 0.0 0.0 0.0 0.0 0.0 0.0 0.0 0.0 0.0 0.0 0.0 0.0 0.0 0.0 0.0 0.0 0.0 0.0 0.0 0.0 0.0 0.0 0.0 0.0 0.0 0.0 0.0 0.0 0.0 0.0 0.0 0.0 0.0 0.0 0.0 0.0 0.0 0.0 0.0 0.0 0.0 0.0 0.0 0.0 0.0 0.0 0.0 0.0 0.0 0.0 0.0 0.0 0.0 0.0 0.0 0.0 0.0 0.0 0.0 0.0 0.0 0.0 0.0 0.0 0.0 0.0 0.0 0.0 0.0 0.0 0.0 0.0 0.0 0.0 0.0 0.0 0.0 0.0 0.0 0.0 0.0 0.0 0.0 0.0 0.0 0.0 0.0 0.0 0.0 0.0 0.0 0.0 0.0 0.0 0.0 0.0 0.0 0.0 0.0 0.0 0.0 0.0 0.0 0.0 0.0 0.0 0.0 0.0 0.0 0.0 0.0 0.0 0.0 0.0 0.0 0.0 0.0 0.0 0.0 0.0 0.0 0.0 0.0 0.0 0.0 0.0 0.0 0.0 0.0 0.0 0.0 0.0 0.0 0.0 0.0 0.0 0.0 0.0 0.0 0.0 0.0 0.0 0.0 0.0 0.0 0.0 0.0 0.0 0.0 0.0 0.0 0.0 0.0 0.0 0.0 0.0 0.0 0.0 0.0 0.0 0.0 0.0 0.0 0.0 0.0 0.0 0.0 0.0 0.0 0.0 0.0 0.0 0.0 0.0 0.0 0.0 0.0 0.0 0.0 0.0 0.0 0.0 0.0 0.0 0.0 0.0 0.0 0.0 0.0 0.0 0.0 0.0 0.0 0.0 0.0 0.0 0.0 0.0 0.0 0.0 0.0 0.0 0.0 0.0 0.0 0.0 0.0 0.0 0.0 0.0 0.0 0.0 0.0 0.0 0.0 0.0 0.0 0.0 0.0 0.0 0.0 0.0 0.0 0.0 0.0 0.0 0.0 0.0 0.0 0.0 0.0 0.0 0.0 0.0 0.0 0.0 0.0 0.0 0.0 0.0 0.0 0.0 0.0 0.0 0.0 0.0 0.0 0.0 0.0 0.0 0.0 0.0 0.0 0.0 0.0 0.0 0.0 0.0 0.0 0.0 0.0 0.0 0.0 0.0 0.0 0.0 0.0 0.0 0.0 0.0 0.0 0.0 0.0 0.0 0.0 0.0 0.0 0.0 0.0 0.0 0.0 0.0 0.0 0.0 0.0 0.0 0.0 0.0 0.0 0.0 0.0 0.0 0.0 0.0 0.0 0.0 0.0 0.0 0.0 0.0 0.0 0.0 0.0 0.0 0.0 0.0 0.0 0.0 0.0 0.0 0.0 0.0 0.0 0.0 0.0 0.0 0.0 0.0 0.0 0.0 0.0 0.0 0.0 0.0 0.0 0.0 0.0 0.0 0.0 0.0 0.0 0.0 0.0 0.0 0.0 0.0 0.0 0.0 0.0 0.0 0.0 0.0 0.0 0.0 0.0 0.0 0.0 0.0 0.0 0.0 0.0 0.0 0.0 0.0 0.0 0.0 0.0 0.0 0.0 0.0 0.0 0.0 0.0 0.0 0.0 0.0 0.0 0.0 0.0 0.0 0.0 0.0 0.0 0.0 0.0 0.0 0.0 0.0 0.0 0.0 0.0 0.0 0.0 0.0 0.0 0.0 0.0 0.0 0.0 0.0 0.0 0.0 0.0 0.0 0.0 0.0 0.0 0.0 0.0 0.0 0.0 0.0 0.0 0.0 0.0 0.0 0.0 0.0 0.0 0.0 0.0 0.0 0.0 0.0 0.0 0.0 0.0 0.0 0.0 0.0 0.0 0.0 0.0 0.0 0.0 0.0 0.0 0.0 0.0 0.0 0.0 0.0 0.0 0.0 0.0 0.0 0.0 0.0 0.0 0.0 0.0 0.0 0.0 0.0 0.0 0.0 0.0 0.0 0.0 0.0 0.0 0.0 0.0 0.0 0.0 0.0 0.0 0.0 0.0 0.0 0.0 0.0 0.0 0.0 0.0 0.0 0.0 0.0 0.0 0.0 0.0 0.0 0.0 0.0 0.0 0.0 0.0 0.0 0.0 0.0 0.0 0.0 0.0 0.0 0.0 0.0 0.0 0.0 0.0 0.0 0.0 0.0 0.0 0.0 0.0 0.0 0.0 0.0 0.0 0.0 0.0 0.0 0.0 0.0 0.0 0.0 0.0 0.0 0.0 0.0 0.0 0.0 0.0 0.0 0.0 0.0 0.0 0.0 0.0 0.0 0.0 0.0 0.0 0.0 0.0 0.0 0.0 0.0 0.0 0.0 0.0 0.0 0.0 0.0 0.0 0.0 0.0 0.0 0.0 0.0 0.0 0.0 0.0 0.0 0.0 0.0 0.0 0.0 0.0 0.0 0.0 0.0 0.0 0.0 0.0 0.0 0.0 0.0 0.0 0.0 0.0 0.0 0.0 0.0 0.0 0.0 0.0 0.0 0.0 0.0 0.0 0.0 0.0 0.0 0.0 0.0 0.0 0.0 0.0 0.0 0.0 0.0 0.0 0.0 0.0 0.0 0.0 0.0 0.0 0.0 0.0 0.0 0.0 0.0 0.0 0.0 0.0 0.0 0.0 0.0 0.0 0.0 0.0 0.0 0.0 0.0 0.0 0.0 0.0 0.0 0.0 0.0 0.0 0.0 0.0 0.0 0.0 0.0 0.0 0.0 0.0 0.0 0.0 0.0 0.0 0.0 0.0 0.0 0.0 0.0 0.0 0.0 0.0 0.0 0.0 0.0 0.0 0.0 0.0 0.0 0.0 0.0 0.0 0.0 0.0 0.0 0.0 0.0 0.0 0.0 0.0 0.0 0.0 0.0 0.0 0.0 0.0 0.0 0.0 0.0 0.0 0.0 0.0 0.0 0.0 0.0 0.0 0.0 0.0 0.0 0.0 0.0 0.0 0.0 0.0 0.0 0.0 0.0 0.0 0.0 0.0 0.0 0.0 0.0 0.0 0.0 0.0 0.0 0.0 0.0 0.0 0.0 0.0 0.0 0.0 0.0 0.0 0.0 0.0 0.0 0.0 0.0 0.0 0.0 0.0 0.0 0.0 0.0 0.0 0.0 0.0 0.0 0.0 0.0 0.0 0.0 0.0 0.0 0.0 0.0 0.0 0.0 0.0 0.0 0.0 0.0 0.0 0.0 0.0 0.0 0.0 0.0 0.0 0.0 0.0 0.0 0.0 0.0 0.0 0.0 0.0 0.0 0.0 0.0 0.0 0.0 0.0 0.0 0.0 0.0 0.0 0.0 0.0 0.0 0.0 0.0 0.0 0.0 0.0 0.0 0.0 0.0 0.0 0.0 0.0 0.0 0.0 0.0 0.0 0.0 0.0 0.0 0.0 0.0 0.0 0.0 0.0 0.0 0.0 0.0 0.0 0.0 0.0 0.0 0.0 0.0 0.0 0.0 0.0 0.0 0.0 0.0 0.0 0.0 0.0 0.0 0.0 0.0 0.0 0.0 0.0 0.0 0.0 0.0 0.0 0.0 0.0 0.0 0.0 0.0 0.0 0.0 0.0 0.0 0.0 0.0 0.0 0.0 0.0 0.0 0.0 0.0 0.0 0.0 0.0 0.0 0.0 0.0 0.0 0.0 0.0 0.0 0.0 0.0 0.0 0.0 0.0 0.0 0.0 0.0 0.0 0.0 0.0 0.0 0.0 0.0 0.0 0.0 0.0 0.0 0.0 0.0 0.0 0.0 0.0 0.0 0.0 0.0 0.0 0.0 0.0 0.0 0.0 0.0 0.0 0.0 0.0 0.0 0.0 0.0 0.0 0.0 0.0 0.0 0.0 0.0 0.0 0.0 0.0 0.0 0.0 0.0 0.0 0.0 0.0 0.0 0.0 0.0 0.0 0.0 0.0 0.0 0.0 0.0 0.0 0.0 0.0 0.0 0.0 0.0 0.0 0.0 0.0 0.0 0.0 0.0 0.0 0.0 0.0 0.0 0.0 0.0 0.0 0.0 0.0 0.0 0.0 0.0 0.0 0.0 0.0 0.0 0.0 0.0 0.0 0.0 0.0 0.0 0.0 0.0 0.0 0.0 0.0 0.0 0.0 0.0 0.0 0.0 0.0 0.0 0.0 0.0 0.0 0.0 0.0 0.0 0.0 0.0 0.0 0.0 0.0 0.0 0.0 0.0 0.0 0.0 0.0 0.0 0.0 0.0 0.0 0.0 0.0 0.0 0.0 0.0 0.0 0.0 0.0 0.0 0.0 0.0 0.0 0.0 0.0 0.0 0.0 0.0 0.0 0.0 0.0 0.0 0.0 0.0 0.0 0.0 0.0 0.0 0.0 0.0 0.0 0.0 0.0 0.0 0.0 0.0 0.0 0.0 0.0 0.0 0.0 0.0 0.0 0.0 0.0 0.0 0.0 0.0 0.0 0.0 0.0 0.0 0.0 0.0 0.0 0.0 0.0 0.0 0.0 0.0 0.0 0.0 0.0 0.0 0.0 0.0 0.0 0.0 0.0 0.0 0.0 0.0 0.0 0.0 0.0 0.0 0.0 0.0 0.0 0.0 0.0 0.0 0.0 0.0 0.0 0.0 0.0 0.0 0.0 0.0 0.0 0.0 0.0 0.0 0.0 0.0 0.0 0.0 0.0 0.0 0.0 0.0 0.0 0.0 0.0 0.0 0.0 0.0 0.0 0.0 0.0 0.0 0.0 0.0 0.0 0.0 0.0 0.0 0.0 0.0 0.0 0.0 0.0 0.0 0.0 0.0 0.0 0.0 0.0 0.0 0.0 0.0 0.0 0.0 0.0 0.0 0.0 0.0 0.0 0.0 0.0 0.0 0.0 0.0 0.0 0.0 0.0 0.0 0.0 0.0 0.0 0.0 0.0 0.0 0.0 0.0 0.0 0.0 0.0 0.0 0.0 0.0 0.0 0.0 0.0 0.0 0.0 0.0 0.0 0.0 0.0 0.0 0.0 0.0 0.0 0.0 0.0 0.0 0.0 0.0 0.0 0.0 0.0 0.0 0.0 0.0 0.0 0.0 0.0 0.0 0.0 0.0 0.0 0.0 0.0 0.0 0.0 0.0 0.0 0.0 0.0 0.0 0.0 0.0 0.0 0.0 0.0 0.0 0.0 0.0 0.0 0.0 0.0 0.0 0.0 0.0 0.0 0.0 0.0 0.0 0.0 0.0 0.0 0.0 0.0 0.0 0.0 0.0 0.0 0.0 0.0 0.0 0.0 0.0 0.0 0.0 0.0 0.0 0.0 0.0 0.0 0.0 0.0 0.0 0.0 0.0 0.0 0.0 0.0 0.0 0.0 0.0 0.0 0.0 0.0 0.0 0.0 0.0 0.0 0.0 0.0 0.0 0.0 0.0 0.0 0.0 0.0 0.0 0.0 0.0 0.0 0.0 0.0 0.0 0.0 0.0 0.0 0.0 0.0 0.0 0.0 0.0 0.0 0.0 0.0 0.0 0.0 0.0 0.0 0.0 0.0 0.0 0.0 0.0 0.0 0.0 0.0 0.0 0.0 0.0 0.0 0.0 0.0 0.0 0.0 0.0 0.0 0.0 0.0 0.0 0.0 0.0 0.0 0.0 0.0 0.0 0.0 0.0 0.0 0.0 0.0 0.0 0.0 0.0 0.0 0.0 0.0 0.0 0.0 0.0 0.0 0.0 0.0 0.0 0.0 0.0 0.0 0.0 0.0 0.0 0.0 0.0 0.0 0.0 0.0 0.0 0.0 0.0 0.0 0.0 0.0 0.0 0.0 0.0 0.0 0.0 0.0 0.0 0.0 0.0 0.0 0.0 0.0 0.0 0.0 0.0 0.0 0.0 0.0 0.0 0.0 0.0 0.0 0.0 0.0 0.0 0.0 0.0 0.0 0.0 0.0 0.0 0.0 0.0 0.0 0.0 0.0 0.0 0.0 0.0 0.0 0.0 0.0 0.0 0.0 0.0 0.0 0.0 0.0 0.0 0.0 0.0 0.0 0.0 0.0 0.0 0.0 0.0 0.0 0.0 0.0 0.0 0.0 0.0 0.0 0.0 0.0 0.0 0.0 0.0 0.0 0.0 0.0 0.0 0.0 0.0 0.0 0.0 0.0 0.0 0.0 0.0 0.0 0.0 0.0 0.0 0.0 0.0 0.0 0.0 0.0 0.0 0.0 0.0 0.0 0.0 0.0 0.0 0.0 0.0 0.0 0.0 0.0 0.0 0.0 0.0 0.0 0.0 0.0 0.0 0.0 0.0 0.0 0.0 0.0 0.0 0.0 0.0 0.0 0.0 0.0 0.0 0.0 0.0 0.0 0.0 0.0 0.0 0.0 0.0 0.0 0.0 0.0 0.0 0.0 0.0 0.0 0.0 0.0 0.0 0.0 0.0 0.0 0.0 0.0 0.0 0.0 0.0 0.0 0.0 0.0 0.0 0.0 0.0 0.0 0.0 0.0 0.0 0.0 0.0 0.0 0.0 0.0 0.0 0.0 0.0 0.0 0.0 0.0 0.0 0.0 0.0 0.0 0.0 0.0 0.0 0.0 0.0 0.0 0.0 0.0 0.0 0.0 0.0 0.0 0.0 0.0 0.0 0.0 0.0 0.0 0.0 0.0 0.0 0.0 0.0 0.0 0.0 0.0 0.0 0.0 0.0 0.0 0.0 0.0 0.0 0.0 0.0 0.0 0.0 0.0 0.0 0.0 0.0 0.0 0.0 0.0 0.0 0.0 0.0 0.0 0.0 0.0 0.0 0.0 0.0 0.0 0.0 0.0 0.0 0.0 0.0 0.0 0.0 0.0 0.0 0.0 0.0 0.0 0.0 0.0 0.0 0.0 0.0 0.0 0.0 0.0 0.0 0.0 0.0 0.0 0.0 0.0 0.0 0.0 0.0 0.0 0.0 0.0 0.0 0.0 0.0 0.0 0.0 0.0 0.0 0.0 0.0 0.0 0.0 0.0 0.0 0.0 0.0 0.0 0.0 0.0 0.0 0.0 0.0 0.0 0.0 0.0 0.0 0.0 0.0 0.0 0.0 0.0 0.0 0.0 0.0 0.0 0.0 0.0 0.0 0.0 0.0 0.0 0.0 0.0 0.0 0.0 0.0 0.0 0.0 0.0 0.0 0.0 0.0 0.0 0.0 0.0 0.0 0.0 0.0 0.0 0.0 0.0 0.0 0.0 0.0 0.0 0.0 0.0 0.0 0.0 0.0 0.0 0.0 0.0 0.0 0.0 0.0 0.0 0.0 0.0 0.0 0.0 0.0 0.0 0.0 0.0 0.0 0.0 0.0 0.0 0.0 0.0 0.0 0.0 0.0 0.0 0.0 0.0 0.0 0.0 0.0 0.0 0.0 0.0 0.0 0.0 0.0 0.0 0.0 0.0 0.0 0.0 0.0 0.0 0.0 0.0 0.0 0.0 0.0 0.0 0.0 0.0 0.0 0.0 0.0 0.0 0.0 0.0 0.0 0.0 0.0 0.0 0.0 0.0 0.0 0.0 0.0 0.0 0.0 0.0 0.0 0.0 0.0 0.0 0.0 0.0 0.0 0.0 0.0 0.0 0.0 0.0 0.0 0.0 0.0 0.0 0.0 0.0 0.0 0.0 0.0 0.0 0.0 0.0 0.0 0.0 0.0 0.0 0.0 0.0 0.0 0.0 0.0 0.0 0.0 0.0 0.0 0.0 0.0 0.0 0.0 0.0 0.0 0.0 0.0 0.0 0.0 0.0 0.0 0.0 0.0 0.0 0.0 0.0 0.0 0.0 0.0 0.0 0.0 0.0 0.0 0.0 0.0 0.0 0.0 0.0 0.0 0.0 0.0 0.0 0.0 0.0 0.0 0.0 0.0 0.0 0.0 0.0 0.0 0.0 0.0 0.0 0.0 0.0 0.0 0.0 0.0 0.0 0.0 0.0 0.0 0.0 0.0 0.0 0.0 0.0 0.0 0.0 0.0 0.0 0.0 0.0 0.0 0.0 0.0 0.0 0.0 0.0 0.0 0.0 0.0 0.0 0.0 0.0 0.0 0.0 0.0 0.0 0.0 0.0 0.0 0.0 0.0 0.0 0.0 0.0 0.0 0.0 0.0 0.0 0.0 0.0 0.0 0.0 0.0 0.0 0.0 0.0 0.0 0.0 0.0 0.0 0.0 0.0 0.0 0.0 0.0 0.0 0.0 0.0 0.0 0.0 0.0 0.0 0.0 0.0 0.0 0.0 0.0 0.0 0.0 0.0 0.0 0.0 0.0 0.0 0.0 0.0 0.0 0.0 0.0 0.0 0.0 0.0 0.0 0.0 0.0 0.0 0.0 0.0 0.0 0.0 0.0 0.0 0.0 0.0 0.0 0.0 0.0 0.0 0.0 0.0 0.0 0.0 0.0 0.0 0.0 0.0 0.0 0.0 0.0 0.0 0.0 0.0 0.0 0.0 0.0 0.0 0.0 0.0 0.0 0.0 0.0 0.0 0.0 0.0 0.0 0.0 0.0 0.0 0.0 0.0 0.0 0.0 0.0 0.0 0.0 0.0 0.0 0.0 0.0 0.0 0.0 0.0 0.0 0.0 0.0 0.0 0.0 0.0 0.0 0.0 0.0 0.0 0.0 0.0 0.0 0.0 0.0 0.0 0.0 0.0 0.0 0.0 0.0 0.0 0.0 0.0 0.0 0.0 0.0 0.0 0.0 0.0 0.0 0.0 0.0 0.0 0.0 0.0 0.0 0.0 0.0 0.0 0.0 0.0 0.0 0.0 0.0 0.0 0.0 0.0 0.0 0.0 0.0 0.0 0.0 0.0 0.0 0.0 0.0 0.0 0.0 0.0 0.0 0.0 0.0 0.0 0.0 0.0 0.0 0.0 0.0 0.0 0.0 0.0 0.0 0.0 0.0 0.0 0.0 0.0 0.0 0.0 0.0 0.0 0.0 0.0 0.0 0.0 0.0 0.0 0.0 0.0 0.0 0.0 0.0 0.0 0.0 0.0 0.0 0.0 0.0 0.0 0.0 0.0 0.0 0.0 0.0 0.0 0.0 0.0 0.0 0.0 0.0 0.0 0.0 0.0 0.0 0.0 0.0 0.0 0.0 0.0 0.0 0.0 0.0 0.0 0.0 0.0 0.0 0.0 0.0 0.0 0.0 0.0 0.0 0.0 0.0 0.0 0.0 0.0 0.0 0.0 0.0 0.0 0.0 0.0 0.0 0.0 0.0 0.0 0.0 0.0 0.0 0.0 0.0 0.0 0.0 0.0 0.0 0.0 0.0 0.0 0.0 0.0 0.0 0.0 0.0 0.0 0.0 0.0 0.0 0.0 0.0 0.0 0.0 0.0 0.0 0.0 0.0 0.0 0.0 0.0 0.0 0.0 0.0 0.0 0.0 0.0 0.0 0.0 0.0 0.0 0.0 0.0 0.0 0.0 0.0 0.0 0.0 0.0 0.0 0.0 0.0 0.0 0.0 0.0 0.0 0.0 0.0 0.0 0.0 0.0 0.0 0.0 0.0 0.0 0.0 0.0 0.0 0.0 0.0 0.0 0.0 0.0 0.0 0.0 0.0 0.0 0.0 0.0 0.0 0.0 0.0 0.0 0.0 0.0 0.0 0.0 0.0 0.0 0.0 0.0 0.0 0.0 0.0 0.0 0.0 0.0 0.0 0.0 0.0 0.0 0.0 0.0 0.0 0.0 0.0 0.0 0.0 0.0 0.0 0.0 0.0 0.0 0.0 0.0 0.0 0.0 0.0 0.0 0.0 0.0 0.0 0.0 0.0 0.0 0.0 0.0 0.0 0.0 0.0 0.0 0.0 0.0 0.0 0.0 0.0 0.0 0.0 0.0 0.0 0.0 0.0 0.0 0.0 0.0 0.0 0.0 0.0 0.0 0.0 0.0 0.0 0.0 0.0 0.0 0.0 0.0 0.0 0.0 0.0 0.0 0.0 0.0 0.0 0.0 0.0 0.0 0.0 0.0 0.0 0.0 0.0 0.0 0.0 0.0 0.0 0.0 0.0 0.0 0.0 0.0 0.0 0.0 0.0 0.0 0.0 0.0 0.0 0.0 0.0 0.0 0.0 0.0 0.0 0.0 0.0 0.0 0.0 0.0 0.0 0.0 0.0 0.0 0.0 0.0 0.0 0.0 0.0 0.0 0.0 0.0 0.0 0.0 0.0 0.0 0.0 0.0 0.0 0.0 0.0 0.0 0.0 0.0 0.0 0.0 0.0 0.0 0.0 0.0 0.0 0.0 0.0 0.0 0.0 0.0 0.0 0.0 0.0 0.0 0.0 0.0 0.0 0.0 0.0 0.0 0.0 0.0 0.0 0.0 0.0 0.0 0.0 0.0 0.0 0.0 0.0 0.0 0.0 0.0 0.0 0.0 0.0 0.0 0.0 0.0 0.0 0.0 0.0 0.0 0.0 0.0 0.0 0.0 0.0 0.0 0.0 0.0 0.0 0.0 0.0 0.0 0.0 0.0 0.0 0.0 0.0 0.0 0.0 0.0 0.0 0.0 0.0 0.0 0.0 0.0 0.0 0.0 0.0 0.0 0.0 0.0 0.0 0.0 0.0 0.0 0.0 0.0 0.0 0.0 0.0 0.0 0.0 0.0 0.0 0.0 0.0 0.0 0.0 0.0 0.0 0.0 0.0 0.0 0.0 0.0 0.0 0.0 0.0 0.0 0.0 0.0 0.0 0.0 0.0 0.0 0.0 0.0 0.0 0.0 0.0 0.0 0.0 0.0 0.0 0.0 0.0 0.0 0.0 0.0 0.0 0.0 0.0 0.0 0.0 0.0 0.0 0.0 0.0 0.0 0.0 0.0 0.0 0.0 0.0 0.0 0.0 0.0 0.0 0.0 0.0 0.0 0.0 0.0 0.0 0.0 0.0 0.0 0.0 0.0 0.0 0.0 0.0 0.0 0.0 0.0 0.0 0.0 0.0 0.0 0.0 0.0 0.0 0.0 0.0 0.0 0.0 0.0 0.0 0.0 0.0 0.0 0.0 0.0 0.0 0.0 0.0 0.0 0.0 0.0 0.0 0.0 0.0 0.0 0.0 0.0 0.0 0.0 0.0 0.0 0.0 0.0 0.0 0.0 0.0 0.0 0.0 0.0 0.0 0.0 0.0 0.0 0.0 0.0 0.0 0.0 0.0 0.0 0.0 0.0 0.0 0.0 0.0 0.0 0.0 0.0 0.0 0.0 0.0 0.0 0.0 0.0 0.0 0.0 0.0 0.0 0.0 0.0 0.0 0.0 0.0 0.0 0.0 0.0 0.0 0.0 0.0 0.0 0.0 0.0 0.0 0.0 0.0 0.0 0.0 0.0 0.0 0.0 0.0 0.0 0.0 0.0 0.0 0.0 0.0 0.0 0.0 0.0 0.0 0.0 0.0 0.0 0.0 0.0 0.0 0.0 0.0 0.0 0.0 0.0 0.0 0.0 0.0 0.0 0.0 0.0 0.0 0.0 0.0 0.0 0.0 0.0 0.0 0.0 0.0 0.0 0.0 0.0 0.0 0.0 0.0 0.0 0.0 0.0 0.0 0.0 0.0 0.0 0.0 0.0 0.0 0.0 0.0 0.0 0.0 0.0 0.0 0.0 0.0 0.0 0.0 0.0 0.0 0.0 0.0 0.0 0.0 0.0 0.0 0.0 0.0 0.0 0.0 0.0 0.0 0.0 0.0 0.0 0.0 0.0 0.0 0.0 0.0 0.0 0.0 0.0 0.0 0.0 0.0 0.0 0.0 0.0 0.0 0.0 0.0 0.0 0.0 0.0 0.0 0.0 0.0 0.0 0.0 0.0 0.0 0.0 0.0 0.0 0.0 0.0 0.0 0.0 0.0 0.0 0.0 0.0 0.0 0.0 0.0 0.0 0.0 0.0 0.0 0.0 0.0 0.0 0.0 -7.0885028E-008  1.0905837E-004 0.0 -4.1162914E-008  1.0887966E-004 0.0 -3.1318311E-007  1.0908661E-004 0.0 -8.0863538E-008  1.0873722E-004 0.0 -4.5998724E-008  1.0901742E-004 0.0 -8.6725249E-008  1.0912879E-004 0.0 -4.5135062E-007  1.0892198E-004 0.0 -6.2450964E-007  1.0858306E-004 0.0 -5.4209349E-006  4.3199025E-006 0.0 -5.1183228E-006  2.9019524E-005 0.0 -4.8582877E-006  4.6633224E-005 0.0 -1.2223767E-006  5.4124600E-005 0.0 -5.0332901E-006  3.7248609E-005 0.0 -1.4388602E-006  9.0901505E-006 0.0 -1.4547130E-006  1.2624163E-005 0.0 -5.2579607E-006  1.9319362E-005 0.0 -1.4626780E-006  2.4080191E-005 0.0 -4.8697840E-006  4.0415264E-005 0.0 -1.4282265E-006  3.4184825E-005 0.0 -4.5644235E-006  5.8568577E-005 0.0 -4.2986398E-006  6.6978452E-005 0.0 -1.1479330E-006  6.4165250E-005 0.0 -5.2466830E-006  1.5808936E-005 0.0 -1.0771560E-006  7.8348243E-005 0.0 -3.9052290E-006  7.4848289E-005 0.0 -1.3045401E-006  5.1141703E-005 0.0 -9.1829529E-007  8.7548991E-005 0.0 -4.6340712E-007  1.0387754E-004 0.0 -1.3524501E-006  4.3512796E-005 0.0 -1.2518686E-006  6.1257903E-005 0.0 -1.1312932E-006  7.2193595E-005 0.0 -1.1794981E-006  6.9737213E-005 0.0 -2.2551812E-007  1.0799385E-004 0.0 -2.9181013E-007  1.0707727E-004 0.0 -8.0290881E-007  9.3463284E-005 0.0 -9.8297568E-007  8.2144680E-005 0.0 -9.0001229E-007  8.9482592E-005 0.0 -9.9253633E-007  8.4164310E-005 0.0 -6.8189582E-007  9.6932959E-005 0.0 -7.7781858E-007  9.5145199E-005 0.0 -3.0943445E-006  9.1670125E-005 0.0 -6.3962988E-007  1.0010712E-004 0.0 -5.7591030E-007  1.0134709E-004 0.0 -5.3471223E-007  1.0270313E-004 0.0 -6.7223517E-007  9.8530185E-005 0.0 -4.1308729E-007  1.0543595E-004 0.0 -3.7078378E-007  1.0626956E-004 0.0 -2.3677513E-008  1.0895486E-004 0.0 -1.0073108E-006  1.0758447E-004 0.0 -1.6460923E-006  1.0454997E-004 0.0 -3.3848875E-006  8.5477673E-005 0.0 -4.7042628E-006  5.5656476E-005 0.0 -3.6848126E-006  7.9761172E-005 0.0 -1.4179897E-006  2.7536011E-005 0.0 -1.4263674E-006  5.9257909E-006 0.0 -1.3772444E-006  1.7636139E-005 0.0 -5.3286589E-006  7.5996427E-006 0.0 -1.4036851E-006  3.0787215E-005 0.0 -1.4700204E-006  2.1138367E-005 0.0 -1.3036098E-006  4.7948881E-005 0.0 -5.1721980E-006  3.2437967E-005 0.0 -5.2795332E-006  1.1141889E-005 0.0 -1.4071408E-006  3.8623463E-005 0.0 -5.2239461E-006  2.2634703E-005 0.0 -4.7444969E-006  5.2529783E-005 0.0 -5.2093063E-006  2.6106122E-005 0.0 -4.4946599E-006  6.2837809E-005 0.0 -1.2924744E-006  5.7219127E-005 0.0 -4.1509535E-006  7.0986780E-005 0.0 -1.1047468E-006  7.6162395E-005 0.0 -3.8826409E-006  7.7344106E-005 0.0 -4.7563336E-006  4.9847544E-005 0.0 -3.5866670E-006  8.3252439E-005 0.0 -3.2626241E-006  8.8670911E-005 0.0 -2.8370524E-006  9.4464194E-005 0.0 -2.6878025E-006  9.6210298E-005 0.0 -2.3898566E-006  9.9329174E-005 0.0 -2.5050344E-006  9.7944128E-005 0.0 -2.2057440E-006  1.0085949E-004 0.0 -1.8594540E-006  1.0336739E-004 0.0 -1.2154025E-006  1.0685294E-004 0.0 -2.0147426E-006  1.0226785E-004 0.0 -1.4056034E-006  1.0602376E-004 0.0 -1.8481002E-007  1.0917077E-004 0.0 -1.5758573E-007  1.0844055E-004 0.0 -8.2145008E-007  1.0814385E-004 0.0 -7.9847296E-007  9.1562657E-005 0.0 -1.2744328E-006  6.6910431E-005 0.0 -4.9237788E-006  4.3543024E-005 0.0 -2.6200712E-006  1.4355889E-006 0.0 -1.8430152E-008  1.0898984E-004 0.0 -5.3180408E-007  1.0878196E-004 0.0 -3.7786498E-007  1.0879639E-004 0.0 -3.2012961E-007  1.0892400E-004 0.0 -2.5643168E-007  1.0881966E-004 0.0 -2.1747270E-007  1.0890716E-004 0.0 -2.8259346E-007  1.0869721E-004 0.0 -1.6732877E-007  1.0884392E-004 0.0 -1.4333581E-007  1.0891400E-004 0.0 -1.7582465E-007  1.0896671E-004 0.0 -1.1919432E-007  1.0896386E-004 0.0 -1.3766721E-007  1.0900853E-004 0.0 -1.8997905E-007  1.0902401E-004 0.0 -1.4263251E-007  1.0906438E-004 0.0 -9.3690574E-008  1.0900023E-004 0.0 -7.6748872E-008  1.0896584E-004 0.0 -1.9601565E-007  1.0908137E-004 0.0 -1.4906355E-007  1.0910862E-004 0.0 -1.0353228E-007  1.0903931E-004 0.0 -1.0231743E-007  1.0907422E-004 0.0 -2.4144628E-007  1.0898178E-004 0.0 -7.1321094E-008  1.0902380E-004 0.0 -9.0949033E-008  1.0892824E-004 0.0 -5.3378934E-008  1.0894199E-004 0.0 -4.6049111E-008  1.0897207E-004 0.0 -9.6474063E-008  1.0887142E-004 0.0 -1.4175578E-007  1.0862362E-004 0.0 -5.5429542E-008  1.0881923E-004 0.0 -1.3349316E-007  1.0919051E-004 0.0 -3.7933673E-007  1.0902104E-004 0.0 -2.4013338E-007  1.0912624E-004 0.0 -4.2529141E-006  1.4234234E-006 0.0 -3.4508168E-006  2.7851842E-006 0.0 -1.5746028E-006  2.7417875E-006 0.0 -2.6611343E-006  4.3506998E-006 0.0 -1.9430121E-007  1.0823542E-004 0.0 -3.5450466E-007  1.0836901E-004 0.0 -4.0915389E-007  1.0815255E-004 0.0 -4.6573266E-007  1.0789487E-004 0.0 -5.8482616E-007  1.0833083E-004 0.0 -2.5104049E-007  1.0771962E-004 0.0 -5.4379775E-007  1.0757646E-004 0.0 -7.6138681E-007  1.0781892E-004 0.0 -1.4523301E-006  1.4301578E-005 0.0 -2.9112383E-006  1.3467192E-005 0.0 -2.9594362E-006  1.1611373E-005 0.0 -2.9407851E-006  1.5319228E-005 0.0 -4.3760634E-006  1.2625843E-005 0.0 -4.2571827E-006  1.4460083E-005 0.0 -1.4993828E-006  1.0556301E-004 0.0 -1.0717331E-006  1.0572962E-004 0.0 -1.1517749E-006  1.0528575E-004 0.0 -9.6955868E-007  1.0621540E-004 0.0 -6.3089643E-007  1.0590675E-004 0.0 -1.4382383E-006  1.9298371E-005 0.0 -2.8918435E-006  1.8472820E-005 0.0 -6.5212106E-007  9.9305688E-005 0.0 -1.3067524E-006  9.8909302E-005 0.0 -1.3818636E-006  9.8104550E-005 0.0 -2.0227700E-006  9.8603242E-005 0.0 -4.8301449E-007  1.0330394E-004 0.0 -1.0514865E-006  1.0310192E-004 0.0 -1.1166990E-006  1.0236672E-004 0.0 -1.6091316E-006  1.0278369E-004 0.0 -1.2840548E-006  5.2639718E-005 0.0 -2.5629597E-006  5.1835755E-005 0.0 -2.6542623E-006  5.0231706E-005 0.0 -3.9067784E-006  5.1153796E-005 0.0 -2.9106801E-006  9.3553170E-005 0.0 -2.1206517E-006  9.3958517E-005 0.0 -2.1607460E-006  9.2935407E-005 0.0 -2.0080112E-006  9.4946601E-005 0.0 -1.2739365E-006  9.4374550E-005 0.0 -5.3059114E-006  2.0979404E-005 0.0 -3.7634044E-006  2.1623975E-005 0.0 -3.7364460E-006  2.3597730E-005 0.0 -2.3462556E-006  2.2621652E-005 0.0 -1.4288129E-006  2.5869080E-005 0.0 -2.8030520E-006  2.6794868E-005 0.0 -2.8656441E-006  2.8542602E-005 0.0 -4.2460541E-006  2.7577800E-005 0.0 -3.3295090E-006  8.7626140E-005 0.0 -2.4322212E-006  8.8102956E-005 0.0 -2.5116686E-006  8.7112375E-005 0.0 -2.3186224E-006  8.9240491E-005 0.0 -1.4651184E-006  8.8590431E-005 0.0 -4.6733163E-006  5.7119343E-005 0.0 -3.3034954E-006  5.7663671E-005 0.0 -3.2914455E-006  5.9239571E-005 0.0 -2.0499680E-006  5.8523520E-005 0.0 -2.1016197E-006  6.0044512E-005 0.0 -3.2399752E-006  6.0847919E-005 0.0 -4.7553800E-006  5.4154972E-005 0.0 -3.3794830E-006  5.4890316E-005 0.0 -5.0582857E-006  3.5649543E-005 0.0 -3.6570035E-006  3.6429815E-005 0.0 -3.6628565E-006  3.7995894E-005 0.0 -3.6423562E-006  3.4659385E-005 0.0 -2.3771192E-006  3.5476064E-005 0.0 -2.2270155E-006  3.7105898E-005 0.0 -1.2096599E-006  5.5624486E-005 0.0 -2.5264615E-006  5.6332474E-005 0.0 -3.9527221E-006  7.6161022E-005 0.0 -2.8338347E-006  7.6684554E-005 0.0 -2.8127814E-006  7.7892731E-005 0.0 -1.7436784E-006  7.7278640E-005 0.0 -4.8196050E-006  4.8192773E-005 0.0 -3.5499153E-006  4.7310819E-005 0.0 -3.5423043E-006  4.5824462E-005 0.0 -2.1322835E-006  4.6496226E-005 0.0 -2.3598650E-006  4.4781393E-005 0.0 -5.3683325E-006  5.9281409E-006 0.0 -3.9655109E-006  6.7434182E-006 0.0 -3.9244727E-006  8.3639164E-006 0.0 -2.4136253E-006  7.5688842E-006 0.0 -1.3718140E-006  4.0345084E-005 0.0 -2.6002545E-006  3.9693492E-005 0.0 -2.5577276E-006  4.1051869E-005 0.0 -1.0382790E-006  7.9656470E-005 0.0 -1.9763727E-006  7.9174835E-005 0.0 -2.0204636E-006  8.0426068E-005 0.0 -1.0998169E-006  7.4794334E-005 0.0 -2.0661782E-006  7.5342892E-005 0.0 -2.0687529E-006  7.4251738E-005 0.0 -2.3205782E-006  1.0013807E-004 0.0 -1.6224069E-006  1.0036810E-004 0.0 -1.5892294E-006  1.0110232E-004 0.0 -1.0027244E-006  1.0074426E-004 0.0 -4.0990117E-006  7.2294109E-005 0.0 -3.0439603E-006  7.1605390E-005 0.0 -3.0098212E-006  7.0149791E-005 0.0 -1.8644314E-006  7.0916379E-005 0.0 -3.0479847E-006  7.2829244E-005 0.0 -4.3048256E-006  6.8333427E-005 0.0 -3.1217213E-006  6.7766290E-005 0.0 -3.1595059E-006  6.6135048E-005 0.0 -4.4573484E-006  6.4234248E-005 0.0 -3.1986153E-006  6.3502407E-005 0.0 -4.5186024E-006  6.0028423E-005 0.0 -5.1531825E-006  3.4019824E-005 0.0 -5.2681779E-006  2.4338368E-005 0.0 -1.1649314E-006  6.5485491E-005 0.0 -2.3869403E-006  6.4853218E-005 0.0 -5.1316070E-006  3.0819038E-005 0.0 -3.7084277E-006  3.1612188E-005 0.0 -3.1720047E-006  9.0693286E-005 0.0 -2.2391976E-006  9.1128502E-005 0.0 -3.7233232E-006  8.0996000E-005 0.0 -3.6506810E-006  8.2115902E-005 0.0 -2.6503995E-006  8.2691342E-005 0.0 -2.5960846E-006  8.3753948E-005 0.0 -1.6107102E-006  8.3179487E-005 0.0 -3.0323438E-006  9.2608331E-005 0.0 -3.4203508E-006  8.6621403E-005 0.0 -9.5365973E-007  8.5367736E-005 0.0 -1.8175695E-006  8.4928289E-005 0.0 -1.7686318E-006  8.5868465E-005 0.0 -8.1464907E-007  9.0569421E-005 0.0 -1.7258899E-006  9.0124661E-005 0.0 -6.5834142E-007  9.7732725E-005 0.0 -3.3228209E-007  1.0671121E-004 0.0 -6.4064984E-007  1.0693370E-004 0.0 -1.1548007E-006  6.2753677E-005 0.0 -2.4502356E-006  6.2085059E-005 0.0 -1.1520505E-006  6.8342334E-005 0.0 -2.3038160E-006  6.8971828E-005 0.0 -9.6337237E-007  8.0896749E-005 0.0 -3.5460047E-006  8.4328973E-005 0.0 -2.1229548E-006  1.0154325E-004 0.0 -8.8702234E-007  8.6408948E-005 0.0 -5.3245681E-006  9.2812391E-006 0.0 -1.2908914E-006  4.1854192E-005 0.0 -1.2559763E-006  4.9578478E-005 0.0 -4.5805338E-007  1.0442408E-004 0.0 -9.4307898E-007  1.0412756E-004 0.0 -8.6617694E-007  1.0467874E-004 0.0 -3.2392171E-006  8.9712113E-005 0.0 -1.4094699E-006  2.9163861E-005 0.0 -5.3303603E-006  1.7626472E-005 0.0 -3.8226472E-006  1.6812688E-005 0.0 -3.8486423E-006  7.8510491E-005 0.0 -4.0830006E-006  7.3515985E-005 0.0 -4.2610232E-006  6.9646019E-005 0.0 -4.4164468E-006  6.5593986E-005 0.0 -4.9707227E-006  4.2051451E-005 0.0 -3.6836478E-006  4.2846568E-005 0.0 -7.8991236E-007  9.2477915E-005 0.0 -1.6457892E-006  9.2047562E-005 0.0 -7.3510058E-007  9.6098050E-005 0.0 -1.4550005E-006  9.6546697E-005 0.0 -5.0346439E-006  3.8766480E-005 0.0 -2.6380553E-006  9.7065140E-005 0.0 -1.8621901E-006  9.7398218E-005 0.0 -2.7638776E-006  9.5348686E-005 0.0 -1.0552356E-006  7.3572559E-005 0.0 -4.8929731E-006  4.5094052E-005 0.0 -4.1877079E-007  1.0491354E-004 0.0 -1.7843597E-006  1.0397562E-004 0.0 -1.3264809E-006  1.0364772E-004 0.0 -5.3580431E-007  1.0205271E-004 0.0 -1.3410206E-006  3.2432242E-005 0.0 -2.8000401E-006  3.3217648E-005 0.0 -1.6002548E-006  1.0510281E-004 0.0 -1.1296907E-006  1.0723036E-004 0.0 -7.7829319E-007  1.0731863E-004 0.0 -1.3115756E-006  1.0645325E-004 0.0 -1.3957971E-006  1.0889047E-005 0.0 -1.3762276E-006  1.6000023E-005 0.0 -4.4879772E-006  6.1427044E-005 0.0 -2.7702984E-006  2.0285035E-005 0.0 -2.5840421E-006  5.3437220E-005 0.0 -3.4947277E-006  4.8902115E-005 0.0 -2.6643750E-006  8.1492955E-005 0.0 -1.2752273E-006  9.9691914E-005 0.0 -2.8614886E-006  2.5086163E-005 0.0 -6.7144931E-007  1.0651124E-004 0.0 -3.8355496E-006  2.9847934E-005 0.0 -1.4426244E-006  9.5618334E-005 0.0 -3.4773932E-008  1.0899583E-004 0.0 -2.6544098E-007  1.0740812E-004 0.0 -6.1334066E-008  1.0899495E-004 0.0 -3.6663285E-006  4.4267481E-005 0.0 -3.8597838E-006  1.0112219E-005 0.0 -1.5057451E-006  1.0180899E-004 0.0 -4.3105964E-007  1.0864847E-004 0.0 -5.2134037E-006  2.6744412E-006 0.0 -1.7664701E-007  1.0875146E-004 0.0 -1.3212105E-008  1.0897475E-004 0.0 -4.0738305E-006  5.1722900E-006 0.0 -2.9338748E-008  1.0892080E-004 0.0 -9.4652204E-008  1.0916839E-004 0.0 -2.4537121E-007  1.0904745E-004 0.0 -3.0299412E-007  1.0854543E-004 0.0 -7.6801163E-008  1.0909224E-004 0.0 -1.1324680E-006  4.2909024E-006 0.0 -1.3523533E-007  1.0914283E-004 0.0 -2.8749923E-006  5.8880969E-006 0.0 -9.6878936E-007  1.0177048E-004 0.0 -2.5214153E-006  1.0111982E-005 0.0 -5.2191800E-008  1.0903700E-004 0.0 -1.0494661E-006  5.9701283E-005 0.0 -1.1338539E-006  4.5244699E-005 0.0 -2.6064513E-006  3.0259715E-005 0.0 -9.5571657E-007  1.0666132E-004 0.0 -2.0791199E-006  9.5878498E-005 0.0 -1.8850319E-006  9.9737934E-005 0.0 -4.1806535E-006  2.5094339E-005 0.0 -1.7251517E-006  8.1455667E-005 0.0 -3.8102617E-006  5.3446507E-005 0.0 -2.2728094E-006  4.8885710E-005 0.0 -4.0360298E-006  1.9860454E-005 0.0 -7.7120549E-007  1.0841101E-004 0.0 -1.2406298E-006  1.0448543E-004 0.0 -1.7890653E-006  8.7599927E-005 0.0 -3.6317091E-006  4.0397442E-005 0.0 -2.2673236E-006  6.6918598E-005 0.0 -2.5243969E-006  8.5435305E-005 0.0 -2.9122466E-006  7.4811276E-005 0.0 -2.2059633E-006  7.2175956E-005 0.0 -2.7847665E-006  7.9736793E-005 0.0 -1.5672884E-006  9.3500258E-005 0.0 -8.0393329E-007  1.0548016E-004 0.0 -7.6397131E-007  7.7256813E-005 0.0 -8.7804046E-007  5.8489524E-005 0.0 -9.1409610E-007  4.6571637E-005 0.0 -5.1250155E-006  5.1204774E-005 0.0 -5.5818921E-007  9.4350064E-005 0.0 -2.1011920E-006  1.0285351E-004 0.0 -7.0572196E-007  8.3156777E-005 0.0 -1.0279266E-006  2.2607610E-005 0.0 -1.0557982E-006  7.5519097E-006 0.0 -8.1675039E-007  7.0911037E-005 0.0 -6.4194363E-007  8.8566890E-005 0.0 -5.5707524E-006  2.7567694E-005 0.0 -1.1205377E-006  3.5794184E-005 0.0 -2.6414090E-006  9.8668659E-005 0.0 -2.7648486E-007  1.0587980E-004 0.0 -5.5147673E-006  1.4032117E-005 0.0 -4.3394503E-007  1.0073155E-004 0.0 -5.7379411E-006  1.2620206E-005 0.0 -2.7055824E-006  4.3550402E-005 0.0 -3.5744359E-006  6.2140981E-005 0.0 -9.5115142E-007  3.7187035E-005 0.0 -2.4818376E-006  1.6848433E-005 0.0 -4.2680231E-006  1.8418621E-005 0.0 -2.1439537E-006  9.6621410E-005 0.0 -8.5331284E-007  1.0361295E-004 0.0 -1.2079392E-006  9.7344674E-005 0.0 -4.0953705E-006  3.3189851E-005 0.0 -9.4338498E-007  1.0700139E-004 0.0 -2.5390813E-006  9.0181103E-005 0.0 -2.4348803E-006  9.2079319E-005 0.0 -3.4001859E-006  6.8974112E-005 0.0 -2.0677939E-006  6.3473108E-005 0.0 -2.3721839E-006  3.1662255E-005 0.0 -3.5240391E-006  6.4864676E-005 0.0 -1.4449201E-006  9.1088378E-005 0.0 -2.1844565E-006  5.4882796E-005 0.0 -3.7175964E-006  5.6333223E-005 0.0 -5.0406272E-007  1.0726471E-004 0.0 -6.0842203E-007  1.0807082E-004 0.0 -9.9253285E-007  1.0789322E-004 0.0 -5.5627403E-006  1.2462119E-006 0.0 -1.2485937E-006  1.2442080E-006 0.0 -3.0076157E-007  1.0901535E-004 0.0 -9.0947205E-009  1.0898706E-004 0.0 -2.7694379E-008  1.0897718E-004 0.0 -9.8070999E-008  1.0920546E-004 0.0 -4.6556209E-007  1.0849622E-004 0.0 -6.0930063E-008  1.0890913E-004 0.0 -1.8689145E-007  1.0912334E-004 0.0 -1.4615434E-006  1.0322565E-004 0.0 -1.7986281E-006  9.9227722E-005 0.0 -1.1312589E-006  1.0023432E-004 0.0 -1.8918540E-006  8.2235086E-005 0.0 -2.0060858E-006  7.6338069E-005 0.0 -3.5213391E-006  5.2480912E-005 0.0 -2.2908606E-006  5.7440794E-005 0.0 -2.6044952E-006  2.1399411E-005 0.0 -2.5094431E-006  4.7855297E-005 0.0 -3.8604217E-006  2.6131941E-005 0.0 -2.5918606E-006  3.8441587E-005 0.0 -2.2558887E-006  6.1049544E-005 0.0 -3.0169778E-006  7.5744874E-005 0.0 -1.3890079E-006  1.0415802E-004 0.0 -2.0243885E-006  6.7782355E-005 0.0 -2.0893376E-006  6.9944045E-005 0.0 -2.7811771E-006  8.9907515E-006 0.0 -4.0074233E-006  2.8756586E-005 0.0 -2.5471806E-006  3.4405857E-005 0.0 -3.7031839E-006  5.0033971E-005 0.0 -2.5987225E-006  2.3841916E-005 0.0 -1.9876160E-006  7.8228616E-005 0.0 -1.8321617E-006  8.4057259E-005 0.0 -4.1188474E-006  1.1381226E-005 0.0 -1.3810654E-006  9.5028516E-005 0.0 -1.6026356E-006  8.9359971E-005 0.0 -4.0823760E-006  1.5578148E-005 0.0 -1.5622007E-006  1.0230953E-004 0.0 -1.9455986E-006  9.8013238E-005 0.0 -1.1294879E-006  1.0135512E-004 0.0 -6.6299338E-007  1.0622953E-004 0.0 -1.3925571E-006  9.2885435E-005 0.0 -2.0839702E-006  6.6011252E-005 0.0 -3.7855138E-006  4.1562762E-005 0.0 -2.9483333E-006  8.0523087E-005 0.0 -3.8249725E-006  3.9243598E-005 0.0 -2.9021359E-006  7.8858803E-005 0.0 -2.6834607E-006  8.4635035E-005 0.0 -2.5007696E-006  4.2362802E-005 0.0 -1.1563486E-007  1.0879870E-004 0.0 -7.9949855E-007  1.0510117E-004 0.0 -1.2328951E-006  1.0487942E-004 0.0 -1.7199615E-006  8.6774636E-005 0.0 -2.6111432E-006  8.6242594E-005 0.0 -2.0677784E-006  7.3174674E-005 0.0 -3.0858656E-006  7.3876819E-005 0.0 -7.7295894E-007  1.0757530E-004 0.0 -1.1530013E-007  1.0910184E-004 0.0 -4.1859844E-006  3.8704618E-006 0.0 0.0 0.0 0.0 0.0 0.0 0.0 0.0 0.0 0.0 0.0 0.0 0.0 0.0 0.0 0.0 0.0 0.0 0.0 0.0 0.0 0.0 0.0 0.0 0.0 0.0 0.0 0.0 0.0 0.0 0.0 0.0 0.0 0.0 0.0 0.0 0.0 0.0 0.0 0.0 0.0 0.0 0.0 0.0 0.0 0.0 0.0 0.0 0.0 0.0 0.0 0.0 0.0 0.0 0.0 0.0 0.0 0.0 0.0 0.0 0.0 0.0 0.0 0.0 0.0 0.0 0.0 0.0 0.0 0.0 0.0 0.0 0.0 0.0 0.0 0.0 0.0 0.0 0.0 0.0 0.0 0.0 0.0 0.0 0.0 0.0 0.0 0.0 0.0 0.0 0.0 0.0 0.0 0.0 0.0 0.0 0.0 0.0 0.0 0.0 0.0 0.0 0.0 0.0 0.0 0.0 0.0 0.0 0.0 0.0 0.0 0.0 0.0 0.0 0.0 0.0 0.0 0.0 0.0 0.0 0.0 0.0 0.0 0.0 0.0 0.0 0.0 0.0 0.0 0.0 0.0 0.0 0.0 0.0 0.0 0.0 0.0 0.0 0.0 0.0 0.0 0.0 0.0 0.0 0.0 0.0 0.0 0.0 0.0 0.0 0.0 0.0 0.0 0.0 0.0 0.0 0.0 0.0 0.0 0.0 0.0 0.0 0.0 0.0 0.0 0.0 0.0 0.0 0.0 0.0 0.0 0.0 0.0 0.0 0.0 0.0 0.0 0.0 0.0 0.0 0.0 0.0 0.0 0.0 0.0 0.0 0.0 0.0 0.0 0.0 0.0 0.0 0.0 0.0 0.0 0.0 0.0 0.0 0.0 0.0 0.0 0.0 0.0 0.0 0.0 0.0 0.0 0.0 0.0 0.0 0.0 0.0 0.0 0.0 0.0 0.0 0.0 0.0 0.0 0.0 0.0 0.0 0.0 0.0 0.0 0.0 0.0 0.0 0.0 0.0 0.0 0.0 0.0 0.0 0.0 0.0 0.0 0.0 0.0 0.0 0.0 0.0 0.0 0.0 0.0 0.0 0.0 0.0 0.0 0.0 0.0 0.0 0.0 0.0 0.0 0.0 0.0 0.0 0.0 0.0 0.0 0.0 0.0 0.0 0.0 0.0 0.0 0.0 0.0 0.0 0.0 0.0 0.0 0.0 0.0 0.0 0.0 0.0 0.0 0.0 0.0 0.0 0.0 0.0 0.0 0.0 0.0 0.0 0.0 0.0 0.0 0.0 0.0 0.0 0.0 0.0 0.0 0.0 0.0 0.0 0.0 0.0 0.0 0.0 0.0 0.0 0.0 0.0 0.0 0.0 0.0 0.0 0.0 0.0 0.0 0.0 0.0 0.0 0.0 0.0 0.0 0.0 0.0 0.0 0.0 0.0 0.0 0.0 0.0 0.0 0.0 0.0 0.0 0.0 0.0 0.0 0.0 0.0 0.0 0.0 0.0 0.0 0.0 0.0 0.0 0.0 0.0 0.0 0.0 0.0 0.0 0.0 0.0 0.0 0.0 0.0 0.0 0.0 0.0 0.0 0.0 0.0 0.0 0.0 0.0 0.0 0.0 0.0 0.0 0.0 0.0 0.0 0.0 0.0 0.0 0.0 0.0 0.0 0.0 0.0 0.0 0.0 0.0 0.0 0.0 0.0 0.0 0.0 0.0 0.0 0.0 0.0 0.0 0.0 0.0 0.0 0.0 0.0 0.0 0.0 0.0 0.0 0.0 0.0 0.0 0.0 0.0 0.0 0.0 0.0 0.0 0.0 0.0 0.0 0.0 0.0 0.0 0.0 0.0 0.0 0.0 0.0 0.0 0.0 0.0 0.0 0.0 0.0 0.0 0.0 0.0 0.0 0.0 0.0 0.0 0.0 0.0 0.0 0.0 0.0 0.0 0.0 0.0 0.0 0.0 0.0 0.0 0.0 0.0 0.0 0.0 0.0 0.0 0.0 0.0 0.0 0.0 0.0 0.0 0.0 0.0 0.0 0.0 0.0 0.0 0.0 0.0 0.0 0.0 0.0 0.0 0.0 0.0 0.0 0.0 0.0 0.0 0.0 0.0 0.0 0.0 0.0 0.0 0.0 0.0 0.0 0.0 0.0 0.0 0.0 0.0 0.0 0.0 0.0 0.0 0.0 0.0 0.0 0.0 0.0 0.0 0.0 0.0 0.0 0.0 0.0 0.0 0.0 0.0 0.0 0.0 0.0 0.0 0.0 0.0 0.0 0.0 0.0 0.0 0.0 0.0 0.0 0.0 0.0 0.0 0.0 0.0 0.0 0.0 0.0 0.0 0.0 0.0 0.0 0.0 0.0 0.0 0.0 0.0 0.0 0.0 0.0 0.0 0.0 0.0 0.0 0.0 0.0 0.0 0.0 0.0 0.0 0.0 0.0 0.0 0.0 0.0 0.0 0.0 0.0 0.0 0.0 0.0 0.0 0.0 0.0 0.0 0.0 0.0 0.0 0.0 0.0 0.0 0.0 0.0 0.0 0.0 0.0 0.0 0.0 0.0 0.0 0.0 0.0 0.0 0.0 0.0 0.0 0.0 0.0 0.0 0.0 0.0 0.0 0.0 0.0 0.0 0.0 0.0 0.0 0.0 0.0 0.0 0.0 0.0 0.0 0.0 0.0 0.0 0.0 0.0 0.0 0.0 0.0 0.0 0.0 0.0 0.0 0.0 0.0 0.0 0.0 0.0 0.0 0.0 0.0 0.0 0.0 0.0 0.0 0.0 0.0 0.0 0.0 0.0 0.0 0.0 0.0 0.0 0.0 0.0 0.0 0.0 0.0 0.0 0.0 0.0 0.0 0.0 0.0 0.0 0.0 0.0 0.0 0.0 0.0 0.0 0.0 0.0 0.0 0.0 0.0 0.0 0.0 0.0 0.0 0.0 0.0 0.0 0.0 0.0 0.0 0.0 0.0 0.0 0.0 0.0 0.0 0.0 0.0 0.0 0.0 0.0 0.0 0.0 0.0 0.0 0.0 0.0 0.0 0.0 0.0 0.0 0.0 0.0 0.0 0.0 0.0 0.0 0.0 0.0 0.0 0.0 0.0 0.0 0.0 0.0 0.0 0.0 0.0 0.0 0.0 0.0 0.0 0.0 0.0 0.0 0.0 0.0 0.0 0.0 0.0 0.0 0.0 0.0 0.0 0.0 0.0 0.0 0.0 0.0 0.0 0.0 0.0 0.0 0.0 0.0 0.0 0.0 0.0 0.0 0.0 0.0 0.0 0.0 0.0 0.0 0.0 0.0 0.0 0.0 0.0 0.0 0.0 0.0 0.0 0.0 0.0 0.0 0.0 0.0 0.0 0.0 0.0 0.0 0.0 0.0 0.0 0.0 0.0 0.0 0.0 0.0 0.0 0.0 0.0 0.0 0.0 0.0 0.0 0.0 0.0 0.0 0.0 0.0 0.0 0.0 0.0 0.0 0.0 0.0 0.0 0.0 0.0 0.0 0.0 0.0 0.0 0.0 0.0 0.0 0.0 0.0 0.0 0.0 0.0 0.0 0.0 0.0 0.0 0.0 0.0 0.0 0.0 0.0 0.0 0.0 0.0 0.0 0.0 0.0 0.0 0.0 0.0 0.0 0.0 0.0 0.0 0.0 0.0 0.0 0.0 0.0 0.0 0.0 0.0 0.0 0.0 0.0 0.0 0.0 0.0 0.0 0.0 0.0 0.0 0.0 0.0 0.0 0.0 0.0 0.0 0.0 0.0 0.0 0.0 0.0 0.0 0.0 0.0 0.0 0.0 0.0 0.0 0.0 0.0 0.0 0.0 0.0 0.0 0.0 0.0 0.0 0.0 0.0 0.0 0.0 0.0 0.0 0.0 0.0 0.0 0.0 0.0 0.0 0.0 0.0 0.0 0.0 0.0 0.0 0.0 0.0 0.0 0.0 0.0 0.0 0.0 0.0 0.0 0.0 0.0 0.0 0.0 0.0 0.0 0.0 0.0 0.0 0.0 0.0 0.0 0.0 0.0 0.0 0.0 0.0 0.0 0.0 0.0 0.0 0.0 0.0 0.0 0.0 0.0 0.0 0.0 0.0 0.0 0.0 0.0 0.0 0.0 0.0 0.0 0.0 0.0 0.0 0.0 0.0 0.0 0.0 0.0 0.0 0.0 0.0 0.0 0.0 0.0 0.0 0.0 0.0 0.0 0.0 0.0 0.0 0.0 0.0 0.0 0.0 0.0 0.0 0.0 0.0 0.0 0.0 0.0 0.0 0.0 0.0 0.0 0.0 0.0 0.0 0.0 0.0 0.0 0.0 0.0 0.0 0.0 0.0 0.0 0.0 0.0 0.0 0.0 0.0 0.0 0.0 0.0 0.0 0.0 0.0 0.0 0.0 0.0 0.0 0.0 0.0 0.0 0.0 0.0 0.0 0.0 0.0 0.0 0.0 0.0 0.0 0.0 0.0 0.0 0.0 0.0 0.0 0.0 0.0 0.0 0.0 0.0 0.0 0.0 0.0 0.0 0.0 0.0 0.0 0.0 0.0 0.0 0.0 0.0 0.0 0.0 0.0 0.0 0.0 0.0 0.0 0.0 0.0 0.0 0.0 0.0 0.0 0.0 0.0 0.0 0.0 0.0 0.0 0.0 0.0 0.0 0.0 0.0 0.0 0.0 0.0 0.0 0.0 0.0 0.0 0.0 0.0 0.0 0.0 0.0 0.0 0.0 0.0 0.0 0.0 0.0 0.0 0.0 0.0 0.0 0.0 0.0 0.0 0.0 0.0 0.0 0.0 0.0 0.0 0.0 0.0 0.0 0.0 0.0 0.0 0.0 0.0 0.0 0.0 0.0 0.0 0.0 0.0 0.0 0.0 0.0 0.0 0.0 0.0 0.0 0.0 0.0 0.0 0.0 0.0 0.0 0.0 0.0 0.0 0.0 0.0 0.0 0.0 0.0 0.0 0.0 0.0 0.0 0.0 0.0 0.0 0.0 0.0 0.0 0.0 0.0 0.0 0.0 0.0 0.0 0.0 0.0 0.0 0.0 0.0 0.0 0.0 0.0 0.0 0.0 0.0 0.0 0.0 0.0 0.0 0.0 0.0 0.0 0.0 0.0 0.0 0.0 0.0 0.0 0.0 0.0 0.0 0.0 0.0 0.0 0.0 0.0 0.0 0.0 0.0 0.0 0.0 0.0 0.0 0.0 0.0 0.0 0.0 0.0 0.0 0.0 0.0 0.0 0.0 0.0 0.0 0.0 0.0 0.0 0.0 0.0 0.0 0.0 0.0 0.0 0.0 0.0 0.0 0.0 0.0 0.0 0.0 0.0 0.0 0.0 0.0 0.0 0.0 0.0 0.0 0.0 0.0 0.0 0.0 0.0 0.0 0.0 0.0 0.0 0.0 0.0 0.0 0.0 0.0 0.0 0.0 0.0 0.0 0.0 0.0 0.0 0.0 0.0 0.0 0.0 0.0 0.0 0.0 0.0 0.0 0.0 0.0 0.0 0.0 0.0 0.0 0.0 0.0 0.0 0.0 0.0 0.0 0.0 0.0 0.0 0.0 0.0 0.0 0.0 0.0 0.0 0.0 0.0 0.0 0.0 0.0 0.0 0.0 0.0 0.0 0.0 0.0 0.0 0.0 0.0 0.0 0.0 0.0 0.0 0.0 0.0 0.0 0.0 0.0 0.0 0.0 0.0 0.0 0.0 0.0 0.0 0.0 0.0 0.0 0.0 0.0 0.0 0.0 0.0 0.0 0.0 0.0 0.0 0.0 0.0 0.0 0.0 0.0 0.0 0.0 0.0 0.0 0.0 0.0 0.0 0.0 0.0 0.0 0.0 0.0 0.0 0.0 0.0 0.0 0.0 0.0 0.0 0.0 0.0 0.0 0.0 0.0 0.0 0.0 0.0 0.0 0.0 0.0 0.0 0.0 0.0 0.0 0.0 0.0 0.0 0.0 0.0 0.0 0.0 0.0 0.0 0.0 0.0 0.0 0.0 0.0 0.0 0.0 0.0 0.0 0.0 0.0 0.0 0.0 0.0 0.0 0.0 0.0 0.0 0.0 0.0 0.0 0.0 0.0 0.0 0.0 0.0 0.0 0.0 0.0 0.0 0.0 0.0 0.0 0.0 0.0 0.0 0.0 0.0 0.0 0.0 0.0 0.0 0.0 0.0 0.0 0.0 0.0 0.0 0.0 0.0 0.0 0.0 0.0 0.0 0.0 0.0 0.0 0.0 0.0 0.0 0.0 0.0 0.0 0.0 0.0 0.0 0.0 0.0 0.0 0.0 0.0 0.0 0.0 0.0 0.0 0.0 0.0 0.0 0.0 0.0 0.0 0.0 0.0 0.0 0.0 0.0 0.0 0.0 0.0 0.0 0.0 0.0 0.0 0.0 0.0 0.0 0.0 0.0 0.0 0.0 0.0 0.0 0.0 0.0 0.0 0.0 0.0 0.0 0.0 0.0 0.0 0.0 0.0 0.0 0.0 0.0 0.0 0.0 0.0 0.0 0.0 0.0 0.0 0.0 0.0 0.0 0.0 0.0 0.0 0.0 0.0 0.0 0.0 0.0 0.0 0.0 0.0 0.0 0.0 0.0 0.0 0.0 0.0 0.0 0.0 0.0 0.0 0.0 0.0 0.0 0.0 0.0 0.0 0.0 0.0 0.0 0.0 0.0 0.0 0.0 0.0 0.0 0.0 0.0 0.0 0.0 0.0 0.0 0.0 0.0 0.0 0.0 0.0 0.0 0.0 0.0 0.0 0.0 0.0 0.0 0.0 0.0 0.0 0.0 0.0 0.0 0.0 0.0 0.0 0.0 0.0 0.0 0.0 0.0 0.0 0.0 0.0 0.0 0.0 0.0 0.0 0.0 0.0 0.0 0.0 0.0 0.0 0.0 0.0 0.0 0.0 0.0 0.0 0.0 0.0 0.0 0.0 0.0 0.0 0.0 0.0 0.0 0.0 0.0 0.0 0.0 0.0 0.0 0.0 0.0 0.0 0.0 0.0 0.0 0.0 0.0 0.0 0.0 0.0 0.0 0.0 0.0 0.0 0.0 0.0 0.0 0.0 0.0 0.0 0.0 0.0 0.0 0.0 0.0 0.0 0.0 0.0 0.0 0.0 0.0 0.0 0.0 0.0 0.0 0.0 0.0 0.0 0.0 0.0 0.0 0.0 0.0 0.0 0.0 0.0 0.0 0.0 0.0 0.0 0.0 0.0 0.0 0.0 0.0 0.0 0.0 0.0 0.0 0.0 0.0 0.0 0.0 0.0 0.0 0.0 0.0 0.0 0.0 0.0 0.0 0.0 0.0 0.0 0.0 0.0 0.0 0.0 0.0 0.0 0.0 0.0 0.0 0.0 0.0 0.0 0.0 0.0 0.0 0.0 0.0 0.0 0.0 0.0 0.0 0.0 0.0 0.0 0.0 0.0 0.0 0.0 0.0 0.0 0.0 0.0 0.0 0.0 0.0 0.0 0.0 0.0 0.0 0.0 0.0 0.0 0.0 0.0 0.0 0.0 0.0 0.0 0.0 0.0 0.0 0.0 0.0 0.0 0.0 0.0 0.0 0.0 0.0 0.0 0.0 0.0 0.0 0.0 0.0 0.0 0.0 0.0 0.0 0.0 0.0 0.0 0.0 0.0 0.0 0.0 0.0 0.0 0.0 0.0 0.0 0.0 0.0 0.0 0.0 0.0 0.0 0.0 0.0 0.0 0.0 0.0 0.0 0.0 0.0 0.0 0.0 0.0 0.0 0.0 0.0 0.0 0.0 0.0 0.0 0.0 0.0 0.0 0.0 0.0 0.0 0.0 0.0 0.0 0.0 0.0 0.0 0.0 0.0 0.0 0.0 0.0 0.0 0.0 0.0 0.0 0.0 0.0 0.0 0.0 0.0 0.0 0.0 0.0 0.0 0.0 0.0 0.0 0.0 0.0 0.0 0.0 0.0 0.0 0.0 0.0 0.0 0.0 0.0 0.0 0.0 0.0 0.0 0.0 0.0 0.0 0.0 0.0 0.0 0.0 0.0 0.0 0.0 0.0 0.0 0.0 0.0 0.0 0.0 0.0 0.0 0.0 0.0 0.0 0.0 0.0 0.0 0.0 0.0 0.0 0.0 0.0 0.0 0.0 0.0 0.0 0.0 0.0 0.0 0.0 0.0 0.0 0.0 0.0 0.0 0.0 0.0 0.0 0.0 0.0 0.0 0.0 0.0 0.0 0.0 0.0 0.0 0.0 0.0 0.0 0.0 0.0 0.0 0.0 0.0 0.0 0.0 0.0 0.0 0.0 0.0 0.0 0.0 0.0 0.0 0.0 0.0 0.0 0.0 0.0 0.0 0.0 0.0 0.0 0.0 0.0 0.0 0.0 0.0 0.0 0.0 0.0 0.0 0.0 0.0 0.0 0.0 0.0 0.0 0.0 0.0 0.0 0.0 0.0 0.0 0.0 0.0 0.0 0.0 0.0 0.0 0.0 0.0 0.0 0.0 0.0 0.0 0.0 0.0 0.0 0.0 0.0 0.0 0.0 0.0 0.0 0.0 0.0 0.0 0.0 0.0 0.0 0.0 0.0 0.0 0.0 0.0 0.0 0.0 0.0 0.0 0.0 0.0 0.0 0.0 0.0 0.0 0.0 0.0 0.0 0.0 0.0 0.0 0.0 0.0 0.0 0.0 0.0 0.0 0.0 0.0 0.0 0.0 0.0 0.0 0.0 0.0 0.0 0.0 0.0 0.0 0.0 0.0 0.0 0.0 0.0 0.0 0.0 0.0 0.0 0.0 0.0 0.0 0.0 0.0 0.0 0.0 0.0 0.0 0.0 0.0 0.0 0.0 0.0 0.0 0.0 0.0 0.0 0.0 0.0 0.0 0.0 0.0 0.0 0.0 0.0 0.0 0.0 0.0 0.0 0.0 0.0 0.0 0.0 0.0 0.0 0.0 0.0 0.0 0.0 0.0 0.0 0.0 0.0 0.0 0.0 0.0 0.0 0.0 0.0 0.0 0.0 0.0 0.0 0.0 0.0 0.0 0.0 0.0 0.0 0.0 0.0 0.0 0.0 0.0 0.0 0.0 0.0 0.0 0.0 0.0 0.0 0.0 0.0 0.0 0.0 0.0 0.0 0.0 0.0 0.0 0.0 0.0 0.0 0.0 0.0 0.0 0.0 0.0 0.0 0.0 0.0 0.0 0.0 0.0 0.0 0.0 0.0 0.0 0.0 0.0 0.0 0.0 0.0 0.0 0.0 0.0 0.0 0.0 0.0 0.0 0.0 0.0 0.0 0.0 0.0 0.0 0.0 0.0 0.0 0.0 0.0 0.0 0.0 0.0 0.0 0.0 0.0 0.0 0.0 0.0 0.0 0.0 0.0 0.0 0.0 0.0 0.0 0.0 0.0 0.0 0.0 0.0 0.0 0.0 0.0 0.0 0.0 0.0 0.0 0.0 0.0 0.0 0.0 0.0 0.0 0.0 0.0 0.0 0.0 0.0 0.0 0.0 0.0 0.0 0.0 0.0 0.0 0.0 0.0 0.0 0.0 0.0 0.0 0.0 0.0 0.0 0.0 0.0 0.0 0.0 0.0 0.0 0.0 0.0 0.0 0.0 0.0 0.0 0.0 0.0 0.0 0.0 0.0 0.0 0.0 0.0 0.0 0.0 0.0 0.0 0.0 0.0 0.0 0.0 0.0 0.0 0.0 0.0 0.0 0.0 0.0 0.0 0.0 0.0 0.0 0.0 0.0 0.0 0.0 0.0 0.0 0.0 0.0 0.0 0.0 0.0 0.0 0.0 0.0 0.0 0.0 0.0 0.0 0.0 0.0 0.0 0.0 0.0 0.0 0.0 0.0 0.0 0.0 0.0 0.0 0.0 0.0 0.0 0.0 0.0 0.0 0.0 0.0 0.0 0.0 0.0 0.0 0.0 0.0 0.0 0.0 0.0 0.0 0.0 0.0 0.0 0.0 0.0 0.0 0.0 0.0 0.0 0.0 0.0 0.0 0.0 0.0 0.0 0.0 0.0 0.0 0.0 0.0 0.0 0.0 0.0 0.0 0.0 0.0 0.0 0.0 0.0 0.0 0.0 0.0 0.0 0.0 0.0 0.0 0.0 0.0 0.0 0.0 0.0 0.0 0.0 0.0 0.0 0.0 0.0 0.0 0.0 0.0 0.0 0.0 0.0 0.0 0.0 0.0 0.0 0.0 0.0 0.0 0.0 0.0 0.0 0.0 0.0 0.0 0.0 0.0 0.0 0.0 0.0 0.0 0.0 0.0 0.0 0.0 0.0 0.0 0.0 0.0 0.0 0.0 0.0 0.0 0.0 0.0 0.0 0.0 0.0 0.0 0.0 0.0 0.0 0.0 0.0 0.0 0.0 0.0 0.0 0.0 0.0 0.0 0.0 0.0 0.0 0.0 0.0 0.0 0.0 0.0 0.0 0.0 0.0 0.0 0.0 0.0 0.0 0.0 0.0 0.0 0.0 0.0 0.0 0.0 0.0 0.0 0.0 0.0 0.0 0.0 0.0 0.0 0.0 0.0 0.0 0.0 0.0 0.0 0.0 0.0 0.0 0.0 0.0 0.0 0.0 0.0 0.0 0.0 0.0 0.0 0.0 0.0 0.0 0.0 0.0 0.0 0.0 0.0 0.0 0.0 0.0 0.0 0.0 0.0 0.0 0.0 0.0 0.0 0.0 0.0 0.0 0.0 0.0 0.0 0.0 0.0 0.0 0.0 0.0 0.0 0.0 0.0 0.0 0.0 0.0 0.0 0.0 0.0 0.0 0.0 0.0 0.0 0.0 0.0 0.0 0.0 0.0 0.0 0.0 0.0 0.0 0.0 0.0 0.0 0.0 0.0 0.0 0.0 0.0 0.0 0.0 0.0 0.0 0.0 0.0 0.0 0.0 0.0 0.0 0.0 0.0 0.0 0.0 0.0 0.0 0.0 0.0 0.0 0.0 0.0 0.0 0.0 0.0 0.0 0.0 0.0 0.0 0.0 0.0 0.0 0.0 0.0 0.0 0.0 0.0 0.0 0.0 0.0 0.0 0.0 0.0 0.0 0.0 0.0 0.0 0.0 0.0 0.0 0.0 0.0 0.0 0.0 0.0 0.0 0.0 0.0 0.0 0.0 0.0 0.0 0.0 0.0 0.0 0.0 0.0 0.0 0.0 0.0 0.0 0.0 0.0 0.0 0.0 0.0 0.0 0.0 0.0 0.0 0.0 0.0 0.0 0.0 0.0 0.0 0.0 0.0 0.0 0.0 0.0 0.0 0.0 0.0 0.0 0.0 0.0 0.0 0.0 0.0 0.0 0.0 0.0 0.0 0.0 0.0 0.0 0.0 0.0 0.0 0.0 0.0 0.0 0.0 0.0 0.0 0.0 0.0 0.0 0.0 0.0 0.0 0.0 0.0 0.0 0.0 0.0 0.0 0.0 0.0 0.0 0.0 0.0 0.0 0.0 0.0 0.0 0.0 0.0 0.0 0.0 0.0 0.0 0.0 0.0 0.0 0.0 0.0 0.0 0.0 0.0 0.0 0.0 0.0 0.0 0.0 0.0 0.0 0.0 0.0 0.0 0.0 0.0 0.0 0.0 0.0 0.0 0.0 0.0 0.0 0.0 0.0 0.0 0.0 0.0 0.0 0.0 0.0 0.0 0.0 0.0 0.0 0.0 0.0 0.0 0.0 0.0 0.0 0.0 0.0 0.0 0.0 0.0 0.0 0.0 0.0 0.0 0.0 0.0 0.0 0.0 0.0 0.0 0.0 0.0 0.0 0.0 0.0 0.0 0.0 0.0 0.0 0.0 0.0 0.0 0.0 0.0 0.0 0.0 0.0 0.0 0.0 0.0 0.0 0.0 0.0 0.0 0.0 0.0 0.0 0.0 0.0 0.0 0.0 0.0 0.0 0.0 0.0 0.0 0.0 0.0 0.0 0.0 0.0 0.0 0.0 0.0 0.0 0.0 0.0 0.0 0.0 0.0 0.0 0.0 0.0 0.0 0.0 0.0 0.0 0.0 0.0 0.0 0.0 0.0 0.0 0.0 0.0 0.0 0.0 0.0 0.0 0.0 0.0 0.0 0.0 0.0 0.0 0.0 0.0 0.0 0.0 0.0 0.0 0.0 0.0 0.0 0.0 0.0 0.0 0.0 0.0 0.0 0.0 0.0 0.0 0.0 0.0 0.0 0.0 0.0 0.0 0.0 0.0 0.0 0.0 0.0 0.0 0.0 0.0 0.0 0.0 0.0 0.0 0.0 0.0 0.0 0.0 0.0 0.0 0.0 0.0 0.0 0.0 0.0 0.0 0.0 0.0 0.0 0.0 0.0 0.0 0.0 0.0 0.0 0.0 0.0 0.0 0.0 0.0 0.0 0.0 0.0 0.0 0.0 0.0 0.0 0.0 0.0 0.0 0.0 0.0 0.0 0.0 0.0 0.0 0.0 0.0 0.0 0.0 0.0 0.0 0.0 0.0 0.0 0.0 0.0 0.0 0.0 0.0 0.0 0.0 0.0 0.0 0.0 0.0 0.0 0.0 0.0 0.0 0.0 0.0 0.0 0.0 0.0 0.0 0.0 0.0 0.0 0.0 0.0 0.0 0.0 0.0 0.0 0.0 0.0 0.0 0.0 0.0 0.0 0.0 0.0 0.0 0.0 0.0 0.0 0.0 0.0 0.0 0.0 0.0 0.0 0.0 0.0 0.0 0.0 0.0 0.0 0.0 0.0 0.0 0.0 0.0 0.0 0.0 0.0 0.0 0.0 0.0 0.0 0.0 0.0 0.0 0.0 0.0 0.0 0.0 0.0 0.0 0.0 0.0 0.0 0.0 0.0 0.0 0.0 0.0 0.0 0.0 0.0 0.0 0.0 0.0 0.0 0.0 0.0 0.0 0.0 0.0 0.0 0.0 0.0 0.0 0.0 0.0 0.0 0.0 0.0 0.0 0.0 0.0 0.0 0.0 0.0 0.0 0.0 0.0 0.0 0.0 0.0 0.0 0.0 0.0 0.0 0.0 0.0 0.0 0.0 0.0 0.0 0.0 0.0 0.0 0.0 0.0 0.0 0.0 0.0 0.0 0.0 0.0 0.0 0.0 0.0 0.0 0.0 0.0 0.0 0.0 0.0 0.0 0.0 0.0 0.0 0.0 0.0 0.0 0.0 0.0 0.0 0.0 0.0 0.0 0.0 0.0 0.0 0.0 0.0 0.0 0.0 0.0 0.0 0.0 0.0 0.0 0.0 0.0 0.0 0.0 0.0 0.0 0.0 0.0 0.0 0.0 0.0 0.0 0.0 0.0 0.0 0.0 0.0 0.0 0.0 0.0 0.0 0.0 0.0 0.0 0.0 0.0 0.0 0.0 0.0 0.0 0.0 0.0 0.0 0.0 0.0 0.0 0.0 0.0 0.0 0.0 0.0 0.0 0.0 0.0 0.0 0.0 0.0 0.0 0.0 0.0 0.0 0.0 0.0 0.0 0.0 0.0 0.0 0.0 0.0 0.0 0.0 0.0 0.0 0.0 0.0 0.0 0.0 0.0 0.0 0.0 0.0 0.0 0.0 0.0 0.0 0.0 0.0 0.0 0.0 0.0 0.0 0.0 0.0 0.0 0.0 0.0 0.0 0.0 0.0 0.0 0.0 0.0 0.0 0.0 0.0 0.0 0.0 0.0 0.0 0.0 0.0 0.0 0.0 0.0 0.0 0.0 0.0 0.0 0.0 0.0 0.0 0.0 0.0 0.0 0.0 0.0 0.0 0.0 0.0 0.0 0.0 0.0 0.0 0.0 0.0 0.0 0.0 0.0 0.0 0.0 0.0 0.0 0.0 0.0 0.0 0.0 0.0 0.0 0.0 0.0 0.0 0.0 0.0 0.0 0.0 0.0 0.0 0.0 0.0 0.0 0.0 0.0 0.0 0.0 0.0 0.0 0.0 0.0 0.0 0.0 0.0 0.0 0.0 0.0 0.0 0.0 0.0 0.0 0.0 0.0 0.0 0.0 0.0 0.0 0.0 0.0 0.0 0.0 0.0 0.0 0.0 0.0 0.0 0.0 0.0 0.0 0.0 0.0 0.0 0.0 0.0 0.0 0.0 0.0 0.0 0.0 0.0 0.0 0.0 0.0 0.0 0.0 0.0 0.0 0.0 0.0 0.0 0.0 0.0 0.0 0.0 0.0 0.0 0.0 0.0 0.0 0.0 0.0 0.0 0.0 0.0 0.0 0.0 0.0 0.0 0.0 0.0 0.0 0.0 0.0 0.0 0.0 0.0 0.0 0.0 0.0 0.0 0.0 0.0 0.0 0.0 0.0 0.0 0.0 0.0 0.0 0.0 0.0 0.0 0.0 0.0 0.0 0.0 0.0 0.0 0.0 0.0 0.0 0.0 0.0 0.0 0.0 0.0 0.0 0.0 0.0 0.0 0.0 0.0 0.0 0.0 0.0 0.0 0.0 0.0 0.0 0.0 0.0 0.0 0.0 0.0 0.0 0.0 0.0 0.0 0.0 0.0 0.0 0.0 0.0 0.0 0.0 0.0 0.0 0.0 0.0 0.0 0.0 0.0 0.0 0.0 0.0 0.0 0.0 0.0 0.0 0.0 0.0 0.0 0.0 0.0 0.0 0.0 0.0 0.0 0.0 0.0 0.0 0.0 0.0 0.0 0.0 0.0 0.0 0.0 0.0 0.0 0.0 0.0 0.0 0.0 0.0 0.0 0.0 0.0 0.0 0.0 0.0 0.0 0.0 0.0 0.0 0.0 0.0 0.0 0.0 0.0 0.0 0.0 0.0 0.0 0.0 0.0 0.0 0.0 0.0 0.0 0.0 0.0 0.0 0.0 0.0 0.0 0.0 0.0 0.0 0.0 0.0 0.0 0.0 0.0 0.0 0.0 0.0 0.0 0.0 0.0 0.0 0.0 0.0 0.0 0.0 0.0 0.0 0.0 0.0 0.0 0.0 0.0 0.0 0.0 0.0 0.0 0.0 0.0 0.0 0.0 0.0 0.0 0.0 0.0 0.0 0.0 0.0 0.0 0.0 0.0 0.0 0.0 0.0 0.0 0.0 0.0 0.0 0.0 0.0 0.0 0.0 0.0 0.0 0.0 0.0 0.0 0.0 0.0 0.0 0.0 0.0 0.0 0.0 0.0 0.0 0.0 0.0 0.0 0.0 0.0 0.0 0.0 0.0 0.0 0.0 0.0 0.0 0.0 0.0 0.0 0.0 0.0 0.0 0.0 0.0 0.0 0.0 0.0 0.0 0.0 0.0 0.0 0.0 0.0 0.0 0.0 0.0 0.0 0.0 0.0 0.0 0.0 0.0 0.0 0.0 0.0 0.0 0.0 0.0 0.0 0.0 0.0 0.0 0.0 0.0 0.0 0.0 0.0 0.0 0.0 0.0 0.0 0.0 0.0 0.0 0.0 0.0 0.0 0.0 0.0 0.0 0.0 0.0 0.0 0.0 0.0 0.0 0.0 0.0 0.0 0.0 0.0 0.0 0.0 0.0 0.0 0.0 0.0 0.0 0.0 0.0 0.0 0.0 0.0 0.0 0.0 0.0 0.0 0.0 0.0 0.0 0.0 0.0 0.0 0.0 0.0 0.0 0.0 0.0 0.0 0.0 0.0 0.0 0.0 0.0 0.0 0.0 0.0 0.0 0.0 0.0 0.0 0.0 0.0 0.0 0.0 0.0 0.0 0.0 0.0 0.0 0.0 0.0 0.0 0.0 0.0 0.0 0.0 0.0 0.0 0.0 0.0 0.0 0.0 0.0 0.0 0.0 0.0 0.0 0.0 0.0 0.0 0.0 0.0 0.0 0.0 0.0 0.0 0.0 0.0 0.0 0.0 0.0 0.0 0.0 0.0 0.0 0.0 0.0 0.0 0.0 0.0 0.0 0.0 0.0 0.0 0.0 0.0 0.0 0.0 0.0 0.0 0.0 0.0 0.0 0.0 0.0 0.0 0.0 0.0 0.0 0.0 0.0 0.0 0.0 0.0 0.0 0.0 0.0 0.0 0.0 0.0 0.0 0.0 0.0 0.0 0.0 0.0 0.0 0.0 0.0 0.0 0.0 0.0 0.0 0.0 0.0 0.0 0.0 0.0 0.0 0.0 0.0 0.0 0.0 0.0 0.0 0.0 0.0 0.0 0.0 0.0 0.0 0.0 0.0 0.0 0.0 0.0 0.0 0.0 0.0 0.0 0.0 0.0 0.0 0.0 0.0 0.0 0.0 0.0 0.0 0.0 0.0 0.0 0.0 0.0 0.0 0.0 0.0 0.0 0.0 0.0 0.0 0.0 0.0 0.0 0.0 0.0 0.0 0.0 0.0 0.0 0.0 0.0 0.0 0.0 0.0 0.0 0.0 0.0 0.0 0.0 0.0 0.0 0.0 0.0 0.0 0.0 0.0 0.0 0.0 0.0 0.0 0.0 0.0 0.0 0.0 0.0 0.0 0.0 0.0 0.0 0.0 0.0 0.0 0.0 0.0 0.0 0.0 0.0 0.0 0.0 0.0 0.0 0.0 0.0 0.0 0.0 0.0 0.0 0.0 0.0 0.0 0.0 0.0 0.0 0.0 0.0 0.0 0.0
        </DataArray>
      </PointData>
      <CellData>
        <DataArray type="Int32" Name="GeometryIds" format="ascii">
 3 3 3 3 3 3 3 3 3 3 3 3 3 3 3 3 3 3 3 3 3 3 3 3 3 3 3 3 3 3 3 3 3 3 3 3 3 3 3 3 3 3 3 3 3 3 3 3 3 3 3 3 3 3 3 3 3 3 3 3 3 3 3 3 3 3 3 3 3 3 3 3 3 3 3 3 3 3 3 3 3 3 3 3 3 3 3 3 3 3 3 3 3 3 3 3 3 3 3 3 3 3 3 3 3 3 3 3 3 3 3 3 3 3 3 3 3 3 3 3 3 3 3 3 3 3 3 3 3 3 3 3 3 3 3 3 3 3 3 3 3 3 3 3 3 3 3 3 3 3 3 3 3 3 3 3 3 3 3 3 3 3 3 3 3 3 3 3 3 3 3 3 3 3 3 3 3 3 3 3 3 3 3 3 3 3 3 3 3 3 3 3 3 3 3 3 3 3 3 3 3 3 3 3 3 3 3 3 3 3 3 3 3 3 3 3 3 3 3 3 3 3 3 3 3 3 3 3 3 3 3 3 3 3 3 3 3 3 3 3 3 3 3 3 3 3 3 3 3 3 3 3 3 3 3 3 3 3 3 3 3 3 3 3 3 3 3 3 3 3 3 3 3 3 3 3 3 3 3 3 3 3 3 3 3 3 3 3 3 3 3 3 3 3 3 3 3 3 3 3 3 3 3 3 3 3 3 3 3 3 3 3 3 3 3 3 3 3 3 3 3 3 3 3 3 3 3 3 3 3 3 3 3 3 3 3 3 3 3 3 3 3 3 3 3 3 3 3 3 3 3 3 3 3 3 3 3 3 3 3 3 3 3 3 3 3 3 3 3 3 3 3 3 3 3 3 3 3 3 3 3 3 3 3 3 3 3 3 3 3 3 3 3 3 3 3 3 3 3 3 3 3 3 3 3 3 3 3 3 3 3 3 3 3 3 3 3 3 3 3 3 3 3 3 3 3 3 3 3 3 3 3 3 3 3 3 3 3 3 3 3 3 3 3 3 3 3 3 3 3 3 3 3 3 3 3 3 3 3 3 3 3 3 3 3 3 3 3 3 3 3 3 3 3 3 3 3 3 3 3 3 3 3 3 3 3 3 3 3 3 3 3 3 3 3 3 3 3 3 3 3 3 3 3 3 3 3 3 3 3 3 3 3 3 3 3 3 3 3 3 3 3 3 3 3 3 3 3 3 3 3 3 3 3 3 3 3 3 3 3 3 3 3 3 3 3 3 3 3 3 3 3 3 3 3 3 3 3 3 3 3 3 3 3 3 3 3 3 3 3 3 3 3 3 3 3 3 3 3 3 3 3 3 3 3 3 3 3 3 3 3 3 3 3 3 3 3 3 3 3 3 3 3 3 3 3 3 3 3 3 3 3 3 3 3 3 3 3 3 3 3 3 3 3 3 3 3 3 3 3 3 3 3 3 3 3 3 3 3 3 3 3 3 3 3 3 3 3 3 3 3 3 3 3 3 3 3 3 3 3 3 3 3 3 3 3 3 3 3 3 3 3 3 3 3 3 3 3 3 3 3 3 3 3 3 3 3 3 3 3 3 3 3 3 3 3 3 3 3 3 3 3 3 3 3 3 3 3 3 3 3 3 3 3 3 3 3 3 3 3 3 3 3 3 3 3 3 3 3 3 3 3 3 3 3 3 3 3 3 3 3 3 3 3 3 3 3 3 3 3 3 3 3 3 3 3 3 3 3 3 3 3 3 3 3 3 3 3 3 3 3 3 3 3 3 3 3 3 3 3 3 3 3 3 3 3 3 3 3 3 3 3 3 3 3 3 3 3 3 3 3 3 3 3 3 3 3 3 3 3 3 3 3 3 3 3 3 3 3 3 3 3 3 3 3 3 3 3 3 3 3 3 3 3 3 3 3 3 3 3 3 3 3 3 3 3 3 3 3 3 3 3 3 3 3 3 3 3 3 3 3 3 3 3 3 3 3 3 3 3 3 3 3 3 3 3 3 3 3 3 3 3 3 3 3 3 3 3 3 3 3 3 3 3 3 3 3 3 3 3 3 3 3 3 3 3 3 3 3 3 3 3 3 3 3 3 3 3 3 3 3 3 3 3 3 3 3 3 3 3 3 3 3 3 3 3 3 3 3 3 3 3 3 3 3 3 3 3 3 3 3 3 3 3 3 3 3 3 3 3 3 3 3 3 3 3 3 3 3 3 3 3 3 3 3 3 3 3 3 3 3 3 3 3 3 3 3 3 3 3 3 3 3 3 3 3 3 3 3 3 3 3 3 3 3 3 3 3 3 3 3 3 3 3 3 3 3 3 3 3 3 3 3 3 3 3 3 3 3 3 3 3 3 3 3 3 3 3 3 3 3 3 3 3 3 3 3 3 3 3 3 3 3 3 3 3 3 3 3 3 3 3 3 3 3 3 3 3 3 3 3 3 3 3 3 3 3 3 3 3 3 3 3 3 3 3 3 3 3 3 3 3 3 3 3 3 3 3 3 3 3 3 3 3 3 3 3 3 3 3 3 3 3 3 3 3 3 3 3 3 3 3 3 3 3 3 3 3 3 3 3 3 3 3 3 3 3 3 3 3 3 3 3 3 3 3 3 3 3 3 3 3 3 3 3 3 3 3 3 3 3 3 3 3 3 3 3 3 3 3 3 3 3 3 3 3 3 3 3 3 3 3 3 3 3 3 3 3 3 3 3 3 3 3 3 3 3 3 3 3 3 3 3 3 3 3 3 3 3 3 3 3 3 3 3 3 3 3 3 3 3 3 3 3 3 3 3 3 3 3 3 3 3 3 3 3 3 3 3 3 3 3 3 3 3 3 3 3 3 3 3 3 3 3 3 3 3 3 3 3 3 3 3 3 3 3 3 3 3 3 3 3 3 3 3 3 3 3 3 3 3 3 3 3 3 3 3 3 3 3 3 3 3 3 3 3 3 3 3 3 3 3 3 3 3 3 3 3 3 3 3 3 3 3 3 3 3 3 3 3 3 3 3 3 3 3 3 3 3 3 3 3 3 3 3 3 3 3 3 3 3 3 3 3 3 3 3 3 3 3 3 3 3 3 3 3 3 3 3 3 3 3 3 3 3 3 3 3 3 3 3 3 3 3 3 3 3 3 3 3 3 3 3 3 3 4 4 4 4 4 4 4 4 4 4 4 4 4 4 4 4 4 4 4 4 4 4 4 4 4 4 4 4 4 4 4 4 4 4 4 4 4 4 4 4 4 4 4 4 4 4 4 4 4 4 4 4 4 4 4 4 4 4 4 4 4 4 4 4 4 4 4 4 4 4 4 4 4 4 4 4 4 4 4 4 4 4 4 4 4 4 4 4 4 4 4 4 4 4 4 4 4 4 4 4 4 4 4 4 4 4 4 4 4 4 4 4 4 4 4 4 4 4 4 4 4 4 4 4 4 4 4 4 4 4 4 4 4 4 4 4 4 4 4 4 4 4 4 4 4 4 4 4 4 4 4 4 4 4 4 4 4 4 4 4 4 4 4 4 4 4 4 4 4 4 4 4 4 4 4 4 4 4 4 4 4 4 4 4 4 4 4 4 4 4 4 4 4 4 4 4 4 4 4 4 4 4 4 4 4 4 4 4 4 4 4 4 4 4 4 4 4 4 4 4 4 4 4 4 4 4 4 4 4 4 4 4 4 4 4 4 4 4 4 4 4 4 4 4 4 4 4 4 4 4 4 4 4 4 4 4 4 4 4 4 4 4 4 4 4 4 4 4 4 4 4 4 4 4 4 4 4 4 4 4 4 4 4 4 4 4 4 4 4 4 4 4 4 4 4 4 4 4 4 4 4 4 4 4 4 4 4 4 4 4 4 4 4 4 4 4 4 4 4 4 4 4 4 4 4 4 4 4 4 4 4 4 4 4 4 4 4 4 4 4 4 4 4 4 4 4 4 4 4 4 4 4 4 4 4 4 4 4 4 4 4 4 4 4 4 4 4 4 4 4 4 4 4 4 4 4 4 4 4 4 4 4 4 4 4 4 4 4 4 4 4 4 4 4 4 4 4 4 4 4 4 4 4 4 4 4 4 4 4 4 4 4 4 4 4 4 4 4 4 4 4 4 4 4 4 4 4 4 4 4 4 4 4 4 4 4 4 4 4 4 4 4 4 4 4 4 4 4 4 4 4 4 4 4 4 4 4 4 4 4 4 4 4 4 4 4 4 4 4 4 4 4 4 4 4 4 4 4 4 4 4 4 4 4 4 4 4 4 4 4 4 4 4 4 4 4 4 4 4 4 4 4 4 4 4 4 4 4 4 4 4 4 4 4 4 4 4 4 4 4 4 4 4 4 4 4 4 4 4 4 4 4 4 4 4 4 4 4 4 4 4 4 4 4 4 4 4 4 4 4 4 4 4 4 4 4 4 4 4 4 4 4 4 4 4 4 4 4 4 4 4 4 4 4 4 4 4 4 4 4 4 4 4 4 4 4 4 4 4 4 4 4 4 4 4 4 4 4 4 4 4 4 4 4 4 4 4 4 4 4 4 4 4 4 4 4 4 4 4 4 4 4 4 4 4 4 4 4 4 4 4 4 4 4 4 4 4 4 4 4 4 4 4 4 4 4 4 4 4 4 4 4 4 4 4 4 4 4 4 4 4 4 4 4 4 4 4 4 4 4 4 4 4 4 4 4 4 4 4 4 4 4 4 4 4 4 4 4 4 4 4 4 4 4 4 4 4 4 4 4 4 4 4 4 4 4 4 4 4 4 4 4 4 4 4 4 4 4 4 4 4 4 4 4 4 4 4 4 4 4 4 4 4 4 4 4 4 4 4 4 4 4 4 4 4 4 4 4 4 4 4 4 4 4 4 4 4 4 4 4 4 4 4 4 4 4 4 4 4 4 4 4 4 4 4 4 4 4 4 4 4 4 4 4 4 4 4 4 4 4 4 4 4 4 4 4 4 4 4 4 4 4 4 4 4 4 4 4 4 4 4 4 4 4 4 4 4 4 4 4 4 4 4 4 4 4 4 4 4 4 4 4 4 4 4 4 4 4 4 4 4 4 4 4 4 4 4 4 4 4 4 4 4 4 4 4 4 4 4 4 4 4 4 4 4 4 4 4 4 4 4 4 4 4 4 4 4 4 4 4 4 4 4 4 4 4 4 4 4 4 4 4 4 4 4 4 4 4 4 4 4 4 4 4 4 4 4 4 4 4 4 4 4 4 4 4 4 4 4 4 4 4 4 4 4 4 4 4 4 4 4 4 4 4 4 4 4 4 4 4 4 4 4 4 4 4 4 4 4 4 4 4 4 4 4 4 4 4 4 4 4 4 4 4 4 4 4 4 4 4 4 4 4 4 4 4 4 4 4 4 4 4 4 4 4 4 4 4 4 4 4 4 4 4 4 4 4 4 4 4 4 4 4 4 4 4 4 4 4 4 4 4 4 4 4 4 4 4 4 4 4 4 4 4 4 4 4 4 4 4 4 4 4 4 4 4 4 4 4 4 4 4 4 4 4 4 4 4 4 4 4 4 4 4 4 4 4 4 4 4 4 4 4 4 4 4 4 4 4 4 4 4 4 4 4 4 4 4 4 4 4 4 4 4 4 4 4 4 4 4 4 4 4 4 4 4 4 4 4 4 4 4 4 4 4 4 4 4 4 4 4 4 4 4 4 4 4 4 4 4 4 4 4 4 4 4 4 4 4 4 4 4 4 4 4 4 4 4 4 4 4 4 4 4 4 4 4 4 4 4 4 4 4 4 4 4 4 4 4 4 4 4 4 4 4 4 4 4 4 4 4 4 4 4 4 4 4 4 4 4 4 4 4 4 4 4 4 4 4 4 4 4 4 4 4 4 4 4 4 4 4 4 4 4 4 4 4 4 4 4 4 4 4 4 4 4 4 4 4 4 4 4 4 4 4 4 4 4 4 4 4 4 4 4 4 4 4 4 4 4 4 4 4 4 4 4 4 4 4 4 4 4 4 4 4 4 4 4 4 4 4 4 4 4 4 4 4 4 4 4 4 4 4 4 4 4 4 4 4 4 4 4 4 4 4 4 4 4 4 4 4 4 4 4 4 4 4 4 4 4 4 4 4 4 4 4 4 4 4 4 4 4 4 4 4 4 4 4 4 4 4 4 4 4 4 4 4 4 4 4 4 4 4 4 4 4 4 4 4 4 4 4 4 4 4 4 4 4 4 4 4 4 4 4 4 4 4 4 4 4 4 4 4 4 4 4 4 4 4 4 4 4 4 4 4 4 4 4 4 4 4 4 4 4 4 4 4 4 4 4 4 4 4 4 4 4 4 4 4 4 4 4 4 4 4 4 4 4 4 4 4 4 4 4 4 4 4 4 4 4 4 4 4 4 4 4 4 4 4 4 4 4 4 4 4 4 4 4 4 4 4 4 4 4 4 4 4 4 4 4 4 4 4 4 4 4 4 4 4 4 4 4 4 4 4 4 4 4 4 4 4 4 4 4 4 4 4 4 4 4 4 4 4 4 4 4 4 4 4 4 4 4 4 4 4 4 4 4 4 4 4 4 4 4 4 4 4 4 4 4 4 4 4 4 4 4 4 4 4 4 4 4 4 4 4 4 4 4 4 4 4 4 4 4 4 4 4 4 4 4 4 4 4 4 4 4 4 4 4 4 4 4 4 4 4 4 4 4 4 4 4 4 4 4 4 4 4 4 4 4 4 4 4 4 4 4 4 4 4 4 4 4 4 4 4 4 4 4 4 4 4 4 4 4 4 4 4 4 4 4 4 4 4 4 4 4 4 4 4 4 4 4 4 4 4 4 4 4 4 4 4 4 4 4 4 4 4 4 4 4 4 4 4 4 4 4 4 4 4 4 4 4 4 4 4 4 4 4 4 4 4 4 4 4 4 4 4 4 4 4 4 4 4 4 4 4 4 4 4 4 4 4 4 4 4 4 4 4 4 4 4 4 4 4 4 4 4 4 4 4 4 4 4 4 4 4 4 4 4 4 4 4 4 4 4 4 4 4 4 4 4 4 4 4 4 4 4 4 4 4 4 4 4 4 4 4 4 4 4 4 4 4 4 4 4 4 4 4 4 4 4 4 4 4 4 4 4 4 4 4 4 4 2 2 2 2 2 2 2 2 2 2 2 2 2 2 2 2 2 2 2 2 2 2 2 2 2 2 2 2 2 2 2 2 2 2 2 2 2 2 2 2 2 2 2 2 2 2 2 2 2 2 2 2 2 2 2 2 2 2 2 2 2 2 2 2 2 2 2 2 2 2 2 2 2 2 2 2 2 2 2 2 2 2 2 2 2 2 2 2 2 2 2 2 2 2 2 2 2 2 2 2 2 2 2 2 2 2 2 2 2 2 2 2 2 2 2 2 2 2 2 2 2 2 2 2 2 2 2 2 2 2 2 2 2 2 2 2 2 2 2 2 2 2 2 2 2 2 2 2 2 2 2 2 2 2 2 2 2 2 2 2 2 2 2 2 2 2 2 2 2 2 2 2 2 2 2 2 2 2 2 2 2 2 2 2 2 2 2 2 2 2 2 2 2 2 2 2 2 2 2 2 2 2 2 2 2 2 2 2 2 2 2 2 2 2 2 2 2 2 2 2 2 2 2 2 2 2 2 2 2 2 2 2 2 2 2 2 2 2 2 2 2 2 2 2 2 2 2 2 2 2 2 2 2 2 2 2 2 2 2 2 2 2 2 2 2 2 2 2 2 2 2 2 2 2 2 2 2 2 2 2 2 2 2 2 2 2 2 2 2 2 2 2 2 2 2 2 2 2 2 2 2 2 2 2 2 2 2 2 2 2 2 2 2 2 2 2 2 2 2 2 2 2 2 2 2 2 2 2 2 2 2 2 2 2 2 2 2 2 2 2 2 2 2 2 2 2 2 2 2 2 2 2 2 2 2 2 2 2 2 2 2 2 2 2 2 2 2 2 2 2 2 2 2 2 2 2 2 2 2 2 2 2 2 2 2 2 2 2 2 2 2 2 2 2 2 2 2 2 2 2 2 2 2 2 2 2 2 2 2 2 2 2 2 2 2 2 2 2 2 2 2 2 2 2 2 2 2 2 2 2 2 2 2 2 2 2 2 2 2 2 2 2 2 2 2 2 2 2 2 2 2 2 2 2 2 2 2 2 2 2 2 2 2 2 2 2 2 2 2 2 2 2 2 2 2 2 2 2 2 2 2 2 2 2 2 2 2 2 2 2 2 2 2 2 2 2 2 2 2 2 2 2 2 2 2 2 2 2 2 2 2 2 2 2 2 2 2 2 2 2 2 2 2 2 2 2 2 2 2 2 2 2 2 2 2 2 2 2 2 2 2 2 2 2 2 2 2 2 2 2 2 2 2 2 2 2 2 2 2 2 2 2 2 2 2 2 2 2 2 2 2 2 2 2 2 2 2 2 2 2 2 2 2 2 2 2 2 2 2 2 2 2 2 2 2 2 2 2 2 2 2 2 2 2 2 2 2 2 2 2 2 2 2 2 2 2 2 2 2 2 2 2 2 2 2 2 2 2 2 2 2 2 2 2 2 2 2 2 2 2 2 2 2 2 2 2 2 2 2 2 2 2 2 2 2 2 2 2 2 2 2 2 2 2 2 2 2 2 2 2 2 2 2 2 2 2 2 2 2 2 2 2 2 2 2 2 2 2 2 2 2 2 2 2 2 2 2 2 2 2 2 2 2 2 2 2 2 2 2 2 2 2 2 2 2 2 2 2 2 2 2 2 2 2 2 2 2 2 2 2 2 2 2 2 2 2 2 2 2 2 2 2 2 2 2 2 2 2 2 2 2 2 2 2 2 2 2 2 2 2 2 2 2 2 2 2 2 2 2 2 2 2 2 2 2 2 2 2 2 2 2 2 2 2 2 2 2 2 2 2 2 2 2 2 2 2 2 2 2 2 2 2 2 2 2 2 2 2 2 2 2 2 2 2 2 2 2 2 2 2 2 2 2 2 2 2 2 2 2 2 2 2 2 2 2 2 2 2 2 2 2 2 2 2 2 2 2 2 2 2 2 2 2 2 2 2 2 2 2 2 2 2 2 2 2 2 2 2 2 2 2 2 2 2 2 2 2 2 2 2 2 2 2 2 2 2 2 2 2 2 2 2 2 2 2 2 2 2 2 2 2 2 2 2 2 2 2 2 2 2 2 2 2 2 2 2 2 2 2 2 2 2 2 2 2 2 2 2 2 2 2 2 2 2 2 2 2 2 2 2 2 2 2 2 2 2 2 2 2 2 2 2 2 2 2 2 2 2 2 2 2 2 2 2 2 2 2 2 2 2 2 2 2 2 2 2 2 2 2 2 2 2 2 2 2 2 2 2 2 2 2 2 2 2 2 2 2 2 2 2 2 2 2 2 2 2 2 2 2 2 2 2 2 2 2 2 2 2 2 2 2 2 2 2 2 2 2 2 2 2 2 2 2 2 2 2 2 2 2 2 2 2 2 2 2 2 2 2 2 2 2 2 2 2 2 2 2 2 2 2 2 2 2 2 2 2 2 2 2 2 2 2 2 2 2 2 2 2 2 2 2 2 2 2 2 2 2 2 2 2 2 2 2 2 2 2 2 2 2 2 2 2 2 2 2 2 2 2 2 2 2 2 5 5 5 5 5 5 5 5 5 5 5 5 5 5 5 5 5 5 5 5 5 5 5 5 5 5 5 5 5 5 5 5 5 5 5 5 5 5 5 5 5 5 5 5 5 5 5 5 5 5 5 5 5 5 5 5 5 5 5 5 5 5 5 5 5 5 5 5 5 5 5 5 5 5 5 5 5 5 5 5 5 5 5 5 5 5 5 5 5 5 5 5 5 5 5 5 5 5 5 5 5 5 5 5 5 5 5 5 5 5 5 5 5 5 5 5 5 5 5 5 5 5 5 5 5 5 5 5 5 5 5 5 5 5 5 5 5 5 5 5 5 5 5 5 5 5 5 5 5 5 5 5 5 5 5 5 5 5 5 5 5 5 5 5 5 5 5 5 5 5 5 5 5 5 5 5 5 5 5 5 5 5 5 5 5 5 5 5 5 5 5 5 5 5 5 5 5 5 5 5 5 5 5 5 5 5 5 5 5 5 5 5 5 5 5 5 5 5 5 5 5 5 5 5 5 5 5 5 5 5 5 5 5 5 5 5 5 5 5 5 5 5 5 5 5 5 5 5 5 5 5 5 5 5 5 5 5 5 5 5 5 5 5 5 5 5 5 5 5 5 5 5 5 5 5 5 5 5 5 5 5 5 5 5 5 5 5 5 5 5 5 5 5 5 5 5 5 5 5 5 5 5 5 5 5 5 5 5 5 5 5 5 5 5 5 5 5 5 5 5 5 5 5 5 5 5 5 5 5 5 5 5 5 5 5 5 5 5 5 5 5 5 5 5 5 5 5 5 5 5 5 5 5 5 5 5 5 5 5 5 5 5 5 5 5 5 5 5 5 5 5 5 5 5 5 5 5 5 5 5 1 1 1 1 1 1 1 1 1 1 1 1 1 1 1 1 1 1 1 1 1 1 1 1 1 1 1 1 1 1 1 1 1 1 1 1 1 1 1 1 1 1 1 1 1 1 1 1 1 1 1 1 1 1 1 1 1 1 1 1 1 1 1 1 1 1 1 1 1 1 1 1 1 1 1 1 1 1 1 1 1 1 1 1 1 1 1 1 1 1 1 1 1 1 1 1 1 1 1 1 1 1 1 1 1 1 1 1 1 1 1 1 1 1 1 1 1 1 6 6 6 6 6 6 6 6 6 6 6 6 6 6 6 6 6 6 6 6 6 6 6 6 6 6 6 6 6 6 6 6 6 6 6 6 6 6 6 6 6 6 6 6 6 6 6 6 6 6 6 6 6 6 6 6 6 6 6 6 6 6 6 6 6 6 6 6 6 6 6 6 6 6 6 6 6 6 6 6 6 6 6 6 6 6 6 6 6 6 6 6 6 6 6 6 6 6 6 6 6 6 6 6 6 6 6 6 6 6 6 6 6 6 6 6 6 6 6 6 6 6 6 6 6 6 6 6 6 6 6 6 6 6 6 6 6 6 6 6 6 6 6 6 6 6 6 6 6 6 6 6 6 6 6 6 6 6 6 6 6 6 6 6 6 6 6 6 6 6 6 6 6 6 6 6 6 6 6 6 6 6 6 6 6 6 6 6 6 6 6 6 6 6 6 6 6 6 6 6 6 6 6 6 6 6 6 6 6 6 6 6 6 6 6 6 6 6 6 6 6 6 6 6 6 6 6 6 6 6 6 6 6 6 6 6 6 6 6 6 6 6 6 6 6 6 6 6 6 6 6 6 6 6 6 6 6 6 6 6 6 6 6 6 6 6 6 6 6 6 6 6 6 6 6 6 6 6 6 6 6 6 6 6 6 6 6 6 6 6 6 6 6 6 6 6 6 6 6 6 6 6 6 6 6 6 6 6 6 6 6 6 6 6 6 6 6 6 6 6 6 6 6 6 6 6 6 6 6 6 6 6 6 6 6 6 6 6 6 6 6 6 6 6 6 6 6 6 6 6 6 6 6 6 6 6 6 6 6 6 6 6 6 6 6 6 6 6 6 6 6 6 6 6 6 6 6 6 6 6 6 6 6 6 6 6 6 6 6 6 6 6 6 6 6 6 6 6 6 6 6 6 6 6 6 6 6 6 6 6 6 6 6 6 6 6 6 6 6 6 6 6 6 6 6 6 6 6 6 6 6 6 6 6 6 6 6 6 6 6 6 6 6 6 6 6 6 6 6 6 6 6 6 6 6 6 6 6 6 6 6 6 6 6 6 6 6 6 6 6 6 6 6 6 6 6 6 6 6 6 6 6 6 6 6 6 6 6 6 6 6 6 6 6 6 6 6 6 6 6 6 6 6 6 6 6 6 6 6 6 6 6 6 6 6 6 6 6 6 6 6 6 6 6 6 6 6 6 6 6 6 6 6 6 6 6 6 6 6 6 6 6 6 6 6 6 6 6 6 6 6 6 6 6 6 6 6 6 6 6 6 6 6 6 6 6 6 6 6 6 6 6 6 6 6 6 6 6 6 6 6 6 6 6 6 6 6 6 6 6 6 6 6 6 6 6 6 6 6 6 6 6 6 6 6 6 6 6 6 6 6 6 6 6 6 6 6 6 6 6 6 6 6 6 6 6 6 6 6 6 6 6 6 6 6 6 6 6 6 6 6 6 6 6 6 6 6 6 6 6 6 6 6 6 6 6 6 6 6 6 6 6 6 6 6 6 6 6 6 6 6 6 6 6 6 6 6 6 6 6 6 6 6 6 6 6 6 6 6 6 6 6 6 6 6 6 6 6 6 6 6 6 6 6 6 6 6 6 6 6 6 6 6 6 6 6 6 6 6 6 6 6 6 6 6 6 6 6 6 6 6 6 6 6 6 6 6 6 6 6 6 6 6 6 6 6 6 6 6 6 6 6 6 6 6 6 6 6 6 6 6 6 6 6 6 6 6 6 6 6 6 6 6 6 6 6 6 6 6 6 6 6 6 6 6 6 6 6 6 6 6 6 6 6 6 6 6 6 6 6 6 6 6 6 6 6 6 6 6 6 6 6 6 6 6 6 6 6 6 6 6 6 6 6 6 6 6 6 6 6 6 6 6 6 6 6 6 6 6 6 6 6 6 6 6 6 6 6 6 6 6 6 6 6 6 6 6 6 6 6 6 6 6 6 6 6 6 6 6 6 6 6 6 6 6 6 6 6 6 6 6 6 6 6 6 6 6 6 6 6 6 6 6 6 6 6 6 6 6 6 6 6 6 6 6 6 6 6 6 6 6 6 6 6 6 6 6 6 6 6 6 6 6 6 6 6 6 6 6 6 6 6 6 6 6 6 6 6 6 6 6 6 6 6 6 6 6 6 6 6 6 6 6 6 6 6 6 6 6 6 6 6 6 6 6 6 6 6 6 6 6 6 6 6 6 6 6 6 6 6 6 6 6 6 6 6 6 6 6 6 6 6 6 6 6 6 6 6 6 6 6 6 6 6 6 6 6 6 6 6 6 6 6 6 6 6 6 6 6 6 6 6 6 6 6 6 6 6 6 6 6 6 6 6 6 6 6 6 6 6 6 6 6 6 6 6 6 6 6 6 6 6 6 6 6 6 6 6 6 6 6 6 6 6 6 6 6 6 6 6 6 6 6 6 6 6 6 6 6 6 6 6 6 6 6 6 6 6 6 6 6 6 6 6 6 6 6 6 6 6 6 6 6 6 6 6 6 6 6 6 6 6 6 6 6 6 6 6 6 6 6 6 6 6 6 6 6 6 6 6 6 6 6 6 6 6 6 6 6 6 6 6 6 6 6 6 6 6 6 6 6 6 6 6 6 6 6 6 6 6 6 6 6 6 6 6 6 6 6 6 6 6 6 6 6 6 6 6 6 6 6 6 6 6 6 6 6 6 6 6 6 6 6 6 6 6 6 6 6 6 6 6 6 6 6 6 6 6 6 6 6 6 6 6 6 6 6 6 6 6 6 6 6 6 6 6 6 6 6 6 6 6 6 6 6 6 6 6 6 6 6 6 6 6 6 6 6 6 6 6 6 6 6 6 6 6 6 6 6 6 6 6 6 6 6 6 6 6 6 6 6 6 6 6 6 6 6 6 6 6 6 6 6 6 6 6 6 6 6 6 6 6 6 6 6 6 6 6 6 6 6 6 6 6 6 6 6 6 6 6 6 6 6 6 6 6 6 6 6 6 6 6 6 6 6 6 6 6 6 6 6 6 6 6 6 6 6 6 6 6 6 6 6 6 6 6 6 6 6 6 6 6 6 6 6 6 6 6 6 6 6 6 6 6 6 6 6 6 6 6 6 6 6 6 6 6 6 6 6 6 6 6 6 6 6 6 6 6 6 6 6 6 6 6 6 6 6 6 6 6 6 6 6 6 6 6 6 6 6 6 6 6 6 6 6 6 6 6 6 6 6 6 6 6 6 6 6 6 6 6 6 6 6 6 6 6 6 6 6 6 6 6 6 6 6 6 6 6 6 6 6 6 6 6 6 6 6 6 6 6 6 6 6 6 6 6 6 6 6 6 6 6 6 6 6 6 6 6 6 6 6 6 6 6 6 6 6 6 6 6 6 6 6 6 6 6 6 6 6 6 6 6 6 6 6 6 6 6 6 6 6 6 6 6 6 6 6 6 6 6 6 6 6 6 6 6 6 6 6 6 6 6 6 6 6 6 6 6 6 6 6 6 6 6 6 6 6 6 6 6 6 6 6 6 6 6 6 6 6 6 6 6 6 6 6 6 6 6 6 6 6 6 6 6 6 6 6 6 6 6 6 6 6 6 6 6 6 6 6 6 6 6 6 6 6 6 6 6 6 6 6 6 6 6 6 6 6 6 6 6 6 6 6 6 6 6 6 6 6 6 6 6 6 6 6 6 6 6 6 6 6 6 6 6 6 6 6 6 6 6 6 6 6 6 6 6 6 6 6 6 6 6 6 6 6 6 6 6 6 6 6 6 6 6 6 6 6 6 6 6 6 6 6 6 6 6 6 6 6 6 6 6 6 6 6 6 6 6 6 6 6 6 6 6 6 6 6 6 6 6 6 6 6 6 6 6 6 6 6 6 6 6 6 6 6 6 6 6 6 6 6 6 6 6 6 6 6 6 6 6 6 6 6 6 6 6 6 6 6 6 6 6 6 6 6 6 6 6 6 6 6 6 6 6 6 6 6 6 6 6 6 6 6 6 6 6 6 6 6 6 6 6 6 6 6 6 6 6 6 6 6 6 6 6 6 6 6 6 6 6 6 6 6 6 6 6 6 6 6 6 6 6 6 6 6 6 6 6 6 6 6 6 6 6 6 6 6 6 6 6 6 6 6 6 6 6 6 6 6 6 6 6 6 6 6 6 6 6 6 6 6 6 6 6 6 6 6 6 6 6 6 6 6 6 6 6 6 6 6 6 6 6 6 6 6 6 6 6 6 6 6 6 6 6 6 6 6 6 6 6 6 6 6 6 6 6 6 6 6 6 6 6 6 6 6 6 6 6 6 6 6 6 6 6 6 6 6 6 6 6 6 6 6 6 6 6 6 6 6 6 6 6 6 6 6 6 6 6 6 6 6 6 6 6 6 6 6 6 6 6 6 6 6 6 6 6 6 6 6 6 6 6 6 6 6 6 6 6 6 6 6 6 6 6 6 6 6 6 6 6 6 6 6 6 6 6 6 6 6 6 6 6 6 6 6 6 6 6 6 6 6 6 6 6 6 6 6 6 6 6 6 6 6 6 6 6 6 6 6 6 6 6 6 6 6 6 6 6 6 6 6 6 6 6 6 6 6 6 6 6 6 6 6 6 6 6 6 6 6 6 6 6 6 6 6 6 6 6 6 6 6 6 6 6 6 6 6 6 6 6 6 6 6 6 6 6 6 6 6 6 6 6 6 6 6 6 6 6 6 6 6 6 6 6 6 6 6 6 6 6 6 6 6 6 6 6 6 6 6 6 6 6 6 6 6 6 6 6 6 6 6 6 6 6 6 6 6 6 6 6 6 6 6 6 6 6 6 6 6 6 6 6 6 6 6 6 6 6 6 6 6 6 6 6 6 6 6 6 6 6 6 6 6 6 6 6 6 6 6 6 6 6 6 6 6 6 6 6 6 6 6 6 6 6 6 6 6 6 6 6 6 6 6 6 6 6 6 6 6 6 6 6 6 6 6 6 6 6 6 6 6 6 6 6 6 6 6 6 6 6 6 6 6 6 6 6 6 6 6 6 6 6 6 6 6 6 6 6 6 6 6 6 6 6 6 6 6 6 6 6 6 6 6 6 6 6 6 6 6 6 6 6 6 6 6 6 6 6 6 6 6 6 6 6 6 6 6 6 6 6 6 6 6 6 6 6 6 6 6 6 6 6 6 6 6 6 6 6 6 6 6 6 6 6 6 6 6 6 6 6 6 6 6 6 6 6 6 6 6 6 6 6 6 6 6 6 6 6 6 6 6 6 6 6 6 6 6 6 6 6 6 6 6 6 6 6 6 6 6 6 6 6 6 6 6 6 6 6 6 6 6 6 6 6 6 6 6 6 6 6 6 6 6 6 6 6 6 6 6 6 6 6 6 6 6 6 6 6 6 6 6 6 6 6 6 6 6 6 6 6 6 6 6 6 6 6 6 6 6 6 6 6 6 6 6 6 6 6 6 6 6 6 6 6 6 6 6 6 6 6 6 6 6 6 6 6 6 6 6 6 6 6 6 6 6 6 6 6 6 6 6 6 6 6 6 6 6 6 6 6 6 6 6 6 6 6 6 6 6 6 6 6 6 6 6 6 6 6 6 6 6 6 6 6 6 6 6 6 6 6 6 6 6 6 6 6 6 6 6 6 6 6 6 6 6 6 6 6 6 6 6 6 6 6 6 6 6 6 6 6 6 6 6 6 6 6 104 104 104 104 104 104 104 104 104 104 104 104 104 104 104 104 104 104 104 104 104 104 104 104 104 104 104 104 104 103 103 103 103 103 103 103 103 103 103 103 103 103 103 103 103 103 103 103 103 103 103 103 103 103 103 103 103 103 103 103 103 103 103 103 103 103 103 103 103 103 103 103 103 103 103 103 103 103 103 103 103 103 103 103 103 103 103 103 103 103 103 103 103 103 103 103 103 103 103 103 103 103 103 103 103 103 103 103 103 103 103 103 103 103 103 103 103 103 103 103 103 103 103 103 103 103 103 103 103 106 106 106 106 105 105 105 105 105 105 105 105 105 105 105 105 105 105 105 105 105 105 105 105 105 105 105 105 105 105 105 105 105 105 105 105 105 105 105 105 105 105 105 105 107 107 107 107 107 107 107 107 107 107 107 107 107 107 107 107 107 107 107 107 107 107 107 107 107 107 107 107 107 107 107 107 107 107 107 107 107 107 107 107 107 107 107 107 107 107 107 107 107 107 107 107 107 107 107 107 107 107 107 107 105 105 105 105 105 105 105 105 105 105 105 105 104 104 104 104 104 104 104 104 102 102 102 102 102 102 102 102 102 102 102 102 102 102 102 102 102 102 102 102 102 102 102 102 102 102 102 102 102 102 102 102 102 102 102 102 102 102 102 102 100 100 100 100 100 100 100 100 100 100 110 110 110 110 110 110 110 110 110 110 110 110 110 110 110 110 110 110 110 110 110 110 110 110 110 110 110 110 110 110 110 110 110 110 110 110 110 110 110 110 100 100 100 100 100 100 100 100 100 100 100 100 100 100 100 100 100 100 110 110 110 110 110 110 110 110 110 110 110 110 110 110 110 108 108 108 108 108 108 108 108 108 108 108 108 108 108 108 108 108 108 108 108 108 108 108 108 108 108 108 108 108 108 108 108 108 108 108 108 108 108 108 108 108 108 108 108 108 108 108 108 108 108 108 108 108 108 108 108 108 108 108 108 108 108 108 108 108 108 108 108 108 108 101 101 101 101 101 101 101 101 101 101 100 100 100 100 100 100 100 100 100 100 100 100 100 100 100 100 100 100 100 100 100 100 100 100 100 100 100 100 109 109 109 109 109 109 109 109 109 109 109 109 109 109 109 109 109 109 109 109 109 109 109 109 100 100 100 100 100 100 100 100 100 100 100 100 100 100 100 100 100 100 100 100 100 100 100 100 100 100 100 100 100 100 100 100 100 100 100 100 100 100 100 100 100 100 100 100 100 100 100 100 100 100 100 100 100 100 100 100 100 100 100 100 100 100 100 100 100 100 100 100 100 100 100 100 100 100 100 100 100 100 100 100 100 100 100 100 100 100 100 100 100 100 100 100 100 100 100 100 100 100 100 100 100 100 100 100
        </DataArray>
      </CellData>
      <Points>
        <DataArray type="Float64" NumberOfComponents="3" format="ascii">
  2.5000000E-002  1.0000000E-002 0.0  2.5000000E-002  1.5000000E-002 0.0  6.0000000E-002  1.5000000E-002 0.0  6.0000000E-002 -1.5000000E-002 0.0  5.0000000E-003  1.0000000E-002 0.0  5.0000000E-003  1.3000000E-001 0.0 0.0  1.3000000E-001 0.0 0.0 -2.5000000E-002 0.0  9.0000000E-002 -2.5000000E-002 0.0  9.0000000E-002 -1.5000000E-002 0.0  2.0000000E-002 -4.0000000E-002 0.0  9.0000000E-002 -4.0000000E-002 0.0  9.0000000E-002 -3.5000000E-002 0.0  2.0000000E-002 -3.5000000E-002 0.0 0.0 -1.3500000E-001 0.0  3.0000000E-001 -1.3500000E-001 0.0  3.0000000E-001  3.6500000E-001 0.0 0.0  3.6500000E-001 0.0 0.0 0.0 0.0  2.5000000E-002 0.0 0.0 0.0  1.0000000E-002 0.0 0.0 -1.5000000E-002 0.0  5.7593274E-002  1.5000000E-002 0.0  5.5186548E-002  1.5000000E-002 0.0  5.2779823E-002  1.5000000E-002 0.0  5.0373097E-002  1.5000000E-002 0.0  4.7966371E-002  1.5000000E-002 0.0  4.5559645E-002  1.5000000E-002 0.0  4.3152919E-002  1.5000000E-002 0.0  4.0746194E-002  1.5000000E-002 0.0  3.8339468E-002  1.5000000E-002 0.0  3.5932742E-002  1.5000000E-002 0.0  3.3540770E-002  1.5000000E-002 0.0  3.1513374E-002  1.5000000E-002 0.0  2.9864063E-002  1.5000000E-002 0.0  2.8464753E-002  1.5000000E-002 0.0  2.7228140E-002  1.5000000E-002 0.0  2.6090447E-002  1.5000000E-002 0.0  6.0000000E-002 -1.2500000E-002 0.0  6.0000000E-002 -1.0000000E-002 0.0  6.0000000E-002 -7.5000000E-003 0.0  6.0000000E-002 -5.0000000E-003 0.0  6.0000000E-002 -2.5000000E-003 0.0  6.0000000E-002 0.0 0.0  6.0000000E-002  2.5000000E-003 0.0  6.0000000E-002  5.0000000E-003 0.0  6.0000000E-002  7.5000000E-003 0.0  6.0000000E-002  1.0000000E-002 0.0  6.0000000E-002  1.2500000E-002 0.0  5.0000000E-003  1.0502062E-002 0.0  5.0000000E-003  1.1029322E-002 0.0  5.0000000E-003  1.1598596E-002 0.0  5.0000000E-003  1.2227808E-002 0.0  5.0000000E-003  1.2938862E-002 0.0  5.0000000E-003  1.3760432E-002 0.0  5.0000000E-003  1.4731879E-002 0.0  5.0000000E-003  1.5901802E-002 0.0  5.0000000E-003  1.7142000E-002 0.0  5.0000000E-003  1.8382197E-002 0.0  5.0000000E-003  1.9622395E-002 0.0  5.0000000E-003  2.0862593E-002 0.0  5.0000000E-003  2.2102791E-002 0.0  5.0000000E-003  2.3342989E-002 0.0  5.0000000E-003  2.4583186E-002 0.0  5.0000000E-003  2.5823384E-002 0.0  5.0000000E-003  2.7063582E-002 0.0  5.0000000E-003  2.8303780E-002 0.0  5.0000000E-003  2.9543978E-002 0.0  5.0000000E-003  3.0784175E-002 0.0  5.0000000E-003  3.2024373E-002 0.0  5.0000000E-003  3.3264571E-002 0.0  5.0000000E-003  3.4504769E-002 0.0  5.0000000E-003  3.5744967E-002 0.0  5.0000000E-003  3.6985164E-002 0.0  5.0000000E-003  3.8225362E-002 0.0  5.0000000E-003  3.9465560E-002 0.0  5.0000000E-003  4.0705758E-002 0.0  5.0000000E-003  4.1945956E-002 0.0  5.0000000E-003  4.3186154E-002 0.0  5.0000000E-003  4.4426351E-002 0.0  5.0000000E-003  4.5666549E-002 0.0  5.0000000E-003  4.6906747E-002 0.0  5.0000000E-003  4.8146945E-002 0.0  5.0000000E-003  4.9387143E-002 0.0  5.0000000E-003  5.0627340E-002 0.0  5.0000000E-003  5.1867538E-002 0.0  5.0000000E-003  5.3107736E-002 0.0  5.0000000E-003  5.4347934E-002 0.0  5.0000000E-003  5.5588132E-002 0.0  5.0000000E-003  5.6828329E-002 0.0  5.0000000E-003  5.8068527E-002 0.0  5.0000000E-003  5.9308725E-002 0.0  5.0000000E-003  6.0548923E-002 0.0  5.0000000E-003  6.1789121E-002 0.0  5.0000000E-003  6.3029318E-002 0.0  5.0000000E-003  6.4269516E-002 0.0  5.0000000E-003  6.5509714E-002 0.0  5.0000000E-003  6.6749912E-002 0.0  5.0000000E-003  6.7990110E-002 0.0  5.0000000E-003  6.9230307E-002 0.0  5.0000000E-003  7.0470505E-002 0.0  5.0000000E-003  7.1710703E-002 0.0  5.0000000E-003  7.2950901E-002 0.0  5.0000000E-003  7.4191099E-002 0.0  5.0000000E-003  7.5431297E-002 0.0  5.0000000E-003  7.6671494E-002 0.0  5.0000000E-003  7.7911692E-002 0.0  5.0000000E-003  7.9151890E-002 0.0  5.0000000E-003  8.0392088E-002 0.0  5.0000000E-003  8.1632286E-002 0.0  5.0000000E-003  8.2872483E-002 0.0  5.0000000E-003  8.4112681E-002 0.0  5.0000000E-003  8.5352879E-002 0.0  5.0000000E-003  8.6593077E-002 0.0  5.0000000E-003  8.7833275E-002 0.0  5.0000000E-003  8.9073472E-002 0.0  5.0000000E-003  9.0313670E-002 0.0  5.0000000E-003  9.1553868E-002 0.0  5.0000000E-003  9.2794066E-002 0.0  5.0000000E-003  9.4034264E-002 0.0  5.0000000E-003  9.5274461E-002 0.0  5.0000000E-003  9.6514659E-002 0.0  5.0000000E-003  9.7754857E-002 0.0  5.0000000E-003  9.8995055E-002 0.0  5.0000000E-003  1.0023525E-001 0.0  5.0000000E-003  1.0147545E-001 0.0  5.0000000E-003  1.0271565E-001 0.0  5.0000000E-003  1.0395585E-001 0.0  5.0000000E-003  1.0519604E-001 0.0  5.0000000E-003  1.0643624E-001 0.0  5.0000000E-003  1.0767644E-001 0.0  5.0000000E-003  1.0891664E-001 0.0  5.0000000E-003  1.1015684E-001 0.0  5.0000000E-003  1.1139703E-001 0.0  5.0000000E-003  1.1263723E-001 0.0  5.0000000E-003  1.1387743E-001 0.0  5.0000000E-003  1.1511763E-001 0.0  5.0000000E-003  1.1635782E-001 0.0  5.0000000E-003  1.1759802E-001 0.0  5.0000000E-003  1.1883822E-001 0.0  5.0000000E-003  1.2007842E-001 0.0  5.0000000E-003  1.2131862E-001 0.0  5.0000000E-003  1.2255881E-001 0.0  5.0000000E-003  1.2379901E-001 0.0  5.0000000E-003  1.2503921E-001 0.0  5.0000000E-003  1.2627941E-001 0.0  5.0000000E-003  1.2751960E-001 0.0  5.0000000E-003  1.2875980E-001 0.0  3.7500000E-003  1.3000000E-001 0.0  2.5000000E-003  1.3000000E-001 0.0  1.2500000E-003  1.3000000E-001 0.0  2.5000000E-003 -2.5000000E-002 0.0  5.0000000E-003 -2.5000000E-002 0.0  7.5000000E-003 -2.5000000E-002 0.0  1.0000000E-002 -2.5000000E-002 0.0  1.2500000E-002 -2.5000000E-002 0.0  1.5000000E-002 -2.5000000E-002 0.0  1.7500000E-002 -2.5000000E-002 0.0  2.0000000E-002 -2.5000000E-002 0.0  2.2500000E-002 -2.5000000E-002 0.0  2.5000000E-002 -2.5000000E-002 0.0  2.7500000E-002 -2.5000000E-002 0.0  3.0000000E-002 -2.5000000E-002 0.0  3.2500000E-002 -2.5000000E-002 0.0  3.5000000E-002 -2.5000000E-002 0.0  3.7500000E-002 -2.5000000E-002 0.0  4.0000000E-002 -2.5000000E-002 0.0  4.2500000E-002 -2.5000000E-002 0.0  4.5000000E-002 -2.5000000E-002 0.0  4.7500000E-002 -2.5000000E-002 0.0  5.0000000E-002 -2.5000000E-002 0.0  5.2500000E-002 -2.5000000E-002 0.0  5.5000000E-002 -2.5000000E-002 0.0  5.7500000E-002 -2.5000000E-002 0.0  6.0000000E-002 -2.5000000E-002 0.0  6.2500000E-002 -2.5000000E-002 0.0  6.5000000E-002 -2.5000000E-002 0.0  6.7500000E-002 -2.5000000E-002 0.0  7.0000000E-002 -2.5000000E-002 0.0  7.2500000E-002 -2.5000000E-002 0.0  7.5000000E-002 -2.5000000E-002 0.0  7.7500000E-002 -2.5000000E-002 0.0  8.0000000E-002 -2.5000000E-002 0.0  8.2500000E-002 -2.5000000E-002 0.0  8.5000000E-002 -2.5000000E-002 0.0  8.7500000E-002 -2.5000000E-002 0.0  9.0000000E-002 -2.2500000E-002 0.0  9.0000000E-002 -2.0000000E-002 0.0  9.0000000E-002 -1.7500000E-002 0.0  2.2500000E-002 -4.0000000E-002 0.0  2.5000000E-002 -4.0000000E-002 0.0  2.7500000E-002 -4.0000000E-002 0.0  3.0000000E-002 -4.0000000E-002 0.0  3.2500000E-002 -4.0000000E-002 0.0  3.5000000E-002 -4.0000000E-002 0.0  3.7500000E-002 -4.0000000E-002 0.0  4.0000000E-002 -4.0000000E-002 0.0  4.2500000E-002 -4.0000000E-002 0.0  4.5000000E-002 -4.0000000E-002 0.0  4.7500000E-002 -4.0000000E-002 0.0  5.0000000E-002 -4.0000000E-002 0.0  5.2500000E-002 -4.0000000E-002 0.0  5.5000000E-002 -4.0000000E-002 0.0  5.7500000E-002 -4.0000000E-002 0.0  6.0000000E-002 -4.0000000E-002 0.0  6.2500000E-002 -4.0000000E-002 0.0  6.5000000E-002 -4.0000000E-002 0.0  6.7500000E-002 -4.0000000E-002 0.0  7.0000000E-002 -4.0000000E-002 0.0  7.2500000E-002 -4.0000000E-002 0.0  7.5000000E-002 -4.0000000E-002 0.0  7.7500000E-002 -4.0000000E-002 0.0  8.0000000E-002 -4.0000000E-002 0.0  8.2500000E-002 -4.0000000E-002 0.0  8.5000000E-002 -4.0000000E-002 0.0  8.7500000E-002 -4.0000000E-002 0.0  9.0000000E-002 -3.7500000E-002 0.0  8.7500000E-002 -3.5000000E-002 0.0  8.5000000E-002 -3.5000000E-002 0.0  8.2500000E-002 -3.5000000E-002 0.0  8.0000000E-002 -3.5000000E-002 0.0  7.7500000E-002 -3.5000000E-002 0.0  7.5000000E-002 -3.5000000E-002 0.0  7.2500000E-002 -3.5000000E-002 0.0  7.0000000E-002 -3.5000000E-002 0.0  6.7500000E-002 -3.5000000E-002 0.0  6.5000000E-002 -3.5000000E-002 0.0  6.2500000E-002 -3.5000000E-002 0.0  6.0000000E-002 -3.5000000E-002 0.0  5.7500000E-002 -3.5000000E-002 0.0  5.5000000E-002 -3.5000000E-002 0.0  5.2500000E-002 -3.5000000E-002 0.0  5.0000000E-002 -3.5000000E-002 0.0  4.7500000E-002 -3.5000000E-002 0.0  4.5000000E-002 -3.5000000E-002 0.0  4.2500000E-002 -3.5000000E-002 0.0  4.0000000E-002 -3.5000000E-002 0.0  3.7500000E-002 -3.5000000E-002 0.0  3.5000000E-002 -3.5000000E-002 0.0  3.2500000E-002 -3.5000000E-002 0.0  3.0000000E-002 -3.5000000E-002 0.0  2.7500000E-002 -3.5000000E-002 0.0  2.5000000E-002 -3.5000000E-002 0.0  2.2500000E-002 -3.5000000E-002 0.0  2.0000000E-002 -3.7500000E-002 0.0  8.7500000E-002 -1.5000000E-002 0.0  8.5000000E-002 -1.5000000E-002 0.0  8.2500000E-002 -1.5000000E-002 0.0  8.0000000E-002 -1.5000000E-002 0.0  7.7500000E-002 -1.5000000E-002 0.0  7.5000000E-002 -1.5000000E-002 0.0  7.2500000E-002 -1.5000000E-002 0.0  7.0000000E-002 -1.5000000E-002 0.0  6.7500000E-002 -1.5000000E-002 0.0  6.5000000E-002 -1.5000000E-002 0.0  6.2500000E-002 -1.5000000E-002 0.0  2.5000000E-002  1.0453970E-002 0.0  2.5000000E-002  1.0927271E-002 0.0  2.5000000E-002  1.1432451E-002 0.0  2.5000000E-002  1.1982365E-002 0.0  2.5000000E-002  1.2592065E-002 0.0  2.5000000E-002  1.3280379E-002 0.0  2.5000000E-002  1.4071919E-002 0.0  2.4500000E-002  1.0000000E-002 0.0  2.4000000E-002  1.0000000E-002 0.0  2.3500000E-002  1.0000000E-002 0.0  2.3000000E-002  1.0000000E-002 0.0  2.2500000E-002  1.0000000E-002 0.0  2.2000000E-002  1.0000000E-002 0.0  2.1500000E-002  1.0000000E-002 0.0  2.1000000E-002  1.0000000E-002 0.0  2.0500000E-002  1.0000000E-002 0.0  2.0000000E-002  1.0000000E-002 0.0  1.9500000E-002  1.0000000E-002 0.0  1.9000000E-002  1.0000000E-002 0.0  1.8500000E-002  1.0000000E-002 0.0  1.8000000E-002  1.0000000E-002 0.0  1.7500000E-002  1.0000000E-002 0.0  1.7000000E-002  1.0000000E-002 0.0  1.6500000E-002  1.0000000E-002 0.0  1.6000000E-002  1.0000000E-002 0.0  1.5500000E-002  1.0000000E-002 0.0  1.5000000E-002  1.0000000E-002 0.0  1.4500000E-002  1.0000000E-002 0.0  1.4000000E-002  1.0000000E-002 0.0  1.3500000E-002  1.0000000E-002 0.0  1.3000000E-002  1.0000000E-002 0.0  1.2500000E-002  1.0000000E-002 0.0  1.2000000E-002  1.0000000E-002 0.0  1.1500000E-002  1.0000000E-002 0.0  1.1000000E-002  1.0000000E-002 0.0  1.0500000E-002  1.0000000E-002 0.0  1.0000000E-002  1.0000000E-002 0.0  9.5000002E-003  1.0000000E-002 0.0  9.0000002E-003  1.0000000E-002 0.0  8.5000003E-003  1.0000000E-002 0.0  8.0000003E-003  1.0000000E-002 0.0  7.5000003E-003  1.0000000E-002 0.0  7.0000003E-003  1.0000000E-002 0.0  6.5000003E-003  1.0000000E-002 0.0  6.0000003E-003  1.0000000E-002 0.0  5.5000003E-003  1.0000000E-002 0.0 0.0 -2.7642991E-002 0.0 0.0 -3.1240581E-002 0.0 0.0 -3.6137553E-002 0.0 0.0 -4.2803221E-002 0.0 0.0 -5.1878425E-002 0.0 0.0 -6.4227176E-002 0.0 0.0 -8.0846103E-002 0.0 0.0 -9.8897402E-002 0.0 0.0 -1.1694870E-001 0.0  2.0000000E-002 -1.3500000E-001 0.0  4.0000000E-002 -1.3500000E-001 0.0  6.0000000E-002 -1.3500000E-001 0.0  8.0000000E-002 -1.3500000E-001 0.0  1.0000000E-001 -1.3500000E-001 0.0  1.2000000E-001 -1.3500000E-001 0.0  1.4000000E-001 -1.3500000E-001 0.0  1.6000000E-001 -1.3500000E-001 0.0  1.8000000E-001 -1.3500000E-001 0.0  2.0000000E-001 -1.3500000E-001 0.0  2.2000000E-001 -1.3500000E-001 0.0  2.4000000E-001 -1.3500000E-001 0.0  2.6000000E-001 -1.3500000E-001 0.0  2.8000000E-001 -1.3500000E-001 0.0  3.0000000E-001 -1.1500000E-001 0.0  3.0000000E-001 -9.5000000E-002 0.0  3.0000000E-001 -7.5000000E-002 0.0  3.0000000E-001 -5.5000000E-002 0.0  3.0000000E-001 -3.5000000E-002 0.0  3.0000000E-001 -1.5000000E-002 0.0  3.0000000E-001  5.0000000E-003 0.0  3.0000000E-001  2.5000000E-002 0.0  3.0000000E-001  4.5000000E-002 0.0  3.0000000E-001  6.5000000E-002 0.0  3.0000000E-001  8.5000000E-002 0.0  3.0000000E-001  1.0500000E-001 0.0  3.0000000E-001  1.2500000E-001 0.0  3.0000000E-001  1.4500000E-001 0.0  3.0000000E-001  1.6500000E-001 0.0  3.0000000E-001  1.8500000E-001 0.0  3.0000000E-001  2.0500000E-001 0.0  3.0000000E-001  2.2500000E-001 0.0  3.0000000E-001  2.4500000E-001 0.0  3.0000000E-001  2.6500000E-001 0.0  3.0000000E-001  2.8500000E-001 0.0  3.0000000E-001  3.0500000E-001 0.0  3.0000000E-001  3.2500000E-001 0.0  3.0000000E-001  3.4500000E-001 0.0 0.0  3.4597495E-001 0.0 0.0  3.2694990E-001 0.0 0.0  3.0792486E-001 0.0 0.0  2.8889981E-001 0.0 0.0  2.6987476E-001 0.0 0.0  2.5084971E-001 0.0 0.0  2.3182467E-001 0.0 0.0  2.1279962E-001 0.0 0.0  1.9377457E-001 0.0 0.0  1.7558686E-001 0.0 0.0  1.6193447E-001 0.0 0.0  1.5205660E-001 0.0 0.0  1.4492093E-001 0.0 0.0  1.3976574E-001 0.0 0.0  1.3604092E-001 0.0 0.0  1.3334961E-001 0.0 0.0  1.3140503E-001 0.0  2.8000000E-001  3.6500000E-001 0.0  2.6000000E-001  3.6500000E-001 0.0  2.4000000E-001  3.6500000E-001 0.0  2.2000000E-001  3.6500000E-001 0.0  2.0000000E-001  3.6500000E-001 0.0  1.8000000E-001  3.6500000E-001 0.0  1.6000000E-001  3.6500000E-001 0.0  1.4000000E-001  3.6500000E-001 0.0  1.2000000E-001  3.6500000E-001 0.0  1.0000000E-001  3.6500000E-001 0.0  8.0000000E-002  3.6500000E-001 0.0  6.0000000E-002  3.6500000E-001 0.0  4.0000000E-002  3.6500000E-001 0.0  2.0000000E-002  3.6500000E-001 0.0  5.0000165E-004 0.0 0.0  1.0000016E-003 0.0 0.0  1.5000016E-003 0.0 0.0  2.0000016E-003 0.0 0.0  2.5000015E-003 0.0 0.0  3.0000015E-003 0.0 0.0  3.5000015E-003 0.0 0.0  4.0000014E-003 0.0 0.0  4.5000014E-003 0.0 0.0  5.0000014E-003 0.0 0.0  5.5000013E-003 0.0 0.0  6.0000013E-003 0.0 0.0  6.5000012E-003 0.0 0.0  7.0000012E-003 0.0 0.0  7.5000012E-003 0.0 0.0  8.0000011E-003 0.0 0.0  8.5000011E-003 0.0 0.0  9.0000010E-003 0.0 0.0  9.5000009E-003 0.0 0.0  1.0000001E-002 0.0 0.0  1.0500001E-002 0.0 0.0  1.1000001E-002 0.0 0.0  1.1500001E-002 0.0 0.0  1.2000001E-002 0.0 0.0  1.2500001E-002 0.0 0.0  1.3000000E-002 0.0 0.0  1.3500000E-002 0.0 0.0  1.4000000E-002 0.0 0.0  1.4500000E-002 0.0 0.0  1.5000000E-002 0.0 0.0  1.5500000E-002 0.0 0.0  1.6000000E-002 0.0 0.0  1.6500000E-002 0.0 0.0  1.7000000E-002 0.0 0.0  1.7500000E-002 0.0 0.0  1.8000000E-002 0.0 0.0  1.8500000E-002 0.0 0.0  1.9000000E-002 0.0 0.0  1.9500000E-002 0.0 0.0  2.0000000E-002 0.0 0.0  2.0500000E-002 0.0 0.0  2.1000000E-002 0.0 0.0  2.1500000E-002 0.0 0.0  2.2000000E-002 0.0 0.0  2.2500000E-002 0.0 0.0  2.3000000E-002 0.0 0.0  2.3499999E-002 0.0 0.0  2.3999999E-002 0.0 0.0  2.4499999E-002 0.0 0.0  2.5000000E-002  4.9999976E-004 0.0  2.5000000E-002  1.0000001E-003 0.0  2.5000000E-002  1.5000004E-003 0.0  2.5000000E-002  1.9999999E-003 0.0  2.5000000E-002  2.4999994E-003 0.0  2.5000000E-002  2.9999998E-003 0.0  2.5000000E-002  3.5000002E-003 0.0  2.5000000E-002  3.9999999E-003 0.0  2.5000000E-002  4.4999995E-003 0.0  2.5000000E-002  5.0000000E-003 0.0  2.5000000E-002  5.5000005E-003 0.0  2.5000000E-002  6.0000001E-003 0.0  2.5000000E-002  6.4999998E-003 0.0  2.5000000E-002  7.0000002E-003 0.0  2.5000000E-002  7.5000006E-003 0.0  2.5000000E-002  8.0000001E-003 0.0  2.5000000E-002  8.4999996E-003 0.0  2.5000000E-002  8.9999999E-003 0.0  2.5000000E-002  9.5000002E-003 0.0  4.5000000E-003  1.0000000E-002 0.0  4.0000000E-003  1.0000000E-002 0.0  3.5000000E-003  1.0000000E-002 0.0  3.0000000E-003  1.0000000E-002 0.0  2.5000000E-003  1.0000000E-002 0.0  2.0000000E-003  1.0000000E-002 0.0  1.5000000E-003  1.0000000E-002 0.0  9.9999999E-004  1.0000000E-002 0.0  5.0000003E-004  1.0000000E-002 0.0 0.0  9.5152507E-003 0.0 0.0  9.0075226E-003 0.0 0.0  8.4616415E-003 0.0 0.0  7.8616609E-003 0.0 0.0  7.1883931E-003 0.0 0.0  6.4171306E-003 0.0 0.0  5.5145561E-003 0.0 0.0  4.4857036E-003 0.0 0.0  3.5830772E-003 0.0 0.0  2.8117736E-003 0.0 0.0  2.1384717E-003 0.0 0.0  1.5384616E-003 0.0 0.0  9.9255282E-004 0.0 0.0  4.8479594E-004 0.0 0.0 -4.7631306E-004 0.0 0.0 -9.7454635E-004 0.0 0.0 -1.5091294E-003 0.0 0.0 -2.0951073E-003 0.0 0.0 -2.7504464E-003 0.0 0.0 -3.4980964E-003 0.0 0.0 -4.3687373E-003 0.0 0.0 -5.4049400E-003 0.0 0.0 -6.6678945E-003 0.0 0.0 -8.2488722E-003 0.0 0.0 -1.0289801E-002 0.0 0.0 -1.2644788E-002 0.0  2.5000000E-003 -1.5000000E-002 0.0  5.0000000E-003 -1.5000000E-002 0.0  7.5000000E-003 -1.5000000E-002 0.0  1.0000000E-002 -1.5000000E-002 0.0  1.2500000E-002 -1.5000000E-002 0.0  1.5000000E-002 -1.5000000E-002 0.0  1.7500000E-002 -1.5000000E-002 0.0  2.0000000E-002 -1.5000000E-002 0.0  2.2500000E-002 -1.5000000E-002 0.0  2.5000000E-002 -1.5000000E-002 0.0  2.7500000E-002 -1.5000000E-002 0.0  3.0000000E-002 -1.5000000E-002 0.0  3.2500000E-002 -1.5000000E-002 0.0  3.5000000E-002 -1.5000000E-002 0.0  3.7500000E-002 -1.5000000E-002 0.0  4.0000000E-002 -1.5000000E-002 0.0  4.2500000E-002 -1.5000000E-002 0.0  4.5000000E-002 -1.5000000E-002 0.0  4.7500000E-002 -1.5000000E-002 0.0  5.0000000E-002 -1.5000000E-002 0.0  5.2500000E-002 -1.5000000E-002 0.0  5.5000000E-002 -1.5000000E-002 0.0  5.7500000E-002 -1.5000000E-002 0.0 0.0  1.2875980E-001 0.0 0.0  1.2751960E-001 0.0 0.0  1.2627941E-001 0.0 0.0  1.2503921E-001 0.0 0.0  1.2379901E-001 0.0 0.0  1.2255881E-001 0.0 0.0  1.2131862E-001 0.0 0.0  1.2007842E-001 0.0 0.0  1.1883822E-001 0.0 0.0  1.1759802E-001 0.0 0.0  1.1635782E-001 0.0 0.0  1.1511763E-001 0.0 0.0  1.1387743E-001 0.0 0.0  1.1263723E-001 0.0 0.0  1.1139703E-001 0.0 0.0  1.1015684E-001 0.0 0.0  1.0891664E-001 0.0 0.0  1.0767644E-001 0.0 0.0  1.0643624E-001 0.0 0.0  1.0519604E-001 0.0 0.0  1.0395585E-001 0.0 0.0  1.0271565E-001 0.0 0.0  1.0147545E-001 0.0 0.0  1.0023525E-001 0.0 0.0  9.8995055E-002 0.0 0.0  9.7754857E-002 0.0 0.0  9.6514659E-002 0.0 0.0  9.5274461E-002 0.0 0.0  9.4034264E-002 0.0 0.0  9.2794066E-002 0.0 0.0  9.1553868E-002 0.0 0.0  9.0313670E-002 0.0 0.0  8.9073472E-002 0.0 0.0  8.7833275E-002 0.0 0.0  8.6593077E-002 0.0 0.0  8.5352879E-002 0.0 0.0  8.4112681E-002 0.0 0.0  8.2872483E-002 0.0 0.0  8.1632286E-002 0.0 0.0  8.0392088E-002 0.0 0.0  7.9151890E-002 0.0 0.0  7.7911692E-002 0.0 0.0  7.6671494E-002 0.0 0.0  7.5431297E-002 0.0 0.0  7.4191099E-002 0.0 0.0  7.2950901E-002 0.0 0.0  7.1710703E-002 0.0 0.0  7.0470505E-002 0.0 0.0  6.9230307E-002 0.0 0.0  6.7990110E-002 0.0 0.0  6.6749912E-002 0.0 0.0  6.5509714E-002 0.0 0.0  6.4269516E-002 0.0 0.0  6.3029318E-002 0.0 0.0  6.1789121E-002 0.0 0.0  6.0548923E-002 0.0 0.0  5.9308725E-002 0.0 0.0  5.8068527E-002 0.0 0.0  5.6828329E-002 0.0 0.0  5.5588132E-002 0.0 0.0  5.4347934E-002 0.0 0.0  5.3107736E-002 0.0 0.0  5.1867538E-002 0.0 0.0  5.0627340E-002 0.0 0.0  4.9387143E-002 0.0 0.0  4.8146945E-002 0.0 0.0  4.6906747E-002 0.0 0.0  4.5666549E-002 0.0 0.0  4.4426351E-002 0.0 0.0  4.3186154E-002 0.0 0.0  4.1945956E-002 0.0 0.0  4.0705758E-002 0.0 0.0  3.9465560E-002 0.0 0.0  3.8225362E-002 0.0 0.0  3.6985164E-002 0.0 0.0  3.5744967E-002 0.0 0.0  3.4504769E-002 0.0 0.0  3.3264571E-002 0.0 0.0  3.2024373E-002 0.0 0.0  3.0784175E-002 0.0 0.0  2.9543978E-002 0.0 0.0  2.8303780E-002 0.0 0.0  2.7063582E-002 0.0 0.0  2.5823384E-002 0.0 0.0  2.4583186E-002 0.0 0.0  2.3342989E-002 0.0 0.0  2.2102791E-002 0.0 0.0  2.0862593E-002 0.0 0.0  1.9622395E-002 0.0 0.0  1.8382197E-002 0.0 0.0  1.7142000E-002 0.0 0.0  1.5901802E-002 0.0 0.0  1.4731879E-002 0.0 0.0  1.3760432E-002 0.0 0.0  1.2938862E-002 0.0 0.0  1.2227808E-002 0.0 0.0  1.1598596E-002 0.0 0.0  1.1029322E-002 0.0 0.0  1.0502062E-002 0.0 0.0 -1.7500000E-002 0.0 0.0 -2.0000000E-002 0.0 0.0 -2.2500000E-002 0.0  1.5750000E-002  4.1013835E-004 0.0  9.2159558E-003  4.2992886E-004 0.0  1.2308015E-002  4.3677495E-004 0.0  1.8250000E-002  9.5669873E-003 0.0  6.7361216E-003  3.5035388E-004 0.0  1.9740878E-002  4.5093694E-004 0.0  5.2712737E-003  9.5189472E-003 0.0  1.4243711E-002  9.5479736E-003 0.0  1.0701460E-002  9.5739842E-003 0.0  7.7928391E-003  9.5849518E-003 0.0  2.4603132E-002  5.3122033E-003 0.0  1.6250000E-002  9.5803857E-003 0.0  1.7768319E-002  4.7246482E-004 0.0  2.0264667E-002  9.5777259E-003 0.0  4.7505443E-003  4.4362870E-004 0.0  2.1750000E-002  4.3301267E-004 0.0  8.2027755E-004  4.9604011E-003 0.0  2.4579508E-002  3.2500000E-003 0.0  2.4568122E-002  7.2447547E-003 0.0  1.2729399E-002  9.5757743E-003 0.0  3.2497612E-003  3.8719446E-004 0.0  2.1728107E-002  9.5025460E-003 0.0  9.2247294E-003  9.5904320E-003 0.0  1.4215780E-002  4.6466842E-004 0.0  3.7300777E-003  9.5181008E-003 0.0  1.0698129E-002  4.7027866E-004 0.0  2.2338606E-003  9.5275746E-003 0.0  4.3128622E-004  2.4519240E-003 0.0  2.4566988E-002  1.7500001E-003 0.0  5.4728373E-004  7.5345949E-003 0.0  2.3241271E-002  9.5678331E-003 0.0  2.3234114E-002  4.4581385E-004 0.0  1.7500016E-003  4.1704358E-004 0.0  1.5257888E-002  9.5586330E-003 0.0  1.1704719E-002  9.5530470E-003 0.0  2.4587295E-002  4.2384159E-003 0.0  1.7250000E-002  9.5669873E-003 0.0  2.4532008E-002  8.2640071E-003 0.0  2.4603302E-002  6.2690012E-003 0.0  1.9231309E-002  9.5824267E-003 0.0  2.0739065E-002  4.2838338E-004 0.0  5.7500013E-003  4.3301267E-004 0.0  7.7544211E-003  4.8777872E-004 0.0  6.6922147E-003  9.5297822E-003 0.0  1.8694810E-002  3.9522025E-004 0.0  1.6735601E-002  4.1966954E-004 0.0  1.3245948E-002  4.2995186E-004 0.0  1.2500000E-003  9.5669873E-003 0.0  5.7142678E-004  1.2560413E-003 0.0  4.6273553E-004  8.7287391E-003 0.0  2.4253609E-002  4.3000409E-004 0.0  2.4252386E-002  9.5784992E-003 0.0  7.5091197E-004  3.8090687E-004 0.0  7.9895888E-004  5.9189624E-003 0.0  1.7401717E-003  5.5289147E-003 0.0  1.6511902E-003  4.2745054E-003 0.0  2.6032593E-003  4.7961517E-003 0.0  2.6614292E-003  5.8640907E-003 0.0  3.4984889E-003  5.3921119E-003 0.0  3.4282982E-003  4.1925537E-003 0.0  4.3230786E-003  4.6736174E-003 0.0  4.4923081E-003  5.6948483E-003 0.0  5.2619895E-003  5.0722303E-003 0.0  5.3877955E-003  6.0546471E-003 0.0  6.2167720E-003  5.4543280E-003 0.0  6.0960115E-003  4.4796579E-003 0.0  7.0606956E-003  4.8690759E-003 0.0  7.0601990E-003  5.8499769E-003 0.0  7.9757076E-003  5.4355440E-003 0.0  7.9096745E-003  4.2042926E-003 0.0  8.8508088E-003  4.6628616E-003 0.0  9.0013625E-003  5.7231445E-003 0.0  9.8074354E-003  5.0445525E-003 0.0  1.0021033E-002  6.1587856E-003 0.0  1.0778813E-002  5.4581164E-003 0.0  1.0641356E-002  4.4102432E-003 0.0  1.1541329E-002  4.8230544E-003 0.0  1.1727663E-002  5.8312585E-003 0.0  1.2472861E-002  5.2068892E-003 0.0  1.2628753E-002  6.1854199E-003 0.0  1.3423570E-002  5.5720186E-003 0.0  1.3189903E-002  4.6179970E-003 0.0  1.4191538E-002  4.8161230E-003 0.0  1.4325329E-002  5.9082935E-003 0.0  1.5179996E-002  5.3167757E-003 0.0  1.5119302E-002  4.2929327E-003 0.0  1.6010693E-002  4.7371188E-003 0.0  1.6156132E-002  5.7526108E-003 0.0  1.6947710E-002  5.1331767E-003 0.0  1.7090209E-002  6.1070843E-003 0.0  1.7903906E-002  5.4998433E-003 0.0  1.7795449E-002  4.4918760E-003 0.0  1.8762207E-002  4.8669162E-003 0.0  1.8853943E-002  5.8452063E-003 0.0  1.9686135E-002  5.2602134E-003 0.0  1.9604793E-002  4.2456568E-003 0.0  2.0492975E-002  4.6543047E-003 0.0  2.0566515E-002  5.5951820E-003 0.0  1.1498235E-002  3.7352858E-003 0.0  1.0597778E-002  3.4355268E-003 0.0  1.5922352E-002  3.7087206E-003 0.0  2.0348831E-002  3.5741945E-003 0.0  2.1231008E-002  4.0306297E-003 0.0  4.2651694E-003  3.6226389E-003 0.0  1.5076930E-002  3.3513764E-003 0.0  1.9472799E-002  3.3684303E-003 0.0  3.4445563E-003  3.2541948E-003 0.0  9.1976056E-003  6.6620392E-003 0.0  4.6398311E-003  6.6259362E-003 0.0  5.4372868E-003  6.9537017E-003 0.0  2.1164871E-002  3.1742433E-003 0.0  1.6339264E-002  6.6780119E-003 0.0  1.7166537E-002  6.9950110E-003 0.0  9.9342106E-003  7.0273407E-003 0.0  2.1937105E-002  3.5313033E-003 0.0  2.2037110E-002  4.3336788E-003 0.0  1.1228921E-002  2.8903565E-003 0.0  1.0524598E-002  2.6034251E-003 0.0  2.1837065E-002  2.7268656E-003 0.0  1.5730428E-002  2.8431546E-003 0.0  4.1062442E-003  2.7696316E-003 0.0  4.7342073E-003  7.5438902E-003 0.0  1.5043678E-002  2.4343778E-003 0.0  9.2929018E-003  7.4607384E-003 0.0  3.4456098E-003  2.3445563E-003 0.0  5.4662626E-003  7.7559117E-003 0.0  2.2522731E-002  3.0542444E-003 0.0  2.2434247E-002  2.3321887E-003 0.0  2.1102206E-002  2.3592767E-003 0.0  1.6504954E-002  7.4915702E-003 0.0  9.9380969E-003  7.7930682E-003 0.0  2.7776197E-003  2.8144585E-003 0.0  2.7576158E-003  2.0889689E-003 0.0  1.7206975E-002  7.7741357E-003 0.0  1.1118918E-002  2.1680807E-003 0.0  1.1765438E-002  2.3964552E-003 0.0  1.1914629E-002  6.7714543E-003 0.0  1.2706784E-002  7.0543312E-003 0.0  1.2095817E-002  7.5620674E-003 0.0  1.2767658E-002  7.8219114E-003 0.0  1.5783568E-002  7.2690052E-003 0.0  2.3065694E-002  2.6046630E-003 0.0  1.0470592E-002  1.9009294E-003 0.0  9.9076211E-003  2.2876689E-003 0.0  8.5792458E-003  7.1932986E-003 0.0  8.7055778E-003  7.9010315E-003 0.0  8.0473605E-003  7.6735685E-003 0.0  6.0694381E-003  7.3699789E-003 0.0  4.0942773E-003  2.0318085E-003 0.0  4.6871034E-003  2.3143991E-003 0.0  4.0336154E-003  7.1617690E-003 0.0  1.4383062E-002  2.9550276E-003 0.0  1.4334244E-002  2.2007001E-003 0.0  2.3177656E-002  3.2779593E-003 0.0  1.3725666E-002  2.5957260E-003 0.0  1.5929855E-002  7.9591277E-003 0.0  1.5283370E-002  7.7499950E-003 0.0  1.3346907E-002  7.4282472E-003 0.0  1.3368684E-002  8.1067991E-003 0.0  1.5691960E-002  2.0972083E-003 0.0  1.6302861E-002  2.3630043E-003 0.0  4.0951233E-003  7.9075432E-003 0.0  3.4877379E-003  7.6549178E-003 0.0  6.0718546E-003  8.0600509E-003 0.0  1.7815643E-002  7.3891664E-003 0.0  2.2991864E-002  1.9535429E-003 0.0  1.7859525E-002  8.0746683E-003 0.0  1.8421012E-002  7.7028903E-003 0.0  1.3732081E-002  1.9009052E-003 0.0  1.1661159E-002  1.7469965E-003 0.0  2.2401743E-002  1.6599129E-003 0.0  1.6189776E-002  1.7020089E-003 0.0  1.6862924E-002  1.8282030E-003 0.0  1.6939065E-002  2.5757922E-003 0.0  1.7472387E-002  2.1234426E-003 0.0  1.2213010E-002  8.2425448E-003 0.0  1.1586627E-002  8.0347822E-003 0.0  1.8472440E-002  8.3594616E-003 0.0  1.9027688E-002  8.0119438E-003 0.0  2.1746129E-003  2.4316504E-003 0.0  2.1617306E-003  1.7769143E-003 0.0  9.8567953E-003  1.6235344E-003 0.0  9.3015954E-003  1.9675649E-003 0.0  9.3333793E-003  2.6510057E-003 0.0  8.7491828E-003  2.3100229E-003 0.0  8.7235284E-003  1.6619317E-003 0.0  8.2112972E-003  1.9879872E-003 0.0  1.2236357E-002  1.9969188E-003 0.0  3.5956085E-003  8.3064888E-003 0.0  3.0026444E-003  8.0906727E-003 0.0  4.1296878E-003  8.5551140E-003 0.0  3.1211580E-003  8.6942888E-003 0.0  2.5553728E-003  8.4962776E-003 0.0  2.4191408E-003  7.8870582E-003 0.0  1.9597401E-003  8.3012532E-003 0.0  8.1791803E-003  8.3227469E-003 0.0  7.5917866E-003  8.1441793E-003 0.0  1.2453977E-002  2.5942706E-003 0.0  7.2759741E-003  7.4892311E-003 0.0  1.8161567E-003  7.6702968E-003 0.0  1.7581672E-002  2.8174164E-003 0.0  1.8089826E-002  2.3518085E-003 0.0  1.7972731E-002  1.7056927E-003 0.0  1.8574962E-002  1.9001702E-003 0.0  4.5987107E-003  1.6571591E-003 0.0  5.2211805E-003  1.9011869E-003 0.0  5.2986974E-003  2.5522460E-003 0.0  5.8485833E-003  2.1345765E-003 0.0  4.0685648E-003  1.4012535E-003 0.0  5.9380399E-003  2.8174426E-003 0.0  6.4580098E-003  2.3847501E-003 0.0  6.3687357E-003  1.7230514E-003 0.0  5.5466888E-003  8.3931109E-003 0.0  6.5980049E-003  3.1004545E-003 0.0  1.5418302E-002  8.3927283E-003 0.0  1.4827696E-002  8.2035473E-003 0.0  1.4521317E-002  7.5554845E-003 0.0  2.6690688E-003  1.4474686E-003 0.0  1.5625985E-002  1.4580791E-003 0.0  8.7946154E-003  8.5474268E-003 0.0  1.4272398E-002  1.5592964E-003 0.0  8.1715287E-003  2.6395816E-003 0.0  1.7303215E-002  8.4403865E-003 0.0  6.0897320E-003  8.6927601E-003 0.0  2.3568182E-002  2.2196258E-003 0.0  2.3494166E-002  1.6093657E-003 0.0  6.9554139E-003  1.9800733E-003 0.0  1.0603152E-002  7.3499136E-003 0.0  1.8973862E-002  7.3426411E-003 0.0  1.9572941E-002  7.6525822E-003 0.0  1.9629232E-002  8.3192356E-003 0.0  2.0173418E-002  7.9832926E-003 0.0  2.0193712E-002  7.1734035E-003 0.0  2.0744495E-002  7.6531935E-003 0.0  2.0738666E-002  8.3085626E-003 0.0  2.1323287E-002  8.0104407E-003 0.0  2.1351023E-002  7.3596322E-003 0.0  2.1935447E-002  7.7149854E-003 0.0  2.1958973E-002  7.0159323E-003 0.0  2.2648026E-002  7.3745374E-003 0.0  2.2603971E-002  6.6457664E-003 0.0  2.2520486E-002  8.0768971E-003 0.0  2.3114878E-002  7.8402097E-003 0.0  2.3025504E-002  8.4484439E-003 0.0  2.2462344E-002  8.7057828E-003 0.0  2.1252385E-002  8.6336964E-003 0.0  2.1978509E-002  6.2842331E-003 0.0  2.2619130E-002  5.9681419E-003 0.0  2.3193507E-002  6.3055271E-003 0.0  2.3223403E-002  5.6774136E-003 0.0  1.8292180E-002  3.0161848E-003 0.0  8.2462114E-003  1.3668747E-003 0.0  1.5975939E-002  8.5876934E-003 0.0  5.1176900E-003  1.3101319E-003 0.0  2.3588631E-002  8.1840000E-003 0.0  2.3647976E-002  7.6304567E-003 0.0  2.2859384E-003  7.2270436E-003 0.0  3.3408561E-003  6.9536676E-003 0.0  1.3723404E-002  1.2871218E-003 0.0  1.6057504E-003  2.0876818E-003 0.0  1.6874276E-003  2.7968224E-003 0.0  1.5966371E-003  1.4543248E-003 0.0  1.3207959E-002  1.5625281E-003 0.0  1.1720443E-002  8.6260574E-003 0.0  1.1122838E-002  8.4394842E-003 0.0  1.0359413E-002  1.2848366E-003 0.0  1.8431376E-002  1.3029338E-003 0.0  1.9023310E-002  1.4848330E-003 0.0  1.9165154E-002  2.0717911E-003 0.0  1.9611546E-002  1.6448852E-003 0.0  1.9771865E-002  2.2139188E-003 0.0  2.0210109E-002  1.7720795E-003 0.0  2.1993224E-002  5.5524856E-003 0.0  2.3510923E-002  8.7508942E-003 0.0  1.2163431E-002  1.3398525E-003 0.0  1.1555836E-002  1.1452016E-003 0.0  6.8354020E-003  1.3603256E-003 0.0  1.7074273E-002  3.2134725E-003 0.0  5.4159792E-003  3.1836204E-003 0.0  6.6060305E-003  8.3481443E-003 0.0  1.6604624E-002  1.2526305E-003 0.0  6.3024882E-003  1.1075369E-003 0.0  1.3788965E-003  8.0864111E-003 0.0  1.4818356E-003  8.7249177E-003 0.0  1.4943742E-002  8.7574776E-003 0.0  1.4369124E-002  8.6075828E-003 0.0  1.2353002E-002  8.7916296E-003 0.0  2.0066338E-002  1.2496398E-003 0.0  2.0725754E-002  1.3263392E-003 0.0  1.6072262E-003  6.9961325E-003 0.0  2.3794871E-002  6.0506617E-003 0.0  2.3696504E-002  6.6478416E-003 0.0  2.3751917E-002  5.4154300E-003 0.0  2.3272503E-002  5.0769395E-003 0.0  2.3792674E-002  4.8154924E-003 0.0  2.3354212E-002  4.4871824E-003 0.0  8.3272862E-003  8.9144394E-003 0.0  9.8124566E-003  1.0437910E-003 0.0  8.6741606E-003  1.0656447E-003 0.0  2.0733456E-002  8.9263374E-003 0.0  1.3725577E-002  3.3321637E-003 0.0  8.8005838E-003  3.7391680E-003 0.0  1.0679078E-003  1.6860391E-003 0.0  1.1248607E-002  9.0417819E-003 0.0  1.0722310E-002  8.8012557E-003 0.0  2.0562360E-002  2.8287150E-003 0.0  2.3786226E-002  4.3273659E-003 0.0  7.3875886E-003  1.5508650E-003 0.0  5.7751336E-003  1.4171709E-003 0.0  1.1033299E-002  6.4824678E-003 0.0  1.7858032E-002  1.0917885E-003 0.0  1.7428396E-002  1.4807134E-003 0.0  1.7383938E-002  9.1846655E-004 0.0  7.2826138E-003  9.6228756E-004 0.0  2.1852198E-002  8.4390922E-003 0.0  9.3312707E-003  8.1756516E-003 0.0  9.3609279E-003  8.7880904E-003 0.0  9.8805146E-003  8.4607300E-003 0.0  9.8807988E-003  9.0872272E-003 0.0  9.2285947E-003  1.3074733E-003 0.0  1.5320096E-002  6.3714221E-003 0.0  4.5377324E-003  9.8165486E-004 0.0  3.9395774E-003  8.4313187E-004 0.0  3.5955374E-003  1.2533553E-003 0.0  1.0487049E-002  8.2135420E-003 0.0  1.7928012E-002  8.6730030E-003 0.0  1.8483989E-002  8.9639661E-003 0.0  2.0949799E-003  1.1938420E-003 0.0  2.5408524E-003  8.5842582E-004 0.0  3.6720631E-003  8.9219244E-003 0.0  4.1993238E-003  9.1408385E-003 0.0  4.6710639E-003  8.7460095E-003 0.0  5.0055202E-003  8.2160401E-003 0.0  9.7246842E-003  3.9521147E-003 0.0  1.6070064E-002  1.1429896E-003 0.0  3.2034035E-003  9.2444191E-003 0.0  1.5477982E-002  9.0346838E-003 0.0  2.0178790E-002  8.5966731E-003 0.0  1.9700304E-002  8.9147913E-003 0.0  1.9132745E-002  8.6987088E-003 0.0  1.4828993E-002  1.7341205E-003 0.0  1.4685364E-002  1.1848818E-003 0.0  5.5647826E-003  9.0318630E-003 0.0  6.1569429E-003  9.2467308E-003 0.0  2.3641860E-002  2.8289496E-003 0.0  2.4089204E-002  2.4927196E-003 0.0  2.3778420E-002  3.4258999E-003 0.0  2.1207948E-002  9.2039453E-003 0.0  1.2847950E-002  8.4594677E-003 0.0  1.3400137E-002  8.7221638E-003 0.0  7.8131808E-003  8.7296060E-003 0.0  6.2688713E-003  6.4996324E-003 0.0  1.6581942E-002  8.2709029E-003 0.0  1.6868013E-002  8.8240134E-003 0.0  8.3873354E-003  6.3975497E-003 0.0  2.2650017E-002  3.8604490E-003 0.0  1.0979994E-002  1.4452207E-003 0.0  2.1811003E-002  2.0079658E-003 0.0  2.1845096E-002  1.3742792E-003 0.0  2.2378920E-002  1.0821938E-003 0.0  2.1264772E-002  1.6679431E-003 0.0  2.1325452E-002  1.0237256E-003 0.0  2.3175400E-002  6.9097784E-003 0.0  1.8023620E-002  6.4771629E-003 0.0  2.6680845E-003  9.0749435E-003 0.0  2.1447121E-003  8.9140598E-003 0.0  8.9108344E-003  9.1607119E-003 0.0  2.1405854E-002  4.9477410E-003 0.0  2.2749369E-002  4.6022894E-003 0.0  2.2924641E-002  1.3504305E-003 0.0  2.1963340E-002  9.0047811E-003 0.0  2.2404393E-002  9.2262442E-003 0.0  2.2989356E-002  9.0708477E-003 0.0  1.8320233E-002  7.5133285E-004 0.0  1.3511048E-002  6.5933940E-003 0.0  1.9515848E-002  9.9849401E-004 0.0  2.3471955E-002  9.7958215E-004 0.0  2.3965126E-002  1.2416458E-003 0.0  1.7500000E-003  9.3126620E-003 0.0  3.2054598E-003  1.6588671E-003 0.0  2.4037102E-002  8.5196083E-003 0.0  2.5904301E-003  3.7040256E-003 0.0  1.3139369E-002  2.2470301E-003 0.0  1.1417985E-002  7.3936224E-003 0.0  6.6658825E-003  7.7066663E-003 0.0  6.6411378E-003  8.9264901E-003 0.0  7.0657909E-003  9.1600304E-003 0.0  2.4221455E-002  5.6794801E-003 0.0  2.3394450E-002  3.9036589E-003 0.0  7.6007770E-003  2.2082436E-003 0.0  7.6056192E-003  2.9699245E-003 0.0  4.7128478E-003  9.4467395E-003 0.0  1.8683027E-002  3.7947901E-003 0.0  1.1084974E-002  8.2644240E-004 0.0  1.1493207E-002  5.8037728E-004 0.0  8.2290538E-003  8.0681762E-004 0.0  1.1471950E-003  1.2059889E-003 0.0  1.7448900E-002  9.0235210E-003 0.0  1.3897954E-002  7.7789316E-003 0.0  8.3679405E-003  9.4864696E-003 0.0  2.4026360E-002  9.1060419E-003 0.0  2.4541979E-002  8.7732761E-003 0.0  8.6738335E-003  5.0275873E-004 0.0  2.4087379E-002  7.9694332E-003 0.0  1.3232861E-002  9.8218893E-004 0.0  7.1296103E-004  3.9651308E-003 0.0  5.7450797E-004  3.0781282E-003 0.0  8.1088096E-004  6.8320697E-003 0.0  4.2545826E-004  9.2450278E-003 0.0  9.4333844E-004  9.0307018E-003 0.0  1.9807841E-002  6.2892406E-003 0.0  2.0676394E-002  6.4894088E-003 0.0  5.4821382E-003  8.6713751E-004 0.0  1.3091066E-002  2.9743106E-003 0.0  1.2369940E-002  3.3814059E-003 0.0  4.8922876E-004  8.1616512E-003 0.0  1.2931959E-002  9.0842092E-003 0.0  1.3442656E-002  9.2035690E-003 0.0  1.3944809E-002  9.0304250E-003 0.0  2.2838650E-002  7.9456932E-004 0.0  2.2343896E-002  5.1441675E-004 0.0  2.4074797E-002  1.8661939E-003 0.0  2.3759444E-002  4.4816743E-004 0.0  1.4401033E-002  6.7960525E-003 0.0  1.4201011E-002  1.0032602E-003 0.0  1.3728167E-002  7.4624208E-004 0.0  1.2770846E-002  7.1375787E-004 0.0  1.2743940E-002  1.2056567E-003 0.0  1.0252132E-002  7.5002206E-004 0.0  1.6839548E-002  3.9715273E-003 0.0  2.4563387E-002  2.7487864E-003 0.0  1.5750000E-002  9.5669873E-003 0.0  1.4750267E-002  9.5754211E-003 0.0  1.6750000E-002  9.5760186E-003 0.0  1.2501533E-003  4.0524827E-004 0.0  2.2568100E-003  4.0481960E-004 0.0  2.4498759E-002  1.2250359E-003 0.0  1.1174065E-002  9.5615090E-003 0.0  1.8745869E-002  9.5515287E-003 0.0  1.2217525E-002  9.5773004E-003 0.0  1.7741483E-002  9.5555851E-003 0.0  2.4559506E-002  7.7436576E-003 0.0  2.4579201E-002  6.7522927E-003 0.0  2.4139731E-002  6.9529077E-003 0.0  2.4589743E-002  4.7822935E-003 0.0  1.0208502E-002  9.5618731E-003 0.0  1.9743905E-002  9.4831553E-003 0.0  2.1208152E-002  4.5235906E-004 0.0  2.4591720E-002  3.7364854E-003 0.0  2.0779438E-002  9.5155033E-003 0.0  2.0246657E-002  4.2272846E-004 0.0  5.2471146E-003  4.2862414E-004 0.0  1.9228400E-002  4.6483223E-004 0.0  6.2813168E-003  5.0831122E-004 0.0  7.2500012E-003  4.3301266E-004 0.0  2.3753336E-002  9.5773652E-003 0.0  1.6247600E-002  3.9970111E-004 0.0  9.7624354E-003  4.6172110E-004 0.0  1.5250000E-002  4.2040066E-004 0.0  1.5560409E-002  8.8058246E-004 0.0  1.4758069E-002  4.1717970E-004 0.0  4.9745531E-004  1.8520835E-003 0.0  1.1043530E-002  7.8862689E-003 0.0  6.9564538E-003  3.8969533E-003 0.0  1.9553431E-002  6.9501291E-003 0.0  1.5484243E-003  8.8465576E-004 0.0  1.8868996E-002  8.9960769E-004 0.0  7.1877701E-003  8.6493153E-003 0.0  7.1211515E-003  6.7177141E-003 0.0  3.8472202E-003  6.2789120E-003 0.0  1.4541942E-002  9.1236027E-003 0.0  5.1686672E-003  3.9284924E-003 0.0  1.8720012E-002  2.5230261E-003 0.0  2.8092248E-003  9.5874982E-003 0.0  1.2358983E-002  4.2489825E-003 0.0  2.4577388E-002  2.2499997E-003 0.0  1.5061877E-002  7.1483918E-003 0.0  7.8774327E-003  6.9949454E-003 0.0  1.7216910E-002  4.3752860E-004 0.0  2.0465739E-002  8.4982300E-004 0.0  2.0779120E-002  1.9160720E-003 0.0  4.2481179E-003  4.3035295E-004 0.0  1.4376253E-002  3.8437946E-003 0.0  1.3074123E-002  3.7606326E-003 0.0  1.8439068E-003  3.5503027E-003 0.0  9.9291577E-003  3.0275449E-003 0.0  9.7119535E-003  9.5754615E-003 0.0  1.8395634E-002  7.0592595E-003 0.0  2.4143538E-002  3.0410593E-003 0.0  2.4599679E-002  7.4999991E-004 0.0  4.2132280E-004  7.2132785E-004 0.0  5.7603060E-003  9.5780751E-003 0.0  2.1751070E-003  6.4930720E-003 0.0  2.2698019E-002  5.3245764E-003 0.0  3.7428068E-003  3.9832654E-004 0.0  1.6428582E-002  7.9125766E-004 0.0  1.1871801E-003  7.4931351E-003 0.0  1.3865302E-002  8.4078607E-003 0.0  1.6039040E-002  9.1361024E-003 0.0  2.2745185E-002  9.5875842E-003 0.0  2.7500015E-003  3.9402833E-004 0.0  2.8800043E-003  7.4363127E-003 0.0  4.2390050E-003  9.6152263E-003 0.0  1.9312950E-002  2.6594494E-003 0.0  5.0766801E-003  9.0886371E-003 0.0  1.1921468E-002  7.8035498E-004 0.0  7.5922639E-004  9.5824786E-003 0.0  4.7841212E-003  2.9701724E-003 0.0  1.9000000E-002  9.1586916E-003 0.0  1.6425937E-002  3.0181434E-003 0.0  7.2606769E-003  9.5933318E-003 0.0  7.7909901E-003  1.1160899E-003 0.0  9.3200364E-004  8.4461869E-003 0.0  2.1356977E-002  6.6926016E-003 0.0  1.7711025E-002  3.5508778E-003 0.0  6.0288594E-003  3.5677702E-003 0.0  2.4110850E-002  7.4408733E-003 0.0  7.0543963E-003  2.6647521E-003 0.0  1.3739979E-002  9.5742092E-003 0.0  1.8934722E-002  6.6606066E-003 0.0  5.0193175E-003  8.1244414E-004 0.0  2.2202180E-002  4.9586904E-003 0.0  2.0123202E-002  9.1052491E-003 0.0  1.7970477E-002  9.1566125E-003 0.0  2.1928673E-002  8.8552560E-004 0.0  8.7810762E-003  2.9712878E-003 0.0  2.1335964E-002  5.9135658E-003 0.0  2.4180601E-002  6.4999998E-003 0.0  1.1871032E-002  9.1090689E-003 0.0  1.2381540E-002  8.9527939E-004 0.0  1.0414006E-002  9.1385351E-003 0.0  8.8101686E-003  9.6150698E-003 0.0  9.3900607E-003  8.7922886E-004 0.0  1.6546845E-002  9.1889969E-003 0.0  1.4264690E-003  6.3538303E-003 0.0  8.2314621E-003  3.5947101E-004 0.0  2.1250000E-002  9.6476102E-003 0.0  1.5010549E-002  8.2177889E-004 0.0  2.4576343E-002  9.2658580E-003 0.0  3.0848172E-003  1.1058926E-003 0.0  1.0322413E-003  2.4274167E-003 0.0  8.1477200E-003  3.3583100E-003 0.0  6.7068214E-003  8.6003272E-004 0.0  1.2721015E-002  1.7196472E-003 0.0  2.2783332E-002  3.5095998E-004 0.0  1.3474123E-003  9.1398395E-003 0.0  1.1863302E-002  2.9995548E-003 0.0  9.3383907E-003  3.3407626E-003 0.0  7.0376905E-003  8.0739059E-003 0.0  1.8884998E-002  3.1387529E-003 0.0  6.6620088E-003  7.1398113E-003 0.0  7.5498158E-003  9.1617117E-003 0.0  2.4253570E-002  3.4767882E-003 0.0  1.6972752E-002  9.2359074E-003 0.0  1.3197019E-002  9.5929643E-003 0.0  6.2500003E-003  9.6644528E-003 0.0  2.3504249E-002  9.2145964E-003 0.0  2.0892832E-002  8.1612604E-004 0.0  2.4195804E-002  4.5201704E-003 0.0  2.4175438E-002  5.1034061E-003 0.0  2.2246994E-002  9.6524977E-003 0.0  2.3669745E-002  7.1604709E-003 0.0  2.4635752E-002  5.7818617E-003 0.0  5.1578897E-003  8.6828885E-003 0.0  5.9415829E-003  8.4231875E-004 0.0  1.4296279E-002  8.1106814E-003 0.0  2.4096990E-002  8.3360450E-004 0.0  2.0007092E-002  7.9432445E-004 0.0  2.4174665E-002  3.9304964E-003 0.0  1.4994364E-002  9.2099636E-003 0.0  1.2500000E-002  9.2259121E-003 0.0  7.6843652E-003  6.2791460E-003 0.0  1.0250001E-002  3.2199780E-004 0.0  3.2500000E-003  9.6780518E-003 0.0  1.9906357E-002  2.8200489E-003 0.0  1.1844538E-002  3.5950144E-004 0.0  2.1974949E-003  3.0544358E-003 0.0  1.2201181E-003  3.3351181E-003 0.0  1.4580428E-002  8.0588708E-004 0.0  1.3711479E-002  4.0741422E-003 0.0  7.9702125E-003  9.1754357E-003 0.0  1.6913604E-002  8.1457067E-004 0.0  1.1145328E-002  3.7257997E-004 0.0  1.3746871E-002  3.1492371E-004 0.0  9.0049278E-003  7.7687045E-004 0.0  2.0000016E-003  7.5941988E-004 0.0  2.7515347E-003  6.7397737E-003 0.0  3.1846574E-003  6.3090738E-003 0.0  2.0414427E-002  2.2838544E-003 0.0  9.4823903E-004  8.0902815E-004 0.0  1.0276936E-002  8.7402580E-003 0.0  1.3911821E-002  7.2154713E-003 0.0  2.4637330E-002  9.6373306E-003 0.0  2.4636520E-002  3.6347951E-004 0.0  1.8252432E-002  3.0946764E-004 0.0  1.5185464E-002  1.2843195E-003 0.0  3.6734606E-004  9.6365875E-003 0.0  1.7500000E-003  9.7017962E-003 0.0  1.2753895E-002  3.0225893E-004 0.0  2.0493542E-002  9.2602710E-003 0.0  9.4373631E-003  9.2270876E-003 0.0  3.4318507E-003  7.7930991E-004 0.0  3.6114797E-004  3.5703127E-004 0.0  8.9959948E-004  7.8968302E-003 0.0  1.0397923E-002  6.7546269E-003 0.0  7.8540284E-003  1.6661334E-003 0.0  2.4269615E-002  1.5105710E-003 0.0  1.0659189E-002  9.5088117E-004 0.0  2.3251205E-002  7.3830906E-003 0.0  7.5809836E-003  3.5895361E-003 0.0  2.0845345E-002  7.0946999E-003 0.0  2.3037012E-002  4.2133949E-003 0.0  2.4246901E-002  6.0845142E-003 0.0  2.1551195E-002  8.9491803E-003 0.0  1.9378305E-002  9.1893796E-003 0.0  1.0862808E-002  9.2167925E-003 0.0  1.6402356E-002  8.8015418E-003 0.0  4.5064848E-003  8.2009137E-003 0.0  1.5302240E-002  1.7999154E-003 0.0  2.2064949E-002  9.3498299E-003 0.0  1.6000000E-002  7.1798454E-004 0.0  3.7013481E-003  1.7319119E-003 0.0  2.9871557E-003  6.9238697E-004 0.0  7.1590916E-003  3.2443241E-003 0.0  1.2637679E-002  2.1394667E-003 0.0  1.7038697E-002  1.2589168E-003 0.0  2.5425909E-002  7.8617639E-004 0.0  2.5405080E-002  3.7596510E-003 0.0  2.5450234E-002  6.1975320E-003 0.0  7.2500012E-003 -4.0410425E-004 0.0  9.7500009E-003 -4.1866906E-004 0.0  1.2251773E-002 -4.2838998E-004 0.0  1.4749825E-002 -3.9838737E-004 0.0  1.7250000E-002 -4.3301266E-004 0.0  1.9732854E-002 -4.2517464E-004 0.0  2.2250000E-002 -4.0887637E-004 0.0  2.5438021E-002  8.2427905E-003 0.0  2.5408048E-002  1.0247914E-002 0.0  2.4219101E-002 -4.2766273E-004 0.0  5.2500013E-003 -4.3301267E-004 0.0  3.9385824E-002  1.2735382E-002 0.0  3.8503923E-002 -1.2950291E-002 0.0  1.2132472E-003 -7.4589938E-003 0.0  3.2148569E-003 -4.1226689E-004 0.0  2.5420467E-002  1.1692622E-002 0.0  5.7808833E-002 -1.2927898E-003 0.0  2.5470796E-002  2.1543536E-003 0.0  3.2281257E-002  1.3300712E-002 0.0  7.0074053E-004 -3.9334168E-003 0.0  4.6784312E-002  1.2794929E-002 0.0  3.1250000E-002 -1.2834936E-002 0.0  4.6250000E-002 -1.2982496E-002 0.0  2.1235687E-002 -1.2910564E-002 0.0  8.8346314E-003 -1.2971459E-002 0.0  1.7877264E-003 -4.1675546E-004 0.0  2.9189169E-002  1.3895168E-002 0.0  5.7916916E-002  6.2185036E-003 0.0  2.5589315E-002  1.2869479E-002 0.0  5.3396443E-004 -2.3517018E-003 0.0  5.7679013E-002 -5.9768612E-003 0.0  1.3730249E-002 -1.3260553E-002 0.0  2.6300515E-002 -1.2961375E-002 0.0  5.1250000E-002 -1.2834936E-002 0.0  2.5418824E-002  9.2563672E-003 0.0  2.1208402E-002 -4.5316387E-004 0.0  2.3229820E-002 -4.0413737E-004 0.0  2.5451716E-002  7.2149061E-003 0.0  2.5426273E-002  4.7824383E-003 0.0  4.2374150E-003 -4.1149312E-004 0.0  1.8745717E-002 -4.1414309E-004 0.0  6.2500013E-003 -4.3483328E-004 0.0  8.2500011E-003 -4.1403004E-004 0.0  1.6250000E-002 -4.1237095E-004 0.0  1.0821741E-002 -4.6250748E-004 0.0  1.3743996E-002 -3.9793971E-004 0.0  5.1727525E-002  1.3015426E-002 0.0  4.4886073E-004 -1.1963993E-003 0.0  3.7500000E-003 -1.2834936E-002 0.0  5.7777595E-002  1.1246810E-002 0.0  5.6087033E-002 -1.2735828E-002 0.0  2.6627980E-002  1.4038683E-002 0.0  7.4940689E-004 -3.9741295E-004 0.0  2.7828339E-002  1.3836586E-002 0.0  2.8575553E-002  1.2838391E-002 0.0  2.9724859E-002  1.2812198E-002 0.0  2.9069095E-002  1.1895674E-002 0.0  2.8080982E-002  1.1908518E-002 0.0  2.8531701E-002  1.1090599E-002 0.0  2.9475082E-002  1.0979427E-002 0.0  2.8822279E-002  1.0173389E-002 0.0  2.9898466E-002  1.0089380E-002 0.0  2.9174255E-002  9.1766528E-003 0.0  3.0349707E-002  9.1404576E-003 0.0  2.9737538E-002  8.2726276E-003 0.0  3.0881897E-002  8.1517195E-003 0.0  3.0057345E-002  7.0885761E-003 0.0  3.1416783E-002  7.0474560E-003 0.0  3.0688863E-002  6.0020156E-003 0.0  3.2056063E-002  5.8782126E-003 0.0  3.1283821E-002  4.7500373E-003 0.0  3.2748049E-002  4.5874033E-003 0.0  3.1845245E-002  3.2735074E-003 0.0  3.3452091E-002  3.1729891E-003 0.0  3.2644502E-002  1.7193079E-003 0.0  3.4471962E-002  1.6891836E-003 0.0  3.3318354E-002  8.8130011E-005 0.0  3.5357974E-002 -1.8385038E-004 0.0  3.6619159E-002  1.6957223E-003 0.0  3.7710928E-002 -3.6437295E-004 0.0  3.9049419E-002  1.5755443E-003 0.0  4.0190949E-002 -5.1735773E-004 0.0  4.1538576E-002  1.4519539E-003 0.0  4.2681127E-002 -7.1926995E-004 0.0  4.4036011E-002  1.3680851E-003 0.0  4.5177010E-002 -8.4951042E-004 0.0  3.1577093E-002  4.3410442E-004 0.0  3.2192105E-002 -1.2161037E-003 0.0  3.0511095E-002 -1.0921896E-003 0.0  3.1193081E-002 -2.4236698E-003 0.0  2.9881614E-002 -2.4094415E-003 0.0  3.0363111E-002 -3.5174369E-003 0.0  2.9108229E-002 -3.4198050E-003 0.0  3.1597340E-002 -3.5999331E-003 0.0  2.9601319E-002 -4.6011029E-003 0.0  2.8292571E-002 -4.3222876E-003 0.0  3.2183587E-002  8.1547217E-003 0.0  4.6532869E-002  1.2497508E-003 0.0  3.0191887E-002  2.4977909E-004 0.0  2.7899198E-002 -3.1844417E-003 0.0  2.7117999E-002 -3.9523558E-003 0.0  2.9755844E-002  4.9050218E-003 0.0  2.7497095E-002 -5.1743607E-003 0.0  2.6380705E-002 -4.8883317E-003 0.0  2.6023974E-002 -3.8819566E-003 0.0  2.5341485E-002 -4.6344784E-003 0.0  2.5142396E-002 -3.6761556E-003 0.0  2.4362150E-002 -4.2203140E-003 0.0  2.4615116E-002 -5.3723341E-003 0.0  2.3587173E-002 -5.0577752E-003 0.0  2.3328505E-002 -4.0461993E-003 0.0  2.2587009E-002 -4.7377525E-003 0.0  2.2461226E-002 -3.7816436E-003 0.0  2.1631656E-002 -4.2578888E-003 0.0  2.1789379E-002 -5.3992748E-003 0.0  2.0786266E-002 -5.0378148E-003 0.0  2.3797568E-002 -6.2452798E-003 0.0  2.0614236E-002 -4.0025489E-003 0.0  1.9830267E-002 -4.6368592E-003 0.0  1.9922599E-002 -5.7599255E-003 0.0  1.8814733E-002 -5.1362317E-003 0.0  1.8941955E-002 -6.4724436E-003 0.0  1.7813111E-002 -5.9041806E-003 0.0  1.7624738E-002 -4.7709854E-003 0.0  1.6727265E-002 -5.3428259E-003 0.0  1.6636421E-002 -4.2984414E-003 0.0  1.5733270E-002 -4.8101093E-003 0.0  4.7673933E-002 -9.7370237E-004 0.0  2.5677141E-002 -3.0349906E-003 0.0  1.9710147E-002 -3.6271320E-003 0.0  2.8855547E-002  7.4860185E-003 0.0  1.5710381E-002 -6.0043956E-003 0.0  1.4751236E-002 -5.3493149E-003 0.0  1.7989055E-002 -7.4169165E-003 0.0  1.4858174E-002 -4.1332734E-003 0.0  1.3794312E-002 -4.7029425E-003 0.0  1.3728188E-002 -5.8850058E-003 0.0  1.2739930E-002 -5.1796559E-003 0.0  1.2596518E-002 -6.4459468E-003 0.0  1.1611125E-002 -5.6726311E-003 0.0  1.1766494E-002 -4.5784880E-003 0.0  1.0658377E-002 -4.9546070E-003 0.0  1.0472312E-002 -6.1060817E-003 0.0  9.5811128E-003 -5.3086811E-003 0.0  9.7798639E-003 -4.2246886E-003 0.0  8.7565904E-003 -4.5521674E-003 0.0  8.4835785E-003 -5.6506650E-003 0.0  7.6444925E-003 -4.7597349E-003 0.0  7.3287947E-003 -5.9985077E-003 0.0  6.5504477E-003 -5.0850095E-003 0.0  1.3918045E-002 -3.6849811E-003 0.0  6.8441315E-003 -4.0100645E-003 0.0  5.8562419E-003 -4.2684661E-003 0.0  4.1422261E-002 -2.6740871E-003 0.0  4.2894717E-002  3.5991766E-003 0.0  4.9029783E-002  1.1266636E-003 0.0  1.4688844E-002 -3.2074040E-003 0.0  8.9068669E-003 -3.5267053E-003 0.0  9.8694899E-003 -3.2841675E-003 0.0  6.1122832E-003 -6.2715072E-003 0.0  2.8462568E-002  9.5108147E-003 0.0  4.6317976E-002 -3.0739820E-003 0.0  8.2556654E-003 -6.6842467E-003 0.0  4.7888707E-002  3.3510562E-003 0.0  4.8814986E-002 -3.1979568E-003 0.0  2.6759443E-002 -6.0890840E-003 0.0  2.4951411E-002 -2.8359172E-003 0.0  6.0976481E-003 -3.2528312E-003 0.0  5.2226653E-003 -3.5567581E-003 0.0  1.3749522E-002 -7.2441089E-003 0.0  1.2351342E-002 -7.9246870E-003 0.0  4.9278996E-003 -4.4169835E-003 0.0  4.3486142E-003 -3.7027530E-003 0.0  2.0061222E-002 -7.0501058E-003 0.0  2.0427197E-002 -3.1090566E-003 0.0  3.8020137E-002  3.6004521E-003 0.0  1.9695071E-002 -2.7748693E-003 0.0  2.5389314E-002 -2.2919421E-003 0.0  2.7973567E-002 -6.4393398E-003 0.0  9.2307285E-003 -2.7176185E-003 0.0  1.3990097E-002 -2.8104943E-003 0.0  4.6721687E-003 -2.9174374E-003 0.0  3.8274338E-003 -2.9098853E-003 0.0  3.4766522E-003 -3.7877133E-003 0.0  2.7639239E-002  1.1143724E-002 0.0  9.9644788E-003 -2.4440657E-003 0.0  3.0206363E-003 -3.0865429E-003 0.0  2.0298952E-002 -2.3060511E-003 0.0  1.4661378E-002 -2.3346540E-003 0.0  5.0385629E-002  3.2272831E-003 0.0  3.3931270E-002  6.0846360E-003 0.0  4.9244555E-002  5.4516439E-003 0.0  3.1013031E-002  1.0068840E-002 0.0  4.7459124E-002 -5.2983294E-003 0.0  4.9956075E-002 -5.4223139E-003 0.0  6.9553663E-003 -3.0804944E-003 0.0  6.4457729E-003 -2.5138902E-003 0.0  7.1257576E-003 -2.3539139E-003 0.0  2.4725436E-002 -2.1267154E-003 0.0  3.2722436E-003 -2.3724922E-003 0.0  2.5750740E-003 -2.4655870E-003 0.0  1.9687745E-002 -1.9546236E-003 0.0  1.9062814E-002 -2.4285035E-003 0.0  3.6459623E-002 -2.4657058E-003 0.0  2.0999399E-002 -2.5784610E-003 0.0  2.5157059E-002 -1.6162319E-003 0.0  2.5796309E-002 -1.7597063E-003 0.0  2.7069092E-002 -7.5697690E-003 0.0  2.8659182E-002 -7.9366301E-003 0.0  1.5323280E-002 -2.7466221E-003 0.0  1.5337409E-002 -2.0453150E-003 0.0  1.5938157E-002 -2.3868387E-003 0.0  5.1311924E-002 -3.3219236E-003 0.0  9.4819714E-003 -1.9170989E-003 0.0  1.3995468E-002 -2.0647899E-003 0.0  1.3413569E-002 -2.3976280E-003 0.0  1.0575676E-002 -2.9047143E-003 0.0  1.0665897E-002 -2.1870583E-003 0.0  1.1227497E-002 -2.5997196E-003 0.0  1.1279612E-002 -1.9401027E-003 0.0  2.3104012E-002 -3.1307407E-003 0.0  2.7242677E-002  1.1850095E-002 0.0  2.6871923E-002  1.1162653E-002 0.0  5.1741478E-002  5.3276757E-003 0.0  5.2862357E-002  3.1064009E-003 0.0  2.5575073E-002 -1.1599878E-003 0.0  2.6175465E-002 -1.2646073E-003 0.0  2.5964207E-002 -7.0591175E-004 0.0  2.6552544E-002 -8.0148359E-004 0.0  2.6342744E-002 -2.3075188E-004 0.0  2.6937334E-002 -3.4009572E-004 0.0  2.6724351E-002  2.2800594E-004 0.0  2.7121787E-002 -9.5141288E-004 0.0  2.7350982E-002  1.2932045E-004 0.0  2.7120456E-002  7.5935592E-004 0.0  2.7799733E-002  6.4079007E-004 0.0  2.7545485E-002  1.2800905E-003 0.0  2.8038332E-002 -3.2855702E-005 0.0  2.6880850E-002  1.3889298E-003 0.0  2.7285594E-002  1.8730789E-003 0.0  2.7967689E-002  1.8257779E-003 0.0  2.7577108E-002  2.4850380E-003 0.0  2.8428729E-002  2.4079366E-003 0.0  2.8123269E-002  3.1142613E-003 0.0  2.7354544E-002  3.2063553E-003 0.0  2.7806056E-002  3.7920245E-003 0.0  2.7096843E-002  3.8539483E-003 0.0  2.7487291E-002  4.4270175E-003 0.0  2.6682565E-002  3.3324601E-003 0.0  2.8966066E-002  3.0624823E-003 0.0  2.7231634E-002  1.0534867E-002 0.0  2.6433796E-002 -1.8234698E-003 0.0  2.0873685E-002 -1.8844632E-003 0.0  2.1496052E-002 -2.0935306E-003 0.0  6.6395312E-003 -1.8733418E-003 0.0  6.0266622E-003 -1.9740051E-003 0.0  2.8892739E-003 -1.8268220E-003 0.0  2.2272359E-003 -1.8869637E-003 0.0  3.4744841E-003 -1.7596789E-003 0.0  2.6817339E-002  4.4823461E-003 0.0  2.7183030E-002  5.0517235E-003 0.0  2.7880568E-002  4.9944630E-003 0.0  2.7551430E-002  5.6140319E-003 0.0  2.6877946E-002  5.6557980E-003 0.0  2.7220136E-002  6.2116530E-003 0.0  7.2511227E-003 -1.7005952E-003 0.0  4.8600219E-002 -7.5227140E-003 0.0  4.6239472E-002 -7.3192802E-003 0.0  5.1097146E-002 -7.6467146E-003 0.0  8.7396768E-003 -2.1986626E-003 0.0  1.3472353E-002 -1.7196569E-003 0.0  1.2898429E-002 -1.9838481E-003 0.0  1.2812329E-002 -2.6267428E-003 0.0  2.6301684E-003 -3.8753378E-003 0.0  3.1579841E-003 -4.6609252E-003 0.0  1.9028087E-002 -1.7592032E-003 0.0  1.8454799E-002 -2.1330197E-003 0.0  1.8473395E-002 -2.8156665E-003 0.0  1.7755645E-002 -2.4671255E-003 0.0  1.7904846E-002 -1.7712593E-003 0.0  2.8278894E-002  5.5811797E-003 0.0  2.9300453E-002  2.2512082E-003 0.0  1.5918472E-002 -1.7316250E-003 0.0  8.9150351E-003 -1.5541264E-003 0.0  5.0600403E-002  7.5520732E-003 0.0  4.8103480E-002  7.6760727E-003 0.0  2.6636014E-002  1.9089470E-003 0.0  2.5404508E-003 -1.3174834E-003 0.0  2.1285028E-003 -4.7798625E-003 0.0  1.9122850E-003 -2.4980861E-003 0.0  5.3095534E-002  7.4292353E-003 0.0  1.6496128E-002 -2.0324477E-003 0.0  1.5949714E-003 -1.8932336E-003 0.0  2.7627232E-003 -5.6164653E-003 0.0  1.2978317E-002 -1.3621104E-003 0.0  2.6563859E-002  6.2220396E-003 0.0  2.6899766E-002  6.7734852E-003 0.0  2.6253710E-002  5.6796964E-003 0.0  2.7549263E-002  6.7705405E-003 0.0  2.7219447E-002  7.3402029E-003 0.0  2.6586512E-002  7.3346129E-003 0.0  2.6877391E-002  7.8977176E-003 0.0  2.7526198E-002  7.9245275E-003 0.0  2.7166614E-002  8.4741477E-003 0.0  1.5382563E-002 -1.4082550E-003 0.0  1.3980375E-002 -1.4674011E-003 0.0  2.4558689E-002 -1.4943622E-003 0.0  2.4099057E-002 -1.9479415E-003 0.0  2.3956057E-002 -1.3476436E-003 0.0  2.3498098E-002 -1.7243824E-003 0.0  2.6540026E-002  8.4386376E-003 0.0  2.6800586E-002  8.9951894E-003 0.0  2.6534822E-002  1.0569917E-002 0.0  1.3743386E-002 -8.8777979E-003 0.0  1.1950198E-002 -9.8741071E-003 0.0  2.6259401E-002  1.4878871E-003 0.0  1.0765466E-002 -1.5384246E-003 0.0  1.1350567E-002 -1.3532966E-003 0.0  1.6547395E-002 -2.6987118E-003 0.0  1.2429101E-002 -1.5722627E-003 0.0  7.7480109E-003 -2.7983310E-003 0.0  2.1359134E-002 -1.4874450E-003 0.0  2.1963357E-002 -1.6694272E-003 0.0  2.0775604E-002 -1.2799839E-003 0.0  1.6471829E-002 -1.4188968E-003 0.0  2.2103376E-002 -2.2887526E-003 0.0  6.8280313E-003 -1.2848363E-003 0.0  1.9428497E-002 -1.4225612E-003 0.0  9.4025358E-003 -1.3440318E-003 0.0  8.9709324E-003 -9.2725028E-004 0.0  2.9346468E-002 -7.9377022E-004 0.0  2.8607819E-002 -1.6354040E-003 0.0  2.8517586E-002  5.0781651E-004 0.0  3.0631818E-002  1.2104074E-003 0.0  2.7453479E-002 -9.2674579E-003 0.0  2.5630095E-002 -8.6072126E-003 0.0  1.7911283E-002 -3.2708189E-003 0.0  8.3148520E-003 -1.8207454E-003 0.0  1.7506788E-003 -5.5857880E-003 0.0  2.6514310E-002  1.1768147E-002 0.0  2.6826051E-002  1.2517645E-002 0.0  1.0518899E-002 -8.4713286E-003 0.0  2.9887417E-002  2.9852224E-003 0.0  4.9459328E-002  9.7764790E-003 0.0  2.6831817E-002  9.9944370E-003 0.0  2.6231804E-002  1.0026713E-002 0.0  1.8564595E-002 -3.5667633E-003 0.0  2.5763066E-002 -1.8603315E-004 0.0  2.9372329E-002 -9.6953293E-003 0.0  3.0683753E-002 -7.8450439E-003 0.0  1.1790127E-002 -2.3571695E-003 0.0  1.1793475E-002 -3.0045693E-003 0.0  3.7997488E-003 -5.5079797E-003 0.0  3.4266760E-003 -6.6392136E-003 0.0  1.5276701E-002 -7.7024666E-003 0.0  1.5570480E-002 -9.9430485E-003 0.0  2.6237245E-002  8.9793836E-003 0.0  2.2558683E-002 -1.8467063E-003 0.0  2.2403188E-002 -1.2197311E-003 0.0  2.3414660E-002 -1.1551078E-003 0.0  4.9446659E-002 -9.6098230E-003 0.0  5.1981859E-002 -1.0317920E-002 0.0  5.3594069E-002 -7.7707172E-003 0.0  1.8973967E-002 -1.1982856E-003 0.0  2.9557570E-002  6.0597737E-003 0.0  2.4835968E-002 -6.3582468E-003 0.0  2.6453969E-002 -3.1145783E-003 0.0  2.7388032E-002 -2.4031299E-003 0.0  1.6975952E-002 -1.7023839E-003 0.0  2.8657389E-002  4.9277886E-003 0.0  2.3912609E-002 -3.3795936E-003 0.0  1.0177855E-002 -1.7723077E-003 0.0  1.0372986E-002 -1.2098269E-003 0.0  8.0744012E-003 -3.9503454E-003 0.0  2.7521140E-002  9.9773007E-003 0.0  2.7508537E-002  8.9590200E-003 0.0  7.3938460E-003 -1.1516251E-003 0.0  5.4803499E-002 -1.0332481E-002 0.0  1.6982947E-002 -1.0218014E-003 0.0  2.8696324E-002  8.3286393E-003 0.0  5.3805739E-003 -2.7367266E-003 0.0  4.8993970E-003 -2.1916878E-003 0.0  4.2840313E-003 -2.2492719E-003 0.0  4.5512536E-003 -1.6500688E-003 0.0  5.1121880E-003 -1.5619355E-003 0.0  4.7634535E-003 -1.1108677E-003 0.0  4.2489624E-003 -1.2127061E-003 0.0  2.3478694E-002 -2.4089275E-003 0.0  4.6842130E-002  1.0160892E-002 0.0  4.5586511E-002  7.8434808E-003 0.0  4.4465482E-002  1.0024478E-002 0.0  4.3156011E-002  7.9568172E-003 0.0  4.1969166E-002  1.0010512E-002 0.0  4.0740306E-002  7.8428614E-003 0.0  2.6457462E-002  3.9322247E-003 0.0  2.6225797E-002  4.5426854E-003 0.0  2.6121647E-002  3.4357879E-003 0.0  2.6266222E-002  2.8933760E-003 0.0  2.6874456E-002  2.7629155E-003 0.0  2.5772416E-002  3.0345936E-003 0.0  2.6547148E-002  5.1011467E-003 0.0  2.6400352E-002  8.5776158E-004 0.0  2.5904337E-002  5.0794140E-003 0.0  1.2879795E-002 -4.0584772E-003 0.0  2.6226449E-002  1.1137707E-002 0.0  1.5945827E-002 -1.1666189E-003 0.0  1.5433368E-002 -8.3978544E-004 0.0  1.4938779E-002 -1.1273022E-003 0.0  1.4865410E-002 -1.6611092E-003 0.0  3.1533423E-003 -1.3100964E-003 0.0  1.5856369E-002 -3.8466641E-003 0.0  1.3490357E-002 -1.1508162E-003 0.0  1.3075863E-002 -8.2941654E-004 0.0  2.6081878E-002  2.6589937E-004 0.0  2.6046894E-002  2.0067308E-003 0.0  2.5731537E-002  1.6149361E-003 0.0  1.2491615E-002 -9.3777908E-004 0.0  1.8466007E-002 -1.4814414E-003 0.0  1.7941516E-002 -1.1783898E-003 0.0  6.2792669E-003 -1.3841831E-003 0.0  2.4993484E-002 -1.0532232E-003 0.0  2.5880301E-002  1.0553091E-002 0.0  8.4141234E-003 -1.2348629E-003 0.0  2.5552971E-002  1.1154282E-002 0.0  2.0303532E-002 -1.6387284E-003 0.0  2.0286928E-002 -1.0371932E-003 0.0  2.0746856E-002 -7.4384327E-004 0.0  1.0779552E-002 -3.9064181E-003 0.0  2.5716992E-002  5.6859185E-003 0.0  2.5414607E-002 -6.3773177E-004 0.0  8.5318149E-003 -2.8702569E-003 0.0  2.4461126E-002 -7.4624972E-003 0.0  2.3724374E-002 -9.1371561E-003 0.0  2.2750247E-002 -7.2563012E-003 0.0  2.1736733E-002 -9.0318591E-003 0.0  2.3788549E-002 -7.9539120E-004 0.0  2.7891340E-003 -8.0287360E-004 0.0  2.1351254E-003 -8.4734727E-004 0.0  1.8839574E-003 -1.3569850E-003 0.0  1.2997102E-003 -1.3514964E-003 0.0  2.1197760E-002 -3.3476154E-003 0.0  1.1912114E-002 -1.1839891E-003 0.0  9.8028257E-003 -1.0737613E-002 0.0  8.4492977E-003 -9.1943196E-003 0.0  4.3324408E-002  1.2248877E-002 0.0  3.1792673E-002 -1.0498225E-002 0.0  3.3223145E-002 -8.2633564E-003 0.0  3.4423509E-002 -1.0569921E-002 0.0  3.5739344E-002 -8.4814398E-003 0.0  3.4597169E-002 -6.0542718E-003 0.0  3.7199072E-002 -6.4647968E-003 0.0  3.8218076E-002 -8.6561339E-003 0.0  3.9563273E-002 -6.7027584E-003 0.0  4.0686571E-002 -8.8799200E-003 0.0  4.1754177E-002 -6.9522488E-003 0.0  4.3150851E-002 -9.1257275E-003 0.0  4.2057421E-002 -1.1003397E-002 0.0  3.8381312E-002 -4.4692575E-003 0.0  3.2115047E-002 -6.2953309E-003 0.0  3.4511241E-002  1.3270744E-002 0.0  3.3281853E-002  1.1427385E-002 0.0  3.5622659E-002  1.1307109E-002 0.0  3.4501023E-002  9.5182074E-003 0.0  3.6719320E-002  9.4136976E-003 0.0  3.1498346E-002  1.1806668E-002 0.0  3.5491275E-002  7.4694259E-003 0.0  3.8080912E-002  7.5750920E-003 0.0  9.4316011E-004 -1.8254316E-003 0.0  5.3461852E-003 -9.9233844E-004 0.0  1.8481052E-002 -8.6381165E-004 0.0  1.7963145E-002 -6.1890138E-004 0.0  2.4852071E-002 -4.6180692E-004 0.0  1.5244905E-003 -9.2693364E-003 0.0  3.9403618E-002  1.0150880E-002 0.0  3.9308204E-002  5.6704764E-003 0.0  2.1750950E-002 -1.1408881E-003 0.0  2.5843080E-002  1.1065747E-003 0.0  2.6295401E-002  7.9117153E-003 0.0  3.0163863E-002  1.1838881E-002 0.0  2.6234354E-002  6.7574808E-003 0.0  2.5994353E-002  7.3598829E-003 0.0  3.4054474E-002 -1.7208263E-003 0.0  2.9474010E-002  3.8728291E-003 0.0  1.8373022E-003 -1.1431879E-002 0.0  3.6874871E-003 -9.9336963E-003 0.0  5.5887933E-003 -1.1281758E-002 0.0  5.9188072E-003 -8.9269356E-003 0.0  1.0112593E-003 -4.8671444E-003 0.0  7.7404518E-003 -2.0967499E-003 0.0  1.1828763E-003 -2.6104293E-003 0.0  1.5972532E-003 -3.1098321E-003 0.0  2.5999441E-002  6.1777653E-003 0.0  4.7613811E-003 -6.3010615E-003 0.0  4.3478361E-003 -7.8736877E-003 0.0  2.7634295E-002  1.2715879E-002 0.0  5.8659417E-004 -3.1024232E-003 0.0  2.5932717E-002  8.4746467E-003 0.0  2.4445286E-002 -9.1870977E-004 0.0  3.7068584E-002 -1.0723876E-002 0.0  2.2720019E-002 -2.4729351E-003 0.0  3.0688719E-002  1.3835520E-002 0.0  4.3840294E-002 -2.8665613E-003 0.0  4.4304790E-002  5.7378565E-003 0.0  4.5071891E-002 -5.1063614E-003 0.0  5.0170852E-002 -1.0975929E-003 0.0  5.2659218E-002 -1.2259246E-003 0.0  5.3807422E-002 -3.4466554E-003 0.0  5.5162656E-002 -1.3028075E-003 0.0  5.6294637E-002 -3.5732390E-003 0.0  5.6416220E-002  1.0468809E-003 0.0  5.1513352E-002  9.9822676E-004 0.0  4.5400788E-002  3.4802678E-003 0.0  5.2452759E-002 -5.5464409E-003 0.0  5.4140108E-002  5.1997810E-003 0.0  4.6977337E-002 -9.2670575E-003 0.0  5.1956251E-002  9.6524794E-003 0.0  5.4247095E-002  9.4438263E-003 0.0  4.6752755E-002  5.5859539E-003 0.0  4.3676237E-002 -1.3004181E-002 0.0  1.5968138E-002 -1.2483549E-002 0.0  5.3711925E-002 -1.2800730E-002 0.0  5.7599690E-002 -1.0726567E-002 0.0  2.8752192E-002 -1.2902447E-002 0.0  1.1495593E-002 -1.2496660E-002 0.0  1.8713137E-002 -1.2808300E-002 0.0  1.9990050E-002 -1.0626985E-002 0.0  2.3792235E-002 -1.2958612E-002 0.0  5.7929429E-002  8.6811286E-003 0.0  5.7757126E-002  3.4342481E-003 0.0  4.8750000E-002 -1.2834936E-002 0.0  5.4978125E-002 -5.7057262E-003 0.0  5.5696538E-002  7.3975588E-003 0.0  2.6127575E-002  1.2354938E-002 0.0  2.6334972E-002  1.3106036E-002 0.0  1.0867928E-002 -1.0002565E-003 0.0  1.1420066E-002 -7.8804762E-004 0.0  2.6512717E-002  9.5016914E-003 0.0  2.5907041E-002  9.5018616E-003 0.0  2.5494512E-002  2.6295043E-004 0.0  1.2522568E-003 -4.3052634E-004 0.0  9.5071871E-004 -8.8906757E-004 0.0  2.2746636E-002 -4.1034064E-004 0.0  2.5426551E-002  8.7456340E-003 0.0  2.1754703E-002 -3.9599369E-004 0.0  2.5449943E-002  7.7195967E-003 0.0  2.5421560E-002  6.7276525E-003 0.0  2.5412887E-002  4.2570147E-003 0.0  2.5872811E-002  3.9904689E-003 0.0  3.7420463E-003 -4.1312518E-004 0.0  4.7353173E-003 -4.0419747E-004 0.0  2.0250000E-002 -4.3301267E-004 0.0  5.7243653E-003 -4.5616703E-004 0.0  5.9635324E-003 -9.2726991E-004 0.0  1.9246428E-002 -4.1100810E-004 0.0  6.7500012E-003 -4.2229331E-004 0.0  8.7451563E-003 -4.1927146E-004 0.0  7.7500011E-003 -4.0414796E-004 0.0  7.9583567E-003 -8.7958468E-004 0.0  1.5738895E-002 -3.9604475E-004 0.0  1.6747158E-002 -4.5733407E-004 0.0  9.2443487E-003 -4.3545065E-004 0.0  1.0261957E-002 -4.0943341E-004 0.0  1.4244768E-002 -4.2050157E-004 0.0  1.7584641E-002 -1.0669868E-002 0.0  2.5703894E-002  1.3625760E-002 0.0  2.7887737E-002  8.4404157E-003 0.0  5.4105422E-002  1.3085812E-002 0.0  4.9318724E-002  1.3038402E-002 0.0  2.2317118E-002 -2.9686348E-003 0.0  2.8616772E-002  3.7793901E-003 0.0  2.8034895E-002  1.0464810E-002 0.0  2.7905930E-002  7.3557838E-003 0.0  2.8339547E-002  6.7753308E-003 0.0  3.3672023E-002 -1.2864551E-002 0.0  5.6125162E-002 -8.1566156E-003 0.0  5.3987243E-002  9.4118813E-004 0.0  2.5406437E-002  9.7500001E-003 0.0  3.4519090E-002 -3.6851002E-003 0.0  5.5235196E-002  3.1214165E-003 0.0  1.6929138E-002 -8.6428771E-003 0.0  2.5390381E-002  5.2996286E-003 0.0  3.5560640E-002  3.3799597E-003 0.0  4.4988454E-002 -1.0778978E-002 0.0  1.7073385E-002 -2.3174537E-003 0.0  1.7536355E-002 -8.3656837E-004 0.0  1.9462221E-002 -9.1212476E-004 0.0  1.7203444E-002 -2.9796683E-003 0.0  1.3989227E-002 -8.9285946E-004 0.0  1.5515825E-003 -8.8202967E-004 0.0  6.5118057E-003 -8.8034694E-004 0.0  5.4797659E-003 -5.2601684E-003 0.0  1.6399627E-002 -8.6806718E-004 0.0  3.0514961E-002  3.7859347E-003 0.0  3.5000015E-003 -8.7424727E-004 0.0  1.3302074E-002 -3.1659755E-003 0.0  1.1734992E-002 -3.8614587E-004 0.0  2.6067392E-002 -2.4169073E-003 0.0  2.5259260E-002 -1.0750420E-002 0.0  2.9601732E-002  1.2900664E-003 0.0  2.7939381E-002  6.1860794E-003 0.0  1.5930327E-002 -3.0721019E-003 0.0  5.6372981E-002  1.3123089E-002 0.0  2.1228006E-002 -9.7423443E-004 0.0  5.6945783E-003 -1.4728760E-003 0.0  2.7002715E-003 -7.9220862E-003 0.0  1.1855119E-002 -1.7618732E-003 0.0  3.7136105E-002  1.3058454E-002 0.0  1.6367253E-003 -3.8755475E-003 0.0  3.0335023E-002 -6.1995746E-003 0.0  2.2468508E-002 -1.1012547E-002 0.0  2.8239665E-002  4.3759557E-003 0.0  3.6028006E-002 -1.2851440E-002 0.0  2.5886894E-002  2.5275781E-003 0.0  4.1746465E-004 -7.1382639E-004 0.0  3.2627447E-002  9.6245723E-003 0.0  1.1238455E-002 -3.2495098E-003 0.0  1.2758244E-002 -4.2127006E-004 0.0  1.9102115E-002 -3.2354674E-003 0.0  2.4192171E-002 -2.7099623E-003 0.0  7.8454588E-003 -1.4806939E-003 0.0  9.5000009E-003 -8.4751308E-004 0.0  2.8685118E-002 -1.5221786E-004 0.0  2.8237956E-002 -8.3292242E-004 0.0  2.7865377E-002 -1.6880074E-003 0.0  2.5503862E-002  1.2237418E-002 0.0  2.6690314E-002 -1.3273066E-003 0.0  2.0038419E-002 -8.5857922E-003 0.0  2.2938092E-002 -8.8861984E-004 0.0  1.6740942E-002 -6.8356104E-003 0.0  2.8078763E-002 -2.4005618E-003 0.0  2.5386326E-002  1.2929480E-003 0.0  1.5243601E-002 -3.9160780E-004 0.0  2.2871688E-003 -3.0927907E-003 0.0  2.1664579E-002 -2.7839580E-003 0.0  4.0635402E-003 -4.5490563E-003 0.0  2.8242179E-002  1.1772274E-003 0.0  5.6202169E-003 -7.3536280E-003 0.0  2.7100969E-002  1.3319337E-002 0.0  1.7392412E-002 -3.8306927E-003 0.0  2.2776295E-002 -5.7536433E-003 0.0  1.7444276E-002 -1.3999690E-003 0.0  2.7566351E-002 -5.1473887E-004 0.0  3.9630763E-002 -1.0914966E-002 0.0  1.9085650E-002 -4.1401288E-003 0.0  4.0380326E-002  3.4049491E-003 0.0  2.5665932E-002 -5.7209492E-003 0.0  7.2627069E-003 -7.4743166E-003 0.0  4.5540705E-004 -1.7372868E-003 0.0  1.1420541E-002 -6.9420254E-003 0.0  1.4573821E-002 -8.0958782E-004 0.0  4.1797392E-002  5.7020229E-003 0.0  2.2924204E-002 -1.4526821E-003 0.0  2.5370203E-002  1.0678725E-002 0.0  1.6594395E-002 -3.4543800E-003 0.0  4.2783188E-002 -4.9762495E-003 0.0  2.3269984E-003 -4.0507402E-004 0.0  7.0389478E-003 -8.1219005E-004 0.0  1.3250000E-002 -3.7355512E-004 0.0  1.2500106E-002 -3.2135503E-003 0.0  9.3682988E-003 -6.4852465E-003 0.0  9.0580271E-003 -7.6808051E-003 0.0  2.0954356E-002 -6.1895990E-003 0.0  2.5381941E-002  3.2478195E-003 0.0  2.8689472E-002  1.7230484E-003 0.0  1.4643205E-002 -6.4370584E-003 0.0  2.8793436E-002 -5.5195581E-003 0.0  1.1901579E-002 -3.7021129E-003 0.0  1.8337983E-002 -3.7937122E-004 0.0  2.7661985E-003 -3.2404290E-004 0.0  3.2764873E-002 -2.8926306E-003 0.0  2.5815567E-002  8.0000001E-003 0.0  3.0871409E-002  1.2718796E-002 0.0  2.1259172E-002 -7.4183057E-003 0.0  3.8980859E-002 -2.4160421E-003 0.0  3.1174165E-002 -4.8205882E-003 0.0  2.5418674E-002  2.7440573E-003 0.0  4.1115279E-002 -1.3063770E-002 0.0  3.6373926E-002  5.4683793E-003 0.0  5.8190555E-002 -8.4501306E-003 0.0  1.2360641E-002 -2.1645836E-003 0.0  3.0664856E-002  1.0921125E-002 0.0  2.7163801E-002  9.4838664E-003 0.0  2.3726700E-002 -3.7045155E-004 0.0  2.0976358E-003 -6.5431607E-003 0.0  3.1411134E-002  9.0280622E-003 0.0  2.2476845E-002 -7.5128212E-004 0.0  1.0050440E-002 -8.4357011E-004 0.0  2.5775896E-002  6.9167694E-003 0.0  2.6451373E-002  2.3950251E-003 0.0  2.5768379E-002  1.0011047E-002 0.0  3.6231253E-002 -4.6278264E-003 0.0  3.3671683E-002  7.7879812E-003 0.0  2.8867244E-002  1.0177603E-003 0.0  1.0167615E-002 -7.1370974E-003 0.0  2.8170000E-002  7.9487452E-003 0.0  2.7592747E-002 -1.1246338E-002 0.0  5.8357491E-002 -3.6918414E-003 0.0  1.3743007E-002 -1.1155953E-002 0.0  3.0303581E-002  2.1021256E-003 0.0  3.0876085E-002  2.8418994E-003 0.0  1.9092554E-002 -7.7125023E-003 0.0  2.3041284E-002 -2.0037887E-003 0.0  4.0081621E-003 -1.7234363E-003 0.0  3.7267095E-003 -1.2794736E-003 0.0  2.5950425E-002  1.1666509E-002 0.0  5.5017168E-003 -2.0754925E-003 0.0  1.4453963E-002 -1.2839409E-003 0.0  6.3099704E-003 -1.3261472E-002 0.0  7.5783041E-003 -1.1067193E-002 0.0  4.1494772E-002  1.3258160E-002 0.0  1.0500001E-002 -7.7694787E-004 0.0  1.1282400E-002 -3.2802186E-004 0.0  1.0121368E-003 -6.0879869E-003 0.0  3.9856692E-003 -8.1988332E-004 0.0  3.4413195E-002  4.5386735E-003 0.0  5.8396436E-002  1.1376678E-003 0.0  2.9285249E-002  3.9064252E-004 0.0  5.6212064E-002  5.0270778E-003 0.0  1.1962112E-002 -7.4487032E-004 0.0  5.5269452E-002  1.1367964E-002 0.0  4.4012875E-002 -7.0675483E-003 0.0  2.5684464E-002  1.4347272E-002 0.0  2.7134963E-002 -1.6979883E-003 0.0  2.5347856E-002 -2.0251156E-004 0.0  4.4749498E-003 -7.9653478E-004 0.0  3.7663350E-002  1.1280543E-002 0.0  2.8997485E-002  5.5224121E-003 0.0  2.8700471E-002  6.1558970E-003 0.0  2.5317431E-002  1.7500001E-003 0.0  2.5784476E-002  8.9915786E-003 0.0  8.2161292E-003 -2.3743962E-003 0.0  2.5769154E-002  4.4999995E-003 0.0  7.5412079E-003 -3.4909691E-003 0.0  4.0480845E-002 -4.6984406E-003 0.0  5.3090004E-002  1.1232760E-002 0.0  5.8169873E-002 -1.3169873E-002 0.0  5.0000014E-003 -7.5848950E-004 0.0  2.6739674E-002 -2.3999796E-003 0.0  2.5776639E-002  6.5464356E-003 0.0  2.0747670E-002 -3.1039551E-004 0.0  8.4729281E-004 -1.3462641E-003 0.0  4.5154523E-002  1.1784656E-002 0.0  5.0728568E-002  1.1227035E-002 0.0  1.8271878E-002 -4.1692535E-003 0.0  1.7636245E-002 -3.6733601E-004 0.0  1.2251336E-002 -2.6733231E-003 0.0  1.9000000E-002 -7.4991331E-004 0.0  5.8307723E-002  1.3307458E-002 0.0  2.5294683E-002  5.7500003E-003 0.0  1.4383896E-002 -1.7540558E-003 0.0  1.6174604E-003 -1.3382321E-002 0.0  3.2671073E-002  6.9796013E-003 0.0  1.9917844E-002 -8.2210353E-004 0.0  4.8370967E-002  1.1289486E-002 0.0  2.8826090E-002 -2.5645500E-003 0.0  3.5580160E-004 -3.4921912E-004 0.0  1.3509889E-002 -7.2891742E-004 0.0  8.4677140E-003 -7.7499987E-004 0.0  1.8501643E-002 -8.9754062E-003 0.0  2.5838661E-002  6.6593357E-004 0.0  3.2862767E-002 -4.6014543E-003 0.0  5.6184022E-002  9.6274575E-003 0.0  1.5024158E-002 -7.1273319E-004 0.0  3.1940347E-002  1.0743555E-002 0.0  2.7860724E-002  9.4432456E-003 0.0  1.7419771E-002 -1.9414678E-003 0.0  4.7620106E-002 -1.1311916E-002 0.0  1.9901126E-002 -1.3330743E-003 0.0  9.8734452E-003 -1.3599288E-003 0.0  2.7665639E-002 -1.0883631E-003 0.0  2.9257020E-002 -6.7275921E-003 0.0  2.1574657E-002 -7.7411298E-004 0.0  1.5953543E-002 -7.3657745E-004 0.0  7.5000012E-003 -7.2993440E-004 0.0  4.5073798E-002 -8.7117183E-003 0.0  2.2000000E-002 -7.2720474E-004 0.0  2.6997758E-002  2.2706031E-003 0.0  1.1161434E-003 -3.4179270E-003 0.0  3.0000000E-002 -1.1499522E-002 0.0  4.6064671E-003 -5.2070499E-003 0.0  2.1905890E-002 -6.4034248E-003 0.0  4.4795162E-002  1.3365692E-002 0.0  7.5260583E-003 -4.0527785E-003 0.0  2.3393732E-002 -7.6760884E-004 0.0  2.4551519E-002 -3.3403048E-003 0.0  2.9409300E-002 -1.6173804E-003 0.0  2.8989916E-002  4.3350506E-003 0.0  3.1416366E-002  1.9810291E-003 0.0  2.3671871E-002 -2.9073060E-003 0.0  3.7635316E-003 -2.1894187E-003 0.0  4.1021041E-002  1.1632642E-002 0.0  4.9902921E-002 -1.1456007E-002 0.0  2.1873766E-002 -3.4267535E-003 0.0  2.7176178E-002 -3.0341507E-003 0.0  2.9125003E-002  6.6953675E-003 0.0  8.1350841E-003 -3.2963986E-003 0.0  1.5317264E-002 -3.3901104E-003 0.0  2.8311011E-002  8.8952071E-003 0.0  2.5736943E-002 -6.9679598E-003 0.0  5.8969011E-003 -2.5157237E-003 0.0  2.5710779E-002  3.4936642E-003 0.0  2.8149385E-002  9.9179080E-003 0.0  2.7506111E-003  1.0469526E-002 0.0  5.8035258E-004  1.2583335E-002 0.0  4.4209381E-003  1.2607063E-002 0.0  7.6063241E-004  1.4221375E-002 0.0  1.8238814E-003  1.0409638E-002 0.0  3.7773397E-003  1.0385745E-002 0.0  4.2236009E-003  1.4246156E-002 0.0  3.9519523E-003  1.6614725E-002 0.0  3.9835126E-003  1.2682939E-001 0.0  3.8980518E-003  1.0842917E-001 0.0  3.9236597E-003  9.4655894E-002 0.0  1.0243798E-003  8.8453373E-002 0.0  3.9236597E-003  1.0209402E-001 0.0  1.0608920E-003  1.2331154E-001 0.0  1.0763403E-003  1.2070005E-001 0.0  3.9259572E-003  1.1573773E-001 0.0  1.1019482E-003  1.1214976E-001 0.0  3.8374931E-003  9.9611511E-002 0.0  1.1031562E-003  1.0444331E-001 0.0  3.9236597E-003  8.4731249E-002 0.0  3.9236597E-003  7.7293125E-002 0.0  1.0257890E-003  7.9771989E-002 0.0  3.8968438E-003  1.1835075E-001 0.0  1.1031562E-003  6.6262445E-002 0.0  3.8371569E-003  6.9850325E-002 0.0  1.0763403E-003  9.0935300E-002 0.0  1.0827180E-003  5.6185984E-002 0.0  1.0257890E-003  3.1404274E-002 0.0  1.0785844E-003  9.7123539E-002 0.0  1.0957418E-003  8.2345127E-002 0.0  1.0827180E-003  7.2353048E-002 0.0  1.1031562E-003  7.4678566E-002 0.0  1.0830294E-003  1.9000213E-002 0.0  1.0254079E-003  2.2723708E-002 0.0  1.0830283E-003  4.8745323E-002 0.0  1.0593630E-003  6.2272548E-002 0.0  1.1031562E-003  5.3860467E-002 0.0  1.1031562E-003  6.0061456E-002 0.0  1.0257890E-003  4.3806252E-002 0.0  1.1019482E-003  4.6419280E-002 0.0  3.9742110E-003  5.1247439E-002 0.0  1.1012630E-003  3.8708790E-002 0.0  1.0608920E-003  3.6497698E-002 0.0  1.0763403E-003  3.3886201E-002 0.0  1.0763403E-003  4.1327388E-002 0.0  1.0827180E-003  2.7661435E-002 0.0  1.1019482E-003  2.5335917E-002 0.0  5.4484069E-004  1.1284085E-002 0.0  3.9096754E-003  2.1384054E-002 0.0  3.8371569E-003  3.0164158E-002 0.0  3.8381012E-003  5.8686013E-002 0.0  3.9742110E-003  8.7213176E-002 0.0  3.8375726E-003  6.4886203E-002 0.0  1.0763403E-003  1.0953520E-001 0.0  1.0492263E-003  1.2564333E-001 0.0  1.0257890E-003  1.1697792E-001 0.0  3.9236597E-003  1.2441758E-001 0.0  1.0740428E-003  1.0705634E-001 0.0  1.1012630E-003  1.1436086E-001 0.0  1.0593630E-003  9.3550836E-002 0.0  3.9742110E-003  1.0581614E-001 0.0  3.8995572E-003  1.2180608E-001 0.0  1.1022326E-003  1.0098943E-001 0.0  3.9236597E-003  1.1325580E-001 0.0  3.9406370E-003  8.9830243E-002 0.0  3.9406370E-003  1.1064026E-001 0.0  3.9751281E-003  8.1012658E-002 0.0  1.1024710E-003  8.5836306E-002 0.0  3.9236597E-003  7.3572531E-002 0.0  1.1024710E-003  6.8473537E-002 0.0  3.9236597E-003  6.7368479E-002 0.0  3.8980518E-003  9.2041335E-002 0.0  3.9236597E-003  6.1167490E-002 0.0  3.9236597E-003  5.4966501E-002 0.0  3.9236597E-003  4.7525315E-002 0.0  3.9259572E-003  4.5046450E-002 0.0  3.9406370E-003  4.0222330E-002 0.0  3.8968438E-003  4.2433423E-002 0.0  3.9236597E-003  3.7603732E-002 0.0  3.8975290E-003  3.2781144E-002 0.0  3.9259572E-003  2.3963088E-002 0.0  3.8995572E-003  3.4992236E-002 0.0  3.9236597E-003  2.6441952E-002 0.0  4.5247654E-003  1.1253613E-002 0.0  1.0100599E-003  1.6529289E-002 0.0  3.9411220E-003  1.8999976E-002 0.0  1.0257890E-003  5.1247439E-002 0.0  1.1634512E-003  7.7292542E-002 0.0  3.9259572E-003  9.7134758E-002 0.0  1.9236182E-003  1.2894554E-001 0.0  7.2220803E-004  1.0402311E-002 0.0  4.0856025E-003  1.5318620E-002 0.0  3.2576097E-003  1.4667343E-002 0.0  3.4633718E-003  1.3586430E-002 0.0  2.5133127E-003  1.4025308E-002 0.0  2.6254299E-003  1.3143924E-002 0.0  2.2897072E-003  1.5011224E-002 0.0  1.8680933E-003  1.3450939E-002 0.0  1.9884141E-003  1.2644769E-002 0.0  2.6632257E-003  1.2370488E-002 0.0  2.0919655E-003  1.1943518E-002 0.0  2.6908968E-003  1.1681195E-002 0.0  3.2393579E-003  1.2038175E-002 0.0  3.3039711E-003  1.1322504E-002 0.0  2.1707377E-003  1.1293106E-002 0.0  1.5829087E-003  1.1536252E-002 0.0  3.7781836E-003  1.1737250E-002 0.0  3.7989055E-003  1.1155408E-002 0.0  2.7408923E-003  1.1050733E-002 0.0  3.1690404E-003  1.0803434E-002 0.0  3.2798430E-003  1.2725313E-002 0.0  2.2337512E-003  1.0753212E-002 0.0  1.4779099E-003  1.2150138E-002 0.0  1.0237484E-003  1.1703435E-002 0.0  1.1471680E-003  1.1130018E-002 0.0  1.2516800E-003  1.2871596E-002 0.0  1.1024341E-003  1.5251597E-002 0.0  6.3333351E-004  1.3353225E-002 0.0  4.5582190E-003  1.0730721E-002 0.0  4.3492758E-003  1.3349647E-002 0.0  4.3688923E-003  1.1888586E-002 0.0  3.1221776E-003  1.2895509E-001 0.0  2.5343725E-003  1.2795443E-001 0.0  1.1564851E-003  1.2798536E-001 0.0  1.9557452E-003  1.2680309E-001 0.0  1.0671223E-003  1.7755617E-002 0.0  2.0842069E-003  1.7187604E-002 0.0  2.0954435E-003  1.8378565E-002 0.0  2.1053566E-003  1.9621153E-002 0.0  3.2071062E-003  1.7762362E-002 0.0  1.0726429E-003  2.0243644E-002 0.0  2.1798757E-003  2.0990945E-002 0.0  3.2536116E-003  2.0235303E-002 0.0  1.0767233E-003  1.1945704E-001 0.0  2.1560261E-003  1.2007845E-001 0.0  2.1871793E-003  1.2145196E-001 0.0  2.1829990E-003  1.1870492E-001 0.0  3.2375064E-003  1.2070588E-001 0.0  3.1564772E-003  1.1934695E-001 0.0  3.9232767E-003  2.7684957E-002 0.0  2.8953941E-003  2.7063409E-002 0.0  2.9340726E-003  2.8233498E-002 0.0  2.8225157E-003  2.5690016E-002 0.0  1.7624936E-003  2.6436123E-002 0.0  1.0740428E-003  1.1573773E-001 0.0  2.1565746E-003  1.1635782E-001 0.0  1.0803828E-003  4.0063136E-002 0.0  2.1239536E-003  4.0759891E-002 0.0  2.1712252E-003  4.2049350E-002 0.0  3.2375064E-003  4.1333217E-002 0.0  1.0181297E-003  3.2644727E-002 0.0  2.1752642E-003  3.3137054E-002 0.0  2.1899276E-003  3.4619896E-002 0.0  3.2375064E-003  3.3892030E-002 0.0  1.0675689E-003  8.9693826E-002 0.0  2.1218180E-003  9.0371599E-002 0.0  2.1799432E-003  9.1695487E-002 0.0  3.2227043E-003  9.0953201E-002 0.0  3.9232767E-003  4.8768320E-002 0.0  2.8953941E-003  4.8146771E-002 0.0  2.8691422E-003  4.9522950E-002 0.0  2.8225157E-003  4.6773379E-002 0.0  1.7624936E-003  4.7519486E-002 0.0  3.9730373E-003  1.1449727E-001 0.0  2.8215882E-003  1.1400495E-001 0.0  2.8119720E-003  1.1252210E-001 0.0  1.7624936E-003  1.1324997E-001 0.0  1.0804970E-003  1.1079878E-001 0.0  2.1239727E-003  1.1010259E-001 0.0  2.1802510E-003  1.0877554E-001 0.0  3.2228837E-003  1.0951761E-001 0.0  3.9232767E-003  5.6209507E-002 0.0  2.8953941E-003  5.5587958E-002 0.0  2.9340726E-003  5.6758047E-002 0.0  2.8244014E-003  5.4214566E-002 0.0  1.7624936E-003  5.4960672E-002 0.0  3.9818703E-003  8.5972723E-002 0.0  2.8247358E-003  8.5480397E-002 0.0  2.8421486E-003  8.4126436E-002 0.0  1.7624936E-003  8.4725420E-002 0.0  1.8245317E-003  8.3411566E-002 0.0  2.8272705E-003  8.2729807E-002 0.0  3.9839091E-003  8.8476152E-002 0.0  2.8434254E-003  8.7833275E-002 0.0  3.9232767E-003  1.0333702E-001 0.0  2.8436940E-003  1.0271643E-001 0.0  2.8627372E-003  1.0149562E-001 0.0  2.8169610E-003  1.0408927E-001 0.0  1.8431281E-003  1.0344781E-001 0.0  1.7356404E-003  1.0217954E-001 0.0  1.0222499E-003  8.7190397E-002 0.0  2.1435171E-003  8.6602705E-002 0.0  3.9401727E-003  6.8556138E-002 0.0  2.8434254E-003  6.7990110E-002 0.0  2.8629324E-003  6.6769613E-002 0.0  1.7624936E-003  6.7362651E-002 0.0  3.9195030E-003  9.3392315E-002 0.0  2.8760273E-003  9.4088509E-002 0.0  2.8514239E-003  9.5288605E-002 0.0  1.7215767E-003  9.4733137E-002 0.0  1.8915494E-003  9.6114861E-002 0.0  3.9483794E-003  1.2564737E-001 0.0  2.9183412E-003  1.2504458E-001 0.0  2.8916126E-003  1.2385104E-001 0.0  1.7773987E-003  1.2443419E-001 0.0  1.0810386E-003  9.9635968E-002 0.0  2.0442320E-003  1.0015587E-001 0.0  2.0206256E-003  9.9084731E-002 0.0  1.0811926E-003  6.4910189E-002 0.0  2.0447068E-003  6.5429194E-002 0.0  2.1249046E-003  6.4125533E-002 0.0  1.0810784E-003  6.9829159E-002 0.0  2.0426725E-003  6.9304639E-002 0.0  2.0213492E-003  7.0377099E-002 0.0  3.9754839E-003  3.8867985E-002 0.0  2.8219377E-003  3.8356134E-002 0.0  2.8755454E-003  3.7058092E-002 0.0  1.7832256E-003  3.7622151E-002 0.0  3.9232767E-003  7.2329526E-002 0.0  2.8953941E-003  7.2951074E-002 0.0  2.8244014E-003  7.4324467E-002 0.0  1.7624936E-003  7.3578360E-002 0.0  2.9340726E-003  7.1780985E-002 0.0  3.9738280E-003  7.6051651E-002 0.0  2.8690730E-003  7.6539300E-002 0.0  2.8654367E-003  7.8028676E-002 0.0  3.9824061E-003  7.9772067E-002 0.0  2.8434254E-003  8.0392088E-002 0.0  3.9205913E-003  8.3470840E-002 0.0  3.9773958E-003  1.0459839E-001 0.0  3.9702417E-003  1.1197491E-001 0.0  1.0514971E-003  7.8585762E-002 0.0  2.1436817E-003  7.9170254E-002 0.0  3.9259572E-003  1.0705634E-001 0.0  2.8434254E-003  1.0643624E-001 0.0  3.9822533E-003  5.2487637E-002 0.0  2.8434254E-003  5.1867538E-002 0.0  3.9421333E-003  6.3595305E-002 0.0  3.9268499E-003  6.2399946E-002 0.0  2.8772518E-003  6.1729688E-002 0.0  2.8643999E-003  6.0566045E-002 0.0  1.7624936E-003  6.1161662E-002 0.0  3.9860926E-003  5.0030089E-002 0.0  3.9560899E-003  5.7383880E-002 0.0  1.0811926E-003  5.8709200E-002 0.0  2.0447068E-003  5.9228205E-002 0.0  2.0217073E-003  5.8160790E-002 0.0  1.0225990E-003  5.2509742E-002 0.0  2.1437215E-003  5.3097210E-002 0.0  1.0205714E-003  4.2583542E-002 0.0  1.0740428E-003  2.3963088E-002 0.0  2.1565746E-003  2.3342989E-002 0.0  1.0213632E-003  8.1027644E-002 0.0  2.1565746E-003  8.1632286E-002 0.0  1.0643980E-003  7.5975647E-002 0.0  2.1397321E-003  7.5408276E-002 0.0  1.0200465E-003  6.3606071E-002 0.0  3.9449274E-003  5.9981645E-002 0.0  3.9259572E-003  3.6365066E-002 0.0  1.0240882E-003  5.7516138E-002 0.0  3.9259572E-003  1.2317891E-001 0.0  1.0229259E-003  9.8442497E-002 0.0  1.0284109E-003  9.2220604E-002 0.0  1.0682980E-003  3.0162545E-002 0.0  2.1297234E-003  3.0916406E-002 0.0  2.0679145E-003  2.9629951E-002 0.0  3.9800401E-003  5.3705352E-002 0.0  1.0740428E-003  1.0829654E-001 0.0  3.9693587E-003  1.1700003E-001 0.0  2.8434254E-003  1.1759802E-001 0.0  3.9445948E-003  6.6182931E-002 0.0  3.9559325E-003  7.1154703E-002 0.0  3.9786359E-003  7.4833723E-002 0.0  3.9869047E-003  7.8551557E-002 0.0  3.9406180E-003  9.8320536E-002 0.0  2.9295829E-003  9.7672534E-002 0.0  1.0380933E-003  5.0057434E-002 0.0  2.1380196E-003  5.0653833E-002 0.0  1.0740428E-003  4.5046450E-002 0.0  2.1565746E-003  4.4426351E-002 0.0  3.9445490E-003  1.0090851E-001 0.0  3.9693587E-003  4.3784147E-002 0.0  2.8434254E-003  4.3186154E-002 0.0  3.9259572E-003  4.6286648E-002 0.0  1.0240095E-003  7.1022592E-002 0.0  3.9259572E-003  9.5894560E-002 0.0  1.0296403E-003  2.8986856E-002 0.0  3.9358176E-003  3.1480868E-002 0.0  2.8606923E-003  3.2049876E-002 0.0  1.0313141E-003  3.5166416E-002 0.0  1.0306413E-003  1.0579404E-001 0.0  2.1565746E-003  1.0519604E-001 0.0  3.9559325E-003  2.8859780E-002 0.0  3.9714973E-003  2.2706450E-002 0.0  2.8574120E-003  2.2113746E-002 0.0  3.9259572E-003  2.5203285E-002 0.0  1.0308561E-003  1.2198330E-001 0.0  1.0225975E-003  1.1819569E-001 0.0  3.9304692E-003  8.2252384E-002 0.0  2.0721600E-003  1.1500352E-001 0.0  2.1572056E-003  8.9040233E-002 0.0  2.8518811E-003  9.2794066E-002 0.0  2.8426657E-003  6.3018266E-002 0.0  2.1481189E-003  3.9465560E-002 0.0  2.1601730E-003  1.1139555E-001 0.0  2.0729230E-003  2.4694502E-002 0.0  2.9274064E-003  1.0778684E-001 0.0  2.0729230E-003  4.5777864E-002 0.0  1.2392525E-003  1.0537899E-002 0.0  1.0213679E-003  2.1504511E-002 0.0  1.6901219E-003  1.0952223E-002 0.0  2.9322520E-003  9.6539229E-002 0.0  2.8482635E-003  1.2256156E-001 0.0  2.8416305E-003  3.5749006E-002 0.0  3.0967236E-003  1.5740537E-002 0.0  3.8284134E-003  1.2803742E-001 0.0  1.6354909E-003  1.4300119E-002 0.0  4.0388797E-004  1.0758698E-002 0.0  2.9951227E-003  1.2620062E-001 0.0  5.1359116E-004  1.1935857E-002 0.0  4.2501588E-003  1.0385303E-002 0.0  3.7809511E-003  1.2331799E-002 0.0  2.0735400E-003  1.6065302E-002 0.0  3.2700640E-003  1.0381819E-002 0.0  8.3229133E-004  1.2684616E-001 0.0  4.0932437E-003  1.0879838E-002 0.0  2.1147018E-003  1.2567239E-001 0.0  1.8288599E-003  3.5743386E-002 0.0  1.8607250E-003  1.2255881E-001 0.0  2.2500000E-003  1.0321877E-002 0.0  9.0915740E-004  8.3700010E-002 0.0  9.1064797E-004  9.5735837E-002 0.0  1.9915404E-003  1.0746462E-001 0.0  3.0089756E-003  2.4372811E-002 0.0  3.0089756E-003  4.5456174E-002 0.0  3.1749331E-003  3.9465433E-002 0.0  3.1558596E-003  1.1139679E-001 0.0  1.8404962E-003  6.3027018E-002 0.0  3.1805045E-003  8.9049951E-002 0.0  1.8548186E-003  9.2794066E-002 0.0  3.0165405E-003  1.1532652E-001 0.0  4.2270043E-003  1.7762098E-002 0.0  2.8910281E-003  3.0176328E-002 0.0  2.1104267E-003  5.6152324E-002 0.0  2.8620442E-003  9.9610680E-002 0.0  2.0696986E-003  7.7298168E-002 0.0  2.8626995E-003  5.8685141E-002 0.0  2.8616845E-003  6.9850943E-002 0.0  2.1104267E-003  7.2386708E-002 0.0  2.9009631E-003  6.4871985E-002 0.0  2.1146452E-003  4.8728910E-002 0.0  2.1104267E-003  2.7627775E-002 0.0  7.7217732E-004  6.7370011E-002 0.0  7.5482439E-004  8.4745459E-002 0.0  7.3831752E-004  9.4665707E-002 0.0  4.2278227E-003  9.0933769E-002 0.0  7.7217732E-004  4.7526846E-002 0.0  4.2278227E-003  3.3884670E-002 0.0  7.7217732E-004  6.1169022E-002 0.0  7.7217732E-004  1.1325733E-001 0.0  7.7750340E-004  1.2444546E-001 0.0  7.7217732E-004  7.3571000E-002 0.0  7.7217732E-004  5.4968033E-002 0.0  4.2278227E-003  1.0953674E-001 0.0  8.6971787E-004  1.0319565E-001 0.0  4.2278227E-003  4.1325857E-002 0.0  7.7217732E-004  2.6443483E-002 0.0  4.0864417E-003  1.1966979E-001 0.0  7.7217732E-004  3.7605263E-002 0.0  4.2447011E-003  1.2071576E-001 0.0  2.1578551E-003  9.7102199E-002 0.0  3.1465736E-003  8.1603845E-002 0.0  7.4151818E-004  1.0211114E-001 0.0  1.8462771E-003  1.1756688E-001 0.0  3.1823713E-003  1.1640402E-001 0.0  3.1808583E-003  4.4379855E-002 0.0  1.8419197E-003  3.2030468E-002 0.0  1.8435171E-003  4.3210330E-002 0.0  3.1537136E-003  1.0522722E-001 0.0  3.1840833E-003  2.3299817E-002 0.0  3.1547683E-003  5.3074461E-002 0.0  3.1621782E-003  5.0664370E-002 0.0  3.1571341E-003  7.5431483E-002 0.0  1.8381668E-003  8.0398852E-002 0.0  1.8192449E-003  1.0638946E-001 0.0  3.1643709E-003  7.9182928E-002 0.0  1.8347109E-003  5.1875153E-002 0.0  1.8381555E-003  8.7823997E-002 0.0  3.1535519E-003  8.6620455E-002 0.0  1.8481276E-003  2.2135180E-002 0.0  2.9205280E-003  1.8999472E-002 0.0  4.2368818E-003  2.0242494E-002 0.0  4.0832910E-003  1.2908589E-001 0.0  9.1670899E-004  1.2908589E-001 0.0  3.8818515E-003  1.2905489E-002 0.0  3.6567295E-004  1.0366229E-002 0.0  8.1251543E-004  1.0830125E-002 0.0  4.6374039E-003  1.0363165E-002 0.0  2.9201071E-003  1.6684738E-002 0.0  9.5892750E-004  1.2240019E-002 0.0  4.1099763E-003  1.1451998E-002 0.0  3.0427480E-003  3.2965026E-002 0.0  2.9601618E-003  4.0296604E-002 0.0  1.9579410E-003  3.8527414E-002 0.0  2.0408982E-003  6.2195591E-002 0.0  2.0055181E-003  6.8313954E-002 0.0  2.9245739E-003  8.9849045E-002 0.0  1.9565055E-003  8.5656216E-002 0.0  1.9520084E-003  1.1416829E-001 0.0  2.0382405E-003  9.3635346E-002 0.0  2.9207052E-003  1.1061056E-001 0.0  2.0288731E-003  1.0113819E-001 0.0  1.9715342E-003  8.2537864E-002 0.0  2.9948762E-003  6.8933076E-002 0.0  3.1308837E-003  3.0957527E-002 0.0  1.8612706E-003  7.6502787E-002 0.0  1.9574458E-003  7.4497417E-002 0.0  2.0503574E-003  1.2338662E-001 0.0  3.0503140E-003  1.0861991E-001 0.0  1.9686162E-003  1.0427753E-001 0.0  3.0381451E-003  9.1871022E-002 0.0  1.9568050E-003  1.1233282E-001 0.0  2.0320723E-003  6.6402500E-002 0.0  2.0321793E-003  6.0201323E-002 0.0  3.0431772E-003  1.2162520E-001 0.0  1.9482158E-003  4.6612623E-002 0.0  1.9584432E-003  5.4033229E-002 0.0  3.0313284E-003  1.1851664E-001 0.0  3.0431950E-003  3.4809183E-002 0.0  3.0410285E-003  4.2250430E-002 0.0  2.0780307E-003  3.6534066E-002 0.0  1.9482158E-003  2.5529261E-002 0.0  1.8485857E-003  4.9541690E-002 0.0  1.8885859E-003  7.8120648E-002 0.0  2.9959354E-003  9.8692086E-002 0.0  3.1032881E-003  6.4056257E-002 0.0  3.0020716E-003  1.0052008E-001 0.0  2.9891878E-003  6.5784789E-002 0.0  3.0025020E-003  5.9592772E-002 0.0  1.9853480E-003  9.8045806E-002 0.0  1.2155394E-003  1.3705740E-002 0.0  2.0024821E-003  2.8589782E-002 0.0  2.9936444E-003  2.9252429E-002 0.0  1.9980808E-003  5.7115269E-002 0.0  3.0024723E-003  5.7769379E-002 0.0  1.9980437E-003  7.1423640E-002 0.0  3.0023197E-003  7.0769206E-002 0.0  3.0501437E-003  2.1181012E-002 0.0  3.5687607E-003  1.0821458E-002 0.0  3.0755405E-003  1.2715771E-001 0.0  8.3729567E-002 -1.7153267E-002 0.0  5.6250000E-002 -1.7165064E-002 0.0  6.8490068E-002 -2.2790464E-002 0.0  4.3750000E-002 -2.2834936E-002 0.0  6.3750000E-002 -1.7165064E-002 0.0  2.6250000E-002 -2.2834936E-002 0.0  3.1250000E-002 -2.2834936E-002 0.0  3.8474218E-002 -1.7113088E-002 0.0  5.1053013E-002 -2.2807208E-002 0.0  7.3750000E-002 -1.7165064E-002 0.0  7.8750000E-002 -1.7165064E-002 0.0  2.1053013E-002 -1.7192792E-002 0.0  6.2500000E-003 -2.2834936E-002 0.0  1.6250000E-002 -2.2834936E-002 0.0  1.1250000E-002 -2.2940864E-002 0.0  6.1250000E-002 -2.2834936E-002 0.0  4.6250000E-002 -1.7165064E-002 0.0  3.6250000E-002 -2.2834936E-002 0.0  8.1250000E-002 -2.2834936E-002 0.0  3.3946987E-002 -1.7192792E-002 0.0  2.8750000E-002 -1.7165064E-002 0.0  8.4742177E-003 -1.7113088E-002 0.0  1.3946987E-002 -1.7192792E-002 0.0  7.6509932E-002 -2.2790464E-002 0.0  5.6250000E-002 -2.2834936E-002 0.0  5.1446987E-002 -1.7192792E-002 0.0  6.8946987E-002 -1.7192792E-002 0.0  2.1509932E-002 -2.2790464E-002 0.0  8.6012174E-002 -2.2886904E-002 0.0  1.9626839E-003 -1.8561823E-002 0.0  8.7601803E-002 -1.8975328E-002 0.0  8.1246595E-002 -1.7163097E-002 0.0  8.2496027E-002 -1.9221905E-002 0.0  8.4952405E-002 -1.9147555E-002 0.0  8.3674319E-002 -2.1338112E-002 0.0  7.9998770E-002 -1.9205835E-002 0.0  7.7554178E-002 -1.9288928E-002 0.0  7.8750000E-002 -2.1495191E-002 0.0  6.1250000E-002 -1.7165064E-002 0.0  6.2500000E-002 -1.9224199E-002 0.0  6.5000000E-002 -1.9312472E-002 0.0  6.0208333E-002 -1.9068992E-002 0.0  6.3750000E-002 -2.1495191E-002 0.0  6.6448874E-002 -2.1315472E-002 0.0  4.3750000E-002 -1.7165064E-002 0.0  4.5000000E-002 -1.9224199E-002 0.0  4.7500000E-002 -1.9312472E-002 0.0  4.2224218E-002 -1.9263018E-002 0.0  4.6250000E-002 -2.1495191E-002 0.0  4.8887971E-002 -2.1371609E-002 0.0  7.1206678E-002 -2.2827524E-002 0.0  7.0045888E-002 -2.0701711E-002 0.0  7.2500428E-002 -2.0779872E-002 0.0  7.1250000E-002 -1.8504809E-002 0.0  3.8750000E-002 -2.2834936E-002 0.0  3.7386587E-002 -2.0735352E-002 0.0  3.5000000E-002 -2.0669873E-002 0.0  3.6250000E-002 -1.8504809E-002 0.0  3.9981401E-002 -2.0656267E-002 0.0  1.8793322E-002 -2.2827524E-002 0.0  1.7507220E-002 -2.0668638E-002 0.0  1.4741099E-002 -2.0625224E-002 0.0  1.6250000E-002 -1.8504809E-002 0.0  1.8888585E-002 -1.8626785E-002 0.0  3.1282831E-002 -1.7169685E-002 0.0  3.0005472E-002 -1.9224969E-002 0.0  2.7500912E-002 -1.9206673E-002 0.0  2.8750000E-002 -2.1495191E-002 0.0  3.2349374E-002 -1.9067916E-002 0.0  5.8636587E-002 -2.2900415E-002 0.0  5.7337689E-002 -2.0851583E-002 0.0  5.4972948E-002 -2.0806086E-002 0.0  4.1158073E-002 -1.7039288E-002 0.0  8.7500000E-003 -2.2852591E-002 0.0  1.0000000E-002 -2.0669873E-002 0.0  7.3865873E-003 -2.0738294E-002 0.0  4.9742154E-003 -2.0827486E-002 0.0  6.1967177E-003 -1.8541144E-002 0.0  3.7564481E-003 -2.2876155E-002 0.0  3.3863413E-002 -2.2900415E-002 0.0  1.1236868E-002 -1.7055094E-002 0.0  1.2500000E-002 -1.9330127E-002 0.0  2.3717169E-002 -1.7169685E-002 0.0  2.2577315E-002 -1.9259333E-002 0.0  2.5007566E-002 -1.9192595E-002 0.0  2.3750000E-002 -2.1495191E-002 0.0  1.3706850E-002 -2.2951077E-002 0.0  7.3750000E-002 -2.2834936E-002 0.0  7.4835060E-002 -2.0924275E-002 0.0  4.9891066E-002 -1.9218362E-002 0.0  5.3750000E-002 -2.2834936E-002 0.0  5.2587242E-002 -2.0749278E-002 0.0  5.3750000E-002 -1.8504809E-002 0.0  7.6372442E-002 -1.7092718E-002 0.0  5.8898135E-002 -1.7056062E-002 0.0  4.1133487E-002 -2.2898148E-002 0.0  6.6282831E-002 -1.7166742E-002 0.0  4.8764676E-002 -1.7148115E-002 0.0  6.7381608E-002 -1.9157984E-002 0.0  2.6247101E-002 -1.7134544E-002 0.0  1.9848018E-002 -2.0812307E-002 0.0  8.6158941E-002 -1.7017713E-002 0.0  8.7936259E-002 -2.1273071E-002 0.0  2.2961112E-003 -2.1022102E-002 0.0  3.9123696E-003 -1.7038662E-002 0.0  6.5823157E-002 -2.3178605E-002 0.0  8.3750000E-002 -2.3470503E-002 0.0  6.1361122E-002 -2.0772187E-002 0.0  1.8445428E-002 -1.6729128E-002 0.0  5.6141588E-002 -1.9220793E-002 0.0  5.3750000E-002 -1.6529497E-002 0.0  2.8750000E-002 -2.3470503E-002 0.0  4.3808748E-002 -2.0776018E-002 0.0  4.6250000E-002 -2.3560126E-002 0.0  3.1147903E-002 -2.0772144E-002 0.0  3.9993253E-002 -1.8657865E-002 0.0  6.3664631E-002 -2.3501746E-002 0.0  8.1233823E-002 -2.0819196E-002 0.0  2.6251696E-002 -2.0844917E-002 0.0  7.8750000E-002 -2.3470503E-002 0.0  3.6250000E-002 -1.6529497E-002 0.0  4.8323497E-002 -2.3205689E-002 0.0  7.1250000E-002 -1.6529497E-002 0.0  1.6228483E-002 -1.6485346E-002 0.0  1.2439590E-002 -2.1303433E-002 0.0  1.0056122E-002 -1.8613173E-002 0.0  2.3750000E-002 -2.3470503E-002 0.0  7.3645138E-002 -1.9227432E-002 0.0  6.2500000E-003 -1.6529497E-002 0.0  3.8684196E-003 -1.9198243E-002 0.0  1.8301270E-003 -2.3169873E-002 0.0  8.8169873E-002 -1.6830127E-002 0.0  8.8169873E-002 -2.3169873E-002 0.0  1.7803335E-003 -1.6766039E-002 0.0  8.6022772E-002 -2.0832517E-002 0.0  2.0706140E-002 -1.9149269E-002 0.0  5.8070049E-002 -1.9032696E-002 0.0  5.1827884E-002 -1.9063801E-002 0.0  4.2179571E-002 -2.1285678E-002 0.0  3.4356260E-002 -1.9002312E-002 0.0  5.9432219E-002 -2.0953738E-002 0.0  1.4359522E-002 -1.8913238E-002 0.0  7.6763549E-002 -2.0925893E-002 0.0  5.0712336E-002 -2.0867488E-002 0.0  3.3085586E-002 -2.0966753E-002 0.0  6.8227047E-002 -2.0935173E-002 0.0  6.9335662E-002 -1.9043751E-002 0.0  3.8417092E-002 -1.9133476E-002 0.0  2.1768051E-002 -2.0931028E-002 0.0  7.5581625E-002 -1.9022355E-002 0.0  8.4227289E-003 -1.9135114E-002 0.0  8.6250000E-002 -3.7834936E-002 0.0  8.1246903E-002 -3.7380817E-002 0.0  2.6254336E-002 -3.7588186E-002 0.0  3.1253097E-002 -3.7380817E-002 0.0  7.1250000E-002 -3.7617817E-002 0.0  7.6243930E-002 -3.7497323E-002 0.0  6.6256070E-002 -3.7497323E-002 0.0  3.6250000E-002 -3.7465207E-002 0.0  4.1246870E-002 -3.7380832E-002 0.0  6.1250000E-002 -3.7465207E-002 0.0  4.8746870E-002 -3.7380832E-002 0.0  5.6250000E-002 -3.7465207E-002 0.0  5.3743864E-002 -3.7539539E-002 0.0  4.6243343E-002 -3.7525476E-002 0.0  3.8749627E-002 -3.7554755E-002 0.0  3.3750369E-002 -3.7554753E-002 0.0  7.8748909E-002 -3.7558577E-002 0.0  5.8750000E-002 -3.7488402E-002 0.0  2.3750000E-002 -3.7165064E-002 0.0  6.3751012E-002 -3.7493755E-002 0.0  2.8751239E-002 -3.7494834E-002 0.0  7.3738871E-002 -3.7436035E-002 0.0  8.3749484E-002 -3.7535959E-002 0.0  6.8761129E-002 -3.7436035E-002 0.0  4.3748369E-002 -3.7484385E-002 0.0  5.1248456E-002 -3.7486728E-002 0.0  2.1643629E-002 -3.8165794E-002 0.0  8.8356371E-002 -3.6834206E-002 0.0  8.8550470E-002 -3.8555045E-002 0.0  2.1449530E-002 -3.6444955E-002 0.0  6.3303412E-003  1.2553907E-001 0.0  6.2268474E-003  1.0904464E-001 0.0  6.1576225E-003  9.5451633E-002 0.0  6.1947703E-003  8.3049654E-002 0.0  6.1576284E-003  7.1887874E-002 0.0  6.1947801E-003  6.1966292E-002 0.0  6.2268389E-003  5.1995555E-002 0.0  5.6389911E-002  1.7084286E-002 0.0  6.8249492E-003  4.0085659E-002 0.0  1.3385508E-002  1.7013043E-001 0.0  6.3201159E-003  1.1777519E-001 0.0  1.6185158E-002  1.0404763E-002 0.0  6.4713059E-003  3.2201544E-002 0.0  4.2769315E-002  1.7259049E-002 0.0  1.3750000E-002  1.0433013E-002 0.0  2.7797466E-002  1.5946281E-002 0.0  9.2725787E-002 -2.3414916E-002 0.0  9.2165064E-002 -3.6250000E-002 0.0  6.3936533E-003  1.0149461E-001 0.0  6.2938987E-003  8.9234736E-002 0.0  6.1576258E-003  4.5843720E-002 0.0  6.1947731E-003  2.6000555E-002 0.0  6.2691991E-002  1.3399461E-002 0.0  6.2673343E-002  1.7566176E-002 0.0  6.1141060E-003  2.1039764E-002 0.0  1.8740022E-002  1.0429212E-002 0.0  1.1693583E-002  1.0421726E-002 0.0  2.8117689E-001  1.1459615E-001 0.0  8.6289474E-002 -1.2192313E-002 0.0  2.8096694E-001  3.1558455E-002 0.0  6.2297305E-003  6.6927083E-002 0.0  6.2268431E-003  7.6897815E-002 0.0  6.1947831E-003  5.7005501E-002 0.0  2.8216263E-001  2.1434652E-001 0.0  1.4992290E-002  2.2096027E-001 0.0  9.8104646E-003  1.0429935E-002 0.0  2.0730718E-002  1.0455517E-002 0.0  2.8363488E-001 -2.5350641E-002 0.0  1.5109408E-001  3.4791607E-001 0.0  7.5750000E-002 -1.2865416E-002 0.0  4.6706155E-002 -4.2807706E-002 0.0  5.7857143E-002 -4.2272449E-002 0.0  7.0126215E-002 -4.2412500E-002 0.0  8.4166667E-002 -4.2651194E-002 0.0  3.5714286E-002 -4.2272451E-002 0.0  2.6875000E-002 -4.2636724E-002 0.0  6.1446596E-003  1.6557662E-002 0.0  3.2591773E-002  1.6802753E-002 0.0  6.6251494E-002  1.5648981E-002 0.0  6.6966253E-002  2.2242323E-002 0.0  2.4198068E-002  1.4506805E-002 0.0  2.4290450E-002  1.5522641E-002 0.0  8.3051890E-003  1.0450707E-002 0.0  1.7191637E-001 -1.1889982E-001 0.0  4.7909267E-003  1.4101648E-001 0.0  2.3249754E-002  1.4955770E-002 0.0  2.3287883E-002  1.6147668E-002 0.0  2.2182880E-002  1.5495045E-002 0.0  2.2151026E-002  1.6817190E-002 0.0  2.0906826E-002  1.5948679E-002 0.0  2.0794753E-002  1.7559392E-002 0.0  2.2155375E-002  1.8353666E-002 0.0  2.0578365E-002  1.9335836E-002 0.0  2.2398010E-002  2.0323657E-002 0.0  1.9613265E-002  1.6711272E-002 0.0  6.2807687E-002  1.6271920E-003 0.0  9.2886362E-002  3.4722016E-001 0.0  2.8291876E-001  2.7486408E-001 0.0  2.0427145E-002  2.1560391E-002 0.0  2.2909457E-002  2.2864020E-002 0.0  9.2336389E-002 -1.7430072E-002 0.0  9.2529647E-002 -1.3118523E-002 0.0  9.6206211E-002 -1.4620182E-002 0.0  9.6804839E-002 -8.7627417E-003 0.0  1.0467793E-001 -1.5170373E-002 0.0  1.0589287E-001 -5.5923122E-004 0.0  1.1947460E-001 -9.0874396E-003 0.0  1.2007415E-001  8.9439594E-003 0.0  4.8688389E-002  1.7168418E-002 0.0  2.2736879E-002  1.0427442E-002 0.0  6.2545080E-003  1.1414319E-001 0.0  6.1721809E-003  1.2167296E-001 0.0  6.4604052E-003  1.0517337E-001 0.0  6.8843231E-003  3.6365066E-002 0.0  5.6326238E-003  1.3304413E-002 0.0  1.3593378E-001 -1.4083726E-003 0.0  1.3666512E-001  1.8176986E-002 0.0  1.5346072E-001  7.6181521E-003 0.0  1.5414147E-001  2.7538219E-002 0.0  1.3713263E-001  3.8082101E-002 0.0  1.5478405E-001  4.7502404E-002 0.0  1.3779991E-001  5.8077414E-002 0.0  1.5544287E-001  6.7493835E-002 0.0  1.3846731E-001  7.8067775E-002 0.0  1.5612036E-001  8.7482297E-002 0.0  1.3913790E-001  9.8056814E-002 0.0  1.5679146E-001  1.0747107E-001 0.0  1.2125221E-001  8.8739456E-002 0.0  1.3980794E-001  1.1804564E-001 0.0  1.5744973E-001  1.2746026E-001 0.0  1.4092886E-001  1.3718522E-001 0.0  1.5819268E-001  1.4730757E-001 0.0  1.3806440E-001  1.5671069E-001 0.0  1.5828809E-001  1.6719548E-001 0.0  1.4141644E-001  1.7790139E-001 0.0  1.5930909E-001  1.8736777E-001 0.0  1.4241237E-001  1.9797197E-001 0.0  1.6009297E-001  2.0740073E-001 0.0  1.4319685E-001  2.1798036E-001 0.0  1.6080079E-001  2.2740014E-001 0.0  2.1031045E-001  3.4770946E-001 0.0  2.0034308E-002  2.4545637E-002 0.0  2.3477466E-002  2.6360437E-002 0.0  1.3920824E-002  2.7834596E-001 0.0  1.0706763E-001 -1.1567520E-001 0.0  1.1250000E-002 -2.7651207E-002 0.0  6.2807687E-002 -5.8728080E-003 0.0  1.4387258E-001  2.3797484E-001 0.0  1.7311003E-001  7.6897960E-002 0.0  1.7571654E-001  1.5674901E-001 0.0  2.4472101E-002  1.2272292E-002 0.0  2.2985234E-001 -1.1730889E-001 0.0  1.2160046E-001  1.8846709E-001 0.0  6.7346408E-003  1.0399992E-002 0.0  1.7107944E-001  1.6941912E-002 0.0  1.7036794E-001 -3.0619153E-003 0.0  1.6147780E-001  2.4739165E-001 0.0  5.3592782E-002 -1.1933833E-001 0.0  1.7844705E-001  2.3681773E-001 0.0  1.7640439E-002 -3.8898364E-002 0.0  4.5510900E-003  1.3112932E-001 0.0  1.3549083E-001 -1.9901770E-002 0.0  1.8802879E-001  6.3308158E-003 0.0  1.8732963E-001 -1.3659235E-002 0.0  1.4450305E-001  2.5796641E-001 0.0  1.2687148E-001  2.4853302E-001 0.0  1.7911679E-001  2.5680703E-001 0.0  1.9687943E-002  2.7651659E-002 0.0  2.3676678E-002  3.0931238E-002 0.0  1.9697772E-002  1.5458468E-002 0.0  1.8529052E-002  1.5901756E-002 0.0  1.9609128E-001  2.4623303E-001 0.0  1.8771331E-002  1.4656644E-002 0.0  1.7552543E-002  1.5163729E-002 0.0  1.7391086E-002  1.6430353E-002 0.0  1.6332722E-002  1.5639304E-002 0.0  1.6171300E-002  1.6969700E-002 0.0  1.5088866E-002  1.6138532E-002 0.0  1.4873118E-002  1.7583020E-002 0.0  1.3626985E-002  1.6426999E-002 0.0  1.3438494E-002  1.8211847E-002 0.0  1.5359280E-002  1.4852613E-002 0.0  1.3529014E-002 -7.0718912E-002 0.0  2.2340646E-002  1.4169316E-002 0.0  1.7715018E-002  1.4069369E-002 0.0  1.2752308E-001  2.6853811E-001 0.0  1.0991611E-001  2.5904954E-001 0.0  1.2350031E-001  1.2739088E-001 0.0  1.7443329E-001  1.1689918E-001 0.0  1.7708966E-001  1.9679319E-001 0.0  2.8267949E-001  1.5500000E-001 0.0  2.8082532E-001  7.4599344E-002 0.0  2.8384215E-001 -6.5680796E-002 0.0  5.5379948E-003  1.1933046E-002 0.0  1.9676106E-001  2.6622180E-001 0.0  1.7270141E-002  1.0414875E-002 0.0  1.4701144E-002  1.0400408E-002 0.0  1.2735247E-002  1.0408077E-002 0.0  1.0756793E-002  1.0495854E-002 0.0  1.9750000E-002  1.0433013E-002 0.0  2.1750000E-002  1.0433013E-002 0.0  6.3749561E-003  1.3127570E-001 0.0  1.8579409E-002  1.3611137E-002 0.0  2.4886651E-001  3.4862934E-001 0.0  1.2015186E-001  4.8664607E-002 0.0  2.3760767E-002  1.0428768E-002 0.0  2.0498827E-001 -4.2690565E-003 0.0  2.0429066E-001 -2.4257368E-002 0.0  2.0568542E-001  1.5718790E-002 0.0  1.8663209E-001 -3.3647446E-002 0.0  5.0000000E-002  3.4767949E-001 0.0  2.0359340E-001 -4.4245266E-002 0.0  1.7390247E-002 -4.2726749E-002 0.0  1.7978511E-001  2.7679611E-001 0.0  1.2151499E-002  1.7225880E-002 0.0  1.2375409E-002  1.5677877E-002 0.0  2.8396451E-002  2.7825719E-002 0.0  2.9850960E-002  3.4230184E-002 0.0  2.3139856E-002  3.8007787E-002 0.0  3.0903934E-002  4.3594025E-002 0.0  1.7845314E-002  1.3143557E-002 0.0  1.6371345E-002 -2.8237279E-002 0.0  2.1373682E-001  2.5564754E-001 0.0  2.1306716E-001  2.3565876E-001 0.0  2.1434792E-001  2.7554238E-001 0.0  1.1054987E-001  2.7910235E-001 0.0  9.2904721E-002  2.6968620E-001 0.0  9.2274467E-002  2.4962347E-001 0.0  1.1899922E-002  1.8938595E-002 0.0  6.8663210E-002 -1.2061544E-002 0.0  2.2264653E-001  5.1207287E-003 0.0  2.2334367E-001  2.5108514E-002 0.0  1.8607978E-002  1.2654369E-002 0.0  1.9271377E-002  1.3125963E-002 0.0  1.1008937E-002  1.6277123E-002 0.0  1.1341019E-002  1.4916035E-002 0.0  1.2385721E-002  1.4455562E-002 0.0  1.1536335E-002  1.3880469E-002 0.0  1.0602490E-002  1.4208932E-002 0.0  1.2468702E-002  1.3484858E-002 0.0  1.0873356E-002  1.3362029E-002 0.0  9.9817277E-003  1.3436331E-002 0.0  9.6739410E-003  1.4466682E-002 0.0  9.0852372E-003  1.3732522E-002 0.0  9.2831713E-003  1.2896402E-002 0.0  8.5247125E-003  1.3088798E-002 0.0  8.2274902E-003  1.3915391E-002 0.0  5.8670418E-003 -2.7065901E-002 0.0  6.3789488E-002 -4.2807702E-002 0.0  6.1395982E-002 -4.5383254E-002 0.0  9.2879877E-002 -2.7449115E-002 0.0  5.3640679E-002 -4.2825597E-002 0.0  6.2290275E-002  5.5920036E-003 0.0  6.5926864E-002  3.6013780E-003 0.0  8.1041667E-002 -1.2089755E-002 0.0  8.3750000E-002 -9.2115287E-003 0.0  3.0727041E-002 -4.2355181E-002 0.0  3.4038283E-002 -4.6179008E-002 0.0  8.8260941E-002 -4.2619594E-002 0.0  9.1971204E-002 -4.2722361E-002 0.0  8.6197866E-002 -4.6635319E-002 0.0  9.1659069E-002 -4.8640512E-002 0.0  8.3635419E-002 -5.2600355E-002 0.0  9.4719596E-002 -5.8589552E-002 0.0  1.0426788E-001 -5.0207045E-002 0.0  8.1869526E-002 -6.7174313E-002 0.0  7.7823292E-002 -4.2406609E-002 0.0  4.0280612E-002 -4.2287792E-002 0.0  4.3952680E-002 -4.5385810E-002 0.0  1.8593482E-001 -5.3635372E-002 0.0  3.7201588E-002  1.7584678E-002 0.0  3.9457642E-002  2.0016803E-002 0.0  1.0929768E-001 -6.6157880E-002 0.0  6.4312580E-003  9.8432283E-002 0.0  7.8023982E-003  9.7263354E-002 0.0  6.2292660E-003  9.2996547E-002 0.0  6.4312540E-003  4.8916397E-002 0.0  7.8049438E-003  4.7824777E-002 0.0  6.2585609E-003  4.3388635E-002 0.0  6.4052234E-003  6.9983285E-002 0.0  8.2310789E-003  7.1276511E-002 0.0  6.3761044E-003  7.4952267E-002 0.0  8.1509633E-003  7.6232421E-002 0.0  6.5967157E-003  2.9027229E-002 0.0  6.3269302E-003  2.4095966E-002 0.0  8.7202068E-003  2.4875343E-002 0.0  6.2440243E-003  8.0555133E-002 0.0  7.9774515E-003  8.2252384E-002 0.0  6.4832858E-003  8.6057769E-002 0.0  6.4140780E-003  5.5100911E-002 0.0  7.9425030E-003  5.3490096E-002 0.0  6.4198593E-003  6.5022493E-002 0.0  7.7851007E-003  6.3744300E-002 0.0  6.4140421E-003  6.0061702E-002 0.0  7.9381562E-003  5.8593616E-002 0.0  6.4240320E-003  1.1216477E-001 0.0  7.8561480E-003  1.1052655E-001 0.0  6.2976393E-003  1.8969396E-002 0.0  1.4828220E-002  1.9264538E-002 0.0  2.3071275E-001  2.4507324E-001 0.0  2.3008607E-001  2.2506429E-001 0.0  2.4825972E-002  2.0548182E-002 0.0  8.6041798E-002 -2.7551193E-002 0.0  6.6250000E-002 -3.2611645E-002 0.0  2.1579679E-002 -3.2384165E-002 0.0  8.1901585E-002 -3.1985557E-002 0.0  6.0000000E-002 -3.3064349E-002 0.0  2.6250000E-002 -3.2724683E-002 0.0  7.0357143E-002 -2.7047161E-002 0.0  3.1666667E-002 -2.7519768E-002 0.0  4.1500000E-002 -2.7322781E-002 0.0  7.5892857E-002 -3.2722281E-002 0.0  5.0000000E-002 -2.6555021E-002 0.0  3.6000000E-002 -2.7322781E-002 0.0  4.6845238E-002 -2.7317547E-002 0.0  1.2818885E-001  2.8852831E-001 0.0  7.5259848E-002  2.6026951E-001 0.0  7.5920004E-002  2.8027568E-001 0.0  7.5092526E-002  2.4108656E-001 0.0  7.3920372E-002  1.3658211E-002 0.0  7.6689502E-002  2.7307319E-002 0.0  2.2125199E-001 -3.4855142E-002 0.0  2.2055477E-001 -5.4842996E-002 0.0  1.9315503E-002  1.2364769E-002 0.0  1.9908929E-002  1.2724643E-002 0.0  1.7891024E-002  1.2335900E-002 0.0  1.7229440E-002  1.2666074E-002 0.0  8.2174455E-003 -3.0159779E-002 0.0  8.7447039E-003  1.2344956E-002 0.0  8.0368845E-003  1.2516634E-002 0.0  9.4262331E-003  1.2168454E-002 0.0  6.2831774E-002  3.2410346E-002 0.0  7.5687093E-002  4.3699980E-002 0.0  1.9899554E-002  1.2019050E-002 0.0  2.0522396E-002  1.2338783E-002 0.0  4.2803853E-003  1.3319632E-001 0.0  8.2873296E-003  1.3544375E-001 0.0  1.1736230E-002  1.4251024E-001 0.0  1.7183974E-002  1.3410078E-001 0.0  2.4192932E-002  1.4464430E-001 0.0  3.2176367E-002  1.2925549E-001 0.0  4.3341713E-002  1.4389883E-001 0.0  5.1468391E-002  1.2612017E-001 0.0  6.3445998E-002  1.4200230E-001 0.0  5.4957958E-002  1.6004152E-001 0.0  3.8321896E-002  1.1088252E-001 0.0  5.8785270E-002  1.0760851E-001 0.0  4.5939280E-002  9.2739567E-002 0.0  7.5259635E-002  1.5821035E-001 0.0  6.7162286E-002  1.7650453E-001 0.0  5.7691638E-002  2.5100093E-001 0.0  2.8267949E-001  3.1500000E-001 0.0  2.0638222E-001  3.5706204E-002 0.0  2.2404078E-001  4.5096267E-002 0.0  9.2177202E-002  2.3036214E-001 0.0  9.6812228E-003  1.3018420E-001 0.0  1.1121288E-001  2.9910205E-001 0.0  1.7467808E-002  3.1859400E-001 0.0  2.5411082E-002  1.5907892E-002 0.0  2.0538581E-002  1.3048043E-002 0.0  2.1137107E-002  1.2645971E-002 0.0  2.1104972E-002  1.1961647E-002 0.0  2.1700887E-002  1.2243620E-002 0.0  6.6279069E-002  9.0242975E-002 0.0  2.4576305E-002  1.1179861E-002 0.0  7.8772520E-002  1.0502966E-001 0.0  1.7320619E-002  1.1949739E-002 0.0  1.6680621E-002  1.2214964E-002 0.0  1.6565729E-002  1.2908171E-002 0.0  1.6028770E-002  1.2458572E-002 0.0  1.7887616E-002  1.1658693E-002 0.0  2.3821335E-001 -4.5452883E-002 0.0  2.3751615E-001 -6.5440719E-002 0.0  2.1985755E-001 -7.4830842E-002 0.0  2.4030500E-001  1.4510741E-002 0.0  8.9518484E-003  1.1703097E-002 0.0  3.8185892E-002  3.6696526E-002 0.0  4.1513310E-002  4.7792414E-002 0.0  1.6348489E-002  1.2447141E-001 0.0  2.9769729E-002  5.4546504E-002 0.0  5.9057984E-002  2.2893661E-001 0.0  1.7368449E-002  1.7767748E-002 0.0  1.6143413E-002  1.1798287E-002 0.0  1.5511162E-002  1.2025717E-002 0.0  1.5381483E-002  1.2696410E-002 0.0  1.4861082E-002  1.2242268E-002 0.0  1.4704288E-002  1.2930304E-002 0.0  1.4192893E-002  1.2445217E-002 0.0  1.4413381E-002  1.1781238E-002 0.0  1.3722371E-002  1.1862325E-002 0.0  1.5638929E-002  1.1404651E-002 0.0  1.9350413E-002  1.1696025E-002 0.0  1.3194498E-002  1.4056244E-002 0.0  4.6831714E-002  1.7833125E-001 0.0  1.3722190E-002 -3.9858134E-002 0.0  1.2885684E-001  3.0851911E-001 0.0  2.8295791E-001 -1.0331673E-001 0.0  6.2695514E-002 -1.1405220E-002 0.0  5.7530207E-003  1.0389578E-002 0.0  1.6897344E-001 -4.3037631E-002 0.0  1.6837348E-001 -6.2869845E-002 0.0  1.4504218E-003  1.3237732E-001 0.0  1.5192610E-001 -5.1546410E-002 0.0  1.4822809E-001 -7.3071932E-002 0.0  2.0707938E-001  5.5693966E-002 0.0  2.2473795E-001  6.5084091E-002 0.0  2.4257591E-001  5.4455811E-002 0.0  2.4323462E-001  7.4444994E-002 0.0  2.2557482E-001  8.5067059E-002 0.0  2.4394867E-001  9.4432249E-002 0.0  2.2629138E-001  1.0505423E-001 0.0  2.4445847E-001  1.1442663E-001 0.0  2.2696056E-001  1.2504305E-001 0.0  2.4511976E-001  1.3441573E-001 0.0  2.2767011E-001  1.4503046E-001 0.0  2.4560889E-001  1.5441083E-001 0.0  2.2833468E-001  1.6501944E-001 0.0  2.4626596E-001  1.7440007E-001 0.0  2.0984954E-001  1.3565202E-001 0.0  2.0847375E-001  9.5669633E-002 0.0  2.2892402E-001  1.8503645E-001 0.0  2.4657964E-001  1.9440129E-001 0.0  2.1125384E-001  1.7557904E-001 0.0  2.3960780E-001 -5.4771224E-003 0.0  2.5726636E-001  3.9130010E-003 0.0  1.8535106E-001 -7.3441634E-002 0.0  2.1240466E-001  2.1566662E-001 0.0  1.4583310E-001  2.9794446E-001 0.0  8.3402128E-002  1.3987301E-001 0.0  9.5227928E-002  1.5612779E-001 0.0  2.4772378E-001  2.3450363E-001 0.0  2.4836419E-001  2.5448851E-001 0.0  1.2326771E-002 -4.5367228E-002 0.0  1.8504386E-002 -4.8474782E-002 0.0  9.5738972E-003  1.1537875E-002 0.0  1.0043805E-002  1.1962081E-002 0.0  8.1998397E-003  2.0059634E-002 0.0  9.3420963E-002  2.9667385E-003 0.0  2.1627544E-002  1.1601178E-002 0.0  2.2216902E-002  1.1860767E-002 0.0  2.2298461E-002  1.2519806E-002 0.0  2.2817333E-002  1.2111855E-002 0.0  2.2927825E-002  1.2776134E-002 0.0  9.6309224E-002 -2.5667557E-002 0.0  8.5537866E-002  8.7290451E-002 0.0  5.6250000E-002 -2.7068734E-002 0.0  6.1875000E-002 -2.7388355E-002 0.0  5.3125000E-002 -3.1758526E-002 0.0  3.3750000E-002 -3.2724683E-002 0.0  3.8750000E-002 -3.3023743E-002 0.0  4.9000000E-002 -3.2677219E-002 0.0  2.3771911E-002 -2.7232953E-002 0.0  7.8750000E-002 -2.7165064E-002 0.0  8.8806312E-002 -3.2372851E-002 0.0  4.3500000E-002 -3.2677219E-002 0.0  1.0169073E-002  1.1363300E-002 0.0  1.0586837E-002  1.1745086E-002 0.0  1.5674128E-002 -1.0699751E-001 0.0  2.2729305E-002  1.1389670E-002 0.0  2.3306794E-002  1.1699056E-002 0.0  9.1286451E-003  1.1098320E-002 0.0  1.5844131E-002  2.5617571E-002 0.0  1.5786263E-002  3.1195717E-002 0.0  2.6434453E-001  1.8394755E-001 0.0  3.5400110E-002  2.0640239E-002 0.0  5.9461249E-002  1.9449431E-001 0.0  7.9049482E-002  1.9274604E-001 0.0  4.3112405E-002  2.1322023E-002 0.0  1.1233933E-001  3.1907764E-001 0.0  9.1828254E-002  3.1120220E-001 0.0  2.3712146E-001 -8.4944379E-002 0.0  1.1098785E-002 -5.5028386E-002 0.0  8.5668179E-003  1.1256214E-002 0.0  2.1190772E-002 -4.3178043E-002 0.0  1.3532981E-002  1.2624322E-002 0.0  1.3066049E-002  1.2133235E-002 0.0  1.3185629E-002  1.1501379E-002 0.0  1.2603947E-002  1.1681224E-002 0.0  1.2425703E-002  1.2291329E-002 0.0  1.1993810E-002  1.1828368E-002 0.0  1.5836985E-002  3.8933033E-002 0.0  1.9842576E-002  1.1363777E-002 0.0  2.6539088E-001  2.4412647E-001 0.0  1.8941985E-001  4.6303705E-002 0.0  3.9069254E-002  1.9964442E-001 0.0  6.0957600E-002  2.3096319E-002 0.0  5.3861671E-002  2.3480515E-002 0.0  1.1794002E-002  1.2441462E-002 0.0  2.1039792E-002  1.1344621E-002 0.0  2.7306378E-002  9.5259024E-002 0.0  9.0598164E-002  3.3325297E-002 0.0  9.1230141E-002  5.2241164E-002 0.0  6.5676020E-002 -2.7062217E-002 0.0  7.1250000E-002 -3.2611645E-002 0.0  1.2190092E-002  1.1246815E-002 0.0  1.1613020E-002  1.1377657E-002 0.0  6.5017589E-003  1.2887977E-001 0.0  4.1332697E-002  2.4112117E-001 0.0  1.7336273E-002  1.1249927E-002 0.0  1.7935908E-002  1.1029762E-002 0.0  9.6942116E-002 -3.0572068E-002 0.0  1.0361714E-001 -2.6901686E-002 0.0  1.9391508E-002  1.1143864E-002 0.0  1.8844262E-002  1.1410070E-002 0.0  2.1213725E-002  1.3356834E-002 0.0  2.0661437E-002  1.3985764E-002 0.0  2.3251381E-002  1.1186349E-002 0.0  1.8071873E-002 -3.1826440E-002 0.0  1.4279336E-002  1.5215054E-002 0.0  6.5673720E-002 -2.5107398E-003 0.0  7.2314419E-002  2.8337673E-007 0.0  5.0090946E-002 -4.6474252E-002 0.0  4.4337175E-002 -5.1797677E-002 0.0  6.6486926E-002 -4.6727569E-002 0.0  6.1521142E-002 -5.1477392E-002 0.0  7.6686967E-003  1.8251875E-002 0.0  1.2143519E-001 -5.3570513E-002 0.0  2.5367079E-001 -7.5927849E-002 0.0  2.5293885E-001 -9.5112563E-002 0.0  4.0963121E-002  2.6097367E-001 0.0  1.4601991E-001  3.1715878E-001 0.0  1.6339806E-001  3.0723008E-001 0.0  2.4513253E-002  1.6750981E-002 0.0  2.5854827E-002  1.7232133E-002 0.0  5.6186866E-002  7.3791863E-002 0.0  1.5255888E-002  1.3404443E-002 0.0  1.4582521E-002  1.3634244E-002 0.0  2.5558040E-001 -1.6040369E-002 0.0  2.3701419E-002  1.1323356E-002 0.0  1.0081272E-001  1.0141182E-001 0.0  1.6247021E-002  1.1215992E-002 0.0  2.5886526E-001  2.3737915E-002 0.0  1.0695260E-002  1.1118386E-002 0.0  1.6226374E-001  3.2969551E-001 0.0  1.8079660E-001  3.1714346E-001 0.0  1.8095004E-001  3.3496728E-001 0.0  2.3473370E-002  1.3966152E-002 0.0  2.2006939E-001 -9.8124149E-002 0.0  2.4738391E-002  1.8257797E-002 0.0  2.6534109E-002  1.8957657E-002 0.0  2.7511062E-002  2.1081924E-002 0.0  2.8789456E-002  1.9171990E-002 0.0  3.0016791E-002  2.0816608E-002 0.0  5.8861658E-003 -3.9777981E-002 0.0  8.4619053E-003  7.8875835E-002 0.0  1.1254633E-002  7.7389088E-002 0.0  8.0794430E-003  9.9735847E-002 0.0  9.0988701E-003  1.0296871E-001 0.0  8.3495548E-003  5.0564377E-002 0.0  1.1698862E-002  4.8480769E-002 0.0  1.2757594E-002  4.3517652E-002 0.0  8.1596832E-003  1.0873966E-001 0.0  1.1401015E-002  1.1000195E-001 0.0  1.9985654E-001  3.2914609E-001 0.0  1.9822660E-001  3.0675404E-001 0.0  2.1586338E-001  3.1493453E-001 0.0  2.0490543E-002  1.1665834E-002 0.0  2.0426888E-002  1.1011782E-002 0.0  2.6164083E-001  6.4193878E-002 0.0  6.5788471E-002 -8.7500000E-003 0.0  7.0184252E-002 -7.6989811E-003 0.0  2.3379350E-002 -5.6606969E-002 0.0  3.0224349E-002 -7.3207819E-002 0.0  1.5817285E-002  1.0816094E-002 0.0  1.5211745E-002  1.1031956E-002 0.0  3.8113356E-002  2.4276698E-002 0.0  1.6748360E-002  1.1558637E-002 0.0  1.6763078E-002  1.1009746E-002 0.0  1.8415829E-002  1.1896003E-002 0.0  1.6620428E-002  1.4384117E-002 0.0  8.9060768E-002 -7.9699010E-003 0.0  2.7495404E-001  1.0420776E-002 0.0  6.9804822E-002  2.1026618E-001 0.0  2.6248375E-001  1.0418519E-001 0.0  2.1354861E-002  1.4795879E-002 0.0  1.8695355E-002  2.0307086E-002 0.0  2.2348005E-002  1.3217411E-002 0.0  1.0512231E-002  1.2338418E-002 0.0  4.0402422E-002  2.2112969E-001 0.0  2.7096494E-002  2.4996985E-001 0.0  2.6341115E-001  1.4422528E-001 0.0  3.1081626E-002  1.6212409E-001 0.0  3.0591690E-003 -2.8731402E-002 0.0  1.2748589E-001 -7.1511564E-002 0.0  1.1433513E-001 -8.4635029E-002 0.0  1.3354278E-001 -8.9124518E-002 0.0  1.5208800E-001 -9.5320260E-002 0.0  1.4013082E-001 -1.0968576E-001 0.0  8.3041678E-003  1.1854153E-002 0.0  7.6007453E-003  1.1896652E-002 0.0  7.3568850E-003  1.2636363E-002 0.0  6.9180168E-003  1.2117571E-002 0.0  7.0988831E-003  1.1496570E-002 0.0  6.5194458E-003  1.1626327E-002 0.0  8.0644026E-003  1.1340668E-002 0.0  6.6840150E-003  1.2776993E-002 0.0  7.1357188E-003  1.3336271E-002 0.0  6.7368216E-003  1.1078272E-002 0.0  6.1876214E-003  1.1211247E-002 0.0  7.3275941E-003  1.0917451E-002 0.0  7.1888609E-002 -5.4320500E-002 0.0  6.6055361E-002 -7.3231809E-002 0.0  7.7355739E-002 -8.6065879E-002 0.0  6.1021588E-002 -8.9033019E-002 0.0  7.1024475E-002 -1.0458555E-001 0.0  9.0826606E-002 -1.0185641E-001 0.0  2.4333996E-002  1.3656607E-002 0.0  7.4246423E-002  6.1323510E-002 0.0  4.3881291E-002  2.7950859E-002 0.0  1.1376427E-002  1.1470212E-001 0.0  1.6861571E-002  1.1407245E-001 0.0  4.9368190E-002  3.6516255E-002 0.0  2.1557679E-002  1.0981034E-002 0.0  2.2105238E-002  1.1251241E-002 0.0  2.3944129E-002  1.1891304E-002 0.0  1.9320157E-002  1.3892326E-002 0.0  2.7075588E-001 -8.4926154E-002 0.0  1.5046725E-002  1.1610617E-002 0.0  1.4641114E-002  1.1206200E-002 0.0  1.4075199E-002  1.1292122E-002 0.0  1.2771401E-002  1.1108413E-002 0.0  1.3332242E-002  1.0943424E-002 0.0  2.6432254E-001  2.0398472E-001 0.0  5.5878388E-003  1.1282255E-002 0.0  1.5228454E-001 -3.1677108E-002 0.0  1.0622654E-001  1.3739311E-001 0.0  1.1601089E-001  1.5538410E-001 0.0  1.0704923E-001  1.7231975E-001 0.0  1.0825941E-002  9.7901458E-002 0.0  1.5638997E-002  1.0334366E-001 0.0  1.8051048E-002  8.8147698E-002 0.0  3.1323040E-002  8.0452843E-002 0.0  1.1164398E-002  9.3661552E-002 0.0  1.3750000E-002 -3.0788559E-002 0.0  1.0666734E-002  1.7773352E-002 0.0  9.5356943E-003  1.6435161E-002 0.0  9.1548173E-002  1.2101013E-001 0.0  2.6178813E-001  4.3849660E-002 0.0  6.1798149E-003  1.2214219E-002 0.0  5.7221592E-002  5.0593750E-002 0.0  8.7408952E-003  1.0711064E-002 0.0  5.7676288E-003  1.4140161E-002 0.0  5.9474964E-003  1.5246896E-002 0.0  7.0881701E-003  1.5655374E-002 0.0  6.7856152E-003  1.4390025E-002 0.0  2.0599351E-002 -2.8085105E-002 0.0  9.0828226E-002  2.1003567E-001 0.0  1.0914952E-001  2.1976890E-001 0.0  1.1429857E-002  1.1978536E-002 0.0  2.3671159E-002  1.3076917E-002 0.0  2.7044923E-002  1.8233685E-001 0.0  1.8325175E-002  2.0000954E-001 0.0  1.9187938E-002  4.7066204E-002 0.0  1.7984912E-002  5.7704915E-002 0.0  2.3128580E-002  6.8344839E-002 0.0  5.5430982E-003  1.2538349E-002 0.0  1.0276101E-002  1.0794653E-002 0.0  1.1259137E-002  1.0859847E-002 0.0  3.0716527E-002  1.6512000E-002 0.0  3.1086926E-002  1.8654406E-002 0.0  1.4290760E-002  1.0767172E-002 0.0  2.8233384E-001  1.9440391E-001 0.0  8.7367783E-003  1.4665634E-002 0.0  2.6255411E-002  2.3715477E-002 0.0  1.2078244E-001  2.8578767E-002 0.0  2.8087020E-001  5.4033556E-002 0.0  2.6215986E-001  8.4475943E-002 0.0  2.8102716E-001  9.4744836E-002 0.0  2.6294870E-001  1.2447299E-001 0.0  1.0269226E-002  1.9631563E-002 0.0  1.1946131E-002  2.1141067E-002 0.0  9.7889801E-003  2.2048278E-002 0.0  1.1960826E-002  2.3931426E-002 0.0  1.4650403E-002  2.2168871E-002 0.0  7.1237080E-002  1.2360730E-001 0.0  1.2848432E-002  1.2781749E-002 0.0  2.8151399E-001  1.3479380E-001 0.0  2.6461046E-001  1.6375412E-001 0.0  2.4723340E-001  2.1442423E-001 0.0  2.2945857E-001  2.0505996E-001 0.0  1.9010981E-001  6.6293957E-002 0.0  2.1176462E-001  1.9565467E-001 0.0  1.9417933E-001  1.8605281E-001 0.0  1.9369412E-001  1.6605459E-001 0.0  2.6582624E-001  2.6447656E-001 0.0  2.4847235E-001  2.7479942E-001 0.0  1.7244357E-001  5.6901006E-002 0.0  1.9076646E-001  8.6298118E-002 0.0  9.9043884E-002  1.9048005E-001 0.0  1.0946927E-001  2.3931545E-001 0.0  7.7031426E-003  1.4814554E-002 0.0  8.3613675E-003  1.5623777E-002 0.0  8.7162642E-002  1.7445622E-001 0.0  1.5286807E-001 -1.1913460E-002 0.0  1.7176528E-001  3.6917197E-002 0.0  1.2159136E-001  6.8642203E-002 0.0  1.7377500E-001  9.6899978E-002 0.0  1.9142839E-001  1.0635124E-001 0.0  1.9208957E-001  1.2627421E-001 0.0  2.0916747E-001  1.1566973E-001 0.0  2.3874579E-001 -2.5459254E-002 0.0  2.5469093E-001 -3.6021525E-002 0.0  2.5398630E-001 -5.5995395E-002 0.0  2.7127883E-001 -4.5854705E-002 0.0  1.8872684E-001  2.6319771E-002 0.0  2.2192184E-001 -1.4866202E-002 0.0  1.2216054E-001  1.0863124E-001 0.0  1.6974262E-001 -2.2832799E-002 0.0  2.0236939E-001 -8.4741604E-002 0.0  1.9800507E-001 -1.0345995E-001 0.0  1.8383720E-001 -9.1521745E-002 0.0  2.4181979E-001  3.4459818E-002 0.0  2.0294350E-001 -6.4289619E-002 0.0  2.7133875E-001 -9.7538101E-003 0.0  2.0779036E-001  7.5684471E-002 0.0  1.9477261E-001  2.0620690E-001 0.0  1.2900719E-001  3.2753877E-001 0.0  1.1198115E-001  3.3756300E-001 0.0  7.0481060E-002  3.4760294E-001 0.0  6.0080177E-002  3.3034622E-001 0.0  3.6554094E-002  3.2932223E-001 0.0  5.0000000E-002  3.1303848E-001 0.0  7.0000000E-002  3.1303848E-001 0.0  5.9288095E-002  2.9273316E-001 0.0  3.8519932E-002  2.9659089E-001 0.0  8.0000000E-002  3.3035898E-001 0.0  2.8306456E-001  3.3491525E-001 0.0  2.6705676E-001  3.2535511E-001 0.0  2.6566911E-001  3.0510623E-001 0.0  2.4813790E-001  3.1663861E-001 0.0  2.4854053E-001  2.9521895E-001 0.0  5.8653179E-002  2.7064680E-001 0.0  9.3565616E-002  2.8969015E-001 0.0  1.6214246E-001  2.6738128E-001 0.0  2.5103034E-001 -1.1516495E-001 0.0  2.2990202E-001  3.4828267E-001 0.0  2.9350618E-002  3.4913133E-001 0.0  1.4516656E-001  2.7795484E-001 0.0  1.9542644E-001  2.2623547E-001 0.0  2.8279822E-001  2.9504210E-001 0.0  1.7777159E-001  2.1680903E-001 0.0  2.3122249E-001  2.6500637E-001 0.0  1.6279661E-001  2.8734862E-001 0.0  1.8040556E-001  2.9691383E-001 0.0  1.9743371E-001  2.8630888E-001 0.0  2.1488558E-001  2.9550450E-001 0.0  1.7642878E-001  1.7685251E-001 0.0  1.7508389E-001  1.3681645E-001 0.0  1.5277177E-002  1.0492779E-002 0.0  2.1057064E-001  1.5559067E-001 0.0  1.2562507E-001  2.0857127E-001 0.0  1.9267685E-001  1.4620352E-001 0.0  9.6912448E-003  1.0959894E-002 0.0  1.3250000E-002  1.0433013E-002 0.0  1.7742675E-002  1.0452333E-002 0.0  1.8236434E-002  1.0464687E-002 0.0  1.8503767E-002  1.0913423E-002 0.0  1.2191665E-002  1.0432717E-002 0.0  1.9238359E-002  1.0404434E-002 0.0  2.0221388E-002  1.0464388E-002 0.0  9.2406160E-003  1.0467590E-002 0.0  2.1250000E-002  1.0433013E-002 0.0  7.7304640E-003  1.0438610E-002 0.0  2.3250000E-002  1.0433013E-002 0.0  2.2247813E-002  1.0422542E-002 0.0  6.2325842E-003  1.0395524E-002 0.0  7.2323726E-003  1.0422882E-002 0.0  2.4256130E-002  1.0387435E-002 0.0  2.6496613E-001  2.2439760E-001 0.0  1.2642681E-001  2.2855564E-001 0.0  2.2456752E-002  1.0851781E-002 0.0  2.4426390E-002  1.2915285E-002 0.0  2.8279737E-001  2.3481893E-001 0.0  7.8731498E-002 -6.9558853E-003 0.0  8.2782903E-002  1.0578323E-003 0.0  3.9095520E-002 -4.7102184E-002 0.0  3.4744183E-002 -5.5045787E-002 0.0  4.4043735E-002 -6.3710156E-002 0.0  5.6350104E-002 -4.7040297E-002 0.0  8.1514381E-002 -4.5531020E-002 0.0  7.6643614E-002 -4.7257695E-002 0.0  2.9127309E-002 -4.8087556E-002 0.0  1.1075619E-002  1.2602765E-002 0.0  2.6570420E-001  2.8491789E-001 0.0  1.1623939E-002  2.7347986E-002 0.0  9.1943569E-003  3.0784175E-002 0.0  3.4489559E-002  3.0010513E-002 0.0  1.0379581E-001  1.8487089E-002 0.0  1.8923931E-002  2.9815557E-001 0.0  1.0273745E-002  1.5368576E-002 0.0  1.1425792E-001 -3.9059937E-002 0.0  1.3000000E-001  3.4812103E-001 0.0  3.4736756E-002  1.6880260E-002 0.0  2.4548942E-002  1.1707408E-002 0.0  1.0457882E-001  7.9260192E-002 0.0  2.8318093E-001  2.5492564E-001 0.0  2.3153497E-001  2.8517860E-001 0.0  1.6745027E-002  1.0490804E-002 0.0  2.3410602E-002  1.2318857E-002 0.0  1.5633964E-002 -8.7729528E-002 0.0  3.1285435E-002 -9.4696473E-002 0.0  9.3752790E-003  3.8438476E-002 0.0  2.9164408E-002  1.6120754E-002 0.0  2.4098086E-002  1.0895016E-002 0.0  2.8232805E-001  1.7451760E-001 0.0  2.7757608E-002  1.7286475E-002 0.0  2.3154042E-001  3.0460555E-001 0.0  1.7099277E-002  1.3486352E-002 0.0  9.1374334E-003  1.5610633E-001 0.0  1.6816253E-001 -8.2079433E-002 0.0  2.6836095E-001  3.4617548E-001 0.0  2.7053077E-001 -1.1852460E-001 0.0  2.6689928E-002  1.6062130E-002 0.0  1.8993281E-001 -1.1931921E-001 0.0  3.3086844E-002  2.4674733E-002 0.0  1.6222204E-002  3.3688270E-001 0.0  9.5381200E-002 -2.0000000E-002 0.0  5.3594731E-002 -5.3808839E-002 0.0  3.1229973E-002 -1.1838962E-001 0.0  1.4043844E-002  1.3111112E-002 0.0  2.4603793E-002  1.0693982E-002 0.0  5.4272657E-003  1.0744249E-002 0.0  6.3458217E-003  1.3464960E-002 0.0  9.9224714E-003  1.2624501E-002 0.0  2.3856107E-001  3.3343371E-001 0.0  6.5270703E-002  1.0016833E-002 0.0  1.3283388E-001 -3.9733132E-002 0.0  1.2482828E-001  1.7015660E-001 0.0  1.5916591E-002  1.3154543E-002 0.0  1.1891986E-002  1.2044356E-001 0.0  1.0276711E-002  1.2505151E-001 0.0  7.9468940E-003  1.2737047E-001 0.0  1.6813987E-001  3.4875344E-001 0.0  1.3274872E-002  1.5046359E-002 0.0  8.6486452E-002 -1.1892277E-001 0.0  8.6179664E-003  1.1298274E-001 0.0  8.8509350E-003  5.5899232E-002 0.0  8.0406241E-003  6.5766569E-002 0.0  1.1546244E-002  6.4528760E-002 0.0  8.4291760E-003  9.4804735E-002 0.0  8.8796736E-003  4.5166918E-002 0.0  8.7090172E-003  6.1182543E-002 0.0  8.2378514E-003  2.7683681E-002 0.0  8.3767113E-003  7.3948478E-002 0.0  1.2392528E-002  7.2330187E-002 0.0  7.9238566E-003  8.4560091E-002 0.0  8.3407910E-003  8.7355484E-002 0.0  1.1560208E-002  8.3289137E-002 0.0  7.3750000E-002 -3.0000000E-002 0.0  6.4383503E-002 -2.9982859E-002 0.0  6.8664966E-002 -3.0219435E-002 0.0  2.1080581E-001 -1.1843138E-001 0.0  2.1750732E-002  1.2916624E-002 0.0  4.4496643E-003 -3.3597372E-002 0.0  7.7896589E-003  1.3259122E-002 0.0  2.1000370E-002  1.0842904E-002 0.0  1.1625414E-002  1.3110687E-002 0.0  8.6867952E-002  1.6133748E-002 0.0  1.1968927E-002  1.8445710E-001 0.0  1.5797486E-002  1.3912589E-002 0.0  1.7495098E-002  1.0823715E-002 0.0  1.6908156E-003  1.3457350E-001 0.0  2.2040592E-001  3.3259401E-001 0.0  1.7951673E-002  7.8325632E-002 0.0  1.9949763E-002  1.3543078E-002 0.0  1.3328978E-002  1.3302544E-002 0.0  9.5475794E-002 -8.0800426E-002 0.0  1.1852272E-002  1.0891210E-002 0.0  1.9887393E-002  1.0871788E-002 0.0  2.3387980E-002  1.7531891E-002 0.0  1.2099764E-001 -1.0254552E-001 0.0  5.8619355E-003 -4.7076698E-002 0.0  9.7654045E-002  3.2957563E-001 0.0  5.9980465E-003  1.1656827E-002 0.0  1.6620659E-002 -3.5548937E-002 0.0  9.3120778E-002 -3.9373425E-002 0.0  9.5666570E-002 -3.6868675E-002 0.0  8.9451063E-002 -2.8379340E-002 0.0  8.5532459E-002 -3.1706375E-002 0.0  7.8903890E-003  1.0892323E-002 0.0  1.6642422E-002  2.0269021E-002 0.0  1.7715628E-002  2.2411430E-002 0.0  9.6556667E-002 -4.2900636E-002 0.0  7.8382095E-003  1.6858238E-002 0.0  1.8972250E-002  1.8264350E-002 0.0  5.9504205E-002  1.8309830E-002 0.0  8.4170675E-003  6.8488943E-002 0.0  1.5755924E-002  1.0342727E-002 0.0  5.3505640E-002  2.1136553E-001 0.0  7.8120394E-002  2.9738793E-001 0.0  3.2741769E-002  3.1145551E-001 0.0  4.2796365E-002  2.7862788E-001 0.0  2.3984876E-002  1.2494931E-002 0.0  1.0254861E-002  1.0358498E-002 0.0  1.0853508E-001  1.1909331E-001 0.0  1.1083265E-002  1.1532141E-002 0.0  2.3812659E-001 -1.0223964E-001 0.0  6.0770747E-003  1.2859787E-002 0.0  1.1241903E-002  1.0355485E-002 0.0  6.7610711E-003  1.7674010E-002 0.0  1.9225565E-001  3.4919561E-001 0.0  1.8317477E-002  1.1381590E-002 0.0  1.2341498E-002  5.3058026E-002 0.0  7.0220742E-002 -1.2256933E-001 0.0  8.3616833E-003  4.1987200E-002 0.0  7.4750207E-003  1.4030506E-002 0.0  1.8374821E-002  1.7015096E-002 0.0  1.2232451E-002  1.2822017E-002 0.0  3.1749095E-003  1.3667279E-001 0.0  1.2563922E-001 -1.1958130E-001 0.0  2.2000000E-002  1.0797979E-002 0.0  1.5399774E-001 -1.1855498E-001 0.0  8.2309480E-002 -2.7994918E-002 0.0  8.3956690E-003  1.1635782E-001 0.0  8.3143394E-003  9.1246283E-002 0.0  1.9998095E-002  1.4481731E-002 0.0  1.8989208E-002  1.0835694E-002 0.0  7.7152903E-003  2.2722890E-002 0.0  1.3810976E-002  1.0942417E-002 0.0  2.9612486E-002  2.3518677E-002 0.0  7.6863537E-003  1.2057960E-001 0.0  1.1010175E-001  2.0267148E-001 0.0  1.1787831E-001 -2.3947785E-002 0.0  1.6119226E-002  1.8387562E-002 0.0  1.0669566E-001  5.9404299E-002 0.0  9.2273000E-002 -3.2413150E-002 0.0  1.4248381E-002  1.0320119E-002 0.0  2.3564603E-002  1.0829765E-002 0.0  6.1148945E-002 -4.2113362E-002 0.0  9.2088675E-002 -2.0668998E-002 0.0  4.1250000E-002 -3.2834936E-002 0.0  6.3022251E-002 -3.2609809E-002 0.0  8.3716228E-002 -1.2698719E-002 0.0  8.9075978E-002 -1.2656147E-002 0.0  7.3857143E-002 -1.2972314E-002 0.0  7.1700767E-002 -1.2028135E-002 0.0  6.2139514E-002 -1.3762211E-003 0.0  6.2258335E-002 -8.7056056E-003 0.0  7.3658892E-002 -2.7000462E-002 0.0  6.1945208E-002  8.8717674E-003 0.0  6.2034004E-002  1.1041152E-002 0.0  4.4099206E-002 -2.7531914E-002 0.0  5.3431122E-002 -2.7754655E-002 0.0  3.4033333E-002 -2.6968510E-002 0.0  6.5510377E-002 -1.2578061E-002 0.0  2.8402778E-002 -2.7578885E-002 0.0  3.0005511E-002 -3.1459250E-002 0.0  1.3774269E-002 -2.7335409E-002 0.0  6.2135864E-002 -3.5371099E-003 0.0  2.4113154E-002 -4.2303286E-002 0.0  2.4065936E-002 -3.3021770E-002 0.0  7.3678571E-002 -3.3066785E-002 0.0  4.3705635E-002 -4.2115919E-002 0.0  5.0072963E-002 -4.2017926E-002 0.0  5.1017857E-002 -3.2872231E-002 0.0  6.6580526E-002 -4.2389554E-002 0.0  3.6458333E-002 -3.2532878E-002 0.0  7.3850370E-002 -4.2832807E-002 0.0  6.8732993E-002 -3.3088545E-002 0.0  8.1250000E-002 -4.2165064E-002 0.0  7.6234815E-002 -2.7452781E-002 0.0  5.8645833E-002 -2.7501374E-002 0.0  8.5668975E-003 -2.6975378E-002 0.0  2.5934938E-002 -2.6962368E-002 0.0  1.3577740E-002  2.4096802E-001 0.0  1.2443838E-002  1.0816178E-002 0.0  1.6399902E-002  1.3569154E-002 0.0  1.6854058E-001 -1.0111657E-001 0.0  8.9842467E-002  6.9743545E-002 0.0  9.3163052E-003  1.5311966E-002 0.0  1.0672150E-001  3.9309223E-002 0.0  7.8292342E-002 -3.0915075E-002 0.0  4.6055556E-002 -3.1275487E-002 0.0  5.6743994E-002 -3.0893455E-002 0.0  3.8773148E-002 -2.9226347E-002 0.0  5.3718210E-002  1.7705660E-002 0.0  4.6010416E-002  1.7757299E-002 0.0  3.9624469E-002  1.7027051E-002 0.0  1.0280540E-001 -3.8955376E-002 0.0  2.4923233E-002  1.0861203E-001 0.0  1.3282728E-002  1.9832359E-002 0.0  2.8751119E-001 -8.4784736E-002 0.0  4.9131218E-002 -1.0133348E-001 0.0  1.1983775E-002  3.4591860E-002 0.0  8.2791716E-003  3.4490205E-002 0.0  1.4523606E-002  1.4443220E-002 0.0  5.9326957E-003  1.0805649E-002 0.0  3.0678162E-003  1.3129758E-001 0.0  1.8258406E-003  1.3097689E-001 0.0  1.3638183E-001 -5.7886710E-002 0.0  6.1093963E-003  5.8607614E-002 0.0  6.1940586E-003  1.1595033E-001 0.0  6.0740428E-003  9.7134758E-002 0.0  6.0585102E-003  1.1959399E-001 0.0  6.0787647E-003  4.7527717E-002 0.0  6.0740428E-003  7.3571000E-002 0.0  6.0740428E-003  2.7683681E-002 0.0  6.7442644E-003  1.2320016E-001 0.0  5.9834090E-003  1.2064872E-001 0.0  6.1557988E-003  1.2711766E-001 0.0  6.1203825E-003  8.4626615E-002 0.0  6.1865545E-003  7.8678473E-002 0.0  6.2015296E-003  5.0298162E-002 0.0  6.1808709E-003  9.9778609E-002 0.0  6.1166840E-003  5.3608446E-002 0.0  6.3905857E-003  1.0326164E-001 0.0  6.0770557E-003  6.3627461E-002 0.0  6.4706974E-003  1.0727537E-001 0.0  6.1014055E-003  1.1065797E-001 0.0  6.2104043E-003  6.8523946E-002 0.0  6.0740428E-003  2.2722890E-002 0.0  6.1675008E-003  9.1069021E-002 0.0  6.4524757E-003  3.0468220E-002 0.0  6.2890387E-003  4.1622641E-002 0.0  6.0740428E-003  3.8845461E-002 0.0  6.2235951E-003  8.7414868E-002 0.0  6.0740428E-003  3.3884670E-002 0.0  6.0740428E-003  3.5124868E-002 0.0  6.0740428E-003  3.7605263E-002 0.0  2.2941287E-002  1.0829930E-002 0.0  2.6670679E-001 -6.5676980E-002 0.0  4.8753184E-002 -7.9721205E-002 0.0  2.6099051E-002  1.1845979E-001 0.0  1.3606677E-002  1.1276354E-002 0.0  2.1507216E-002  1.4041134E-002 0.0  2.8535898E-001  3.5035898E-001 0.0  2.8535898E-001 -1.2035898E-001 0.0  2.7604426E-002  2.6892627E-001 0.0  8.7500002E-003  1.0306272E-002 0.0  2.2952201E-002  1.3441186E-002 0.0  1.4427655E-001  3.3327388E-001 0.0  2.8820643E-001 -4.5000000E-002 0.0  5.3656731E-003  1.0366229E-002 0.0  5.1664251E-003  1.4818508E-001 0.0  2.1806209E-002  1.3516102E-002 0.0  6.3402877E-002 -1.3402140E-002 0.0  3.2456375E-002  2.0975390E-002 0.0  6.4399269E-003  1.0789554E-002 0.0  1.0441021E-002 -3.4955127E-002 0.0  2.6653532E-001 -1.0319701E-001 0.0  7.7046027E-002  2.2488387E-001 0.0  1.1556266E-002  5.8410536E-002 0.0  2.3501145E-002  1.9003039E-002 0.0  1.2621850E-001  1.4351314E-001 0.0  2.9503510E-002  1.7597550E-002 0.0  1.5089894E-002  1.4079049E-002 0.0  2.3072415E-001  3.2036038E-001 0.0  1.3960705E-002  3.5132380E-001 0.0  3.9857186E-002  6.2587035E-002 0.0  2.7514182E-002  2.1191372E-001 0.0  2.6730476E-001 -2.6604210E-002 0.0  2.4173776E-002  1.1399389E-002 0.0  4.7966371E-002  2.0794302E-002 0.0  3.3254388E-002  1.8790610E-002 0.0  2.7731433E-002  2.3124787E-001 0.0  1.3699914E-002  2.5982243E-001 0.0  1.2397472E-002  8.9693511E-002 0.0  7.5416112E-003  1.1319212E-002 0.0  1.7559540E-002  1.8999153E-002 0.0  1.2965942E-002  1.0737566E-002 0.0  1.1049669E-001  3.5319991E-001 0.0  1.4839097E-002  1.0814234E-002 0.0  1.6358500E-002  1.0795066E-002 0.0  1.3435361E-002 -1.2216813E-001 0.0  2.8725286E-001 -3.7718661E-003 0.0  1.3885412E-002  1.3756979E-002 0.0  1.9487321E-002  1.0733457E-002 0.0  6.0397158E-002 -3.0122466E-002 0.0  4.9924968E-002 -3.0030098E-002 0.0  3.4383856E-002 -2.9679174E-002 0.0  4.2507719E-002 -3.0037688E-002 0.0  2.5076263E-002 -2.9931147E-002 0.0  2.4657918E-002  1.0328403E-002 0.0  1.8938251E-002  1.2002611E-002 0.0  2.3864995E-002 -4.6881227E-002 0.0  6.9614693E-003  1.0722430E-002 0.0  5.0596484E-002  1.8022847E-002 0.0  9.2399638E-003  1.0667023E-001 0.0  2.8771407E-002  2.8445751E-001 0.0  8.3718387E-003  1.0895730E-002 0.0  2.8939906E-001  1.5000000E-002 0.0  1.5897372E-002  9.4667817E-002 0.0  7.1799147E-002 -4.6710214E-002 0.0  2.0516241E-002  1.5034175E-002 0.0  1.0574056E-001 -9.7102518E-002 0.0  9.0525248E-004  1.3095185E-001 0.0  1.7120848E-002  1.0792211E-002 0.0  1.0473081E-002  1.2872809E-002 0.0  7.7757072E-002 -1.1971989E-002 0.0  7.4519913E-002 -9.2768520E-003 0.0  2.5419664E-001  3.3404645E-001 0.0  1.3897923E-003 -2.6593598E-002 0.0  1.0921229E-002  1.2094084E-002 0.0  5.7642793E-002 -6.2711650E-002 0.0  1.3818899E-002  1.4487242E-002 0.0  7.4555785E-002  7.7404761E-002 0.0  1.8178525E-001 -1.0693836E-001 0.0  5.7824765E-003  1.7762098E-002 0.0  9.2240693E-003  1.7907627E-002 0.0  6.1719678E-002 -1.3461472E-002 0.0
        </DataArray>
      </Points>
      <Cells>
        <DataArray type="Int32" Name="connectivity" format="ascii">
 954 1176 996 1062 1150 612 951 993 651 651 1163 951 917 991 835 748 928 719 996 1176 914 917 1212 681 699 1122 1000 896 1165 969 617 1007 296 969 1055 623 921 1150 1062 448 999 4 896 969 968 963 1219 976 897 1104 1015 928 1084 1031 868 1185 1148 717 959 755 642 1045 911 1098 1197 656 983 1060 613 785 947 934 1037 1117 885 911 1136 642 929 1089 622 1148 1185 1014 861 916 813 981 1074 874 652 1074 981 623 1132 969 720 971 772 634 973 972 840 1072 1018 1018 1019 840 656 1004 910 918 920 620 423 1028 623 635 1148 1014 843 922 853 427 1030 426 745 982 765 830 961 960 1015 1142 897 682 917 681 963 976 723 708 1117 1037 923 924 827 937 938 632 753 923 827 973 986 891 1008 1146 659 934 1046 611 656 1197 1004 830 960 741 445 1009 645 1079 1115 886 956 1024 894 786 947 785 885 1122 1037 928 1031 691 886 1123 1079 789 927 905 4 999 614 296 1007 295 1079 1123 673 1037 1122 699 761 996 963 663 1092 989 671 959 717 719 928 695 835 932 738 962 1179 676 632 943 937 1009 1146 1008 909 941 678 620 981 918 711 1115 1079 873 964 750 613 1175 983 761 963 734 738 932 925 1000 1122 858 697 971 720 780 1233 919 830 1005 961 663 989 664 650 1119 921 1024 1178 894 955 1057 907 945 946 838 802 973 891 687 982 745 424 1028 423 634 986 973 738 925 923 983 1074 1060 783 956 894 915 997 834 744 991 917 944 1039 641 835 1070 932 655 1114 1017 984 1027 639 930 1089 929 617 1188 1007 609 1010 397 446 1009 445 1061 1150 889 889 1172 1061 869 1073 935 1075 1159 994 921 1062 650 699 1000 700 848 970 847 861 1020 916 1100 1142 662 679 962 676 910 1069 656 993 1075 994 780 919 782 813 916 815 615 1126 1026 922 1221 853 1026 1078 615 965 966 778 735 965 778 645 1009 988 873 1215 964 985 1029 833 748 1084 928 731 923 753 1005 1161 961 736 968 965 845 922 843 706 1154 1022 707 724 706 712 727 708 835 1212 917 665 1100 662 714 728 711 741 960 737 839 945 838 1020 1172 916 970 1216 847 721 731 715 717 729 716 1028 1132 623 935 936 825 720 737 719 745 746 744 888 1233 780 671 717 716 790 927 789 681 721 715 955 1221 629 697 720 719 905 1065 1036 658 1030 427 426 1030 639 285 1162 1126 972 1081 634 687 745 744 985 1214 1029 687 744 685 397 1010 396 988 1011 645 707 725 724 712 730 727 958 1159 1075 947 1116 934 916 1172 889 714 732 728 697 719 695 912 932 872 725 742 724 915 1213 997 967 977 778 924 974 827 681 715 679 667 714 711 671 716 669 798 938 937 747 956 783 774 933 830 750 964 742 730 767 727 950 1099 614 763 960 860 1073 1193 935 881 980 851 734 963 722 693 712 708 732 756 728 1030 1174 984 717 733 729 448 1110 999 721 738 731 1005 1048 644 683 707 706 788 935 825 720 741 737 1006 1199 824 779 942 888 745 747 746 805 1232 990 738 923 731 703 713 709 934 1116 1046 1052 1167 1166 887 1075 993 822 944 892 812 929 861 747 783 746 838 947 786 777 964 883 952 954 761 798 937 796 463 661 462 636 1083 1029 1071 1123 821 725 750 742 1057 1207 907 933 1005 830 622 1128 929 629 1221 978 709 718 710 736 965 726 984 1174 985 1136 1178 1047 918 981 874 946 1130 1054 927 1140 905 641 1177 944 936 1193 1043 1020 1059 649 722 963 723 977 1027 984 992 1158 806 974 1208 630 654 1033 1012 726 965 735 966 967 778 964 1001 883 975 1134 705 1022 1082 706 826 1067 942 749 952 761 731 753 752 909 1155 941 737 763 748 673 1123 1071 704 975 705 881 1164 980 729 769 758 959 1158 755 737 960 763 920 1086 620 1044 1174 1097 685 917 682 980 1164 638 877 983 895 771 820 733 940 1171 939 774 830 741 880 1134 975 1017 1153 655 678 941 680 766 956 747 776 828 760 1032 1033 631 638 1107 980 1015 1104 637 1003 1119 650 718 726 722 967 1027 977 857 898 856 855 856 848 742 777 743 771 831 820 788 825 740 1031 1084 824 742 964 777 985 1174 1044 776 866 828 964 1215 1001 767 826 779 826 942 779 691 982 688 713 1182 709 1013 1185 663 767 779 768 939 1225 940 827 904 803 756 816 812 769 798 796 993 994 651 766 957 956 753 827 803 753 803 754 709 1182 913 816 929 812 763 822 764 675 959 672 1029 1083 953 769 796 770 733 940 729 831 993 951 860 944 822 789 873 750 785 933 774 1020 1128 1059 611 1131 934 760 948 730 763 860 822 987 1147 931 756 812 757 739 740 732 718 736 726 831 950 820 759 760 730 701 971 698 1060 1074 652 978 1221 922 692 928 691 718 722 710 938 1110 632 726 734 722 740 987 732 828 1032 949 869 935 788 783 871 784 703 709 704 785 934 933 1005 1131 1048 667 711 668 735 749 734 954 996 761 789 905 873 935 1193 936 695 928 692 832 953 952 677 909 678 663 1185 1092 777 882 795 924 1208 974 783 894 871 853 907 842 755 771 733 810 874 811 777 883 882 859 906 793 664 989 667 855 857 856 1077 1195 666 726 735 734 1126 1162 1025 773 832 749 819 889 884 779 888 780 796 799 797 796 937 799 819 884 834 822 892 823 949 1203 948 810 918 874 787 788 740 937 943 799 736 1088 968 762 776 760 629 1144 955 772 774 741 778 977 773 1053 1138 616 853 955 907 816 930 929 827 974 904 824 1199 1031 812 861 813 900 995 898 765 766 747 672 959 671 831 951 950 850 851 849 709 710 704 793 927 790 978 1227 629 744 917 685 702 1018 701 971 1095 772 842 945 839 782 810 809 1138 1223 616 948 1226 730 968 969 966 828 949 948 803 958 804 925 926 924 751 789 750 987 1229 732 815 819 818 923 925 924 693 708 694 871 911 872 898 1135 899 867 869 788 847 849 845 857 900 898 737 748 719 800 973 802 612 1150 1061 907 1207 1130 862 1011 988 832 952 749 639 1030 984 614 1112 950 731 752 715 977 984 833 982 1199 765 749 761 734 843 853 842 851 852 849 884 921 915 852 979 978 775 785 774 700 1000 703 709 913 718 815 916 819 729 758 716 859 1003 906 898 899 856 1065 1180 1036 940 1225 729 670 1079 673 686 687 685 782 919 810 794 859 793 730 1226 767 833 1029 832 877 895 879 732 1229 756 996 1219 963 802 891 890 742 743 724 983 1175 895 735 773 749 698 971 697 972 973 800 714 989 739 910 1004 869 986 1153 891 946 947 838 729 1225 769 995 1167 618 893 1078 1026 851 980 852 875 983 877 944 1177 892 1001 1002 883 767 768 727 898 1220 1135 722 723 710 887 993 831 799 972 800 862 881 851 1012 1033 866 1082 1091 689 683 706 684 841 842 839 850 862 851 990 1021 805 849 922 845 705 1018 702 783 784 746 688 982 687 965 968 966 696 697 695 1017 1114 1016 773 833 832 763 764 748 1012 1034 654 852 978 922 847 850 849 756 757 728 825 1147 987 753 754 752 1018 1127 701 792 793 790 837 838 786 862 988 881 758 1077 716 1024 1162 627 865 1077 758 661 1015 462 769 770 758 776 990 870 910 1148 1069 960 1224 860 871 1136 911 676 1179 675 771 992 887 701 1127 971 907 1130 945 974 1007 904 939 999 938 1166 1167 902 777 795 743 822 823 764 941 1093 707 735 778 773 884 1150 921 803 804 754 705 1019 1018 670 671 669 1076 1085 806 796 797 770 779 780 768 714 739 732 810 811 809 680 681 679 806 1158 1076 919 920 918 1026 1126 1025 1017 1120 891 871 872 784 874 875 811 661 1142 1015 1054 1222 946 904 958 803 712 759 730 819 834 818 856 970 848 984 985 833 820 940 733 895 896 879 812 813 757 929 1128 861 691 1031 982 892 893 823 884 915 834 828 948 760 850 863 862 669 1077 666 799 800 797 632 1181 943 1035 1151 882 717 755 733 951 1099 950 863 1011 862 1025 1162 1024 798 939 938 686 1082 689 905 1140 1065 721 835 738 1053 1094 926 1003 1010 906 683 941 707 958 1075 804 874 1074 875 911 912 872 825 987 740 957 1024 956 458 1016 457 720 772 741 883 1113 882 943 972 799 773 977 833 690 1090 693 991 1070 835 942 1103 888 745 765 747 725 751 750 1160 1176 954 680 941 683 739 787 740 690 691 688 696 1037 699 690 1187 1090 1004 1073 869 703 704 702 776 870 866 667 989 714 771 887 831 906 927 793 718 913 736 675 1076 959 759 762 760 932 1070 872 1054 1130 621 787 867 788 905 1036 873 907 945 842 700 701 698 988 1008 881 642 1136 1047 901 902 900 866 1032 828 969 1132 966 957 1025 1024 841 843 842 762 990 776 894 1178 1136 943 1081 972 852 980 979 674 675 672 867 910 869 755 992 771 1203 1226 948 715 962 679 870 1012 866 703 1000 713 903 914 902 854 855 848 988 1009 1008 664 665 662 684 685 682 806 1156 992 772 775 774 968 1088 896 677 1149 909 659 1063 1008 792 794 793 852 922 849 837 839 838 751 790 789 727 1117 708 765 1006 766 816 931 930 955 1144 1057 775 786 785 1006 1105 766 882 1151 795 694 695 692 819 916 889 746 991 744 762 1021 990 677 678 676 667 668 666 664 667 666 891 1120 890 997 1125 834 810 919 918 666 1195 665 674 677 676 704 705 702 700 703 702 728 1115 711 686 688 687 900 1167 995 952 1096 954 670 672 671 1033 1191 631 967 1132 1028 630 1139 974 1011 1049 645 1026 1105 893 402 1183 1002 678 679 676 832 1029 953 1069 1148 635 696 698 697 712 1090 759 967 1028 1027 693 694 692 957 1026 1025 668 669 666 633 1190 1001 944 1106 1039 680 682 681 866 1033 1032 1002 1190 402 846 848 847 724 1154 706 980 1107 979 690 693 692 690 692 691 1022 1091 1082 975 1129 880 990 1151 870 961 1224 960 912 1198 932 1038 1096 953 660 1197 1098 618 1167 1052 921 1119 915 904 1188 958 875 1074 983 663 664 662 953 1096 952 700 702 701 875 877 876 674 676 675 1032 1186 949 892 1078 893 1043 1108 936 664 666 665 925 1198 926 683 684 682 465 1013 464 971 1127 1095 877 879 878 1065 1140 609 680 683 682 857 901 900 798 1225 939 800 802 801 895 1087 896 759 1090 908 646 1220 1170 610 1206 1034 780 782 781 670 673 672 1044 1214 985 1072 1127 1018 725 1093 751 624 663 662 684 686 685 673 674 672 802 890 807 467 635 466 461 637 460 906 1192 927 821 1231 1071 1147 1230 1209 465 1014 1013 926 1198 1138 1019 1218 840 899 970 856 782 809 808 813 815 814 870 1035 1012 464 624 463 716 1077 669 723 975 710 1034 1137 610 846 847 845 618 1170 995 694 696 695 901 903 902 469 656 468 459 657 458 434 1038 433 431 1044 430 443 626 442 435 625 434 283 1040 282 282 641 281 381 660 380 428 658 427 284 615 283 281 1039 280 455 655 454 450 632 449 382 1042 381 280 619 279 442 1050 441 279 1041 278 383 640 382 426 639 425 453 634 452 287 627 286 278 644 277 384 1043 383 288 1047 287 277 1048 276 439 618 438 386 628 385 423 623 422 289 642 288 276 611 275 445 645 444 432 636 431 438 1052 437 444 1049 443 290 1045 289 275 1046 274 422 1055 421 291 616 290 274 647 273 421 648 420 441 646 440 436 1056 435 292 1053 291 273 1054 272 389 622 388 420 1058 419 437 643 436 272 621 271 390 1059 389 419 613 418 294 630 293 271 1057 270 391 649 390 418 1060 417 392 1061 391 417 652 416 269 629 268 393 612 392 297 617 296 394 1062 393 415 620 414 395 650 394 299 651 298 266 638 265 413 653 412 265 1063 264 412 1064 411 264 659 263 4 614 301 398 609 397 411 608 410 399 1065 398 410 1066 409 409 1068 408 401 633 400 408 631 407 406 654 405 404 610 403 903 996 914 815 818 817 1019 1134 1121 969 1165 1055 674 1071 677 1067 1228 942 609 1192 1010 933 1131 1005 696 699 698 650 1143 1003 668 670 669 462 1015 461 926 1138 1053 1001 1190 1002 678 680 679 860 1106 944 931 1229 987 460 1023 459 699 700 698 657 1016 458 710 975 704 708 1037 694 673 1071 674 844 845 843 861 1128 1020 468 1069 467 880 1101 855 957 1105 1026 1012 1035 1034 452 1081 451 908 1021 762 751 1093 791 829 997 794 282 1040 641 615 1040 283 641 1039 281 381 1042 660 280 1039 619 619 1041 279 640 1042 382 636 1044 431 625 1038 434 278 1041 644 383 1043 640 443 1049 626 287 1047 627 644 1048 277 626 1050 442 642 1047 288 276 1048 611 435 1056 625 441 1050 646 645 1049 444 289 1045 642 611 1046 275 623 1055 422 616 1045 290 274 1046 647 421 1055 648 437 1052 643 618 1052 438 291 1053 616 647 1054 273 648 1058 420 643 1056 436 272 1054 621 389 1059 622 419 1058 613 621 1057 271 649 1059 390 613 1060 418 391 1061 649 417 1060 652 612 1061 392 393 1062 612 650 1062 394 638 1063 265 653 1064 412 264 1063 659 411 1064 608 398 1065 609 608 1066 410 1066 1068 409 408 1068 631 945 1130 946 681 1212 721 976 1129 723 840 841 839 1007 1139 295 854 880 855 1087 1165 896 999 1110 938 791 792 790 657 1017 1016 686 689 688 634 1081 452 433 1083 432 836 837 786 932 1198 925 1118 1159 617 624 1013 663 981 1202 652 620 1202 981 301 1099 300 953 1083 1038 999 1112 614 834 1125 818 1038 1083 433 432 1083 636 846 854 848 934 1131 933 950 1171 820 414 1086 413 994 1118 651 711 1079 668 989 1184 739 620 1086 414 413 1086 653 875 876 811 986 1205 655 634 1205 986 804 1156 806 689 690 688 1170 1220 995 997 1213 794 622 1089 388 466 1014 465 800 801 797 943 1181 1081 1166 1176 643 267 1107 266 823 824 764 784 991 746 292 1094 1053 630 1094 293 705 1134 1019 707 1093 725 1124 1169 1051 913 1196 736 723 1129 975 693 1090 712 958 1188 1159 388 1089 387 804 806 754 267 1168 1107 626 1051 1050 640 1073 1042 615 1078 1040 608 1067 1066 795 805 743 456 1114 455 941 1155 1093 780 781 768 648 1087 1058 706 1082 684 872 1070 784 467 1069 635 1001 1215 633 293 1094 292 847 1216 850 386 1102 628 877 878 876 813 814 757 1044 1097 430 624 661 463 644 1161 1005 637 1023 460 770 865 758 1119 1213 915 654 1191 1033 624 662 661 459 1023 657 285 1126 284 752 962 715 802 807 801 384 1108 1043 628 1108 385 857 1101 901 461 1015 637 946 1222 947 966 1132 967 632 1110 449 1099 1163 300 656 1069 468 863 1169 1124 1113 1137 882 841 844 843 297 1118 617 651 1118 298 816 1229 931 782 808 781 295 1139 294 787 868 867 792 829 794 766 1105 957 625 1096 1038 837 840 839 1112 1171 950 815 817 814 751 791 790 1036 1180 633 387 1102 386 891 1153 1017 1089 1102 387 824 1173 1006 878 1196 1182 809 858 808 775 836 786 469 1098 656 1034 1206 654 927 1192 1140 614 1099 301 1014 1185 1013 430 1097 429 894 1136 871 20 1204 456 457 1204 20 818 821 817 286 1162 285 855 1101 857 736 1196 1088 759 908 762 890 1104 807 470 1098 469 809 1080 858 403 1183 402 844 846 845 395 1143 650 1057 1144 270 269 1144 629 901 976 903 784 1070 991 1021 1022 805 385 1108 384 1147 1209 931 402 1190 401 811 1080 809 829 998 997 1002 1113 883 424 1152 1028 1027 1152 639 896 1088 879 770 1109 865 299 1163 651 380 1210 18 449 1110 448 889 1150 884 694 1037 696 629 1168 268 439 1170 618 646 1170 440 668 1079 670 662 1142 661 627 1178 1024 836 1072 837 18 1210 470 1006 1173 1105 914 1166 902 631 1186 1032 994 1159 1118 266 1107 638 633 1215 1036 399 1180 1065 633 1180 400 450 1181 632 19 1201 428 429 1201 19 901 1101 976 665 1194 1100 859 1119 1003 263 1200 0 0 1200 447 631 1191 407 406 1191 654 653 1103 1064 1049 1124 626 876 1080 811 764 1084 748 689 1187 690 1010 1143 396 652 1202 416 415 1202 620 655 1205 454 453 1205 634 654 1206 405 404 1206 610 684 1082 686 936 1147 825 939 1112 999 298 1118 297 754 1085 752 863 1124 1011 1081 1181 451 655 1153 986 797 1109 770 649 1172 1020 837 1072 840 820 1171 940 1063 1164 1008 807 864 801 858 1157 1000 974 1139 1007 807 897 864 455 1114 655 930 1102 1089 446 1146 1009 1039 1106 619 1107 1168 979 824 1084 764 1046 1116 647 992 1156 887 752 1085 962 951 1163 1099 823 1173 824 768 1117 727 806 1085 754 757 1115 728 464 1013 624 817 886 814 1051 1135 1050 808 885 781 859 1213 1119 1086 1189 653 1011 1124 1049 1055 1165 648 895 1175 1087 979 1227 978 902 1167 900 425 1152 424 772 1095 775 1096 1160 954 643 1176 1056 926 1208 924 657 1120 1017 879 1196 878 665 1195 1194 1067 1145 1066 1000 1157 713 284 1126 615 639 1152 425 792 1133 829 899 1135 1051 897 1100 864 912 1223 1138 1003 1143 1010 801 1109 797 1068 1186 631 1059 1128 622 635 1014 466 908 1091 1021 1078 1177 1040 880 1129 1101 1008 1164 881 1087 1175 1058 914 1176 1166 995 1220 898 807 1104 897 791 1133 792 868 1184 1092 1076 1179 1085 640 1193 1073 1048 1131 611 616 1223 1045 1073 1197 1042 1045 1223 911 647 1222 1054 892 1177 1078 625 1160 1096 911 1223 912 814 1115 757 608 1228 1067 677 1217 1149 868 1148 867 626 1124 1051 931 1209 930 775 1095 836 781 1117 768 1050 1135 646 1028 1152 1027 1031 1199 982 396 1143 395 882 1137 1035 270 1144 269 1097 1174 658 1021 1091 1022 610 1137 1113 294 1139 630 1029 1214 636 840 1218 841 1035 1137 1034 805 1154 743 1106 1141 619 854 1134 880 920 1189 1086 1023 1120 657 818 1125 821 947 1222 1116 870 1151 1035 1092 1185 868 447 1146 446 899 1169 970 1093 1155 791 619 1141 1041 756 1229 816 1076 1158 959 998 1125 997 1051 1169 899 846 1121 854 878 1111 876 767 1226 826 1016 1204 457 864 1109 801 826 1203 1067 769 1225 798 853 1221 955 1209 1230 628 300 1163 299 844 1121 846 630 1208 1094 1092 1184 989 1004 1197 1073 990 1232 1151 1103 1189 888 1066 1145 1068 794 1213 859 268 1168 267 440 1170 439 743 1154 724 658 1174 1030 1103 1228 1064 627 1162 286 887 1156 1075 893 1173 823 787 1184 868 1022 1154 805 867 1148 910 886 1115 814 876 1111 1080 1007 1188 904 1133 1149 829 1182 1196 913 885 1117 781 400 1180 399 451 1181 450 976 1219 903 1056 1160 625 1121 1134 854 1041 1161 644 638 1164 1063 755 1158 992 791 1155 1133 1120 1211 890 858 1122 808 860 1224 1106 1052 1166 643 1141 1161 1041 1075 1156 804 919 1233 920 1010 1192 906 821 1123 817 1105 1173 893 1146 1200 659 456 1204 1114 1109 1194 865 1080 1157 858 1101 1129 976 610 1183 403 407 1191 406 1058 1175 613 1061 1172 649 1106 1224 1141 648 1165 1087 1040 1177 641 416 1202 415 1071 1217 677 897 1142 1100 454 1205 453 1047 1178 627 405 1206 404 808 1122 885 401 1190 633 817 1123 886 836 1127 1072 850 1216 863 865 1195 1077 826 1226 1203 739 1184 787 942 1228 1103 829 1149 998 1094 1208 926 659 1200 263 428 1201 658 660 1210 380 1023 1211 1120 1043 1193 640 1067 1203 1145 1095 1127 836 1042 1197 660 1036 1215 873 864 1194 1109 629 1227 1168 1102 1209 628 930 1209 1102 1189 1233 888 621 1207 1057 961 1161 1141 765 1199 1006 795 1232 805 636 1214 1044 890 1211 1104 1111 1157 1080 844 1218 1121 721 1212 835 1085 1179 962 637 1211 1023 1159 1188 617 878 1182 1111 628 1230 1108 1064 1228 608 1113 1183 610 1104 1211 637 653 1189 1103 1090 1187 908 1002 1183 1113 903 1219 996 675 1179 1076 1100 1194 864 939 1171 1112 1097 1201 429 998 1231 1125 1125 1231 821 1088 1196 879 658 1201 1097 1114 1204 1016 713 1157 1111 470 1210 1098 841 1218 844 1140 1192 609 1056 1176 1160 1130 1207 621 909 1149 1133 1098 1210 660 1145 1186 1068 1145 1203 949 1116 1222 647 1121 1218 1019 1111 1182 713 908 1187 1091 1133 1155 909 863 1216 1169 949 1186 1145 1138 1198 912 1091 1187 689 447 1200 1146 1135 1220 646 1108 1230 936 1169 1216 970 1194 1195 865 936 1230 1147 1149 1217 998 920 1233 1189 1141 1224 961 1168 1227 979 1151 1232 795 1217 1231 998 1071 1231 1217 1591 1865 1368 1241 1796 1615 1545 1734 1672 1367 1931 1808 1333 1928 1851 1637 1639 1632 1567 1859 1568 1254 1652 1651 1592 1934 1756 1678 1955 1772 1270 1757 1598 1760 1934 1551 1794 1856 1659 1808 1809 1367 1816 1865 1591 1705 1789 1788 1262 1825 1674 1370 1865 1816 1678 1772 1554 1624 1736 1457 1672 1734 1246 1639 1968 1632 1254 1965 1652 1875 1980 1573 1525 1844 1724 1598 1757 1614 1395 1664 1453 1664 1903 1852 1703 1710 1700 1624 1938 1736 1368 1901 1591 1630 1710 1703 1668 1670 1669 1275 1968 1639 1673 1830 1251 1668 2035 1602 1674 1825 1675 1387 1640 1372 1705 1788 1247 1724 1844 1256 1573 1980 1583 1756 1934 1268 1614 1757 1287 39 1758 38 1650 1775 1584 1608 2005 1450 1258 1810 1682 1496 1637 1632 1679 1760 1551 1717 1907 1781 1680 1883 1723 1758 1972 38 1422 1608 1450 257 1660 258 1772 1948 1281 1481 1635 1478 1771 1772 1281 1682 1810 1684 1659 1856 1574 1457 2025 1624 1287 1758 1614 1638 1650 1468 1427 1951 1914 1335 1567 1325 1424 1661 1438 1661 2004 1438 1387 1831 1640 1288 1801 1770 1323 1335 1325 1673 1905 1892 1755 1819 1693 1717 1781 1274 1381 1664 1395 1745 1767 1267 1288 1290 36 1711 1914 1412 1670 1671 1669 1693 1819 1692 1646 1830 1673 1859 1860 1568 1615 1821 1241 1703 1914 1711 1466 1650 1584 1450 2005 1565 1673 1892 1674 1249 1913 1879 1377 1903 1664 1879 1913 1693 1635 2013 1478 1765 1815 1746 1338 1963 1606 1675 1676 1529 1723 1945 1680 1447 1645 1425 1606 2023 1338 1268 1934 1760 1810 1848 1684 1756 1800 1592 1575 1949 1920 1641 1658 1549 1864 1922 1595 1631 1633 1485 1654 1655 1516 1305 1601 1338 1323 1325 1324 1684 1848 1735 1716 1728 1532 1246 1708 428 1777 1850 1284 1549 1658 1582 1705 1840 1789 1680 1897 1883 1323 2024 1570 1857 2005 1923 1471 1638 1468 1650 1996 1775 1459 1641 1549 1959 2006 1469 1494 1675 1529 1796 1828 1615 1374 1640 1377 1543 1734 1545 1303 1601 1305 1653 1853 1239 1395 1416 1394 1497 1637 1496 1291 1294 1293 1746 1952 1765 1294 1421 1295 1393 1417 1387 1646 1673 1524 1329 1336 1332 1371 1393 1387 1427 1914 1702 1723 1730 1721 1432 1433 1404 1341 1365 1343 1595 1888 1864 1663 1839 1272 1301 1616 1367 1645 1986 1425 428 1708 19 1372 1640 1374 1388 1404 1389 1584 1666 1464 1347 1457 1349 1354 1411 1366 1639 1817 1275 1381 1395 1394 1344 1607 1347 1303 2031 1601 1365 1414 1403 1483 1631 1485 1290 1731 1291 1648 1649 1531 1612 2034 2001 1381 1394 1382 1642 1643 1541 1613 1856 1794 1513 1654 1516 1311 1323 1313 1411 1424 1413 1393 1425 1417 1363 1647 1371 1851 1928 1699 1411 1413 1366 1350 1677 1354 1299 1616 1301 1365 1403 1343 1567 1953 1858 1802 2034 1612 1493 1646 1524 1388 1432 1404 1337 1603 1341 1391 1887 1881 1468 1650 1466 1616 1931 1367 1418 1619 1419 36 1290 35 1458 1459 1421 1891 1957 1740 1617 1618 1418 1395 1422 1416 1422 1450 1416 258 1660 1252 1425 1451 1417 1299 2034 1616 1458 1731 1577 1384 1388 1386 1434 1491 1433 1732 2014 1726 1325 1327 1326 1519 1642 1541 1598 2028 1270 1910 1970 1390 1432 1434 1433 1371 1387 1372 1694 1970 1910 1658 1926 1582 1507 1648 1531 1424 1438 1413 1378 1381 1380 1716 1975 1728 1377 1664 1378 1305 1338 1307 1414 1442 1435 1360 1362 1361 1294 1295 1293 1404 1617 1405 434 1912 1899 1414 1435 1403 1525 1724 1575 1344 2021 1607 1457 1805 1349 1572 2035 1668 1294 1731 1458 1820 1823 1515 1862 1959 1469 1566 1797 1792 1405 1418 1409 1438 2004 1564 1374 1377 1376 1554 1842 1678 1294 1458 1421 1694 1910 1440 1691 1957 1891 1255 1701 1697 1405 1617 1418 1335 1953 1567 1436 1493 1437 1653 1678 1556 1442 1657 1543 1459 1549 1487 1730 1841 1721 1537 1717 1716 1384 2019 1388 1337 1341 1340 1378 1664 1381 1619 2026 1419 1301 1367 1303 1290 1291 1263 1618 1620 1619 1576 1641 1459 1419 1436 1423 1288 1874 1290 1631 1784 1633 1252 1941 1861 1267 1933 1745 1708 1960 19 1341 1343 1342 1362 1647 1363 1483 1485 1481 1502 1563 1491 1707 1904 415 1434 1502 1491 1726 2014 1727 1733 1779 1244 1266 1726 1704 1722 1723 1721 1547 1733 1714 1638 1996 1650 1495 1646 1493 1441 1489 1424 35 1290 1263 1336 1337 1332 1245 1926 1658 1363 1371 1369 1297 1397 1299 1712 2008 1839 1722 1945 1723 1411 1677 1441 1266 1732 1726 1854 1880 1366 1665 1728 1236 1456 1553 1454 1354 1366 1355 1493 1524 1494 415 1981 1707 1285 1722 1721 1442 1543 1435 1713 1996 1638 1496 1631 1483 1438 1564 1512 1531 1653 1556 1621 1622 1620 1451 1542 1507 1519 1541 1447 1450 1520 1506 1568 2022 1567 1859 2006 1860 1446 1447 1425 1858 1859 1567 1767 1811 1267 1357 1360 1359 1464 1666 1462 1542 1648 1507 1311 2024 1323 1456 1554 1553 1459 1487 1421 1388 1389 1386 1773 1774 1593 1454 1608 1422 1440 1927 1694 1404 1405 1389 1436 1495 1493 1583 1880 1854 1703 1711 1630 1565 1566 1520 1496 1632 1631 1758 1811 1614 1714 1907 1717 1881 1887 1711 1564 1600 1512 1523 1552 1475 1553 1771 1609 1450 1565 1520 1532 1534 1500 1744 1745 1253 1347 1349 1348 1844 1869 1727 1618 1621 1620 1451 1507 1452 1490 1558 1489 1565 2005 1857 1458 1576 1459 1654 1706 1655 1664 1852 1453 1712 1839 1558 1350 2029 1677 1663 1787 1662 1737 1908 1255 1418 1419 1409 1675 1825 1676 1558 1560 1489 1649 1853 1653 1475 1638 1471 1618 1619 1418 1491 1656 1492 1822 2004 1989 1347 1607 1457 1561 1642 1519 1436 1437 1423 1549 1582 1581 1502 1613 1563 1547 1714 1538 1448 1519 1447 1500 1637 1497 1394 1610 1382 1523 1651 1552 1537 1716 1533 1861 1941 1769 1381 1382 1380 1462 1657 1442 1290 1874 1731 1272 1976 1663 1327 1329 1328 1453 1454 1422 1487 1807 1421 1257 1978 1625 1666 1960 1708 1323 1324 1313 1651 1652 1552 1600 1706 1654 1323 1570 1335 1443 1462 1442 1331 1902 1845 1611 1807 1487 1736 1805 1457 1493 1494 1437 1462 1666 1657 1553 1609 1608 1507 1531 1508 1350 1354 1352 1482 1483 1481 1731 1874 1577 1438 1512 1439 1528 1561 1519 1520 1659 1574 1860 1959 1604 1632 1784 1631 1336 1991 1866 1603 1833 1365 1325 2022 1327 1595 1712 1559 1246 1734 1708 1922 2012 1595 1561 1828 1642 1489 1661 1424 1545 1672 1596 1484 1496 1483 1397 2034 1299 1455 1456 1454 1601 1963 1338 1538 1714 1537 1491 1492 1433 1633 1636 1634 1733 1966 1779 1657 1734 1543 1651 1849 1254 1501 1532 1500 1595 2012 1712 1510 1869 1844 1362 1890 1647 1559 1712 1558 1560 1663 1662 1377 1378 1376 1625 1990 1257 1255 1908 1701 1548 1593 1547 1411 1441 1424 1621 1705 1622 1533 1716 1532 1289 1850 1777 1735 1848 1249 1291 1293 1292 1534 1665 1639 1382 1610 1384 1450 1506 1416 1719 1829 1338 1641 1660 1658 1594 1595 1559 1360 1980 1875 1341 1603 1365 1673 1674 1524 1633 1634 1485 1518 1900 1835 1344 1347 1346 1354 1677 1411 1605 1615 1561 1774 1966 1593 35 1263 34 37 1288 36 1337 2030 1603 1674 1892 1262 1534 1639 1637 1596 1888 1546 1425 1986 1451 1549 1581 1487 1669 1846 1834 1666 1708 1657 1704 1726 1529 1863 1909 1410 1524 1675 1494 33 1255 32 1476 1523 1475 1577 1874 1770 1860 2006 1959 1284 1977 1777 1540 1547 1538 1706 1707 1655 1396 1827 1729 33 1737 1255 1567 2022 1325 1480 1481 1478 1419 2026 1436 1249 1879 1735 1604 1866 1860 1834 1846 1763 1499 1500 1497 1622 1623 1620 1513 1516 1515 1239 1955 1653 1536 1537 1533 1466 1584 1464 1552 1713 1638 1656 1840 1492 1563 1656 1491 1414 1443 1442 1261 1760 1679 1658 1889 1245 1325 1326 1324 1770 1801 1265 1292 1737 1263 1582 1773 1581 1360 1875 1362 1441 1490 1489 1564 1822 1600 1900 1929 1835 1532 1728 1534 1393 1446 1425 1649 1653 1531 1451 1452 1417 1794 2010 1613 1456 1842 1554 1520 1574 1506 1371 1372 1369 1560 1662 1661 1789 1840 1656 1824 1943 1886 1485 1635 1481 1295 1807 1297 1253 1746 1744 1714 1717 1537 1706 1983 1277 1643 1644 1541 1543 1545 1544 1288 1958 1801 1553 1608 1454 1473 1475 1471 1490 1559 1558 1617 1942 1618 1911 1997 1330 1512 1654 1513 1566 1659 1520 1899 1912 1636 1792 1994 1566 1463 1464 1462 1552 1638 1475 1362 1363 1361 1560 1839 1663 1338 1829 1307 1291 1731 1294 1341 1342 1340 1515 2002 1820 1329 1991 1336 1660 1941 1252 1545 1596 1546 1831 1895 1640 1404 2036 1617 1287 1972 1758 1920 1949 1250 1446 1448 1447 1507 1508 1452 1715 1917 1701 1564 2004 1822 1844 2014 1256 1647 2033 1371 1360 1361 1359 1584 1960 1666 1534 1637 1500 1343 2021 1344 1600 1983 1706 1640 1903 1377 1438 1439 1413 1448 1528 1519 1721 1841 1709 1652 1713 1552 1263 1737 34 1677 1870 1441 1531 1556 1508 1395 1453 1422 1541 1645 1447 1329 1332 1331 1563 1826 1656 1764 1768 1264 1572 1834 1571 1246 1919 1672 1528 1605 1561 1236 1985 1665 1540 1548 1547 1593 1733 1547 1554 1771 1553 1774 1813 1271 1772 1955 1832 1433 2036 1404 1888 1938 1546 1641 1941 1660 1600 1654 1512 1416 1667 1394 1536 1538 1537 1656 1826 1789 1570 1835 1335 1717 1924 1716 1542 1943 1824 1285 1721 1720 1501 1533 1532 1494 1529 1526 1499 1501 1500 1432 1557 1434 1676 1704 1529 1421 1807 1295 1512 1513 1439 1642 2009 1643 1482 1484 1483 1367 2031 1303 1414 1833 1443 1419 1423 1420 1336 2030 1337 1484 1497 1496 1686 1695 1683 1453 1455 1454 1554 1772 1771 1354 1355 1352 1560 1661 1489 1443 1463 1462 1357 1980 1360 1452 1831 1417 1480 1482 1481 1557 1725 1434 1455 1587 1456 1307 1829 1309 1251 1905 1673 1733 1907 1714 1312 1818 1310 1295 1297 1296 1643 2009 1795 1405 1409 1408 1343 1344 1342 1515 1823 1573 1683 1695 1586 1543 1544 1435 1349 1350 1348 1473 1476 1475 1509 1831 1452 1884 1977 1284 1465 1466 1464 1534 1728 1665 1895 1982 1588 1327 1991 1329 1434 1725 1502 1347 1348 1346 1327 1328 1326 1745 1933 1253 1620 1939 1619 1670 1909 1671 1603 1974 1833 1718 1814 1440 1261 1945 1944 1429 1921 1851 1545 1546 1544 1542 1824 1648 1443 1833 1488 1548 1773 1593 1771 1947 1609 1382 1384 1383 1769 1770 1265 1291 1292 1263 1696 1843 31 1685 1735 1688 1412 1881 1711 1665 1817 1639 1474 1878 1859 1394 2032 1610 1322 1738 1398 1710 1962 1700 1738 1740 1398 1320 1738 1322 1391 1748 1739 1321 1748 1391 1430 1740 1504 1398 1740 1430 1400 1754 1748 1748 1754 1739 1392 1747 1426 1400 1748 1334 1426 1747 1461 1741 1747 1392 1449 1741 1401 1449 1742 1741 1401 1741 1364 1449 1743 1742 1742 1747 1741 1505 1749 1431 1743 1767 1745 1749 1767 1743 1743 1744 1742 1599 1749 1505 1431 1749 1449 1449 1749 1743 1743 1745 1744 1428 1754 1400 1503 1751 1597 1460 1750 1527 1521 1752 1580 1739 1754 1626 1626 1754 1522 504 1757 503 503 1757 1270 488 1756 1268 500 1755 499 503 1270 502 489 1756 488 493 1759 1269 1270 1766 502 47 1764 46 494 1759 493 498 1249 497 486 1261 485 48 1286 47 488 1268 487 490 1761 489 492 1763 491 493 1269 492 495 1258 494 501 1259 500 486 1760 1261 489 1761 1756 1269 1763 492 43 1253 42 46 1264 45 41 1267 40 1286 1764 47 484 1285 483 1259 1755 500 1627 1681 1629 1258 1759 494 501 1766 1259 1264 1765 45 487 1760 486 46 1764 1264 1268 1760 487 491 1260 490 491 1763 1260 505 1287 504 1260 1761 490 1629 1630 1628 45 1765 44 502 1766 501 1629 1710 1630 1287 1757 504 1627 1629 1628 1628 1739 1626 1627 1628 1626 1625 1627 1626 1598 1614 1599 1625 1626 1522 1580 1625 1522 1598 1599 1505 1527 1753 1752 1597 1598 1505 1521 1580 1522 1522 1754 1428 1527 1752 1521 1504 1751 1503 1521 1522 1428 1461 1750 1460 1460 1527 1521 1503 1597 1505 1426 1461 1460 1503 1505 1431 1430 1504 1503 1460 1521 1428 1426 1460 1428 1430 1503 1431 1431 1449 1401 1599 1767 1749 1426 1428 1400 1430 1431 1401 1398 1430 1401 1392 1426 1400 1392 1400 1334 1364 1741 1392 1398 1401 1364 1690 1693 1692 1364 1392 1334 1322 1398 1364 1690 1692 1691 1322 1364 1334 1334 1748 1321 1690 1691 1689 1322 1334 1321 1689 1694 1687 1688 1690 1689 1320 1322 1321 1321 1391 1319 1390 1738 1320 1688 1689 1687 1318 1390 1320 1320 1321 1319 1851 1921 1333 1685 1688 1687 1318 1320 1319 1685 1687 1686 1746 1812 1744 1371 2033 1393 1607 2025 1457 1277 1904 1706 1562 1594 1559 1828 2009 1642 1318 1319 1317 1685 1686 1683 1684 1735 1685 1384 1386 1385 1577 1769 1576 1750 1768 1527 1407 1885 1578 28 1946 1681 1708 1734 1657 1812 1815 1461 480 1250 479 1527 1768 1753 1674 1675 1524 1317 1412 1315 1316 1318 1317 1667 2032 1394 1684 1685 1683 1582 1774 1773 1336 1866 1604 1653 1955 1678 1787 1989 1662 1751 2003 1597 1827 2016 1729 1725 1856 1502 1314 1718 1440 495 1810 1258 1599 1811 1767 1747 1812 1461 1744 1812 1742 447 1813 0 1769 1941 1576 1558 1839 1560 1365 1833 1414 2003 2028 1597 1770 1874 1288 477 1256 476 1463 1465 1464 1636 1849 1634 429 1234 430 446 1271 447 445 1779 446 442 1274 443 380 1289 381 427 1246 428 381 1776 382 441 1782 442 382 1262 383 425 1273 426 19 1775 429 424 1778 425 423 1243 424 437 1275 438 385 1251 386 422 1780 423 444 1244 445 432 1254 433 443 1781 444 386 1785 387 421 1272 422 387 1276 388 440 1236 441 435 1235 436 388 1786 389 419 1787 420 436 1783 437 389 1247 390 418 1242 419 390 1788 391 417 1790 418 391 1278 392 416 1277 417 392 1791 393 393 1237 394 394 1793 395 413 1241 414 395 1279 396 412 1796 413 396 1792 397 411 1280 412 397 1797 398 410 1795 411 398 1238 399 399 1798 400 408 1240 409 400 1281 401 407 1799 408 406 1282 407 403 1239 404 1378 1380 1379 1845 1911 1331 1349 2029 1350 1574 1856 1725 1746 1815 1812 1338 2023 1719 1852 1903 1588 34 1737 33 1761 1800 1756 1704 1884 1266 1762 1846 1671 1337 1340 1339 481 1709 480 1297 1299 1298 482 1720 481 438 1817 439 475 1266 474 1297 2038 1397 1718 1906 1814 1494 1526 1437 1704 1977 1884 1681 2018 28 1615 1828 1561 496 1810 495 1314 1440 1316 1784 2037 1633 30 1248 29 24 1803 23 25 1283 24 27 1257 26 26 1804 25 1697 1699 1698 1614 1811 1599 1742 1812 1747 1316 1317 1315 1539 1540 1538 1655 1877 1516 1467 1468 1466 1417 1831 1387 473 1284 472 1917 2000 1701 1566 1857 1797 1758 1915 1811 1274 1924 1717 1480 1806 1482 1697 1851 1699 1775 1996 1234 1413 1854 1366 478 1724 477 1682 1684 1683 1597 2028 1598 429 1775 1234 446 1779 1271 1289 1776 381 382 1776 1262 1244 1779 445 425 1778 1273 1274 1781 443 1243 1778 424 442 1782 1274 423 1780 1243 1236 1782 441 444 1781 1244 1251 1785 386 1272 1780 422 387 1785 1276 437 1783 1275 1276 1786 388 1235 1783 436 389 1786 1247 1242 1787 419 1247 1788 390 418 1790 1242 391 1788 1278 1277 1790 417 1278 1791 392 393 1791 1237 1237 1793 394 395 1793 1279 413 1796 1241 1279 1792 396 1280 1796 412 1792 1797 397 411 1795 1280 398 1797 1238 1238 1798 399 400 1798 1281 408 1799 1240 1282 1799 407 1260 1762 1761 1535 1536 1533 1255 1697 1696 1634 1635 1485 476 1732 475 1275 1817 438 1495 1940 1646 1372 1374 1373 1593 1966 1733 1474 1859 1858 1809 2031 1367 1711 1887 1630 1461 1815 1750 1299 1301 1300 1295 1296 1293 257 1889 1660 1528 1820 1605 1249 1848 497 1273 2020 1919 1271 1966 1774 1578 1680 1679 1529 1726 1526 1588 1903 1895 1586 2007 1445 1682 1683 1586 1566 1994 1659 1301 1303 1302 1707 1821 1655 1513 1515 1514 1671 1909 1863 1315 1818 1312 1259 1819 1755 39 1915 1758 1458 1577 1576 1644 1645 1541 1498 1499 1497 1698 1843 1696 1419 1420 1409 1488 1974 1959 1374 1376 1375 1303 1305 1304 1679 1945 1261 1544 1855 1435 1516 2002 1515 1764 1998 1768 1667 1967 1557 1961 1973 1786 1693 1913 1755 1305 1307 1306 1248 1962 1710 1329 1331 1328 1565 1857 1566 32 1696 31 1706 1904 1707 1440 1910 1316 403 1832 1239 1283 1803 24 25 1804 1283 1257 1804 26 1307 1309 1308 1317 1881 1412 1470 1471 1468 1773 1918 1581 1490 1562 1559 1735 1879 1688 1713 1867 1234 1355 1880 1357 496 1848 1810 1506 1667 1416 1860 1866 1568 1695 1845 1586 1477 1478 1476 1834 1932 1571 1581 1611 1487 1699 1702 1700 402 1832 403 1309 1311 1310 1363 1369 1368 430 1867 431 1615 1877 1821 1604 2030 1336 1269 1834 1763 1762 1800 1761 1695 1997 1911 1867 1965 431 1289 1777 1776 1235 1784 1783 1790 1822 1242 1788 1789 1278 1793 1794 1279 1280 1828 1796 1690 1879 1693 1502 1856 1613 1391 1881 1319 1311 1313 1312 1465 1467 1466 1702 1703 1700 1405 1408 1389 1271 1813 447 1407 1578 1551 1578 1897 1680 1472 1473 1471 1239 1853 404 1739 1887 1391 1630 1887 1628 1282 1824 1799 1605 1877 1615 1647 1890 1837 1423 1510 1420 1738 1891 1740 1617 2036 1942 1479 1480 1478 1251 1830 1785 1944 1945 1722 260 1265 261 1444 2035 1572 1353 1876 1670 1720 1721 1709 1822 1983 1600 1388 1969 1432 1678 1842 1556 37 1958 1288 1723 1873 1730 1423 1869 1510 1807 2038 1297 1851 2000 1429 1660 1889 1658 258 1252 259 1540 1612 1548 1621 1840 1705 1562 1736 1594 1429 2000 1917 1478 2013 1476 1508 1509 1452 1842 1916 1556 1652 1867 1713 410 1868 1795 1240 1868 409 434 1899 435 1840 1942 1492 1318 1910 1390 1795 1868 1643 1991 2022 1568 1864 1888 1596 1285 1944 1722 1253 1952 1746 1355 1357 1356 1607 2021 1855 1435 1855 1403 1448 1555 1528 498 1913 1249 1755 1913 499 1536 1539 1538 1671 1863 1762 1725 1967 1574 415 1904 416 1803 1838 23 1632 1968 1784 1591 1901 1406 1501 1535 1533 404 1853 405 433 1912 434 1776 1825 1262 1278 1826 1791 1579 1719 1486 30 1843 1248 1701 2000 1697 1624 1855 1544 1253 1933 42 41 1933 1267 1613 1893 1563 23 1838 22 1719 1806 1486 1262 1892 383 1443 1488 1463 1357 1359 1358 497 1848 496 0 1245 256 406 1894 1282 484 1944 1285 1261 1944 485 1350 1352 1351 1765 1952 44 43 1952 1253 1337 1339 1332 31 1843 30 1256 1732 476 1513 1514 1439 259 1861 260 1382 1383 1380 1488 1959 1862 1886 1999 1240 1691 1970 1689 1484 1498 1497 480 1709 1250 1574 1967 1506 3 1972 505 38 1972 3 385 1905 1251 1550 1591 1406 1282 1993 1824 1625 1978 1627 1546 1624 1544 1314 1316 1315 1467 1470 1468 1681 2027 1629 261 1801 262 1762 1995 1800 262 1958 1 1386 1827 1396 475 1732 1266 0 1813 1245 1539 1802 1540 1587 1842 1456 1247 1973 1705 477 1724 1256 1455 1588 1587 1782 1924 1274 1919 2020 1672 1577 1770 1769 1250 1949 479 1699 1700 1698 1344 1346 1345 40 1915 39 427 1919 1246 1273 1919 426 1293 1715 1292 1819 2003 1751 1396 1883 1385 1473 1477 1476 1444 1572 1571 1297 1298 1296 1777 1825 1776 1789 1826 1278 1940 1950 1830 1535 1808 1536 472 1850 471 1330 1997 1906 409 1868 410 1648 1993 1649 414 1981 415 1855 2025 1607 1768 1998 1753 1540 1802 1612 29 1946 28 1309 2024 1311 1420 1871 1409 1821 1981 1241 1594 1888 1595 1702 1928 1427 1880 1980 1357 1284 1850 472 1585 1682 1586 1526 1869 1437 1695 1911 1845 1281 1948 401 1799 1886 1240 1610 2019 1384 1378 1379 1376 481 1720 1709 1914 1951 1818 1555 1820 1528 1465 1469 1467 1845 2007 1586 1470 1472 1471 1244 1907 1733 1682 2015 1258 1515 1573 1514 1384 1385 1383 432 1965 1254 1633 2037 1636 1686 1997 1695 1585 1586 1445 1536 1808 1539 1498 1517 1499 18 1992 380 1548 1918 1773 1603 2030 1974 421 1976 1272 1787 1976 420 1266 1884 474 2 1984 48 1 1958 37 440 1985 1236 1234 1867 430 1386 1396 1385 1676 1825 1777 1923 2005 1609 1707 1981 1821 1668 1669 1572 1843 1962 1248 2001 2034 1397 471 1992 18 1797 1857 1238 1835 1935 1518 1817 1985 439 22 1984 2 1778 1864 1273 1853 1894 405 1372 1373 1369 1477 1479 1478 1437 1869 1423 1634 1925 1635 1259 2003 1819 1260 1846 1762 1441 1870 1490 1470 1474 1472 483 1987 21 1906 1997 1814 1486 1806 1480 1353 1670 1668 1557 1967 1725 1283 1979 1971 1546 1938 1624 1366 1880 1355 1652 1965 1867 1687 1927 1686 1680 1945 1679 1726 1727 1526 1562 1805 1736 1939 2026 1619 474 1884 473 1697 1698 1696 1665 1985 1817 1299 1300 1298 1576 1941 1641 1530 1589 1511 1412 1818 1315 1802 1931 1616 1688 1879 1690 1774 1926 1813 402 1948 1832 1363 1368 1361 1479 1486 1480 1806 1847 1482 1472 1872 1473 1765 1954 1815 21 1987 482 1750 1954 1768 1499 1836 1501 1319 1881 1317 383 1892 384 1535 1809 1808 1509 1895 1831 1925 2013 1635 1446 1837 1448 1838 1956 1286 1768 1954 1264 1701 1908 1715 1301 1302 1300 405 1894 406 1622 1973 1961 256 1889 257 1590 1729 1589 1265 1861 1769 1628 1887 1739 473 1884 1284 27 2018 1257 1918 2001 1611 1573 1583 1514 1671 1846 1669 1824 1993 1648 1932 2015 1585 1498 1606 1517 1622 1961 1623 1510 1525 1511 1594 1938 1888 1355 1356 1352 1729 1873 1396 1385 1883 1399 1390 1891 1738 1510 1844 1525 1826 1893 1791 1389 1827 1386 1621 1942 1840 1705 1973 1622 1663 1976 1787 1800 1816 1592 1463 1862 1465 1374 1375 1373 1340 1402 1339 1517 1836 1499 1587 1916 1842 1350 1351 1348 1303 1304 1302 1283 1971 1803 1740 1957 1504 1672 2020 1596 1474 1858 1569 1276 1961 1786 1974 2030 1604 1849 1925 1634 1344 1345 1342 1482 1847 1484 1555 1823 1820 1474 1569 1472 1699 1928 1702 1324 1718 1313 1409 1871 1408 1439 1854 1413 1479 1518 1486 1508 1916 1509 1305 1306 1304 1855 2021 1403 1339 1902 1332 1557 2032 1667 1616 2034 1802 1242 1989 1787 1517 1964 1836 1791 1893 1237 1453 1852 1455 1763 1846 1260 435 1899 1235 1676 1977 1704 1878 2006 1859 384 1905 385 1646 1940 1830 1891 1970 1691 1892 1905 384 1863 1995 1762 1644 1999 1886 1509 1982 1895 1727 1869 1526 1649 1894 1853 1581 1918 1611 1579 1829 1719 1501 1836 1535 1824 1886 1799 1448 1837 1555 1727 2014 1844 1830 1950 1785 1525 1575 1530 1849 1912 1254 1784 1968 1783 1383 1896 1380 1523 1925 1651 1510 1511 1420 1307 1308 1306 1490 1870 1562 1709 1841 1250 1281 1947 1771 1612 2001 1918 1804 1990 1979 1832 1948 1772 1659 1994 1794 1946 2027 1681 1327 2022 1991 1571 1932 1585 1823 1875 1573 1267 1915 40 260 1861 1265 1376 1885 1375 1790 1983 1822 1710 2027 1248 1775 1960 1584 1578 1679 1551 1794 1994 1279 1488 1862 1463 1821 1877 1655 1280 2009 1828 1793 2010 1794 1357 1358 1356 1694 1927 1687 1473 1872 1477 1523 2013 1925 1296 1715 1293 1686 1927 1814 1309 1310 1308 1582 1926 1774 416 1904 1277 1314 1315 1312 1408 1827 1389 1643 1999 1644 1511 1871 1420 1255 1696 32 1252 1861 259 1729 2016 1589 1292 1908 1737 1316 1910 1318 426 1919 427 499 1913 498 479 1949 478 1403 2021 1343 1636 1912 1849 1254 1912 433 1484 1847 1498 1823 1890 1875 1518 1579 1486 1781 1907 1244 1410 1937 1863 1465 1862 1469 1311 1312 1310 1235 2037 1784 1332 1902 1331 19 1960 1775 1346 1353 1345 1359 1370 1358 1353 1602 1345 1811 1915 1267 1778 1922 1864 1514 1854 1439 1234 1996 1713 1352 1898 1351 1857 1923 1238 1245 1889 256 1592 1816 1591 1609 2005 1608 1618 1942 1621 1455 1852 1588 1328 1330 1326 1751 2011 1819 1623 1950 1940 1804 1979 1283 1589 1871 1511 1728 1975 1236 1451 1986 1542 1300 1429 1298 1313 1314 1312 1829 1936 1309 1525 1530 1511 1651 1925 1849 1702 1914 1703 1373 1901 1369 1956 1998 1286 1882 2035 1402 1380 1896 1379 1942 2036 1492 1836 1964 1809 1569 1872 1472 1504 2011 1751 1470 1878 1474 1369 1901 1368 1924 1975 1716 1835 1953 1335 1340 1882 1402 1358 1410 1356 1313 1718 1314 1530 1590 1589 1550 1592 1591 1556 1916 1508 42 1933 41 1243 1922 1778 1535 1836 1809 1379 1885 1376 1895 1903 1640 1385 1399 1383 1563 1893 1826 1816 1995 1370 478 1949 1724 1402 1415 1339 1623 1939 1620 1590 1841 1730 1562 1870 1805 1467 1878 1470 1902 2007 1845 1839 2008 1272 1875 1890 1362 1724 1949 1575 1375 1406 1373 1885 1930 1578 401 1948 402 1238 1923 1798 1304 1333 1302 1257 2018 1978 1356 1898 1352 1469 1878 1467 485 1944 484 1815 1954 1750 1624 2025 1855 1272 2008 1780 1611 2038 1807 1723 1883 1873 1669 1834 1572 1677 2029 1870 1498 1847 1606 1935 2024 1936 1583 1854 1514 1361 1865 1359 1342 1882 1340 44 1952 43 1570 2024 1935 1264 1954 1765 1590 1730 1729 1265 1801 261 1612 1918 1548 1375 1407 1406 1692 1957 1691 1348 1876 1346 1476 2013 1523 1402 1444 1415 1759 1932 1269 1359 1865 1370 1662 2004 1661 431 1965 432 1286 1998 1764 1353 1668 1602 1636 2037 1899 1989 2004 1662 1257 1990 1804 1877 2002 1516 1308 1427 1306 1436 2026 1495 1689 1970 1694 1285 1987 483 1415 1902 1339 1571 1585 1445 48 1984 1286 1893 2010 1237 1818 1951 1310 1753 1971 1752 1479 1900 1518 1814 1997 1686 1832 1955 1239 1785 1950 1276 1736 1938 1594 505 1972 1287 1444 1445 1415 1248 1946 29 1644 1943 1645 1539 1931 1802 420 1976 421 1759 2015 1932 1236 1975 1782 1971 1979 1752 1697 2000 1851 1407 1550 1406 1346 1876 1353 1412 1914 1818 1602 2035 1882 1798 1947 1281 1813 1926 1245 1715 1908 1292 1399 1896 1383 1627 1978 1681 1407 1551 1550 1752 1979 1580 1923 1947 1798 1444 1571 1445 1979 1990 1580 1808 1931 1539 1555 1890 1823 1964 2031 1809 1506 1967 1667 439 1985 440 1580 1990 1625 1959 1974 1604 1368 1865 1361 1779 1966 1271 1375 1885 1407 1783 1968 1275 1585 2015 1682 1803 1956 1838 1766 2003 1259 1590 1920 1841 1324 1906 1718 1602 1882 1345 1241 1981 414 1841 1920 1250 1766 2028 2003 380 1992 1289 1258 2015 1759 1814 1927 1440 1700 1962 1698 1629 2027 1710 1873 1883 1396 1270 2028 1766 1837 1890 1555 1243 2012 1922 1351 1876 1348 1326 1906 1324 1477 1900 1479 1345 1882 1342 1820 2002 1605 1269 1932 1834 1786 1973 1247 1613 2010 1893 1406 1901 1373 1410 1898 1356 1870 2029 1805 1331 1911 1328 1806 2023 1847 1446 2033 1837 1495 2026 1939 1570 1935 1835 1698 1962 1843 1777 1977 1676 1492 2036 1433 1894 1993 1282 1432 1969 1557 1858 1953 1569 1872 1900 1477 1277 1983 1790 1370 1995 1937 28 2018 27 1605 2002 1877 1833 1974 1488 1390 1970 1891 1518 1935 1579 1609 1947 1923 1240 1999 1868 1730 1873 1729 1279 1994 1792 1822 1989 1242 1298 1917 1296 1399 1897 1896 1819 2011 1692 1876 2017 1670 1795 2009 1280 1237 2010 1793 1847 2023 1606 1805 2029 1349 1780 2012 1243 1429 1917 1298 1469 2006 1878 1575 1920 1530 1579 1936 1829 1720 1987 1285 1606 1963 1517 1393 2033 1446 1929 1953 1835 1916 1982 1509 1286 1984 1838 1296 1917 1715 1588 1982 1587 1333 1921 1302 1388 2019 1969 1328 1911 1330 1838 1984 22 1330 1906 1326 1302 1921 1300 1886 1943 1644 1256 2014 1732 1801 1958 262 1935 1936 1579 1300 1921 1429 1871 2016 1408 1427 1988 1306 1530 1920 1590 1837 2033 1647 1583 1980 1880 1850 1992 471 1333 1988 1928 1569 1953 1929 482 1987 1720 1936 2024 1309 1306 1988 1304 1623 1940 1939 1939 1940 1495 1569 1929 1872 1289 1992 1850 1410 1909 1898 1358 1937 1410 1379 1930 1885 1950 1961 1276 1782 1975 1924 1649 1993 1894 1864 2020 1273 1866 1991 1568 1304 1988 1333 1896 1930 1379 1445 2007 1415 1370 1937 1358 1963 1964 1517 1550 1934 1592 1551 1934 1550 1872 1929 1900 1868 1999 1643 1800 1995 1816 1909 2017 1898 1898 2017 1351 1897 1930 1896 1719 2023 1806 1310 1951 1308 1402 2035 1444 2001 2038 1611 1408 2016 1827 1956 1971 1753 1803 1971 1956 1308 1951 1427 1596 2020 1864 1623 1961 1950 1899 2037 1235 1587 1982 1916 1589 2016 1871 1928 1988 1427 2008 2012 1780 1601 1964 1963 1978 2018 1681 1351 2017 1876 1943 1986 1645 1542 1986 1943 1692 2011 1957 1753 1998 1956 1957 2011 1504 1248 2027 1946 1969 2032 1557 1712 2012 2008 1415 2007 1902 1670 2017 1909 1601 2031 1964 1578 1930 1897 1937 1995 1863 1969 2019 1610 1610 2032 1969 1397 2038 2001 1883 1897 1399 2347 2349 2153 2122 2364 2157 2159 2360 2145 2155 2355 2135 2122 2439 2364 2039 2148 2147 2150 2349 2043 2135 2361 2155 2141 2149 2138 2043 2349 2347 2153 2435 2347 2086 2153 2152 2041 2360 2159 2143 2349 2150 2364 2439 2146 507 2162 506 2138 2149 2134 2148 2487 2142 2132 2158 2045 2177 2406 2176 2406 2408 2176 2147 2150 2039 2132 2433 2158 2227 2403 2228 2403 2411 2228 2338 2379 2184 2345 2371 2273 2290 2372 2344 2318 2373 2346 2379 2413 2184 2371 2423 2273 2290 2418 2372 2318 2414 2373 2239 2370 2238 2218 2369 2219 2370 2393 2238 2218 2392 2369 2142 2487 2146 2137 2139 2138 2133 2134 2132 2137 2138 2134 2162 2432 506 2147 2148 2142 2136 2137 2134 2131 2132 2045 2086 2435 2153 2139 2140 2138 2139 2143 2140 2140 2147 2142 2155 2361 2123 2134 2149 2132 2143 2147 2140 2161 2354 2160 2152 2153 2144 2039 2362 2148 2143 2150 2147 2151 2152 2144 2140 2142 2141 2131 2133 2132 2133 2136 2134 600 2156 599 2149 2433 2132 50 2157 49 2142 2146 2145 2139 2151 2144 2124 2429 2168 2145 2439 2159 2243 2365 2093 2139 2144 2143 2161 2488 2354 2144 2349 2143 2168 2380 2124 599 2156 2042 2137 2151 2139 2043 2368 2150 597 2155 2123 2140 2141 2138 2141 2360 2149 2182 2390 2084 2201 2389 2073 2214 2382 2065 2069 2387 2260 2142 2145 2141 2084 2405 2182 2118 2396 2192 2073 2395 2201 2074 2397 2280 2115 2404 2188 2065 2401 2214 2108 2391 2234 2103 2394 2196 2106 2392 2218 2080 2407 2256 2238 2393 2098 2093 2399 2243 2260 2400 2069 2209 2402 2104 2097 2398 2205 2254 2374 2342 2222 2377 2339 2203 2379 2338 2347 2435 2129 2339 2426 2222 2266 2410 2292 2153 2349 2144 2136 2154 2137 599 2042 598 55 2045 54 2190 2415 2327 2318 2416 2321 2321 2414 2318 2275 2419 2287 2287 2425 2275 2333 2418 2290 2292 2422 2266 2216 2427 2230 2330 2417 2273 2222 2426 2230 2273 2423 2330 2271 2424 2266 2230 2427 2222 2266 2422 2271 2294 2421 2263 2316 2420 2275 2275 2425 2316 2308 2412 2184 2184 2413 2308 2327 2415 2303 2351 2367 2174 2352 2366 2191 2290 2428 2333 2122 2157 50 2171 2430 2087 2228 2411 2101 2208 2371 2345 2343 2375 2204 2249 2376 2341 2346 2373 2200 2340 2378 2195 2344 2372 2181 2205 2398 2055 2057 2403 2227 2243 2399 2052 2070 2400 2260 2048 2402 2209 2176 2408 2100 2256 2407 2081 2196 2394 2110 2061 2406 2177 2234 2391 2062 2188 2404 2116 2214 2401 2075 2280 2397 2076 2201 2395 2078 2182 2405 2085 2192 2396 2120 601 2040 600 53 2041 52 2199 2420 2316 2264 2424 2271 2226 2417 2330 2259 2421 2294 2175 2412 2308 2287 2419 2213 2321 2416 2187 2171 2429 2124 2166 2167 2071 2042 2355 2155 2067 2370 2239 2219 2369 2068 2333 2428 2170 2124 2430 2171 2130 2131 2045 594 2169 593 51 2122 50 603 2086 602 2152 2358 2086 597 2123 596 57 2046 56 2239 2409 2067 2071 2169 594 2164 2166 2071 2292 2410 2220 56 2130 55 2173 2177 2176 54 2158 53 2224 2228 2225 2167 2169 2071 2170 2348 2169 2128 2162 2161 2162 2163 2161 2128 2161 2160 150 2128 149 2128 2160 149 149 2160 148 2219 2220 2217 2218 2219 2217 2237 2239 2238 2227 2228 2224 2167 2171 2170 2046 2380 2168 2165 2168 2166 2203 2205 2204 2190 2192 2191 2278 2280 2279 2173 2176 2174 2259 2260 2258 2226 2227 2224 2211 2214 2213 2237 2238 2236 2241 2243 2242 2198 2201 2200 2175 2177 2173 2179 2182 2181 2186 2188 2187 2232 2234 2233 2254 2256 2255 2208 2209 2207 2216 2218 2217 2194 2196 2195 2167 2170 2169 52 2159 51 2192 2440 2118 2280 2443 2074 2234 2444 2108 2188 2441 2115 2196 2445 2103 2218 2446 2106 2256 2442 2080 2098 2448 2238 2104 2449 2209 2205 2447 2097 2165 2166 2164 2173 2174 2053 2172 2175 2173 2258 2261 2257 2179 2181 2121 2254 2255 2117 2278 2279 2111 2197 2199 2198 2092 2208 2207 2186 2187 2083 2178 2180 2179 2049 2237 2236 2223 2226 2224 2210 2212 2211 2224 2225 2051 2232 2233 2109 2283 2285 2284 2247 2249 2248 2302 2304 2303 2059 2264 2263 2107 2259 2258 2203 2204 2102 2251 2252 2250 2216 2217 2058 2194 2195 2064 2211 2213 2112 2244 2246 2245 2190 2191 2082 2198 2200 2113 2241 2242 2095 2220 2267 2217 145 2240 144 134 2269 133 540 2229 539 146 2047 145 554 2250 553 115 2221 114 511 2052 510 546 2060 545 514 2172 513 526 2057 525 537 2064 536 550 2070 549 558 2247 557 98 2109 97 103 2107 102 109 2105 108 114 2090 113 124 2056 123 144 2095 143 123 2313 122 94 2277 93 530 2244 529 517 2183 516 596 2164 595 538 2193 537 113 2215 112 76 2115 75 80 2114 79 82 2113 81 99 2231 98 119 2235 118 127 2223 126 143 2299 142 522 2092 521 579 2080 578 513 2053 512 529 2101 528 544 2068 543 555 2108 554 557 2062 556 565 2065 564 567 2075 566 571 2073 570 573 2078 572 83 2197 82 516 2094 515 520 2055 519 524 2096 523 588 2084 587 92 2296 91 509 2093 508 541 2106 540 548 2126 547 552 2069 551 562 2076 561 584 2189 583 59 2124 58 63 2119 62 70 2118 69 72 2120 71 85 2079 84 89 2210 88 91 2089 90 101 2310 100 107 2312 106 139 2061 138 96 2091 95 118 2110 117 122 2127 121 133 2104 132 78 2116 77 86 2274 85 88 2112 87 95 2276 94 102 2257 101 97 2309 96 104 2311 103 547 2270 546 105 2262 104 108 2265 107 578 2185 577 61 2087 60 65 2121 64 66 2178 65 68 2088 67 75 2253 74 111 2267 110 560 2074 559 563 2283 562 568 2286 567 569 2125 568 575 2077 574 577 2083 576 581 2081 580 583 2082 582 590 2085 589 84 2281 83 93 2111 92 564 2298 563 74 2117 73 90 2282 89 120 2049 119 126 2051 125 131 2048 130 539 2050 538 585 2066 584 592 2072 591 595 2071 594 553 2323 552 100 2063 99 106 2059 105 112 2058 111 116 2103 115 129 2099 128 135 2102 134 137 2054 136 142 2100 141 518 2097 517 521 2206 520 532 2067 531 535 2098 534 536 2301 535 549 2293 548 525 2329 524 545 2291 544 559 2295 558 531 2300 530 570 2315 569 67 2331 66 591 2289 590 130 2272 129 87 2305 86 81 2322 80 121 2324 120 125 2319 124 574 2317 573 576 2288 575 586 2302 585 79 2320 78 128 2268 127 69 2326 68 582 2328 581 62 2332 61 136 2202 135 523 2306 522 73 2297 72 587 2325 586 138 2307 137 512 2335 511 64 2334 63 515 2336 514 2123 2165 2164 593 2348 592 2172 2173 2053 2332 2333 2087 2061 2308 2307 2178 2179 2121 2072 2290 2289 2223 2224 2051 2202 2203 2102 2189 2190 2082 2057 2330 2329 2106 2230 2229 2118 2327 2326 2049 2236 2235 2291 2292 2068 2253 2254 2117 2059 2263 2262 2247 2248 2062 2070 2294 2293 2105 2266 2265 2215 2216 2058 2193 2194 2064 2108 2251 2250 2210 2211 2112 2107 2258 2257 2221 2222 2090 2092 2207 2206 2231 2232 2109 2313 2314 2127 2270 2271 2060 2277 2278 2111 2197 2198 2113 2274 2275 2079 2185 2186 2083 2283 2284 2076 2286 2287 2075 2240 2241 2095 2244 2245 2101 2315 2316 2125 2272 2273 2099 2320 2321 2116 2077 2318 2317 2302 2303 2066 2183 2184 2094 2169 2348 593 2087 2486 2171 2237 2350 2239 110 2337 109 513 2172 2053 595 2164 2071 61 2332 2087 133 2269 2104 2097 2183 517 65 2178 2121 126 2223 2051 2047 2240 145 2265 2312 107 2072 2289 591 583 2189 2082 2057 2329 525 142 2299 2100 63 2334 2119 2262 2311 104 530 2300 2244 72 2297 2120 2095 2299 143 520 2206 2055 2250 2323 553 2276 2277 94 2127 2324 121 577 2185 2083 2064 2301 536 2059 2262 105 82 2197 2113 86 2305 2274 2079 2281 84 89 2282 2210 122 2313 2127 2091 2276 95 539 2229 2050 2115 2253 75 2257 2310 101 2102 2269 134 100 2310 2063 106 2312 2059 2111 2296 92 2063 2231 99 2058 2267 111 2090 2215 113 546 2270 2060 2088 2331 67 2114 2320 79 2050 2193 538 2060 2291 545 2092 2206 521 2125 2286 568 91 2296 2089 96 2309 2091 98 2231 2109 2107 2257 102 2103 2221 115 74 2253 2117 2108 2250 554 2096 2306 523 85 2274 2079 88 2210 2112 118 2235 2110 537 2193 2064 562 2283 2076 2089 2282 90 93 2277 2111 2049 2235 119 2106 2229 540 552 2323 2069 2048 2272 130 548 2293 2126 586 2325 2302 83 2281 2197 103 2311 2107 114 2221 2090 2083 2288 576 2118 2326 69 557 2247 2062 567 2286 2075 573 2317 2078 544 2291 2068 558 2295 2247 2073 2315 570 2080 2185 578 112 2215 2058 2074 2295 559 563 2298 2283 2065 2298 564 2061 2307 138 2113 2322 81 124 2319 2056 135 2202 2102 529 2244 2101 2056 2313 123 2082 2328 582 2105 2265 108 2070 2293 549 2109 2309 97 2126 2270 547 80 2322 2114 569 2315 2125 2066 2189 584 535 2301 2098 2099 2268 128 129 2272 2099 66 2331 2178 524 2329 2096 2112 2305 87 127 2268 2223 78 2320 2116 575 2288 2077 120 2324 2049 2077 2317 574 590 2289 2085 516 2183 2094 2051 2319 125 2067 2300 531 511 2335 2052 144 2240 2095 581 2328 2081 68 2326 2088 585 2302 2066 522 2306 2092 2053 2335 512 2054 2202 136 2117 2297 73 2084 2325 587 137 2307 2054 2094 2336 515 2119 2332 62 2121 2334 64 514 2336 2172 2174 2335 2053 2302 2325 2304 2187 2288 2083 2172 2336 2175 2255 2297 2117 2191 2328 2082 2204 2269 2102 2225 2319 2051 2092 2306 2208 2223 2268 2226 2181 2334 2121 2244 2300 2246 2178 2331 2180 2210 2282 2212 2197 2281 2199 2283 2298 2285 2247 2295 2249 2195 2301 2064 2217 2267 2058 2059 2312 2264 2213 2305 2112 2200 2322 2113 2261 2310 2257 2252 2323 2250 2233 2309 2109 2049 2324 2237 2279 2296 2111 2242 2299 2095 2107 2311 2259 2183 2338 2184 2236 2340 2235 2193 2339 2194 2277 2341 2278 2207 2343 2206 2185 2342 2186 2290 2344 2289 2272 2345 2273 2318 2346 2317 2220 2337 2267 109 2337 2105 2267 2337 110 2174 2463 2351 2191 2467 2352 592 2348 2072 2263 2454 2294 2303 2453 2327 2097 2338 2183 2235 2340 2110 2050 2339 2193 2276 2341 2277 2080 2342 2185 2206 2343 2055 2048 2345 2272 2289 2344 2085 2317 2346 2078 2045 2158 54 455 2129 456 449 2044 450 454 2347 455 453 2043 454 451 2039 452 2314 2350 2127 2040 2156 600 2342 2442 2254 2338 2447 2203 2041 2159 52 2324 2350 2237 2127 2350 2324 2341 2474 2249 2101 2450 2228 51 2159 2122 2123 2164 596 53 2158 2041 2345 2457 2208 2204 2460 2343 2200 2464 2346 2195 2459 2340 2181 2470 2344 2327 2440 2190 2230 2446 2216 2255 2352 2297 2242 2351 2299 2299 2351 2100 2297 2352 2120 2055 2460 2205 2227 2458 2057 2052 2456 2243 2260 2455 2070 2209 2457 2048 2100 2463 2176 2177 2466 2061 2081 2469 2256 2110 2459 2196 2062 2461 2234 2075 2465 2214 2076 2462 2280 2116 2468 2188 2078 2464 2201 2085 2470 2182 2120 2467 2192 2316 2471 2199 2271 2472 2264 55 2130 2045 2163 2363 2093 2294 2455 2259 2330 2458 2226 2308 2466 2175 2187 2468 2321 2213 2465 2287 455 2347 2129 2043 2347 454 147 2354 146 598 2155 597 2241 2365 2243 2068 2451 2219 601 2358 2040 2220 2451 2292 603 2356 2086 2044 2487 2362 2240 2357 2241 2046 2130 56 2170 2486 2333 2150 2368 2039 2136 2479 2154 2154 2156 2040 2086 2358 602 2168 2437 2046 146 2354 2047 2356 2435 2086 2168 2429 2166 2154 2479 2156 449 2359 2044 602 2358 601 2137 2154 2151 604 2356 603 2260 2387 2258 2198 2389 2201 2179 2390 2182 2211 2382 2214 6 2432 150 148 2431 5 506 2432 6 5 2431 147 2170 2428 2348 2044 2362 450 451 2362 2039 2128 2432 2162 2167 2429 2171 2047 2357 2240 2105 2410 2266 2131 2135 2133 2221 2377 2222 2253 2374 2254 2202 2379 2203 2077 2416 2318 2230 2426 2229 2273 2417 2099 2189 2415 2190 2222 2427 2090 2274 2419 2275 2286 2425 2287 2271 2422 2060 2266 2424 2265 2275 2420 2079 2320 2414 2321 2316 2425 2125 2291 2422 2292 2215 2427 2216 2184 2412 2094 2263 2421 2262 2303 2415 2066 2330 2423 2329 2332 2418 2333 2308 2413 2307 2072 2428 2290 532 2370 2067 2068 2369 543 2124 2380 58 2081 2407 580 2116 2404 77 2052 2399 510 2098 2393 534 2062 2391 556 588 2405 2084 131 2402 2048 70 2396 2118 541 2392 2106 571 2395 2073 2075 2401 566 116 2394 2103 550 2400 2070 2076 2397 561 2110 2394 117 518 2398 2097 526 2403 2057 2085 2405 589 560 2397 2074 2078 2395 572 555 2391 2108 565 2401 2065 2069 2400 551 2120 2396 71 2100 2408 141 509 2399 2093 76 2404 2115 2055 2398 519 2104 2402 132 139 2406 2061 579 2407 2080 2339 2445 2194 2341 2443 2278 2207 2449 2343 2342 2441 2186 2236 2448 2340 2101 2411 528 59 2430 2124 2087 2430 60 2362 2487 2148 2050 2426 2339 20 2434 604 2093 2363 508 456 2434 20 2093 2365 2163 2040 2438 2154 2174 2367 2335 2191 2366 2328 2063 2452 2231 2293 2454 2126 2326 2453 2088 2126 2472 2270 2073 2471 2315 2056 2473 2313 2204 2375 2269 2181 2372 2334 2306 2371 2208 2195 2378 2301 2295 2376 2249 2200 2373 2322 2255 2469 2352 2242 2456 2351 2268 2417 2226 2336 2412 2175 2281 2420 2199 2187 2416 2288 2312 2424 2264 2213 2419 2305 2311 2421 2259 2091 2474 2276 2133 2355 2136 448 2359 449 453 2368 2043 2039 2368 452 2350 2409 2239 49 2436 4 4 2436 448 2088 2481 2331 2323 2484 2069 2310 2485 2063 2065 2482 2298 2089 2483 2282 2084 2480 2325 57 2380 2046 2145 2360 2141 2220 2410 2337 2046 2353 2130 2067 2478 2300 2319 2475 2056 2296 2477 2089 2309 2476 2091 2154 2438 2151 2130 2353 2131 2163 2488 2161 2159 2439 2122 2131 2353 2135 2157 2436 49 450 2362 451 2135 2355 2133 507 2363 2162 2354 2488 2047 2123 2361 2165 2042 2155 598 2376 2443 2341 2343 2449 2375 2377 2445 2339 2374 2441 2342 2340 2448 2378 2357 2488 2163 2353 2361 2135 2352 2469 2366 2351 2456 2367 508 2363 507 2386 2452 2063 2126 2454 2384 2088 2453 2381 2156 2479 2042 2383 2473 2056 2389 2471 2073 2384 2472 2126 2388 2474 2091 2162 2363 2163 2063 2485 2386 2069 2484 2387 2381 2481 2088 2385 2483 2089 2382 2482 2065 2390 2480 2084 2409 2478 2067 2089 2477 2385 2056 2475 2383 2091 2476 2388 2146 2439 2145 2357 2365 2241 2358 2438 2040 452 2368 453 2359 2364 2044 2353 2437 2361 2166 2429 2167 2165 2437 2168 2304 2381 2303 2246 2383 2245 2199 2389 2198 2212 2382 2211 2285 2385 2284 2264 2384 2263 2249 2388 2248 2251 2386 2252 2258 2387 2261 2180 2390 2179 543 2369 542 533 2370 532 58 2380 57 140 2406 139 556 2391 555 519 2398 518 117 2394 116 71 2396 70 510 2399 509 534 2393 533 132 2402 131 551 2400 550 561 2397 560 572 2395 571 77 2404 76 566 2401 565 527 2403 526 589 2405 588 542 2392 541 141 2408 140 580 2407 579 528 2411 527 147 2431 2354 2328 2366 2081 2335 2367 2052 2157 2364 2359 533 2393 2370 2369 2392 542 60 2430 59 140 2408 2406 2334 2372 2119 2096 2371 2306 2269 2375 2104 2322 2373 2114 2115 2374 2253 2103 2377 2221 2074 2376 2295 2301 2378 2098 2054 2379 2202 527 2411 2403 2054 2413 2379 2372 2418 2119 2373 2414 2114 2096 2423 2371 2337 2410 2105 2114 2414 2320 2262 2421 2311 2305 2419 2274 2094 2412 2336 2060 2422 2291 2079 2420 2281 2125 2425 2286 2265 2424 2312 2090 2427 2215 2229 2426 2050 2099 2417 2268 2288 2416 2077 2066 2415 2189 2307 2413 2054 2329 2423 2096 2119 2418 2332 2158 2433 2041 2245 2475 2450 150 2432 2128 2160 2431 148 2314 2409 2350 2348 2428 2072 2450 2475 2225 2248 2476 2461 2284 2477 2462 2444 2452 2251 2461 2476 2233 2462 2477 2279 2361 2437 2165 2228 2450 2225 2333 2486 2087 2118 2440 2327 2108 2444 2251 2106 2446 2230 2151 2438 2152 2232 2452 2444 2041 2433 2360 2245 2450 2101 2057 2458 2330 2061 2466 2308 2070 2455 2294 2248 2461 2062 2284 2462 2076 2287 2465 2075 2321 2468 2116 2219 2451 2220 2190 2440 2192 2186 2441 2188 2194 2445 2196 2278 2443 2280 2209 2449 2207 2216 2446 2218 2232 2444 2234 2203 2447 2205 2238 2448 2236 2254 2442 2256 2243 2456 2242 2259 2455 2260 2226 2458 2227 2208 2457 2209 2214 2465 2213 2205 2460 2204 2256 2469 2255 2234 2461 2233 2280 2462 2279 2192 2467 2191 2196 2459 2195 2201 2464 2200 2188 2468 2187 2175 2466 2177 2176 2463 2174 2182 2470 2181 2292 2451 2068 2231 2452 2232 2327 2453 2326 2294 2454 2293 2315 2471 2316 2270 2472 2271 2313 2473 2314 2171 2486 2170 2097 2447 2338 2080 2442 2342 2343 2460 2055 2340 2459 2110 2344 2470 2085 2048 2457 2345 2346 2464 2078 2163 2365 2357 2129 2434 456 2225 2475 2319 2233 2476 2309 2279 2477 2296 2246 2478 2473 2300 2478 2246 2484 2485 2261 2252 2485 2484 2480 2481 2304 2180 2481 2480 2482 2483 2285 2212 2483 2482 2473 2478 2314 2276 2474 2341 2331 2481 2180 2325 2480 2304 2282 2483 2212 2298 2482 2285 2252 2484 2323 2261 2485 2310 2351 2463 2100 2352 2467 2120 2354 2431 2160 2152 2438 2358 2355 2479 2136 2129 2435 2356 604 2434 2356 2046 2437 2353 2356 2434 2129 448 2436 2359 2359 2436 2157 2047 2488 2357 2042 2479 2355 2360 2433 2149 2364 2487 2044 2115 2441 2374 2074 2443 2376 2103 2445 2377 2375 2449 2104 2378 2448 2098 2251 2452 2386 2384 2454 2263 2381 2453 2303 2367 2456 2052 2366 2469 2081 2199 2471 2389 2246 2473 2383 2264 2472 2384 2249 2474 2388 2383 2475 2245 2385 2477 2284 2388 2476 2248 2304 2481 2381 2180 2480 2390 2212 2482 2382 2285 2483 2385 2386 2485 2252 2387 2484 2261 2314 2478 2409 2146 2487 2364 2602 2610 2537 2531 2605 2594 2537 2610 2538 2531 2594 2532 2552 2597 2551 2597 2612 2551 2565 2618 2592 2565 2592 2567 2522 2623 2519 2519 2590 2522 2592 2618 2518 2566 2617 2593 2523 2606 2507 2498 2611 2542 2494 2607 2574 2551 2612 2511 2507 2606 2526 2507 2595 2523 2542 2616 2498 2526 2608 2507 2570 2613 2550 2574 2615 2494 2581 2598 2490 2537 2601 2492 2504 2605 2531 2531 2596 2504 2556 2600 2495 2495 2603 2556 2490 2599 2581 2496 2609 2546 2546 2609 2508 2512 2608 2526 2492 2602 2537 2536 2604 2547 2581 2599 2514 2538 2610 2497 2494 2600 2556 2570 2614 2563 2532 2594 2491 2556 2607 2494 2500 2597 2552 2523 2595 2517 2563 2613 2570 2516 2615 2574 2510 2617 2566 2542 2611 2515 2593 2618 2566 2564 2565 2501 2562 2564 2501 152 2567 151 2529 2587 2585 2499 2524 2520 2555 2588 2573 2573 2588 2571 2512 2577 2576 2501 2567 152 156 2575 155 2499 2520 248 2520 2524 2521 254 2585 253 500 2505 501 2571 2588 492 2528 2529 2493 2533 2534 2505 2534 2535 2505 2553 2557 2508 2528 2531 2529 248 2520 247 2503 2562 154 2563 2564 2562 2520 2521 2489 2521 2523 2522 2578 2586 2535 2564 2566 2565 491 2571 492 2529 2585 2493 2544 2545 2506 2569 2570 2511 2532 2587 2529 154 2562 153 180 2576 179 155 2575 2503 2502 2575 156 179 2576 2539 495 2553 2508 2503 2563 2562 2498 2582 250 2496 2561 498 2505 2586 501 164 2568 163 247 2489 246 249 2582 2499 3 2527 255 163 2495 162 168 2492 167 171 2497 170 250 2582 249 486 2569 487 2509 2553 494 498 2561 499 2499 2582 2525 2543 2544 2506 2558 2559 2513 2525 2526 2524 2537 2538 2535 2560 2580 2579 3 2583 2527 163 2568 2495 166 2584 2543 494 2553 495 499 2561 2533 2554 2557 2553 2506 2568 164 247 2520 2489 153 2501 152 155 2503 154 157 2548 2502 165 2506 164 181 2512 180 183 2507 182 495 2508 496 2499 2525 2524 2565 2567 2501 2550 2575 2502 2535 2586 2505 2509 2555 2554 2560 2579 2513 2533 2536 2534 2538 2578 2535 2576 2577 2541 2572 2574 2573 2492 2584 167 2513 2579 172 153 2562 2501 166 2543 165 165 2543 2506 175 2504 174 487 2569 2511 497 2496 498 499 2533 500 500 2533 2505 172 2579 171 174 2558 173 179 2539 178 188 2519 187 249 2499 248 251 2498 250 253 2515 252 501 2586 502 2527 2528 2493 2579 2580 2497 2548 2549 2502 2531 2532 2529 2534 2537 2535 2543 2584 2547 2544 2546 2545 2560 2581 2580 255 2527 2493 485 2510 486 157 2502 156 178 2539 2491 487 2511 488 2514 2586 2578 2512 2576 180 2516 2548 158 2500 2571 491 2509 2554 2553 2510 2569 486 2539 2540 2491 2549 2550 2502 2559 2560 2513 2541 2542 2540 161 2494 160 253 2585 2515 171 2579 2497 173 2558 2513 2504 2558 174 2500 2572 2571 2572 2573 2571 505 2583 3 2549 2551 2550 2555 2556 2554 158 2548 157 159 2516 158 490 2500 491 493 2509 494 2545 2568 2506 2527 2530 2528 2539 2541 2540 2543 2547 2544 2549 2552 2551 606 2518 605 504 2490 505 2509 2588 2555 2527 2583 2530 492 2588 493 2490 2583 505 167 2584 166 173 2513 172 502 2514 503 2493 2585 254 2521 2522 2489 255 2493 254 502 2586 2514 2533 2561 2536 493 2588 2509 2539 2576 2541 2549 2589 2552 178 2491 177 185 2517 184 2548 2589 2549 2516 2589 2548 2585 2587 2515 2519 2623 2591 2511 2630 2551 2547 2627 2536 2508 2628 2546 2514 2626 2581 2546 2636 2496 2497 2632 2538 2566 2639 2510 2515 2635 2542 2552 2624 2500 2517 2623 2523 2550 2630 2570 2491 2634 2532 2526 2631 2512 2574 2637 2516 187 2591 186 607 2592 606 2522 2590 2489 246 2590 245 2489 2590 246 606 2592 2518 2519 2591 187 483 2593 484 2569 2614 2570 2574 2607 2573 2526 2606 2524 2521 2606 2523 2550 2613 2575 2528 2596 2531 2517 2595 184 251 2611 2498 2508 2609 496 183 2595 2507 2561 2604 2536 175 2605 2504 490 2597 2500 497 2609 2496 2560 2598 2581 2514 2599 503 2556 2603 2554 2495 2600 162 168 2602 2492 2511 2612 488 2541 2616 2542 181 2608 2512 159 2615 2516 2507 2608 182 504 2599 2490 2497 2610 170 2494 2615 160 161 2600 2494 2534 2601 2537 2555 2607 2556 2515 2611 252 485 2617 2510 2503 2613 2563 2491 2594 177 7 2619 607 9 2620 188 245 2620 9 151 2619 7 186 2621 8 8 2621 185 2547 2636 2544 2563 2639 2564 2568 2633 2495 2492 2627 2584 2504 2629 2558 2490 2625 2583 2498 2638 2582 605 2622 21 21 2622 483 2593 2617 484 2616 2638 2498 2614 2639 2563 2495 2633 2603 2604 2636 2547 2598 2625 2490 2596 2629 2504 2601 2627 2492 2523 2623 2522 2578 2632 2626 2626 2632 2580 2566 2618 2565 2591 2621 186 607 2619 2592 2590 2620 245 2524 2606 2521 2594 2605 176 2573 2607 2555 503 2599 504 177 2594 176 184 2595 183 2559 2598 2560 2530 2596 2528 169 2602 168 170 2610 169 2536 2601 2534 2554 2603 2557 2496 2604 2561 2575 2613 2503 2510 2614 2569 169 2610 2602 176 2605 175 182 2608 181 496 2609 497 162 2600 161 488 2612 489 489 2597 490 252 2611 251 2577 2616 2541 160 2615 159 484 2617 485 489 2612 2597 2518 2622 605 2567 2619 151 188 2620 2519 185 2621 2517 2557 2628 2508 2570 2630 2511 2532 2634 2587 2557 2633 2628 2580 2632 2497 2578 2626 2514 2572 2637 2574 2525 2631 2526 2500 2624 2572 2634 2635 2587 2587 2635 2515 2624 2637 2572 2512 2631 2577 2545 2633 2568 2583 2625 2530 2544 2636 2546 2551 2630 2550 2540 2634 2491 2542 2635 2540 2538 2632 2578 2581 2626 2580 2628 2633 2545 2564 2639 2566 2582 2638 2525 2546 2628 2545 2589 2624 2552 2558 2629 2559 2584 2627 2547 2516 2637 2589 2540 2635 2634 2589 2637 2624 2517 2621 2591 2519 2620 2590 2592 2619 2567 2518 2618 2593 2593 2622 2518 483 2622 2593 2559 2629 2625 2625 2629 2530 2525 2638 2631 2631 2638 2577 2591 2623 2517 2577 2638 2616 2603 2633 2557 2536 2627 2601 2496 2636 2604 2530 2629 2596 2559 2625 2598 2510 2639 2614 218 2640 217 190 2658 189 242 2642 241 197 2648 196 200 2650 199 203 2651 202 205 2649 204 207 2646 206 211 2645 210 213 2641 212 195 2647 194 193 2643 192 224 2644 223 218 2662 2640 207 2663 2646 2642 2660 241 2645 2661 210 231 2665 2652 234 2664 2653 232 2665 231 235 2664 234 208 2663 207 219 2662 218 241 2660 240 210 2661 209 221 2656 220 239 2655 238 237 2654 236 229 2657 228 227 2659 226 234 2653 233 231 2652 230 2651 2652 202 2650 2653 199 2649 2657 204 2648 2654 196 2646 2659 206 2641 2656 212 2647 2655 194 195 2654 2647 205 2659 2649 211 2656 2645 193 2655 2643 203 2657 2651 2642 2658 190 242 2658 2642 2644 2661 223 2643 2660 192 213 2662 2641 224 2663 2644 197 2664 2648 200 2665 2650 220 2656 2641 2645 2656 221 230 2652 2651 233 2653 2650 238 2655 2647 226 2659 2646 2643 2655 239 2649 2659 227 236 2654 2648 228 2657 2649 2647 2654 237 2651 2657 229 2641 2662 219 2644 2663 208 240 2660 2643 209 2661 2644 2650 2665 232 2648 2664 235 2658 2666 189 2640 2667 217 2653 2664 198 2652 2665 201 199 2653 198 202 2652 201 206 2659 205 196 2654 195 204 2657 203 212 2656 211 194 2655 193 222 2661 2645 223 2661 222 192 2660 191 191 2660 2642 2640 2662 214 214 2662 213 225 2663 224 2646 2663 225 198 2664 197 201 2665 200 240 2643 239 222 2645 221 230 2651 229 220 2641 219 226 2646 225 228 2649 227 209 2644 208 233 2650 232 236 2648 235 238 2647 237 191 2642 190 243 2658 242 215 2640 214 217 2667 12 10 2666 244 189 2666 10 12 2667 216 243 2669 2658 215 2668 2640 2658 2669 2666 2640 2668 2667 11 2668 215 13 2669 243 216 2668 11 244 2669 13 2667 2668 216 2666 2669 244 3421 3714 3201 3155 3738 3076 2819 3473 3148 2670 3637 3470 3360 3455 2997 2855 3473 2819 3461 3626 3263 2838 3297 3172 3296 3392 2705 3402 3519 3239 3150 3729 3413 2767 3346 3169 3100 3400 3392 2813 3209 2824 3171 3211 2699 3442 3445 2685 187 3569 2740 2735 2892 44 2713 2898 214 2714 2907 195 202 2891 2711 2710 3593 199 227 3571 2946 207 3595 2712 210 3597 2906 193 2896 2714 2715 2896 191 177 3132 2948 169 2954 2952 3086 3132 175 3255 3555 2812 3121 3196 2973 3121 3197 3196 3263 3626 3238 3394 3395 3139 3225 3226 3043 3172 3296 2838 3149 3588 2786 2891 3593 3151 3551 3607 3226 2792 3328 3267 3223 3225 3043 2699 3277 3171 3029 3663 3259 2858 3102 2808 182 3552 183 3209 3447 2824 2959 3465 3150 3200 3729 3150 218 3518 219 239 3586 240 240 3586 241 3170 3206 3022 3197 3495 3128 3197 3399 2706 3284 3462 3236 3169 3434 2767 3029 3259 3028 27 3616 2683 3170 3207 3206 3109 3365 3362 307 3111 306 3419 3420 2902 2706 3495 3197 3196 3197 3128 157 3285 158 3046 3351 3277 2823 3669 3176 3198 3305 2831 3177 3491 2791 3150 3414 2959 3229 3234 3228 59 2937 2694 3229 3697 3234 3207 3726 3138 3206 3207 3138 2997 3530 3360 2678 3654 3441 3441 3658 2753 2941 3682 3178 3178 3179 2941 2823 3176 2725 3221 3448 2979 3182 3676 3559 3135 3535 3297 3392 3400 2705 3470 3637 3560 3519 3697 3239 2718 3465 2959 3395 3396 3139 2723 3607 3551 3280 3400 3100 2875 2877 2876 3015 3228 3112 109 2926 2673 146 3639 3136 143 3637 2670 63 2924 2691 100 2919 2674 137 3631 2680 84 3642 2676 134 2935 2750 124 3643 2688 127 3645 2752 130 3647 2671 88 2929 2702 96 2931 2700 119 2915 2672 79 2918 2690 92 2933 2675 117 3651 2915 77 3653 2918 104 2921 2701 114 3655 2689 68 3652 2682 107 3641 2926 2742 3456 2744 2752 3645 3187 3248 3426 3205 3239 3406 3402 2831 3306 3198 2705 3533 3296 158 3285 159 2772 3467 3266 3266 3683 2772 3141 3456 3083 3363 3531 3371 165 3614 166 229 3613 230 233 3612 234 220 3611 221 2875 2876 2855 356 3291 2704 3363 3371 2957 3297 3535 3172 3236 3545 3284 3047 3306 3049 217 3518 218 3216 3669 2823 3076 3738 3309 2877 2879 2876 2874 2875 2855 3095 3392 3296 2979 3448 2977 2679 3448 3221 2792 3561 3328 3248 3692 3126 2897 3421 3416 3022 3206 3007 3028 3258 3257 3252 3401 2840 3164 3279 3247 3213 3307 2697 2821 3209 2815 2824 2860 2842 2973 3196 2974 2824 2842 2812 3104 3693 3432 3443 3460 3004 3150 3465 2893 357 3291 356 2812 3555 2809 3253 3410 3098 2815 3209 2813 2780 3540 3193 2696 3507 3297 2968 3228 3015 3202 3416 3201 3472 3540 371 3228 3234 3112 3227 3551 3226 2860 2872 2842 3079 3253 3098 2681 3702 3203 3221 3290 2679 3046 3277 3198 3277 3351 3171 2810 2812 2809 3297 3507 3135 3261 3393 2684 3397 3605 3507 3173 3472 2708 2860 2965 2872 2878 2880 2877 2697 3308 3213 2813 2824 2812 2854 2855 2819 2791 3536 3177 3208 3541 3143 3126 3251 3248 3376 3455 3360 3227 3549 317 317 3551 3227 3458 3622 3440 3033 3221 2984 3252 3495 3401 2744 3456 3141 3028 3257 3025 3397 3507 2696 3109 3512 3365 3193 3502 2780 3349 3491 3177 282 3388 2836 3051 3308 3053 2817 2821 2815 3410 3659 3098 3245 3474 2784 3244 3622 2797 3442 3684 3445 2677 3525 3126 2885 2968 2884 2968 3015 2970 2734 2809 2729 3313 3620 2938 3028 3259 3258 3082 3438 3289 2784 3724 3245 3238 3513 3263 3175 3540 3472 2797 3543 3244 3346 3534 3169 3275 3429 2874 3274 3275 2874 3484 3526 3478 3049 3306 3213 3198 3306 3047 3220 3316 2830 2968 2970 2884 2684 3558 3261 3283 3523 2716 3297 3538 2696 3104 3432 2910 2937 3539 3155 3478 3681 3293 3097 3458 3440 3567 3659 3403 2883 2884 2881 2708 3670 3173 3203 3527 2681 3282 3284 3283 3294 3688 3271 3234 3697 3519 2727 2823 2725 2963 3031 2973 3244 3474 3245 3278 3295 2833 3124 3528 3218 281 3388 282 2858 3120 3102 3362 3529 3109 3006 3010 2965 3281 3462 3284 2878 3429 2882 2782 3303 2856 3006 3138 3010 3031 3121 2973 3181 3684 3299 3654 3658 3441 3209 3606 3447 2872 2963 2873 2703 3301 341 3033 3290 3221 3214 3723 3145 3145 3723 3555 3015 3100 3074 2830 3317 3220 3015 3074 2970 3277 3305 3198 2966 3006 2965 3407 3460 3443 2969 3228 2968 3201 3714 3073 2875 2878 2877 2797 3622 3458 2833 3513 3278 3244 3543 3474 2712 3595 3153 3031 3142 3121 3256 3621 2832 3020 3528 3212 2875 3429 2878 3181 3299 3182 334 3305 333 1 2998 2721 3001 3128 3078 3416 3421 3201 3364 3531 3363 2877 3496 2879 2832 3660 3256 2965 3208 2872 320 3491 3453 2854 2874 2855 3138 3139 3010 3098 3659 3146 2963 2973 2964 2937 3155 3076 3282 3283 2716 2724 3548 2976 3267 3467 2792 3202 3417 3416 2819 3148 2817 3218 3689 3124 3275 3523 3331 2736 3512 3357 3212 3680 3020 3208 3713 2872 2725 3176 2720 3262 3301 2703 3366 3450 3367 3030 3170 3022 3030 3203 3170 3233 3237 3232 3023 3030 3022 2684 3566 3300 2987 3271 3164 3454 3676 3104 2817 3148 2821 2884 3463 2881 3001 3078 3002 3225 3510 3227 2974 3196 3001 3231 3232 3229 3364 3530 3428 336 3307 335 3145 3664 3214 3128 3252 3078 3317 3444 3103 2822 3111 307 3516 3618 3140 2878 2881 2880 2823 3674 3216 3260 3261 3116 3176 3289 3246 3254 3433 2790 3027 3028 3025 3053 3308 3220 3213 3308 3051 3357 3700 2736 2872 3713 2963 3055 3317 3057 3084 3434 3169 3115 3116 3029 2883 2885 2884 3300 3558 2684 3193 3540 3175 33 3298 34 3010 3541 3208 3139 3500 3394 2730 3524 2734 3009 3022 3007 2885 2969 2968 2733 3682 2941 3117 3260 3116 3142 3508 3121 3007 3206 3006 3271 3688 3164 3163 3452 3445 3098 3146 3099 3134 3260 3117 2902 3420 3240 3119 3134 3117 3169 3276 3005 2810 2813 2812 3414 3497 2959 2974 3001 3000 338 3316 337 3520 3521 3313 3237 3239 3232 3445 3452 2685 341 3301 340 2995 3470 3018 3257 3258 3204 2854 3274 2874 3225 3227 3226 2903 3506 2912 2734 2810 2809 3074 3392 3095 2821 3499 3209 2971 3251 3126 3116 3663 3029 3079 3098 3081 2827 3683 3265 2984 3221 2981 3264 3333 2801 3030 3257 3204 3101 3424 3312 3197 3508 3399 3019 3688 3294 3343 3671 2707 3231 3278 3233 3510 3549 3227 3306 3307 3213 2707 3690 3343 3078 3253 3079 2860 2966 2965 3176 3246 2720 3143 3713 3208 3112 3280 3100 2727 3214 2823 3231 3233 3232 3203 3702 3170 3313 3521 3101 3259 3300 3258 2976 2995 2978 2976 3548 2975 3107 3205 2911 2809 3723 2729 2872 2873 2842 3563 3698 3520 2969 3229 3228 3582 3708 3087 2729 3214 2727 2703 3408 3262 3074 3095 3075 151 3731 3222 2879 3032 2876 3015 3112 3100 3233 3238 3237 2831 3305 334 333 3305 2699 2971 3126 3125 3115 3117 3116 3119 3288 3135 3027 3029 3028 3146 3659 3567 3119 3135 3134 3275 3738 3523 3374 3679 3158 3087 3613 3582 3092 3552 182 3142 3706 3508 3095 3172 3096 2966 3007 3006 2937 3076 2694 3009 3023 3022 24 3716 25 3006 3206 3138 3291 3689 2704 3126 3615 2677 2697 3307 336 335 3307 2831 56 3282 2716 3095 3296 3172 3004 3691 3443 3120 3623 3102 3302 3330 2886 2938 3520 3313 3179 3181 3180 3425 3652 2923 2682 3652 3425 2938 3563 3520 2941 3303 2739 3023 3257 3030 3057 3317 3103 3220 3317 3055 2703 3412 3408 3276 3314 3005 3312 3313 3101 2963 2964 2873 151 3222 2887 3265 3683 3266 3179 3445 3181 3450 3730 3367 3030 3204 3203 2830 3316 338 10 3113 189 3101 3521 2781 3078 3079 3002 337 3316 2697 3001 3002 3000 3098 3099 3081 2973 2974 2964 3453 3491 3349 3146 3168 3099 2737 3423 3324 3428 3718 3364 3190 3292 3189 248 3728 249 3284 3330 3283 3466 3562 3430 3031 3143 3142 3241 3661 3243 3439 3440 3202 3010 3208 2965 3097 3440 3439 3103 3444 3301 219 3518 2945 2801 3562 3466 3289 3669 3082 3188 3642 2916 3388 3701 2836 241 3586 2947 3088 3586 239 2745 3427 3077 3241 3733 3661 3286 3287 2994 3001 3196 3128 3324 3423 3325 3252 3253 3078 3496 3547 2879 3311 3312 2925 3226 3449 3043 2860 3447 2966 3025 3257 3023 55 3282 56 53 3295 2754 3247 3279 2972 3211 3720 2699 3308 3316 3220 3232 3697 3229 2786 3199 3149 3151 3418 2891 3408 3412 3122 3043 3629 3223 2983 3314 3068 2801 3333 2755 3037 3675 3584 3412 3435 3122 3100 3392 3074 2 3525 22 2966 3447 3008 2699 3305 3277 3294 3478 3293 3077 3210 2743 3195 3502 3193 2867 3329 2826 2880 3496 2877 13 3514 244 11 3515 216 185 3517 8 3141 3562 2744 3204 3388 3203 3128 3495 3252 3247 3735 3164 3074 3075 2970 2861 3285 157 2739 3303 2782 3122 3435 3324 2830 3444 3317 3068 3314 3276 3353 3704 3211 183 3552 184 2838 3538 3297 2831 3307 3306 3559 3676 3454 53 2754 54 3389 3391 3058 2747 3427 2745 2844 3304 2759 3294 3484 3478 3704 3720 3211 2982 3314 2983 3323 3386 2789 3234 3719 3112 2940 3319 3318 2826 3329 2805 2994 3329 2867 3179 3180 2941 3175 3472 3173 3254 3691 3433 3318 3319 3061 3322 3355 2829 2902 3240 2905 3230 3231 3229 2940 3318 3070 2905 3506 2903 2751 3638 3560 3310 3620 3313 3322 3386 3323 51 2833 52 3390 3409 3287 3061 3319 3060 3095 3096 3075 2697 3316 3308 3319 3321 3060 2837 3699 3605 3060 3321 3062 3325 3423 3370 3287 3409 3329 3338 3339 3058 2874 3429 2875 50 3263 51 3121 3508 3197 2759 3304 2756 3321 3355 3322 3118 3119 3117 3287 3329 2994 3182 3559 3180 3059 3337 3327 3058 3391 3338 3005 3314 2986 2829 3386 3322 2986 3314 2982 2842 3255 2812 3323 3391 3389 3262 3408 3318 3164 3688 3279 3337 3339 3338 2857 3426 3016 3170 3702 3207 3333 3347 2795 3275 3609 3429 2882 2883 2881 3059 3339 3337 3320 3327 2788 3321 3322 3062 3327 3354 3059 2788 3326 3320 3264 3347 3333 2764 3336 2766 2760 3326 2762 3052 3339 3050 3320 3354 3327 3327 3337 3336 2762 3326 2788 2757 3333 2795 3478 3526 3477 2898 2901 2899 2760 3334 3326 2766 3336 2828 2788 3336 2764 3058 3339 3052 3050 3339 3059 3114 3115 3029 3370 3436 3325 2998 3162 2721 3278 3513 3233 3322 3323 3062 3328 3332 3267 3327 3336 2788 2989 3332 3106 2758 3334 2760 3106 3332 3328 3334 3344 3123 2988 3332 2989 3326 3334 3123 2794 3344 3334 3267 3332 3069 3069 3332 2988 2992 3344 2848 2767 3335 2763 3123 3344 2992 2763 3335 2761 2848 3344 2802 2849 3347 3039 3011 3342 3341 3157 3342 3012 3336 3337 2828 3063 3340 3167 3039 3347 3264 3011 3341 3340 3012 3342 3011 3340 3341 3167 2803 3347 2849 3063 3345 3340 2961 3345 2847 3342 3343 3341 3337 3338 2828 3340 3345 2961 2847 3345 2846 2870 3345 3063 2846 3345 2870 2827 3346 2768 3065 3350 3348 2768 3346 2765 3348 3352 3065 2993 3351 3046 2962 3352 3013 2871 3351 2993 3013 3352 3348 2851 3352 2962 3065 3352 2909 3014 3351 2871 3044 3354 3320 3064 3353 3211 3059 3354 3048 3048 3354 3045 3355 3380 2829 3109 3372 2996 3358 3365 2736 2796 3373 2804 2991 3379 346 2957 3371 2956 2956 3371 2990 3194 3195 3193 3359 3365 3358 3161 3173 3160 3362 3365 3359 373 2708 372 376 3358 2736 378 3376 2850 2829 3380 2777 2796 2804 2787 3108 3109 2996 3377 3382 3067 3367 3369 3368 330 2707 329 333 2699 332 335 2831 334 2865 2866 2826 2850 3376 3360 2866 2956 2867 369 3375 368 3055 3056 3054 3360 3361 3359 379 3376 378 348 3366 347 368 2843 367 2777 2779 2778 2798 2806 2796 2811 2834 2806 2825 2865 2826 2865 3372 2866 3035 3108 2996 3066 3321 3319 3356 3357 3108 2777 3380 2779 2804 2805 2787 2798 2811 2806 3174 3175 3173 2996 3372 2865 3366 3367 2991 3067 3161 3160 2850 3359 3358 2990 3159 3137 3053 3055 3054 347 2991 346 2780 3375 369 376 2736 375 3054 3058 3052 3057 3103 3061 322 3374 2791 346 3379 345 2850 3358 377 2779 2798 2796 2863 2939 2862 2955 3377 3067 326 3036 325 2804 2825 2805 2834 2853 2806 2825 2955 2865 2863 3066 2940 3070 3071 2939 2955 3035 2996 3367 3368 2991 3035 3356 3108 3160 3356 3035 3325 3381 3071 2806 3373 2796 2825 3377 2955 2862 3381 2864 2863 2940 2939 2958 2994 2867 3071 3381 2939 3066 3319 2940 3066 3378 3355 3159 3219 3137 3361 3362 3359 319 2723 318 337 2697 336 2798 3378 2811 2866 2957 2956 2990 3137 3020 2990 3371 3159 313 2797 312 322 2791 321 323 3374 322 377 3358 376 378 2850 377 2866 2867 2826 2955 3067 3035 2990 3020 2958 3103 3262 3061 3066 3355 3321 3174 3193 3175 3378 3380 3355 328 2832 327 339 2830 338 342 2703 341 370 2780 369 2779 2796 2787 2798 3380 3378 3053 3054 3052 3057 3060 3056 3060 3062 3056 3262 3318 3061 345 3379 2737 2825 2826 2805 2862 2864 2834 2955 2996 2865 2956 2990 2958 368 3375 2843 3137 3218 3020 3051 3053 3052 3055 3057 3056 3103 3301 3262 3369 3370 3368 2853 3373 2806 2850 3360 3359 2940 3070 2939 3368 3379 2991 3361 3364 3363 2939 3381 2862 3049 3213 3051 3373 3382 3377 2811 2863 2862 2811 3378 2863 3067 3160 3035 3053 3220 3055 3122 3324 3071 3174 3194 3193 2853 3382 3373 2866 3372 2957 3067 3382 3161 3324 3325 3071 316 2784 315 2779 2787 2778 2779 3380 2798 3057 3061 3060 345 2737 344 3373 3377 2804 2804 3377 2825 2811 2862 2834 3051 3052 3050 3161 3174 3173 3361 3363 3362 2956 2958 2867 2853 3383 3382 2863 3378 3066 3070 3122 3071 2775 2829 2777 2777 2778 2776 347 3366 2991 2853 3384 3383 3382 3383 3161 3161 3383 3174 2864 3384 2834 2864 3385 3384 3174 3383 3194 3383 3384 3194 2775 2777 2776 2776 2792 2774 3050 3059 3048 3049 3051 3050 3348 3350 3349 3384 3385 3194 3194 3385 3195 2834 3384 2853 3049 3050 3048 3348 3349 3177 2775 2776 2774 3158 3256 3157 3047 3049 3048 3110 3158 3157 3013 3348 3177 2773 2775 2774 3013 3177 3110 3046 3198 3047 2771 2789 2773 3047 3048 3045 3110 3157 3012 2773 2774 2772 3046 3047 3045 3320 3326 3123 2771 2773 2772 3013 3110 3012 3171 3351 3014 3045 3354 3044 2771 2772 2770 2993 3046 3045 3039 3264 3042 3042 3043 3040 3167 3353 3064 2962 3013 3012 3044 3320 3123 3064 3211 3171 3064 3171 3014 2770 2827 2768 3040 3065 2909 2769 2771 2770 2993 3045 3044 3039 3042 3040 3063 3167 3064 3044 3123 2992 3011 3340 2961 2962 3012 3011 3063 3064 3014 3039 3040 2909 2769 2770 2768 2962 3011 2961 2766 2828 2769 2993 3044 2992 2909 3352 2851 2870 3063 3014 2871 2993 2992 2851 2962 2961 2766 2769 2768 2849 3039 2909 2871 2992 2848 2851 2961 2847 2766 2768 2765 2849 2909 2851 2870 3014 2871 2765 3346 2767 2764 2766 2765 2870 2871 2848 2765 2767 2763 2849 2851 2847 3106 3328 3286 2803 2849 2847 2764 2765 2763 2762 2788 2764 2846 2870 2848 3106 3286 3212 3124 3291 3290 2803 2847 2846 2762 2764 2763 2846 2848 2802 3106 3212 3105 3266 3267 3069 3124 3290 3033 2795 3347 2803 2762 2763 2761 2803 2846 2802 2761 3335 2844 3084 3169 3005 3068 3276 3265 3105 3124 3033 2989 3106 3105 3265 3266 3069 2760 2762 2761 2795 2803 2802 2802 3344 2794 2761 2844 2759 3003 3084 3005 3068 3265 3069 2989 3105 3033 2795 2802 2794 2760 2761 2759 2989 3033 2984 3003 3005 2986 3068 3069 2988 2987 3164 3003 2757 2795 2794 2758 2760 2759 2794 3334 2758 2987 3003 2986 2988 2989 2984 2983 3068 2988 2789 3386 2773 2775 3386 2829 2757 2794 2758 2758 2759 2756 2773 3386 2775 3338 3387 2828 2828 3387 2769 2771 3387 2789 2983 2988 2984 2985 2987 2986 2879 3505 3032 2789 3391 3323 2769 3387 2771 2755 3333 2757 2757 2758 2756 3244 3245 3242 3323 3389 3062 3062 3389 3056 3054 3389 3058 2985 2986 2982 2983 2984 2981 2776 3390 2792 3235 3278 3231 3624 3656 2682 2753 3657 3624 3245 3506 3242 3056 3389 3054 3604 3695 354 3451 3679 3374 3387 3391 2789 2756 3304 2747 2755 2757 2756 3024 3025 3023 2778 3390 2776 3329 3409 2805 2805 3409 2787 3318 3408 3070 3224 3225 3223 342 3412 2703 3301 3444 340 3205 3454 3104 3243 3244 3242 2876 3473 2855 2721 3162 2726 3338 3391 3387 3370 3423 3368 3379 3423 2737 2793 3715 3677 3436 3446 3385 2778 3409 3390 3070 3408 3122 3026 3027 3025 3399 3508 2839 3038 3626 3461 373 3431 2708 3127 3288 3119 3147 3285 2861 2980 2985 2982 2982 2983 2981 51 3263 2833 2787 3409 2778 3008 3009 3007 2911 3104 2910 2841 3136 2995 3148 3625 2821 3169 3534 3276 3324 3435 2737 343 3412 342 282 2836 283 284 2684 285 279 2681 280 285 3393 286 286 2837 287 277 2835 278 287 3397 288 276 3394 277 288 2696 289 275 3395 276 274 2695 275 290 2838 291 273 3398 274 272 2839 273 292 2705 293 271 3399 272 270 2706 271 293 3400 294 269 3401 270 295 2722 296 268 2840 269 296 3402 297 267 3404 268 266 2749 267 297 3406 298 298 2793 299 265 3403 266 264 2845 265 299 3405 300 300 3038 301 263 3407 264 2978 3018 2980 2737 3435 344 3079 3081 3080 3158 3536 3374 3325 3436 3381 2864 3436 3385 3368 3423 3379 3269 3717 3187 2824 3447 2860 3280 3668 3400 3144 3664 3145 3131 3247 2972 3356 3431 3357 374 3431 373 2746 2801 2755 2755 2756 2747 3036 3621 3256 343 3435 3412 3243 3622 3244 2801 3466 3264 340 3444 339 3264 3466 3042 2886 3545 3494 159 3285 3091 2814 2815 2813 3485 3487 3486 278 3437 279 3370 3446 3436 2974 3000 2999 2912 3224 3223 3065 3449 3350 3043 3449 3040 2767 3434 3335 324 3451 323 367 3450 366 3463 3727 2881 2957 3529 3363 2904 3522 2901 52 3295 53 3016 3426 3248 54 3281 55 2684 3393 285 286 3393 2837 2837 3397 287 277 3394 2835 288 3397 2696 276 3395 3394 2695 3395 275 274 3398 2695 2839 3398 273 272 3399 2839 2705 3400 293 2706 3399 271 270 3401 2706 2840 3401 269 2722 3402 296 268 3404 2840 3402 3406 297 2749 3404 267 266 3403 2749 298 3406 2793 2845 3403 265 2793 3405 299 300 3405 3038 264 3407 2845 320 3453 319 2754 3462 3281 3265 3534 2827 353 2783 352 356 2704 355 351 2997 350 352 3428 351 3241 3243 3242 3210 3414 2895 3075 3463 2970 3131 3610 3564 344 3435 343 2816 2817 2815 3330 3331 3283 312 3458 311 3315 3505 2879 2836 3701 3300 2994 3680 3286 3381 3436 2864 3494 3545 3236 3296 3533 2838 3523 3539 2716 2985 3129 2987 279 3437 2681 2835 3437 278 3504 3555 3255 2818 2819 2817 2820 2854 2819 2971 3279 3251 2840 3550 3252 2722 3668 3280 50 3461 3263 3145 3555 3504 3438 3532 3289 3115 3118 3117 2969 3230 3229 2972 3279 2971 2912 3506 3224 1 2720 262 3517 3565 2890 3093 3518 217 3168 3254 3099 2981 3221 2979 2980 2982 2981 372 3472 371 262 3246 261 2784 3474 315 3126 3716 3615 2881 3727 2880 3422 3727 3217 3130 3610 3131 3300 3566 2836 3385 3446 3195 3186 3268 3187 321 3491 320 3484 3503 3185 3027 3114 3029 339 3444 2830 166 3614 2950 2946 3613 229 234 3612 3094 2945 3611 220 221 3611 2951 3090 3612 233 230 3613 3087 2953 3614 165 3215 3524 2732 3219 3695 3604 3289 3411 3246 2749 3410 3404 2695 3396 3395 3407 3443 2845 3369 3446 3370 3204 3701 3388 260 2790 259 3622 3661 3440 309 3439 308 3343 3660 2832 2726 2727 2725 3263 3513 2833 2883 2886 2885 3507 3605 3134 2728 2729 2727 3120 3292 3190 3031 3713 3143 3118 3127 3119 2832 3671 3343 3040 3449 3065 3230 3235 3231 3214 3664 2823 3009 3024 3023 3108 3512 3109 3441 3544 2678 2774 3467 2772 258 3004 257 2843 3450 367 323 3451 3374 2730 2734 2729 3192 3269 3250 3286 3680 3212 2783 3428 352 351 3428 2997 3079 3080 3002 2688 3643 3186 3105 3528 3124 2926 3641 3184 3109 3529 3372 3240 3241 2905 3217 3463 3075 3286 3561 3287 3115 3315 3118 3302 3331 3330 3360 3530 3361 3146 3567 3168 2886 3494 2885 310 3097 309 3102 3425 3424 261 3411 260 2966 3008 3007 319 3453 2723 3281 3284 3282 3180 3559 3303 259 3433 258 3114 3315 3115 3177 3536 3110 3560 3633 2680 3448 3673 2977 3138 3500 3139 2970 3463 2884 3677 3715 3237 2878 2882 2881 3427 3610 3130 3422 3496 2880 3661 3733 3417 3605 3699 3260 371 3540 370 3187 3717 2752 3127 3422 3288 3328 3561 3286 3350 3736 3349 2732 3524 2730 2792 3467 2774 3428 3530 2997 2971 3125 2719 313 3543 2797 3298 3442 34 317 3549 316 2797 3458 312 3413 3414 3150 318 3551 317 3331 3523 3283 3024 3026 3025 3143 3556 3142 2738 3215 2732 3398 3706 3556 3365 3512 2736 2856 3454 3426 3218 3528 3020 2974 2999 2964 358 3498 357 3151 3593 2710 2906 3597 3420 3375 3464 2843 3434 3608 3564 49 3461 50 308 2822 307 350 3455 349 3135 3507 3134 32 2717 33 3519 3719 3234 2883 3302 2886 3149 3200 3150 3081 3082 3080 2733 2941 2739 2681 3527 280 3353 3690 2707 2832 3621 327 326 3621 3036 3041 3627 2975 2707 3704 3353 2917 3480 3189 3130 3131 2972 3096 3217 3075 3331 3609 3275 2837 3605 3397 3342 3660 3343 3256 3660 3157 2822 3439 3202 3516 3565 2687 2997 3455 350 16 3665 348 366 3665 16 325 3666 15 15 3666 324 2838 3533 291 292 3533 2705 3304 3427 2747 3164 3735 3003 3173 3670 3160 2707 3671 329 328 3671 2832 3020 3680 2958 2772 3683 2770 3176 3669 3289 3343 3690 3341 3102 3424 3101 3167 3690 3353 2699 3720 332 3219 3694 3137 2736 3700 375 330 3704 2707 2873 3255 2842 3162 3509 2726 3266 3467 3267 2696 3538 289 290 3538 2838 2807 3101 2781 3140 3618 3141 2868 3274 2854 2882 3302 2883 3125 3525 2693 3300 3701 3258 3510 3724 2784 2689 3655 3486 3431 3670 2708 3523 3738 3155 2918 3653 3544 3544 3653 2678 2753 3624 3441 3259 3558 3300 2790 3532 3254 3276 3534 3265 3390 3561 2792 3026 3459 3027 56 2716 57 3018 3469 3250 2908 3415 3152 2889 3418 3154 2746 2755 2747 4 3672 49 3288 3535 3135 3099 3438 3081 301 3672 4 3349 3736 3453 3434 3564 3335 3309 3738 3274 3000 3144 2999 2836 3566 283 284 3566 2684 3374 3536 2791 3081 3438 3082 37 2998 1 3429 3609 2882 3396 3556 3143 2743 3210 2741 3375 3502 3464 355 3604 354 3356 3670 3431 3431 3700 3357 257 3460 256 3486 3554 2689 374 3700 3431 3330 3545 2886 3396 3541 3139 2729 3723 3214 3400 3668 294 295 3668 2722 281 3527 3388 2782 2856 2808 3243 3661 3622 2912 3223 3156 2708 3472 372 3009 3468 3024 3000 3492 3144 3245 3724 3506 3310 3313 3312 2833 3295 52 3192 3717 3269 2810 2814 2813 3254 3438 3099 35 2685 36 3042 3629 3043 3437 3702 2681 3304 3610 3427 3139 3541 3010 17 3687 379 3073 3113 2852 3295 3537 2754 315 3474 314 2887 3222 2967 3134 3605 3260 2998 3452 3163 34 3442 35 3280 3719 2722 2791 3491 321 3256 3679 3036 349 3687 17 2920 3526 3484 2885 3494 2969 3172 3535 3096 3426 3454 3205 0 3712 263 36 3452 37 3021 3546 3524 3027 3459 3114 3401 3495 2706 3008 3468 3009 2721 2725 2720 2895 3414 3413 311 3703 14 3002 3492 3000 3199 3200 3149 3309 3311 3076 3260 3699 3261 3312 3424 2925 2780 3502 3375 3082 3216 3080 3398 3556 2695 2822 3202 3201 3252 3550 3253 3440 3661 3202 3233 3513 3238 3241 3242 2905 3230 3236 3235 2861 3273 3147 3363 3529 3362 2882 3609 3302 2845 3567 3403 2880 3727 3422 3024 3165 3026 3127 3496 3422 3524 3546 2734 3237 3715 3239 3394 3500 2835 3165 3166 3026 3032 3473 2876 3168 3691 3254 3303 3559 2856 3278 3537 3295 3625 3705 3166 3357 3512 3108 280 3527 281 3443 3691 3168 2720 3246 262 2814 2816 2815 3487 3696 3486 3224 3510 3225 3466 3629 3042 3258 3701 3204 256 3712 0 3403 3659 2749 3367 3730 3369 3553 3631 2750 2680 3631 3553 3107 3248 3205 2915 3651 3554 3554 3651 2689 3166 3459 3026 3144 3145 2999 2790 3433 259 3410 3550 3404 2964 3504 2873 3246 3411 261 3299 3684 3298 3474 3543 314 3210 3573 2741 2822 3201 3111 3470 3471 2670 258 3433 3004 2843 3730 3450 3238 3677 3237 3471 3639 2670 3136 3639 3471 3097 3439 309 2722 3519 3402 31 3432 32 2816 2818 2817 2683 3616 3107 14 3703 310 3156 3466 3430 353 3695 2783 3388 3527 3203 260 3411 2790 3574 3729 3575 2893 3465 2892 3212 3528 3105 291 3533 292 3284 3545 3330 2754 3281 54 3372 3529 2957 3168 3567 3443 2894 3728 248 2793 3677 3405 2960 3497 3130 3207 3702 3437 3553 3560 2680 3004 3460 257 2726 2728 2727 2692 3580 3465 2818 2820 2819 3141 3618 3430 3361 3530 3364 3290 3498 2679 2721 2726 2725 3371 3531 3159 2835 3726 3437 3124 3689 3291 3236 3462 3235 3107 3692 3248 3517 3518 3093 3080 3492 3002 289 3538 290 2717 3298 33 2998 3163 3162 3242 3506 2905 3556 3706 3142 3292 3542 3189 2728 2730 2729 3465 3579 2892 2820 2868 2854 2827 3534 3346 2873 3504 3255 2740 3569 3456 3456 3569 2686 2726 3509 2728 3281 3282 55 2784 3549 3510 2960 3130 2972 3181 3182 3180 2676 3642 3188 2671 3647 3191 3024 3468 3165 3253 3550 3410 3131 3608 3247 3110 3536 3158 357 3498 3291 3138 3726 3500 3615 3716 24 2963 3713 3031 3486 3655 2928 370 3540 2780 2969 3494 3230 2912 3156 2904 2999 3504 2964 3604 3694 3219 3425 3624 2682 3129 3271 2987 314 3543 313 3187 3645 2688 2925 3557 3311 3531 3718 3667 3163 3445 3179 2857 3016 2859 2900 2901 2898 3087 3708 3594 3571 3707 2946 2952 3708 3582 2954 3708 2952 2949 3709 3583 3603 3711 3585 3590 3711 2944 316 3549 2784 2735 2893 2892 2714 3415 2907 2891 3418 2711 2713 2900 2898 2896 2897 2714 2715 3421 2896 3369 3730 3464 3184 3487 2927 2723 3551 318 2856 3426 2857 3143 3541 3396 3531 3667 3159 3299 3676 3182 2844 3610 3304 3093 3565 3517 3458 3703 311 3564 3608 3131 3130 3497 3427 3437 3726 3207 3269 3721 3129 283 3566 284 3535 3732 3096 2980 2981 2979 2868 3309 3274 3261 3663 3116 3315 3547 3118 3335 3564 2844 3564 3610 2844 3112 3719 3280 3404 3550 2840 3287 3561 3390 2752 3717 3647 3216 3492 3080 2897 3416 3415 2976 2977 2724 3449 3607 3350 2890 3565 3140 3445 3684 3181 2744 3562 2746 3468 3499 3165 3462 3537 3235 3524 3698 3021 3369 3686 3446 2734 3546 2810 308 3439 2822 3158 3679 3256 3156 3430 2904 2814 3021 2816 3178 3509 3162 3450 3665 366 324 3666 3451 327 3621 326 2821 3685 3499 3114 3505 3315 3289 3532 3411 3481 3681 3478 3156 3629 3466 2911 3205 3104 2728 2731 2730 2856 3559 3454 3132 3490 2948 3086 3489 3132 2922 3483 3185 2914 3479 3268 2783 3718 3428 2695 3556 3396 3230 3494 3236 3118 3547 3127 2995 3018 2978 3239 3697 3232 3145 3504 2999 3469 3560 3553 3502 3686 3464 2995 3471 3470 2926 3184 2927 2917 3188 2916 2783 3695 3667 3235 3537 3278 3163 3178 3162 3163 3179 3178 3157 3660 3342 3464 3686 3369 3185 3487 3184 3291 3498 3290 2975 3627 2800 379 3687 3376 2976 2978 2977 3443 3567 2845 3127 3547 3496 3411 3532 2790 3250 3469 3249 359 2679 358 3625 3734 3705 3084 3608 3434 3153 3722 2712 3036 3666 325 348 3665 3366 294 3668 295 2818 2938 2820 2959 3497 2960 3159 3667 3219 2746 2747 2745 2738 3521 3215 3215 3521 3520 3160 3670 3356 2935 3475 2750 2929 3476 2702 2931 3477 2700 2933 3481 2675 3126 3525 3125 3288 3732 3535 2731 2732 2730 3552 3611 2945 329 3671 328 2704 3604 355 1 2721 2720 3459 3505 3114 2901 3522 2899 2685 3452 36 2958 3680 2994 2858 3292 3120 2942 3518 3517 35 3442 2685 2770 3683 2827 3427 3497 3077 3405 3626 3038 2754 3537 3462 3341 3690 3167 3254 3532 3438 3469 3553 3249 3137 3694 3218 3689 3694 2704 3113 3589 189 263 3712 3407 375 3700 374 3218 3694 3689 2731 2733 2732 3151 3457 3418 3294 3503 3484 2746 3562 2801 2728 3509 2731 331 3704 330 3111 3511 306 3223 3629 3156 3097 3703 3458 2749 3659 3410 244 3514 2799 216 3515 2687 2942 3517 185 3077 3497 3414 331 3720 3704 3226 3607 3449 2869 3575 3200 3518 3552 2945 332 3720 331 3038 3672 301 3077 3414 3210 2807 3102 3101 184 3552 2942 3180 3303 2941 2868 3310 3309 2980 3662 2985 3447 3606 3008 3003 3735 3084 2717 3299 3298 22 3525 2677 2810 3546 2814 37 3452 2998 3186 3643 2913 3184 3641 2701 3310 3311 3309 2733 2738 2732 3270 3503 3271 3366 3665 3450 3451 3666 3036 3422 3732 3288 3076 3557 2694 3239 3715 3406 3499 3606 3209 3034 3183 3072 354 3695 353 32 3432 2717 3153 3595 2888 2735 3576 3149 2698 3573 3210 2923 3482 3425 2879 3547 3315 3199 3584 2869 2985 3619 3129 3624 3657 3656 2733 2739 2738 3520 3698 3215 3154 3733 3240 2944 3711 3285 3430 3618 2904 2900 3419 2902 3261 3699 3393 3430 3562 3141 2930 3542 3476 3092 3611 3552 3302 3609 3331 2687 3565 12 2741 3573 9 2919 2920 2674 2924 2925 2691 2926 2927 2673 2915 3479 2672 2918 3480 2690 2921 2922 2701 3251 3279 3017 3393 3699 2837 3417 3457 3152 2722 3719 3519 2856 2857 2808 2839 3706 3398 3446 3686 3195 2739 2781 2738 3186 3187 2688 3310 3312 3311 3273 3514 3147 3468 3606 3499 3036 3679 3451 3506 3724 3224 140 3638 141 3664 3674 2823 3586 3709 2949 3585 3711 3586 3508 3706 2839 3217 3732 3422 3406 3715 2793 3493 3678 2967 2723 3736 3607 3608 3735 3247 3692 3716 3126 2903 2904 2901 3274 3738 3275 2960 2972 2971 30 2910 31 2739 2782 2781 2934 3681 3481 3018 3662 2980 3037 3584 3199 3415 3416 3152 2903 2912 2904 49 3672 3461 3102 3623 3425 2960 2971 2719 2745 3077 2743 3240 3722 3153 3376 3687 3455 3240 3733 3241 3082 3669 3216 2918 3544 3480 2719 3125 2693 3418 3457 3154 3190 3544 3441 2869 3200 3199 3248 3251 3016 3072 3073 2852 3461 3672 3038 3136 3471 2995 3008 3606 3468 2814 3546 3021 3492 3674 3144 2782 2807 2781 3279 3688 3017 3455 3687 349 303 3222 302 3499 3685 3165 2679 3498 358 3195 3686 3502 2915 3554 3479 3096 3732 3217 310 3703 3097 3453 3736 2723 2978 2980 2979 3192 3475 2936 2932 3481 3478 3667 3718 2783 3576 3588 3149 3019 3294 3293 2910 3617 2911 2782 2808 2807 3475 3553 2750 3165 3685 3166 48 2692 2 3464 3730 2843 2712 3722 3597 2852 3113 10 2818 3563 2938 5 3136 2841 3270 3271 3129 231 3594 232 188 2740 9 216 2687 12 244 2799 10 203 2711 204 228 2946 229 8 2686 186 200 3593 201 47 3580 48 46 3579 47 253 3584 254 225 2943 226 234 3094 235 249 2709 250 43 2735 44 38 3037 39 245 2698 246 250 3574 251 197 3592 198 42 3576 43 39 3577 40 246 3572 247 186 3569 187 206 3595 207 237 3596 238 222 3591 223 194 2714 195 209 3597 210 219 2945 220 212 3599 213 243 2944 13 174 3086 175 154 2785 155 181 3092 182 252 2869 253 162 2949 163 166 2950 167 170 2952 171 40 2786 41 178 2948 179 45 2892 46 247 2894 248 215 2898 11 12 3093 217 9 3573 245 251 3575 252 153 3602 154 41 3588 42 173 3601 174 161 3585 162 241 2947 242 213 2713 214 190 2715 191 238 3088 239 221 2951 222 235 3570 236 224 3598 225 196 2907 197 232 3090 233 204 3568 205 230 3087 231 201 2891 202 226 3571 227 205 2888 206 198 2710 199 208 2712 209 236 3089 237 223 3133 224 211 2906 212 192 2896 193 242 3590 243 160 3603 161 156 2861 157 152 2887 153 159 3091 160 164 2953 165 172 3085 173 168 2954 169 176 3132 177 189 3589 190 184 2942 185 180 3600 181 179 3578 180 167 3581 168 155 3587 156 171 3582 172 163 3583 164 3311 3557 3076 3017 3019 2859 2781 3521 2738 365 3041 364 2731 3682 2733 3433 3691 3004 3417 3733 3457 3185 3503 3487 2816 3563 2818 3270 3696 3487 2841 2995 2976 3140 3565 3516 3298 3684 3442 58 2937 59 6 3725 365 2799 3514 3034 3202 3661 3417 3217 3727 3463 3084 3735 3608 3459 3705 3505 3515 3522 3516 3432 3693 2717 3215 3698 3524 3189 3480 3190 3488 3611 3600 22 2677 23 29 3617 30 25 2748 26 26 3616 27 28 2683 29 23 3615 24 3460 3712 256 3088 3709 3586 3586 3711 2947 3407 3712 3460 3032 3734 3473 3485 3486 2928 2868 3620 3310 3470 3560 3469 3021 3563 2816 2857 2858 2808 2683 3107 2911 2908 3151 2710 2906 3420 3419 2735 3149 2893 2698 3210 2895 2889 3153 2888 3285 3711 3091 3500 3726 2835 2911 3617 2683 3413 3728 2894 5 2800 148 2820 3620 2868 3016 3251 3017 148 3627 149 149 3628 150 3268 3269 3187 2920 3484 3483 2899 3515 11 3147 3514 13 8 3517 2890 3166 3705 3459 129 3647 130 89 2702 90 126 3645 127 132 3648 133 86 3644 87 95 2931 96 123 3643 124 135 2750 136 83 3642 84 98 3649 99 120 2672 121 61 3650 62 138 2680 139 80 2690 81 101 2674 102 64 2691 65 141 2751 142 67 3652 68 144 2670 145 74 3654 75 111 3640 112 70 3656 71 147 3136 5 71 3657 72 110 2673 111 108 2926 109 73 3658 74 145 3639 146 113 3655 114 105 2701 106 76 3653 77 142 3637 143 65 3636 66 116 3651 117 102 3635 103 139 3633 140 62 2924 63 99 2919 100 82 2916 83 136 3631 137 122 2913 123 85 2676 86 133 2935 134 125 2688 126 93 2675 94 128 2752 129 90 3630 91 91 2933 92 131 2671 132 87 2929 88 94 3646 95 97 2700 98 121 3632 122 60 2694 61 81 3634 82 118 2915 119 78 2918 79 103 2921 104 115 2689 116 66 2923 67 75 2678 76 106 3641 107 112 2928 113 69 2682 70 72 2753 73 306 3511 305 2904 3618 3522 302 3731 7 3166 3685 3625 3558 3663 3261 3073 3714 3113 3224 3724 3510 2744 2746 2745 3293 3542 3292 3269 3619 3250 2693 3525 2 2716 3737 57 2951 3611 3488 3016 3017 2859 3155 3539 3523 2938 3620 2820 3405 3677 3626 3019 3292 2859 2857 2859 2858 3364 3718 3531 2902 2905 2903 3667 3695 3219 3473 3734 3148 3216 3674 3492 3420 3722 3240 3259 3663 3558 2922 3184 2701 2671 3191 2936 2676 3188 2930 2914 3186 2913 254 3675 255 3250 3662 3018 57 3737 58 2717 3693 3299 2740 3456 2742 3083 3456 2686 3178 3682 3509 3505 3705 3032 3626 3677 3238 2692 3465 2718 2895 3413 2894 3476 3681 2934 3154 3240 3153 3148 3734 3625 3271 3503 3294 2704 3694 3604 3144 3674 3664 3560 3638 3633 3113 3714 3589 2948 3490 3488 2943 3490 3489 3488 3490 3133 3489 3490 3132 2910 3432 31 304 3493 303 3542 3681 3476 3111 3201 3073 3129 3619 3269 2944 3285 3147 3424 3482 2925 3 3739 38 255 3739 3 2799 2852 10 3268 3721 3269 2898 2899 11 12 3565 3093 2944 3147 13 8 2890 2686 2740 2741 9 2975 3548 3501 3597 3722 3420 3268 3479 3272 2711 3418 2889 2897 3415 2714 2967 3273 2785 2713 3419 2900 2907 3415 2908 2896 3421 2897 2692 2693 2 3089 3614 3596 3570 3614 3089 3085 3613 3601 3600 3611 3092 3582 3613 3085 3581 3612 2954 7 3731 151 3485 3640 2673 3482 3636 2691 2928 3640 3485 2923 3636 3482 3017 3688 3019 3222 3493 2967 2919 3649 3526 3526 3649 2700 3522 3618 3516 3034 3678 3183 2890 3140 3083 3625 3685 2821 3483 3484 3185 3188 3542 2930 2859 3292 2858 3607 3736 3350 360 3448 359 150 3725 6 3222 3731 302 3539 3737 2716 3575 3729 3200 3612 3708 2954 364 3501 363 3041 3628 3627 3585 3586 2949 2978 2979 2977 2785 3602 2967 2713 3599 3419 2908 3592 2907 2710 3592 2908 2895 3572 2698 3199 3577 3037 2889 3568 2711 2786 3577 3199 2894 3572 2895 3419 3599 2906 2967 3602 2887 3273 3587 2785 2888 3568 2889 2861 3587 3273 2900 2902 2901 3416 3417 3152 5 2841 2800 3509 3682 2731 3584 3675 254 305 3183 304 2975 3501 3041 365 3725 3041 3273 3678 3514 3034 3072 2852 2742 2743 2741 2718 2719 2693 2917 3189 3188 3299 3693 3676 2924 3557 2925 3072 3111 3073 2959 2960 2719 2744 2745 2743 2942 3552 3518 2902 2903 2901 3249 3475 3192 3515 3516 2687 3696 3721 3272 2985 3662 3619 3676 3693 3104 3555 3723 2809 3487 3503 3270 3140 3141 3083 2742 2744 2743 2718 2959 2719 3152 3457 3151 2889 3154 3153 2908 3152 3151 3149 3150 2893 2799 3034 2852 2740 2742 2741 2890 3083 2686 2899 3522 3515 3489 3707 3571 3486 3696 3554 3019 3293 3292 2692 2718 2693 3021 3698 3563 3705 3734 3032 3477 3526 2700 2841 2976 2975 2932 3477 2931 2702 3476 2934 2925 3482 2691 2927 3485 2673 2936 3475 2935 2675 3481 2932 2934 3481 2933 2930 3476 2929 2919 3526 2920 3483 3635 2674 2930 3644 2676 2935 3648 2936 2936 3648 2671 2929 3644 2930 2934 3630 2702 2921 3635 3483 2931 3646 2932 2914 3632 2672 2933 3630 2934 2917 3634 2690 2932 3646 2675 2913 3632 2914 2916 3634 2917 363 3548 362 2672 3479 2914 2690 3480 2917 2920 3483 2674 2921 3483 2922 3514 3678 3034 3616 3692 3107 2937 3737 3539 38 3739 3037 30 3617 2910 3183 3678 3493 2748 3692 3616 3623 3624 3425 58 3737 2937 3619 3662 3250 2914 3268 3186 3191 3192 2936 2922 3185 3184 2841 2975 2800 3190 3441 3120 3192 3250 3249 3272 3721 3268 2924 3650 3557 3557 3650 2694 3183 3511 3072 2686 3569 186 3579 3580 47 2709 3574 250 2698 3572 246 43 3576 2735 3037 3577 39 40 3577 2786 2869 3584 253 2892 3579 46 245 3573 2698 247 3572 2894 42 3588 3576 3574 3575 251 154 3602 2785 174 3601 3086 252 3575 2869 2786 3588 41 162 3585 2949 213 3599 2713 238 3596 3088 2951 3591 222 3094 3570 235 225 3598 2943 2907 3592 197 232 3594 3090 2711 3568 204 201 3593 2891 3087 3594 231 198 3592 2710 2943 3571 226 2888 3595 206 3089 3596 237 223 3591 3133 2712 3597 209 2906 3599 212 205 3568 2888 3133 3598 224 236 3570 3089 161 3603 3585 243 3590 2944 2948 3578 179 181 3600 3092 2952 3582 171 3085 3601 173 2785 3587 155 2950 3581 167 2887 3602 153 2949 3583 163 2947 3590 242 190 3589 2715 168 3581 2954 164 3583 2953 156 3587 2861 3578 3600 180 172 3582 3085 3091 3603 160 3018 3470 3469 3425 3482 3424 48 3580 2692 362 2724 361 3614 3709 3596 3613 3707 3601 3570 3710 3614 3581 3710 3612 3129 3721 3270 25 3716 2748 3457 3733 3154 359 3448 2679 141 3638 2751 3633 3638 140 2748 3616 26 2683 3617 29 2677 3615 23 2927 3487 3485 2932 3478 3477 3589 3714 2715 3072 3511 3111 3628 3725 150 3441 3624 3623 2967 3678 3273 3647 3717 3191 249 3728 2709 3488 3591 2951 2943 3598 3490 3133 3591 3488 3489 3571 2943 3490 3598 3133 3488 3578 2948 3488 3600 3578 361 3673 360 2715 3714 3421 3480 3544 3190 3627 3628 149 2800 3627 148 3656 3657 71 2673 3640 111 74 3658 3654 2670 3639 145 2751 3637 142 2691 3636 65 2674 3635 102 2680 3633 139 62 3650 2924 99 3649 2919 2916 3642 83 2750 3631 136 2913 3643 123 2676 3644 86 133 3648 2935 2688 3645 126 2752 3647 129 2702 3630 90 2671 3648 132 87 3644 2929 95 3646 2931 2700 3649 98 2672 3632 121 2694 3650 61 2690 3634 81 91 3630 2933 2923 3652 67 2675 3646 94 75 3654 2678 122 3632 2913 82 3634 2916 112 3640 2928 103 3635 2921 2689 3651 116 66 3636 2923 2678 3653 76 2682 3656 70 2701 3641 106 2928 3655 113 72 3657 2753 2753 3658 73 2709 3729 3574 3189 3542 3188 3041 3725 3628 303 3493 3222 3191 3717 3192 3441 3623 3120 2748 3716 3692 3037 3739 3675 3270 3721 3696 3479 3554 3272 2977 3673 2724 3086 3707 3489 3614 3710 2950 2946 3707 3613 3612 3710 3094 3090 3708 3612 2953 3709 3614 3465 3580 3579 3041 3501 364 3675 3739 255 305 3511 3183 3728 3729 2709 3249 3553 3475 3293 3681 3542 3554 3696 3272 3183 3493 304 3601 3707 3086 3596 3709 3088 3094 3710 3570 3594 3708 3090 2950 3710 3581 2947 3711 3590 3583 3709 2953 3091 3711 3603 3413 3729 3728 3501 3548 363 360 3673 3448 362 3548 2724 2724 3673 361 27 2683 28 44 2892 45 59 2694 60 63 2691 64 68 2682 69 77 2918 78 79 2690 80 84 2676 85 88 2702 89 92 2675 93 96 2700 97 100 2674 101 104 2701 105 107 2926 108 109 2673 110 114 2689 115 117 2915 118 119 2672 120 124 2688 125 127 2752 128 130 2671 131 134 2750 135 137 2680 138 143 2670 144 146 3136 147 151 2887 152 169 2952 170 175 3132 176 177 2948 178 187 2740 188 191 2896 192 193 2714 194 195 2907 196 199 3593 200 202 2711 203 207 2712 208 210 2906 211 214 2898 215 227 2946 228 3560 3637 2751 2808 3102 2807 22 2 23 22 24 23 25 24 26 25 27 26 28 27 29 28 30 29 31 30 32 31 33 32 34 33 35 34 36 35 37 36 1 37 38 3 39 38 40 39 41 40 42 41 43 42 44 43 45 44 46 45 47 46 48 47 2 48 49 4 50 49 51 50 52 51 53 52 54 53 55 54 56 55 57 56 58 57 59 58 60 59 61 60 62 61 63 62 64 63 65 64 66 65 67 66 68 67 69 68 70 69 71 70 72 71 73 72 74 73 75 74 76 75 77 76 78 77 79 78 80 79 81 80 82 81 83 82 84 83 85 84 86 85 87 86 88 87 89 88 90 89 91 90 92 91 93 92 94 93 95 94 96 95 97 96 98 97 99 98 100 99 101 100 102 101 103 102 104 103 105 104 106 105 107 106 108 107 109 108 110 109 111 110 112 111 113 112 114 113 115 114 116 115 117 116 118 117 119 118 120 119 121 120 122 121 123 122 124 123 125 124 126 125 127 126 128 127 129 128 130 129 131 130 132 131 133 132 134 133 135 134 136 135 137 136 138 137 139 138 140 139 141 140 142 141 143 142 144 143 145 144 146 145 147 146 5 147 148 5 149 148 150 149 6 150 151 7 152 151 153 152 154 153 155 154 156 155 157 156 158 157 159 158 160 159 161 160 162 161 163 162 164 163 165 164 166 165 167 166 168 167 169 168 170 169 171 170 172 171 173 172 174 173 175 174 176 175 177 176 178 177 179 178 180 179 181 180 182 181 183 182 184 183 185 184 8 185 186 8 187 186 188 187 9 188 189 10 190 189 191 190 192 191 193 192 194 193 195 194 196 195 197 196 198 197 199 198 200 199 201 200 202 201 203 202 204 203 205 204 206 205 207 206 208 207 209 208 210 209 211 210 212 211 213 212 214 213 215 214 11 215 216 11 12 216 217 12 218 217 219 218 220 219 221 220 222 221 223 222 224 223 225 224 226 225 227 226 228 227 229 228 230 229 231 230 232 231 233 232 234 233 235 234 236 235 237 236 238 237 239 238 240 239 241 240 242 241 243 242 13 243 244 13 10 244 245 9 246 245 247 246 248 247 249 248 250 249 251 250 252 251 253 252 254 253 255 254 3 255 0 256 256 257 257 258 258 259 259 260 260 261 261 262 262 1 263 0 264 263 265 264 266 265 267 266 268 267 269 268 270 269 271 270 272 271 273 272 274 273 275 274 276 275 277 276 278 277 279 278 280 279 281 280 282 281 283 282 284 283 285 284 286 285 287 286 288 287 289 288 290 289 291 290 292 291 293 292 294 293 295 294 296 295 297 296 298 297 299 298 300 299 301 300 4 301 7 302 302 303 303 304 304 305 305 306 306 307 307 308 308 309 309 310 310 14 14 311 311 312 312 313 313 314 314 315 315 316 316 317 317 318 318 319 319 320 320 321 321 322 322 323 323 324 324 15 15 325 325 326 326 327 327 328 328 329 329 330 330 331 331 332 332 333 333 334 334 335 335 336 336 337 337 338 338 339 339 340 340 341 341 342 342 343 343 344 344 345 345 346 346 347 347 348 348 16 17 349 349 350 350 351 351 352 352 353 353 354 354 355 355 356 356 357 357 358 358 359 359 360 360 361 361 362 362 363 363 364 364 365 365 6 16 366 366 367 367 368 368 369 369 370 370 371 371 372 372 373 373 374 374 375 375 376 376 377 377 378 378 379 379 17 380 18 381 380 382 381 383 382 384 383 385 384 386 385 387 386 388 387 389 388 390 389 391 390 392 391 393 392 394 393 395 394 396 395 397 396 398 397 399 398 400 399 401 400 402 401 403 402 404 403 405 404 406 405 407 406 408 407 409 408 410 409 411 410 412 411 413 412 414 413 415 414 416 415 417 416 418 417 419 418 420 419 421 420 422 421 423 422 424 423 425 424 426 425 427 426 428 427 19 428 429 19 430 429 431 430 432 431 433 432 434 433 435 434 436 435 437 436 438 437 439 438 440 439 441 440 442 441 443 442 444 443 445 444 446 445 447 446 0 447 448 4 449 448 450 449 451 450 452 451 453 452 454 453 455 454 456 455 20 456 20 457 457 458 458 459 459 460 460 461 461 462 462 463 463 464 464 465 465 466 466 467 467 468 468 469 469 470 470 18 18 471 471 472 472 473 473 474 474 475 475 476 476 477 477 478 478 479 479 480 480 481 481 482 482 21 483 21 484 483 485 484 486 485 487 486 488 487 489 488 490 489 491 490 492 491 493 492 494 493 495 494 496 495 497 496 498 497 499 498 500 499 501 500 502 501 503 502 504 503 505 504 3 505 6 506 506 507 507 508 508 509 509 510 510 511 511 512 512 513 513 514 514 515 515 516 516 517 517 518 518 519 519 520 520 521 521 522 522 523 523 524 524 525 525 526 526 527 527 528 528 529 529 530 530 531 531 532 532 533 533 534 534 535 535 536 536 537 537 538 538 539 539 540 540 541 541 542 542 543 543 544 544 545 545 546 546 547 547 548 548 549 549 550 550 551 551 552 552 553 553 554 554 555 555 556 556 557 557 558 558 559 559 560 560 561 561 562 562 563 563 564 564 565 565 566 566 567 567 568 568 569 569 570 570 571 571 572 572 573 573 574 574 575 575 576 576 577 577 578 578 579 579 580 580 581 581 582 582 583 583 584 584 585 585 586 586 587 587 588 588 589 589 590 590 591 591 592 592 593 593 594 594 595 595 596 596 597 597 598 598 599 599 600 600 601 601 602 602 603 603 604 604 20 21 605 605 606 606 607 607 7
        </DataArray>
        <DataArray type="Int32" Name="offsets" format="ascii">
 3 6 9 12 15 18 21 24 27 30 33 36 39 42 45 48 51 54 57 60 63 66 69 72 75 78 81 84 87 90 93 96 99 102 105 108 111 114 117 120 123 126 129 132 135 138 141 144 147 150 153 156 159 162 165 168 171 174 177 180 183 186 189 192 195 198 201 204 207 210 213 216 219 222 225 228 231 234 237 240 243 246 249 252 255 258 261 264 267 270 273 276 279 282 285 288 291 294 297 300 303 306 309 312 315 318 321 324 327 330 333 336 339 342 345 348 351 354 357 360 363 366 369 372 375 378 381 384 387 390 393 396 399 402 405 408 411 414 417 420 423 426 429 432 435 438 441 444 447 450 453 456 459 462 465 468 471 474 477 480 483 486 489 492 495 498 501 504 507 510 513 516 519 522 525 528 531 534 537 540 543 546 549 552 555 558 561 564 567 570 573 576 579 582 585 588 591 594 597 600 603 606 609 612 615 618 621 624 627 630 633 636 639 642 645 648 651 654 657 660 663 666 669 672 675 678 681 684 687 690 693 696 699 702 705 708 711 714 717 720 723 726 729 732 735 738 741 744 747 750 753 756 759 762 765 768 771 774 777 780 783 786 789 792 795 798 801 804 807 810 813 816 819 822 825 828 831 834 837 840 843 846 849 852 855 858 861 864 867 870 873 876 879 882 885 888 891 894 897 900 903 906 909 912 915 918 921 924 927 930 933 936 939 942 945 948 951 954 957 960 963 966 969 972 975 978 981 984 987 990 993 996 999 1002 1005 1008 1011 1014 1017 1020 1023 1026 1029 1032 1035 1038 1041 1044 1047 1050 1053 1056 1059 1062 1065 1068 1071 1074 1077 1080 1083 1086 1089 1092 1095 1098 1101 1104 1107 1110 1113 1116 1119 1122 1125 1128 1131 1134 1137 1140 1143 1146 1149 1152 1155 1158 1161 1164 1167 1170 1173 1176 1179 1182 1185 1188 1191 1194 1197 1200 1203 1206 1209 1212 1215 1218 1221 1224 1227 1230 1233 1236 1239 1242 1245 1248 1251 1254 1257 1260 1263 1266 1269 1272 1275 1278 1281 1284 1287 1290 1293 1296 1299 1302 1305 1308 1311 1314 1317 1320 1323 1326 1329 1332 1335 1338 1341 1344 1347 1350 1353 1356 1359 1362 1365 1368 1371 1374 1377 1380 1383 1386 1389 1392 1395 1398 1401 1404 1407 1410 1413 1416 1419 1422 1425 1428 1431 1434 1437 1440 1443 1446 1449 1452 1455 1458 1461 1464 1467 1470 1473 1476 1479 1482 1485 1488 1491 1494 1497 1500 1503 1506 1509 1512 1515 1518 1521 1524 1527 1530 1533 1536 1539 1542 1545 1548 1551 1554 1557 1560 1563 1566 1569 1572 1575 1578 1581 1584 1587 1590 1593 1596 1599 1602 1605 1608 1611 1614 1617 1620 1623 1626 1629 1632 1635 1638 1641 1644 1647 1650 1653 1656 1659 1662 1665 1668 1671 1674 1677 1680 1683 1686 1689 1692 1695 1698 1701 1704 1707 1710 1713 1716 1719 1722 1725 1728 1731 1734 1737 1740 1743 1746 1749 1752 1755 1758 1761 1764 1767 1770 1773 1776 1779 1782 1785 1788 1791 1794 1797 1800 1803 1806 1809 1812 1815 1818 1821 1824 1827 1830 1833 1836 1839 1842 1845 1848 1851 1854 1857 1860 1863 1866 1869 1872 1875 1878 1881 1884 1887 1890 1893 1896 1899 1902 1905 1908 1911 1914 1917 1920 1923 1926 1929 1932 1935 1938 1941 1944 1947 1950 1953 1956 1959 1962 1965 1968 1971 1974 1977 1980 1983 1986 1989 1992 1995 1998 2001 2004 2007 2010 2013 2016 2019 2022 2025 2028 2031 2034 2037 2040 2043 2046 2049 2052 2055 2058 2061 2064 2067 2070 2073 2076 2079 2082 2085 2088 2091 2094 2097 2100 2103 2106 2109 2112 2115 2118 2121 2124 2127 2130 2133 2136 2139 2142 2145 2148 2151 2154 2157 2160 2163 2166 2169 2172 2175 2178 2181 2184 2187 2190 2193 2196 2199 2202 2205 2208 2211 2214 2217 2220 2223 2226 2229 2232 2235 2238 2241 2244 2247 2250 2253 2256 2259 2262 2265 2268 2271 2274 2277 2280 2283 2286 2289 2292 2295 2298 2301 2304 2307 2310 2313 2316 2319 2322 2325 2328 2331 2334 2337 2340 2343 2346 2349 2352 2355 2358 2361 2364 2367 2370 2373 2376 2379 2382 2385 2388 2391 2394 2397 2400 2403 2406 2409 2412 2415 2418 2421 2424 2427 2430 2433 2436 2439 2442 2445 2448 2451 2454 2457 2460 2463 2466 2469 2472 2475 2478 2481 2484 2487 2490 2493 2496 2499 2502 2505 2508 2511 2514 2517 2520 2523 2526 2529 2532 2535 2538 2541 2544 2547 2550 2553 2556 2559 2562 2565 2568 2571 2574 2577 2580 2583 2586 2589 2592 2595 2598 2601 2604 2607 2610 2613 2616 2619 2622 2625 2628 2631 2634 2637 2640 2643 2646 2649 2652 2655 2658 2661 2664 2667 2670 2673 2676 2679 2682 2685 2688 2691 2694 2697 2700 2703 2706 2709 2712 2715 2718 2721 2724 2727 2730 2733 2736 2739 2742 2745 2748 2751 2754 2757 2760 2763 2766 2769 2772 2775 2778 2781 2784 2787 2790 2793 2796 2799 2802 2805 2808 2811 2814 2817 2820 2823 2826 2829 2832 2835 2838 2841 2844 2847 2850 2853 2856 2859 2862 2865 2868 2871 2874 2877 2880 2883 2886 2889 2892 2895 2898 2901 2904 2907 2910 2913 2916 2919 2922 2925 2928 2931 2934 2937 2940 2943 2946 2949 2952 2955 2958 2961 2964 2967 2970 2973 2976 2979 2982 2985 2988 2991 2994 2997 3000 3003 3006 3009 3012 3015 3018 3021 3024 3027 3030 3033 3036 3039 3042 3045 3048 3051 3054 3057 3060 3063 3066 3069 3072 3075 3078 3081 3084 3087 3090 3093 3096 3099 3102 3105 3108 3111 3114 3117 3120 3123 3126 3129 3132 3135 3138 3141 3144 3147 3150 3153 3156 3159 3162 3165 3168 3171 3174 3177 3180 3183 3186 3189 3192 3195 3198 3201 3204 3207 3210 3213 3216 3219 3222 3225 3228 3231 3234 3237 3240 3243 3246 3249 3252 3255 3258 3261 3264 3267 3270 3273 3276 3279 3282 3285 3288 3291 3294 3297 3300 3303 3306 3309 3312 3315 3318 3321 3324 3327 3330 3333 3336 3339 3342 3345 3348 3351 3354 3357 3360 3363 3366 3369 3372 3375 3378 3381 3384 3387 3390 3393 3396 3399 3402 3405 3408 3411 3414 3417 3420 3423 3426 3429 3432 3435 3438 3441 3444 3447 3450 3453 3456 3459 3462 3465 3468 3471 3474 3477 3480 3483 3486 3489 3492 3495 3498 3501 3504 3507 3510 3513 3516 3519 3522 3525 3528 3531 3534 3537 3540 3543 3546 3549 3552 3555 3558 3561 3564 3567 3570 3573 3576 3579 3582 3585 3588 3591 3594 3597 3600 3603 3606 3609 3612 3615 3618 3621 3624 3627 3630 3633 3636 3639 3642 3645 3648 3651 3654 3657 3660 3663 3666 3669 3672 3675 3678 3681 3684 3687 3690 3693 3696 3699 3702 3705 3708 3711 3714 3717 3720 3723 3726 3729 3732 3735 3738 3741 3744 3747 3750 3753 3756 3759 3762 3765 3768 3771 3774 3777 3780 3783 3786 3789 3792 3795 3798 3801 3804 3807 3810 3813 3816 3819 3822 3825 3828 3831 3834 3837 3840 3843 3846 3849 3852 3855 3858 3861 3864 3867 3870 3873 3876 3879 3882 3885 3888 3891 3894 3897 3900 3903 3906 3909 3912 3915 3918 3921 3924 3927 3930 3933 3936 3939 3942 3945 3948 3951 3954 3957 3960 3963 3966 3969 3972 3975 3978 3981 3984 3987 3990 3993 3996 3999 4002 4005 4008 4011 4014 4017 4020 4023 4026 4029 4032 4035 4038 4041 4044 4047 4050 4053 4056 4059 4062 4065 4068 4071 4074 4077 4080 4083 4086 4089 4092 4095 4098 4101 4104 4107 4110 4113 4116 4119 4122 4125 4128 4131 4134 4137 4140 4143 4146 4149 4152 4155 4158 4161 4164 4167 4170 4173 4176 4179 4182 4185 4188 4191 4194 4197 4200 4203 4206 4209 4212 4215 4218 4221 4224 4227 4230 4233 4236 4239 4242 4245 4248 4251 4254 4257 4260 4263 4266 4269 4272 4275 4278 4281 4284 4287 4290 4293 4296 4299 4302 4305 4308 4311 4314 4317 4320 4323 4326 4329 4332 4335 4338 4341 4344 4347 4350 4353 4356 4359 4362 4365 4368 4371 4374 4377 4380 4383 4386 4389 4392 4395 4398 4401 4404 4407 4410 4413 4416 4419 4422 4425 4428 4431 4434 4437 4440 4443 4446 4449 4452 4455 4458 4461 4464 4467 4470 4473 4476 4479 4482 4485 4488 4491 4494 4497 4500 4503 4506 4509 4512 4515 4518 4521 4524 4527 4530 4533 4536 4539 4542 4545 4548 4551 4554 4557 4560 4563 4566 4569 4572 4575 4578 4581 4584 4587 4590 4593 4596 4599 4602 4605 4608 4611 4614 4617 4620 4623 4626 4629 4632 4635 4638 4641 4644 4647 4650 4653 4656 4659 4662 4665 4668 4671 4674 4677 4680 4683 4686 4689 4692 4695 4698 4701 4704 4707 4710 4713 4716 4719 4722 4725 4728 4731 4734 4737 4740 4743 4746 4749 4752 4755 4758 4761 4764 4767 4770 4773 4776 4779 4782 4785 4788 4791 4794 4797 4800 4803 4806 4809 4812 4815 4818 4821 4824 4827 4830 4833 4836 4839 4842 4845 4848 4851 4854 4857 4860 4863 4866 4869 4872 4875 4878 4881 4884 4887 4890 4893 4896 4899 4902 4905 4908 4911 4914 4917 4920 4923 4926 4929 4932 4935 4938 4941 4944 4947 4950 4953 4956 4959 4962 4965 4968 4971 4974 4977 4980 4983 4986 4989 4992 4995 4998 5001 5004 5007 5010 5013 5016 5019 5022 5025 5028 5031 5034 5037 5040 5043 5046 5049 5052 5055 5058 5061 5064 5067 5070 5073 5076 5079 5082 5085 5088 5091 5094 5097 5100 5103 5106 5109 5112 5115 5118 5121 5124 5127 5130 5133 5136 5139 5142 5145 5148 5151 5154 5157 5160 5163 5166 5169 5172 5175 5178 5181 5184 5187 5190 5193 5196 5199 5202 5205 5208 5211 5214 5217 5220 5223 5226 5229 5232 5235 5238 5241 5244 5247 5250 5253 5256 5259 5262 5265 5268 5271 5274 5277 5280 5283 5286 5289 5292 5295 5298 5301 5304 5307 5310 5313 5316 5319 5322 5325 5328 5331 5334 5337 5340 5343 5346 5349 5352 5355 5358 5361 5364 5367 5370 5373 5376 5379 5382 5385 5388 5391 5394 5397 5400 5403 5406 5409 5412 5415 5418 5421 5424 5427 5430 5433 5436 5439 5442 5445 5448 5451 5454 5457 5460 5463 5466 5469 5472 5475 5478 5481 5484 5487 5490 5493 5496 5499 5502 5505 5508 5511 5514 5517 5520 5523 5526 5529 5532 5535 5538 5541 5544 5547 5550 5553 5556 5559 5562 5565 5568 5571 5574 5577 5580 5583 5586 5589 5592 5595 5598 5601 5604 5607 5610 5613 5616 5619 5622 5625 5628 5631 5634 5637 5640 5643 5646 5649 5652 5655 5658 5661 5664 5667 5670 5673 5676 5679 5682 5685 5688 5691 5694 5697 5700 5703 5706 5709 5712 5715 5718 5721 5724 5727 5730 5733 5736 5739 5742 5745 5748 5751 5754 5757 5760 5763 5766 5769 5772 5775 5778 5781 5784 5787 5790 5793 5796 5799 5802 5805 5808 5811 5814 5817 5820 5823 5826 5829 5832 5835 5838 5841 5844 5847 5850 5853 5856 5859 5862 5865 5868 5871 5874 5877 5880 5883 5886 5889 5892 5895 5898 5901 5904 5907 5910 5913 5916 5919 5922 5925 5928 5931 5934 5937 5940 5943 5946 5949 5952 5955 5958 5961 5964 5967 5970 5973 5976 5979 5982 5985 5988 5991 5994 5997 6000 6003 6006 6009 6012 6015 6018 6021 6024 6027 6030 6033 6036 6039 6042 6045 6048 6051 6054 6057 6060 6063 6066 6069 6072 6075 6078 6081 6084 6087 6090 6093 6096 6099 6102 6105 6108 6111 6114 6117 6120 6123 6126 6129 6132 6135 6138 6141 6144 6147 6150 6153 6156 6159 6162 6165 6168 6171 6174 6177 6180 6183 6186 6189 6192 6195 6198 6201 6204 6207 6210 6213 6216 6219 6222 6225 6228 6231 6234 6237 6240 6243 6246 6249 6252 6255 6258 6261 6264 6267 6270 6273 6276 6279 6282 6285 6288 6291 6294 6297 6300 6303 6306 6309 6312 6315 6318 6321 6324 6327 6330 6333 6336 6339 6342 6345 6348 6351 6354 6357 6360 6363 6366 6369 6372 6375 6378 6381 6384 6387 6390 6393 6396 6399 6402 6405 6408 6411 6414 6417 6420 6423 6426 6429 6432 6435 6438 6441 6444 6447 6450 6453 6456 6459 6462 6465 6468 6471 6474 6477 6480 6483 6486 6489 6492 6495 6498 6501 6504 6507 6510 6513 6516 6519 6522 6525 6528 6531 6534 6537 6540 6543 6546 6549 6552 6555 6558 6561 6564 6567 6570 6573 6576 6579 6582 6585 6588 6591 6594 6597 6600 6603 6606 6609 6612 6615 6618 6621 6624 6627 6630 6633 6636 6639 6642 6645 6648 6651 6654 6657 6660 6663 6666 6669 6672 6675 6678 6681 6684 6687 6690 6693 6696 6699 6702 6705 6708 6711 6714 6717 6720 6723 6726 6729 6732 6735 6738 6741 6744 6747 6750 6753 6756 6759 6762 6765 6768 6771 6774 6777 6780 6783 6786 6789 6792 6795 6798 6801 6804 6807 6810 6813 6816 6819 6822 6825 6828 6831 6834 6837 6840 6843 6846 6849 6852 6855 6858 6861 6864 6867 6870 6873 6876 6879 6882 6885 6888 6891 6894 6897 6900 6903 6906 6909 6912 6915 6918 6921 6924 6927 6930 6933 6936 6939 6942 6945 6948 6951 6954 6957 6960 6963 6966 6969 6972 6975 6978 6981 6984 6987 6990 6993 6996 6999 7002 7005 7008 7011 7014 7017 7020 7023 7026 7029 7032 7035 7038 7041 7044 7047 7050 7053 7056 7059 7062 7065 7068 7071 7074 7077 7080 7083 7086 7089 7092 7095 7098 7101 7104 7107 7110 7113 7116 7119 7122 7125 7128 7131 7134 7137 7140 7143 7146 7149 7152 7155 7158 7161 7164 7167 7170 7173 7176 7179 7182 7185 7188 7191 7194 7197 7200 7203 7206 7209 7212 7215 7218 7221 7224 7227 7230 7233 7236 7239 7242 7245 7248 7251 7254 7257 7260 7263 7266 7269 7272 7275 7278 7281 7284 7287 7290 7293 7296 7299 7302 7305 7308 7311 7314 7317 7320 7323 7326 7329 7332 7335 7338 7341 7344 7347 7350 7353 7356 7359 7362 7365 7368 7371 7374 7377 7380 7383 7386 7389 7392 7395 7398 7401 7404 7407 7410 7413 7416 7419 7422 7425 7428 7431 7434 7437 7440 7443 7446 7449 7452 7455 7458 7461 7464 7467 7470 7473 7476 7479 7482 7485 7488 7491 7494 7497 7500 7503 7506 7509 7512 7515 7518 7521 7524 7527 7530 7533 7536 7539 7542 7545 7548 7551 7554 7557 7560 7563 7566 7569 7572 7575 7578 7581 7584 7587 7590 7593 7596 7599 7602 7605 7608 7611 7614 7617 7620 7623 7626 7629 7632 7635 7638 7641 7644 7647 7650 7653 7656 7659 7662 7665 7668 7671 7674 7677 7680 7683 7686 7689 7692 7695 7698 7701 7704 7707 7710 7713 7716 7719 7722 7725 7728 7731 7734 7737 7740 7743 7746 7749 7752 7755 7758 7761 7764 7767 7770 7773 7776 7779 7782 7785 7788 7791 7794 7797 7800 7803 7806 7809 7812 7815 7818 7821 7824 7827 7830 7833 7836 7839 7842 7845 7848 7851 7854 7857 7860 7863 7866 7869 7872 7875 7878 7881 7884 7887 7890 7893 7896 7899 7902 7905 7908 7911 7914 7917 7920 7923 7926 7929 7932 7935 7938 7941 7944 7947 7950 7953 7956 7959 7962 7965 7968 7971 7974 7977 7980 7983 7986 7989 7992 7995 7998 8001 8004 8007 8010 8013 8016 8019 8022 8025 8028 8031 8034 8037 8040 8043 8046 8049 8052 8055 8058 8061 8064 8067 8070 8073 8076 8079 8082 8085 8088 8091 8094 8097 8100 8103 8106 8109 8112 8115 8118 8121 8124 8127 8130 8133 8136 8139 8142 8145 8148 8151 8154 8157 8160 8163 8166 8169 8172 8175 8178 8181 8184 8187 8190 8193 8196 8199 8202 8205 8208 8211 8214 8217 8220 8223 8226 8229 8232 8235 8238 8241 8244 8247 8250 8253 8256 8259 8262 8265 8268 8271 8274 8277 8280 8283 8286 8289 8292 8295 8298 8301 8304 8307 8310 8313 8316 8319 8322 8325 8328 8331 8334 8337 8340 8343 8346 8349 8352 8355 8358 8361 8364 8367 8370 8373 8376 8379 8382 8385 8388 8391 8394 8397 8400 8403 8406 8409 8412 8415 8418 8421 8424 8427 8430 8433 8436 8439 8442 8445 8448 8451 8454 8457 8460 8463 8466 8469 8472 8475 8478 8481 8484 8487 8490 8493 8496 8499 8502 8505 8508 8511 8514 8517 8520 8523 8526 8529 8532 8535 8538 8541 8544 8547 8550 8553 8556 8559 8562 8565 8568 8571 8574 8577 8580 8583 8586 8589 8592 8595 8598 8601 8604 8607 8610 8613 8616 8619 8622 8625 8628 8631 8634 8637 8640 8643 8646 8649 8652 8655 8658 8661 8664 8667 8670 8673 8676 8679 8682 8685 8688 8691 8694 8697 8700 8703 8706 8709 8712 8715 8718 8721 8724 8727 8730 8733 8736 8739 8742 8745 8748 8751 8754 8757 8760 8763 8766 8769 8772 8775 8778 8781 8784 8787 8790 8793 8796 8799 8802 8805 8808 8811 8814 8817 8820 8823 8826 8829 8832 8835 8838 8841 8844 8847 8850 8853 8856 8859 8862 8865 8868 8871 8874 8877 8880 8883 8886 8889 8892 8895 8898 8901 8904 8907 8910 8913 8916 8919 8922 8925 8928 8931 8934 8937 8940 8943 8946 8949 8952 8955 8958 8961 8964 8967 8970 8973 8976 8979 8982 8985 8988 8991 8994 8997 9000 9003 9006 9009 9012 9015 9018 9021 9024 9027 9030 9033 9036 9039 9042 9045 9048 9051 9054 9057 9060 9063 9066 9069 9072 9075 9078 9081 9084 9087 9090 9093 9096 9099 9102 9105 9108 9111 9114 9117 9120 9123 9126 9129 9132 9135 9138 9141 9144 9147 9150 9153 9156 9159 9162 9165 9168 9171 9174 9177 9180 9183 9186 9189 9192 9195 9198 9201 9204 9207 9210 9213 9216 9219 9222 9225 9228 9231 9234 9237 9240 9243 9246 9249 9252 9255 9258 9261 9264 9267 9270 9273 9276 9279 9282 9285 9288 9291 9294 9297 9300 9303 9306 9309 9312 9315 9318 9321 9324 9327 9330 9333 9336 9339 9342 9345 9348 9351 9354 9357 9360 9363 9366 9369 9372 9375 9378 9381 9384 9387 9390 9393 9396 9399 9402 9405 9408 9411 9414 9417 9420 9423 9426 9429 9432 9435 9438 9441 9444 9447 9450 9453 9456 9459 9462 9465 9468 9471 9474 9477 9480 9483 9486 9489 9492 9495 9498 9501 9504 9507 9510 9513 9516 9519 9522 9525 9528 9531 9534 9537 9540 9543 9546 9549 9552 9555 9558 9561 9564 9567 9570 9573 9576 9579 9582 9585 9588 9591 9594 9597 9600 9603 9606 9609 9612 9615 9618 9621 9624 9627 9630 9633 9636 9639 9642 9645 9648 9651 9654 9657 9660 9663 9666 9669 9672 9675 9678 9681 9684 9687 9690 9693 9696 9699 9702 9705 9708 9711 9714 9717 9720 9723 9726 9729 9732 9735 9738 9741 9744 9747 9750 9753 9756 9759 9762 9765 9768 9771 9774 9777 9780 9783 9786 9789 9792 9795 9798 9801 9804 9807 9810 9813 9816 9819 9822 9825 9828 9831 9834 9837 9840 9843 9846 9849 9852 9855 9858 9861 9864 9867 9870 9873 9876 9879 9882 9885 9888 9891 9894 9897 9900 9903 9906 9909 9912 9915 9918 9921 9924 9927 9930 9933 9936 9939 9942 9945 9948 9951 9954 9957 9960 9963 9966 9969 9972 9975 9978 9981 9984 9987 9990 9993 9996 9999 10002 10005 10008 10011 10014 10017 10020 10023 10026 10029 10032 10035 10038 10041 10044 10047 10050 10053 10056 10059 10062 10065 10068 10071 10074 10077 10080 10083 10086 10089 10092 10095 10098 10101 10104 10107 10110 10113 10116 10119 10122 10125 10128 10131 10134 10137 10140 10143 10146 10149 10152 10155 10158 10161 10164 10167 10170 10173 10176 10179 10182 10185 10188 10191 10194 10197 10200 10203 10206 10209 10212 10215 10218 10221 10224 10227 10230 10233 10236 10239 10242 10245 10248 10251 10254 10257 10260 10263 10266 10269 10272 10275 10278 10281 10284 10287 10290 10293 10296 10299 10302 10305 10308 10311 10314 10317 10320 10323 10326 10329 10332 10335 10338 10341 10344 10347 10350 10353 10356 10359 10362 10365 10368 10371 10374 10377 10380 10383 10386 10389 10392 10395 10398 10401 10404 10407 10410 10413 10416 10419 10422 10425 10428 10431 10434 10437 10440 10443 10446 10449 10452 10455 10458 10461 10464 10467 10470 10473 10476 10479 10482 10485 10488 10491 10494 10497 10500 10503 10506 10509 10512 10515 10518 10521 10524 10527 10530 10533 10536 10539 10542 10545 10548 10551 10554 10557 10560 10563 10566 10569 10572 10575 10578 10581 10584 10587 10590 10593 10596 10599 10602 10605 10608 10611 10614 10617 10620 10623 10626 10629 10632 10635 10638 10641 10644 10647 10650 10653 10656 10659 10662 10665 10668 10671 10674 10677 10680 10683 10686 10689 10692 10695 10698 10701 10704 10707 10710 10713 10716 10719 10722 10725 10728 10731 10734 10737 10740 10743 10746 10749 10752 10755 10758 10761 10764 10767 10770 10773 10776 10779 10782 10785 10788 10791 10794 10797 10800 10803 10806 10809 10812 10815 10818 10821 10824 10827 10830 10833 10836 10839 10842 10845 10848 10851 10854 10857 10860 10863 10866 10869 10872 10875 10878 10881 10884 10887 10890 10893 10896 10899 10902 10905 10908 10911 10914 10917 10920 10923 10926 10929 10932 10935 10938 10941 10944 10947 10950 10953 10956 10959 10962 10965 10968 10971 10974 10977 10980 10983 10986 10989 10992 10995 10998 11001 11004 11007 11010 11013 11016 11019 11022 11025 11028 11031 11034 11037 11040 11043 11046 11049 11052 11055 11058 11061 11064 11067 11070 11073 11076 11079 11082 11085 11088 11091 11094 11097 11100 11103 11106 11109 11112 11115 11118 11121 11124 11127 11130 11133 11136 11139 11142 11145 11148 11151 11154 11157 11160 11163 11166 11169 11172 11175 11178 11181 11184 11187 11190 11193 11196 11199 11202 11205 11208 11211 11214 11217 11220 11223 11226 11229 11232 11235 11238 11241 11244 11247 11250 11253 11256 11259 11262 11265 11268 11271 11274 11277 11280 11283 11286 11289 11292 11295 11298 11301 11304 11307 11310 11313 11316 11319 11322 11325 11328 11331 11334 11337 11340 11343 11346 11349 11352 11355 11358 11361 11364 11367 11370 11373 11376 11379 11382 11385 11388 11391 11394 11397 11400 11403 11406 11409 11412 11415 11418 11421 11424 11427 11430 11433 11436 11439 11442 11445 11448 11451 11454 11457 11460 11463 11466 11469 11472 11475 11478 11481 11484 11487 11490 11493 11496 11499 11502 11505 11508 11511 11514 11517 11520 11523 11526 11529 11532 11535 11538 11541 11544 11547 11550 11553 11556 11559 11562 11565 11568 11571 11574 11577 11580 11583 11586 11589 11592 11595 11598 11601 11604 11607 11610 11613 11616 11619 11622 11625 11628 11631 11634 11637 11640 11643 11646 11649 11652 11655 11658 11661 11664 11667 11670 11673 11676 11679 11682 11685 11688 11691 11694 11697 11700 11703 11706 11709 11712 11715 11718 11721 11724 11727 11730 11733 11736 11739 11742 11745 11748 11751 11754 11757 11760 11763 11766 11769 11772 11775 11778 11781 11784 11787 11790 11793 11796 11799 11802 11805 11808 11811 11814 11817 11820 11823 11826 11829 11832 11835 11838 11841 11844 11847 11850 11853 11856 11859 11862 11865 11868 11871 11874 11877 11880 11883 11886 11889 11892 11895 11898 11901 11904 11907 11910 11913 11916 11919 11922 11925 11928 11931 11934 11937 11940 11943 11946 11949 11952 11955 11958 11961 11964 11967 11970 11973 11976 11979 11982 11985 11988 11991 11994 11997 12000 12003 12006 12009 12012 12015 12018 12021 12024 12027 12030 12033 12036 12039 12042 12045 12048 12051 12054 12057 12060 12063 12066 12069 12072 12075 12078 12081 12084 12087 12090 12093 12096 12099 12102 12105 12108 12111 12114 12117 12120 12123 12126 12129 12132 12135 12138 12141 12144 12147 12150 12153 12156 12159 12162 12165 12168 12171 12174 12177 12180 12183 12186 12189 12192 12195 12198 12201 12204 12207 12210 12213 12216 12219 12222 12225 12228 12231 12234 12237 12240 12243 12246 12249 12252 12255 12258 12261 12264 12267 12270 12273 12276 12279 12282 12285 12288 12291 12294 12297 12300 12303 12306 12309 12312 12315 12318 12321 12324 12327 12330 12333 12336 12339 12342 12345 12348 12351 12354 12357 12360 12363 12366 12369 12372 12375 12378 12381 12384 12387 12390 12393 12396 12399 12402 12405 12408 12411 12414 12417 12420 12423 12426 12429 12432 12435 12438 12441 12444 12447 12450 12453 12456 12459 12462 12465 12468 12471 12474 12477 12480 12483 12486 12489 12492 12495 12498 12501 12504 12507 12510 12513 12516 12519 12522 12525 12528 12531 12534 12537 12540 12543 12546 12549 12552 12555 12558 12561 12564 12567 12570 12573 12576 12579 12582 12585 12588 12591 12594 12597 12600 12603 12606 12609 12612 12615 12618 12621 12624 12627 12630 12633 12636 12639 12642 12645 12648 12651 12654 12657 12660 12663 12666 12669 12672 12675 12678 12681 12684 12687 12690 12693 12696 12699 12702 12705 12708 12711 12714 12717 12720 12723 12726 12729 12732 12735 12738 12741 12744 12747 12750 12753 12756 12759 12762 12765 12768 12771 12774 12777 12780 12783 12786 12789 12792 12795 12798 12801 12804 12807 12810 12813 12816 12819 12822 12825 12828 12831 12834 12837 12840 12843 12846 12849 12852 12855 12858 12861 12864 12867 12870 12873 12876 12879 12882 12885 12888 12891 12894 12897 12900 12903 12906 12909 12912 12915 12918 12921 12924 12927 12930 12933 12936 12939 12942 12945 12948 12951 12954 12957 12960 12963 12966 12969 12972 12975 12978 12981 12984 12987 12990 12993 12996 12999 13002 13005 13008 13011 13014 13017 13020 13023 13026 13029 13032 13035 13038 13041 13044 13047 13050 13053 13056 13059 13062 13065 13068 13071 13074 13077 13080 13083 13086 13089 13092 13095 13098 13101 13104 13107 13110 13113 13116 13119 13122 13125 13128 13131 13134 13137 13140 13143 13146 13149 13152 13155 13158 13161 13164 13167 13170 13173 13176 13179 13182 13185 13188 13191 13194 13197 13200 13203 13206 13209 13212 13215 13218 13221 13224 13227 13230 13233 13236 13239 13242 13245 13248 13251 13254 13257 13260 13263 13266 13269 13272 13275 13278 13281 13284 13287 13290 13293 13296 13299 13302 13305 13308 13311 13314 13317 13320 13323 13326 13329 13332 13335 13338 13341 13344 13347 13350 13353 13356 13359 13362 13365 13368 13371 13374 13377 13380 13383 13386 13389 13392 13395 13398 13401 13404 13407 13410 13413 13416 13419 13422 13425 13428 13431 13434 13437 13440 13443 13446 13449 13452 13455 13458 13461 13464 13467 13470 13473 13476 13479 13482 13485 13488 13491 13494 13497 13500 13503 13506 13509 13512 13515 13518 13521 13524 13527 13530 13533 13536 13539 13542 13545 13548 13551 13554 13557 13560 13563 13566 13569 13572 13575 13578 13581 13584 13587 13590 13593 13596 13599 13602 13605 13608 13611 13614 13617 13620 13623 13626 13629 13632 13635 13638 13641 13644 13647 13650 13653 13656 13659 13662 13665 13668 13671 13674 13677 13680 13683 13686 13689 13692 13695 13698 13701 13704 13707 13710 13713 13716 13719 13722 13725 13728 13731 13734 13737 13740 13743 13746 13749 13752 13755 13758 13761 13764 13767 13770 13773 13776 13779 13782 13785 13788 13791 13794 13797 13800 13803 13806 13809 13812 13815 13818 13821 13824 13827 13830 13833 13836 13839 13842 13845 13848 13851 13854 13857 13860 13863 13866 13869 13872 13875 13878 13881 13884 13887 13890 13893 13896 13899 13902 13905 13908 13911 13914 13917 13920 13923 13926 13929 13932 13935 13938 13941 13944 13947 13950 13953 13956 13959 13962 13965 13968 13971 13974 13977 13980 13983 13986 13989 13992 13995 13998 14001 14004 14007 14010 14013 14016 14019 14022 14025 14028 14031 14034 14037 14040 14043 14046 14049 14052 14055 14058 14061 14064 14067 14070 14073 14076 14079 14082 14085 14088 14091 14094 14097 14100 14103 14106 14109 14112 14115 14118 14121 14124 14127 14130 14133 14136 14139 14142 14145 14148 14151 14154 14157 14160 14163 14166 14169 14172 14175 14178 14181 14184 14187 14190 14193 14196 14199 14202 14205 14208 14211 14214 14217 14220 14223 14226 14229 14232 14235 14238 14241 14244 14247 14250 14253 14256 14259 14262 14265 14268 14271 14274 14277 14280 14283 14286 14289 14292 14295 14298 14301 14304 14307 14310 14313 14316 14319 14322 14325 14328 14331 14334 14337 14340 14343 14346 14349 14352 14355 14358 14361 14364 14367 14370 14373 14376 14379 14382 14385 14388 14391 14394 14397 14400 14403 14406 14409 14412 14415 14418 14421 14424 14427 14430 14433 14436 14439 14442 14445 14448 14451 14454 14457 14460 14463 14466 14469 14472 14475 14478 14481 14484 14487 14490 14493 14496 14499 14502 14505 14508 14511 14514 14517 14520 14523 14526 14529 14532 14535 14538 14541 14544 14547 14550 14553 14556 14559 14562 14565 14568 14571 14574 14577 14580 14583 14586 14589 14592 14595 14598 14601 14604 14607 14610 14613 14616 14619 14622 14625 14628 14631 14634 14637 14640 14643 14646 14649 14652 14655 14658 14661 14664 14667 14670 14673 14676 14679 14682 14685 14688 14691 14694 14697 14700 14703 14706 14709 14712 14715 14718 14721 14724 14727 14730 14733 14736 14739 14742 14745 14748 14751 14754 14757 14760 14763 14766 14769 14772 14775 14778 14781 14784 14787 14790 14793 14796 14799 14802 14805 14808 14811 14814 14817 14820 14823 14826 14829 14832 14835 14838 14841 14844 14847 14850 14853 14856 14859 14862 14865 14868 14871 14874 14877 14880 14883 14886 14889 14892 14895 14898 14901 14904 14907 14910 14913 14916 14919 14922 14925 14928 14931 14934 14937 14940 14943 14946 14949 14952 14955 14958 14961 14964 14967 14970 14973 14976 14979 14982 14985 14988 14991 14994 14997 15000 15003 15006 15009 15012 15015 15018 15021 15024 15027 15030 15033 15036 15039 15042 15045 15048 15051 15054 15057 15060 15063 15066 15069 15072 15075 15078 15081 15084 15087 15090 15093 15096 15099 15102 15105 15108 15111 15114 15117 15120 15123 15126 15129 15132 15135 15138 15141 15144 15147 15150 15153 15156 15159 15162 15165 15168 15171 15174 15177 15180 15183 15186 15189 15192 15195 15198 15201 15204 15207 15210 15213 15216 15219 15222 15225 15228 15231 15234 15237 15240 15243 15246 15249 15252 15255 15258 15261 15264 15267 15270 15273 15276 15279 15282 15285 15288 15291 15294 15297 15300 15303 15306 15309 15312 15315 15318 15321 15324 15327 15330 15333 15336 15339 15342 15345 15348 15351 15354 15357 15360 15363 15366 15369 15372 15375 15378 15381 15384 15387 15390 15393 15396 15399 15402 15405 15408 15411 15414 15417 15420 15423 15426 15429 15432 15435 15438 15441 15444 15447 15450 15453 15456 15459 15462 15465 15468 15471 15474 15477 15480 15483 15486 15489 15492 15495 15498 15501 15504 15507 15510 15513 15516 15519 15522 15525 15528 15531 15534 15537 15540 15543 15546 15549 15552 15555 15558 15561 15564 15567 15570 15573 15576 15579 15582 15585 15588 15591 15594 15597 15600 15603 15606 15609 15612 15615 15618 15621 15624 15627 15630 15633 15636 15639 15642 15645 15648 15651 15654 15657 15660 15663 15666 15669 15672 15675 15678 15681 15684 15687 15690 15693 15696 15699 15702 15705 15708 15711 15714 15717 15720 15723 15726 15729 15732 15735 15738 15741 15744 15747 15750 15753 15756 15759 15762 15765 15768 15771 15774 15777 15780 15783 15786 15789 15792 15795 15798 15801 15804 15807 15810 15813 15816 15819 15822 15825 15828 15831 15834 15837 15840 15843 15846 15849 15852 15855 15858 15861 15864 15867 15870 15873 15876 15879 15882 15885 15888 15891 15894 15897 15900 15903 15906 15909 15912 15915 15918 15921 15924 15927 15930 15933 15936 15939 15942 15945 15948 15951 15954 15957 15960 15963 15966 15969 15972 15975 15978 15981 15984 15987 15990 15993 15996 15999 16002 16005 16008 16011 16014 16017 16020 16023 16026 16029 16032 16035 16038 16041 16044 16047 16050 16053 16056 16059 16062 16065 16068 16071 16074 16077 16080 16083 16086 16089 16092 16095 16098 16101 16104 16107 16110 16113 16116 16119 16122 16125 16128 16131 16134 16137 16140 16143 16146 16149 16152 16155 16158 16161 16164 16167 16170 16173 16176 16179 16182 16185 16188 16191 16194 16197 16200 16203 16206 16209 16212 16215 16218 16221 16224 16227 16230 16233 16236 16239 16242 16245 16248 16251 16254 16257 16260 16263 16266 16269 16272 16275 16278 16281 16284 16287 16290 16293 16296 16299 16302 16305 16308 16311 16314 16317 16320 16323 16326 16329 16332 16335 16338 16341 16344 16347 16350 16353 16356 16359 16362 16365 16368 16371 16374 16377 16380 16383 16386 16389 16392 16395 16398 16401 16404 16407 16410 16413 16416 16419 16422 16425 16428 16431 16434 16437 16440 16443 16446 16449 16452 16455 16458 16461 16464 16467 16470 16473 16476 16479 16482 16485 16488 16491 16494 16497 16500 16503 16506 16509 16512 16515 16518 16521 16524 16527 16530 16533 16536 16539 16542 16545 16548 16551 16554 16557 16560 16563 16566 16569 16572 16575 16578 16581 16584 16587 16590 16593 16596 16599 16602 16605 16608 16611 16614 16617 16620 16623 16626 16629 16632 16635 16638 16641 16644 16647 16650 16653 16656 16659 16662 16665 16668 16671 16674 16677 16680 16683 16686 16689 16692 16695 16698 16701 16704 16707 16710 16713 16716 16719 16722 16725 16728 16731 16734 16737 16740 16743 16746 16749 16752 16755 16758 16761 16764 16767 16770 16773 16776 16779 16782 16785 16788 16791 16794 16797 16800 16803 16806 16809 16812 16815 16818 16821 16824 16827 16830 16833 16836 16839 16842 16845 16848 16851 16854 16857 16860 16863 16866 16869 16872 16875 16878 16881 16884 16887 16890 16893 16896 16899 16902 16905 16908 16911 16914 16917 16920 16923 16926 16929 16932 16935 16938 16941 16944 16947 16950 16953 16956 16959 16962 16965 16968 16971 16974 16977 16980 16983 16986 16989 16992 16995 16998 17001 17004 17007 17010 17013 17016 17019 17022 17025 17028 17031 17034 17037 17040 17043 17046 17049 17052 17055 17058 17061 17064 17067 17070 17073 17076 17079 17082 17085 17088 17091 17094 17097 17100 17103 17106 17109 17112 17115 17118 17121 17124 17127 17130 17133 17136 17139 17142 17145 17148 17151 17154 17157 17160 17163 17166 17169 17172 17175 17178 17181 17184 17187 17190 17193 17196 17199 17202 17205 17208 17211 17214 17217 17220 17223 17226 17229 17232 17235 17238 17241 17244 17247 17250 17253 17256 17259 17262 17265 17268 17271 17274 17277 17280 17283 17286 17289 17292 17295 17298 17301 17304 17307 17310 17313 17316 17319 17322 17325 17328 17331 17334 17337 17340 17343 17346 17349 17352 17355 17358 17361 17364 17367 17370 17373 17376 17379 17382 17385 17388 17391 17394 17397 17400 17403 17406 17409 17412 17415 17418 17421 17424 17427 17430 17433 17436 17439 17442 17445 17448 17451 17454 17457 17460 17463 17466 17469 17472 17475 17478 17481 17484 17487 17490 17493 17496 17499 17502 17505 17508 17511 17514 17517 17520 17523 17526 17529 17532 17535 17538 17541 17544 17547 17550 17553 17556 17559 17562 17565 17568 17571 17574 17577 17580 17583 17586 17589 17592 17595 17598 17601 17604 17607 17610 17613 17616 17619 17622 17625 17628 17631 17634 17637 17640 17643 17646 17649 17652 17655 17658 17661 17664 17667 17670 17673 17676 17679 17682 17685 17688 17691 17694 17697 17700 17703 17706 17709 17712 17715 17718 17721 17724 17727 17730 17733 17736 17739 17742 17745 17748 17751 17754 17757 17760 17763 17766 17769 17772 17775 17778 17781 17784 17787 17790 17793 17796 17799 17802 17805 17808 17811 17814 17817 17820 17823 17826 17829 17832 17835 17838 17841 17844 17847 17850 17853 17856 17859 17862 17865 17868 17871 17874 17877 17880 17883 17886 17889 17892 17895 17898 17901 17904 17907 17910 17913 17916 17919 17922 17925 17928 17931 17934 17937 17940 17943 17946 17949 17952 17955 17958 17961 17964 17967 17970 17973 17976 17979 17982 17985 17988 17991 17994 17997 18000 18003 18006 18009 18012 18015 18018 18021 18024 18027 18030 18033 18036 18039 18042 18045 18048 18051 18054 18057 18060 18063 18066 18069 18072 18075 18078 18081 18084 18087 18090 18093 18096 18099 18102 18105 18108 18111 18114 18117 18120 18123 18126 18129 18132 18135 18138 18141 18144 18147 18150 18153 18156 18159 18162 18165 18168 18171 18174 18177 18180 18183 18186 18189 18192 18195 18198 18201 18204 18207 18210 18213 18216 18219 18222 18225 18228 18231 18234 18237 18240 18243 18246 18249 18252 18255 18258 18261 18264 18267 18270 18273 18276 18279 18282 18285 18288 18291 18294 18297 18300 18303 18306 18309 18312 18315 18318 18321 18324 18327 18330 18333 18336 18339 18342 18345 18348 18351 18354 18357 18360 18363 18366 18369 18372 18375 18378 18381 18384 18387 18390 18393 18396 18399 18402 18405 18408 18411 18414 18417 18420 18423 18426 18429 18432 18435 18438 18441 18444 18447 18450 18453 18456 18459 18462 18465 18468 18471 18474 18477 18480 18483 18486 18489 18492 18495 18498 18501 18504 18507 18510 18513 18516 18519 18522 18525 18528 18531 18534 18537 18540 18543 18546 18549 18552 18555 18558 18561 18564 18567 18570 18573 18576 18579 18582 18585 18588 18591 18594 18597 18600 18603 18606 18609 18612 18615 18618 18621 18624 18627 18630 18633 18636 18639 18642 18645 18648 18651 18654 18657 18660 18663 18666 18669 18672 18675 18678 18681 18684 18687 18690 18693 18696 18699 18702 18705 18708 18711 18714 18717 18720 18723 18726 18729 18732 18735 18738 18741 18744 18747 18750 18753 18756 18759 18762 18765 18768 18771 18774 18777 18780 18783 18786 18789 18792 18795 18798 18801 18804 18807 18810 18813 18816 18819 18822 18825 18828 18831 18834 18837 18840 18843 18846 18849 18852 18855 18858 18861 18864 18867 18870 18873 18876 18879 18882 18885 18888 18891 18894 18897 18900 18903 18906 18909 18912 18915 18918 18921 18924 18927 18930 18933 18936 18939 18942 18945 18948 18951 18954 18957 18960 18963 18966 18969 18972 18975 18978 18981 18984 18987 18990 18993 18996 18999 19002 19005 19008 19011 19014 19017 19020 19023 19026 19029 19032 19035 19038 19041 19044 19047 19050 19053 19056 19059 19062 19065 19068 19071 19074 19077 19080 19083 19086 19089 19092 19095 19098 19101 19104 19107 19110 19113 19116 19119 19122 19125 19128 19131 19134 19137 19140 19143 19146 19149 19152 19155 19158 19161 19164 19167 19170 19173 19176 19179 19182 19185 19188 19191 19194 19197 19200 19203 19206 19209 19212 19215 19218 19221 19224 19227 19230 19233 19236 19239 19242 19245 19248 19251 19254 19257 19260 19263 19266 19269 19272 19275 19278 19281 19284 19287 19290 19293 19296 19299 19302 19305 19308 19311 19314 19317 19320 19323 19326 19329 19332 19335 19338 19341 19344 19347 19350 19353 19356 19359 19362 19365 19368 19371 19374 19377 19380 19383 19386 19389 19392 19395 19398 19401 19404 19407 19410 19413 19416 19419 19422 19425 19428 19431 19434 19437 19440 19443 19446 19449 19452 19455 19458 19461 19464 19467 19470 19473 19476 19479 19482 19485 19488 19491 19494 19497 19500 19503 19506 19509 19512 19515 19518 19521 19524 19527 19530 19533 19536 19539 19542 19545 19548 19551 19554 19557 19560 19563 19566 19569 19572 19575 19578 19581 19584 19587 19590 19593 19596 19599 19602 19605 19608 19611 19614 19617 19620 19623 19626 19629 19632 19635 19638 19641 19644 19647 19650 19653 19656 19659 19662 19665 19668 19671 19674 19677 19680 19683 19686 19689 19692 19695 19698 19701 19704 19707 19710 19713 19716 19719 19722 19725 19728 19731 19734 19737 19740 19743 19746 19749 19752 19755 19758 19761 19764 19767 19770 19773 19776 19779 19782 19785 19788 19791 19794 19797 19800 19803 19806 19809 19812 19815 19818 19821 19824 19827 19830 19833 19836 19839 19842 19845 19848 19851 19854 19857 19860 19863 19866 19869 19872 19875 19878 19881 19884 19887 19890 19893 19896 19899 19902 19905 19908 19911 19914 19917 19920 19923 19926 19929 19932 19935 19938 19941 19944 19947 19950 19953 19956 19959 19962 19965 19968 19971 19974 19977 19980 19983 19986 19989 19992 19995 19998 20001 20004 20007 20010 20013 20016 20019 20022 20025 20028 20031 20034 20037 20040 20043 20046 20049 20052 20055 20058 20061 20064 20067 20070 20073 20076 20079 20082 20085 20088 20091 20094 20097 20100 20103 20106 20109 20112 20115 20118 20121 20124 20127 20130 20133 20136 20139 20142 20145 20148 20151 20154 20157 20160 20163 20166 20169 20172 20175 20178 20181 20184 20187 20190 20193 20196 20199 20202 20205 20208 20211 20214 20217 20220 20223 20226 20229 20232 20235 20238 20241 20244 20247 20250 20253 20256 20259 20262 20265 20268 20271 20274 20277 20280 20283 20286 20289 20292 20295 20298 20301 20304 20307 20310 20313 20316 20319 20322 20325 20328 20331 20334 20337 20340 20343 20346 20349 20352 20355 20358 20361 20364 20367 20370 20373 20376 20379 20382 20385 20388 20391 20394 20397 20400 20403 20406 20409 20412 20415 20418 20421 20424 20427 20430 20433 20436 20439 20442 20445 20448 20451 20454 20457 20460 20463 20466 20469 20472 20475 20478 20481 20484 20487 20490 20493 20496 20499 20502 20505 20508 20511 20514 20517 20520 20523 20526 20529 20532 20535 20538 20541 20544 20547 20550 20553 20556 20559 20562 20565 20568 20571 20574 20577 20580 20583 20586 20589 20592 20595 20598 20601 20604 20607 20610 20613 20616 20619 20622 20625 20628 20631 20634 20637 20640 20643 20646 20649 20652 20655 20658 20661 20664 20667 20670 20673 20676 20679 20682 20685 20688 20691 20694 20697 20700 20703 20706 20709 20712 20715 20718 20721 20724 20727 20730 20733 20736 20739 20742 20745 20748 20751 20754 20757 20760 20763 20766 20769 20772 20775 20778 20781 20784 20787 20790 20793 20796 20799 20802 20805 20808 20811 20814 20817 20820 20823 20826 20829 20832 20835 20838 20841 20844 20847 20850 20853 20856 20859 20862 20865 20868 20871 20874 20877 20880 20883 20886 20889 20892 20895 20898 20901 20904 20907 20910 20913 20916 20919 20922 20925 20928 20931 20934 20937 20940 20943 20946 20949 20952 20955 20958 20961 20964 20967 20970 20973 20976 20979 20982 20985 20988 20991 20994 20997 21000 21003 21006 21009 21012 21015 21018 21021 21024 21027 21030 21033 21036 21039 21042 21045 21048 21051 21054 21057 21060 21063 21066 21069 21072 21075 21078 21081 21084 21087 21090 21093 21096 21099 21102 21105 21108 21111 21114 21117 21120 21123 21126 21129 21132 21135 21138 21141 21144 21147 21150 21153 21156 21159 21162 21165 21168 21171 21174 21177 21180 21183 21186 21189 21192 21195 21198 21201 21204 21207 21210 21213 21216 21219 21222 21225 21228 21231 21234 21237 21240 21243 21246 21249 21252 21255 21258 21261 21264 21267 21270 21273 21276 21279 21282 21285 21288 21291 21294 21297 21300 21303 21306 21309 21312 21315 21318 21321 21324 21327 21330 21333 21336 21339 21342 21345 21348 21351 21354 21357 21360 21363 21366 21369 21372 21375 21378 21381 21384 21387 21390 21393 21396 21399 21402 21405 21408 21411 21414 21417 21420 21423 21426 21429 21432 21435 21438 21441 21444 21447 21450 21453 21456 21459 21462 21465 21468 21471 21474 21477 21480 21483 21486 21489 21492 21495 21498 21501 21504 21507 21510 21513 21516 21519 21522 21525 21528 21531 21534 21537 21540 21543 21546 21549 21552 21555 21558 21561 21564 21567 21570 21573 21576 21579 21582 21585 21588 21591 21594 21597 21600 21603 21606 21609 21612 21615 21618 21621 21624 21627 21630 21633 21636 21639 21642 21645 21648 21651 21654 21657 21660 21663 21666 21669 21672 21675 21678 21681 21684 21687 21690 21693 21696 21699 21702 21705 21708 21711 21714 21717 21720 21723 21726 21729 21732 21735 21738 21741 21744 21747 21750 21753 21756 21759 21762 21765 21768 21771 21774 21777 21780 21783 21786 21789 21791 21793 21795 21797 21799 21801 21803 21805 21807 21809 21811 21813 21815 21817 21819 21821 21823 21825 21827 21829 21831 21833 21835 21837 21839 21841 21843 21845 21847 21849 21851 21853 21855 21857 21859 21861 21863 21865 21867 21869 21871 21873 21875 21877 21879 21881 21883 21885 21887 21889 21891 21893 21895 21897 21899 21901 21903 21905 21907 21909 21911 21913 21915 21917 21919 21921 21923 21925 21927 21929 21931 21933 21935 21937 21939 21941 21943 21945 21947 21949 21951 21953 21955 21957 21959 21961 21963 21965 21967 21969 21971 21973 21975 21977 21979 21981 21983 21985 21987 21989 21991 21993 21995 21997 21999 22001 22003 22005 22007 22009 22011 22013 22015 22017 22019 22021 22023 22025 22027 22029 22031 22033 22035 22037 22039 22041 22043 22045 22047 22049 22051 22053 22055 22057 22059 22061 22063 22065 22067 22069 22071 22073 22075 22077 22079 22081 22083 22085 22087 22089 22091 22093 22095 22097 22099 22101 22103 22105 22107 22109 22111 22113 22115 22117 22119 22121 22123 22125 22127 22129 22131 22133 22135 22137 22139 22141 22143 22145 22147 22149 22151 22153 22155 22157 22159 22161 22163 22165 22167 22169 22171 22173 22175 22177 22179 22181 22183 22185 22187 22189 22191 22193 22195 22197 22199 22201 22203 22205 22207 22209 22211 22213 22215 22217 22219 22221 22223 22225 22227 22229 22231 22233 22235 22237 22239 22241 22243 22245 22247 22249 22251 22253 22255 22257 22259 22261 22263 22265 22267 22269 22271 22273 22275 22277 22279 22281 22283 22285 22287 22289 22291 22293 22295 22297 22299 22301 22303 22305 22307 22309 22311 22313 22315 22317 22319 22321 22323 22325 22327 22329 22331 22333 22335 22337 22339 22341 22343 22345 22347 22349 22351 22353 22355 22357 22359 22361 22363 22365 22367 22369 22371 22373 22375 22377 22379 22381 22383 22385 22387 22389 22391 22393 22395 22397 22399 22401 22403 22405 22407 22409 22411 22413 22415 22417 22419 22421 22423 22425 22427 22429 22431 22433 22435 22437 22439 22441 22443 22445 22447 22449 22451 22453 22455 22457 22459 22461 22463 22465 22467 22469 22471 22473 22475 22477 22479 22481 22483 22485 22487 22489 22491 22493 22495 22497 22499 22501 22503 22505 22507 22509 22511 22513 22515 22517 22519 22521 22523 22525 22527 22529 22531 22533 22535 22537 22539 22541 22543 22545 22547 22549 22551 22553 22555 22557 22559 22561 22563 22565 22567 22569 22571 22573 22575 22577 22579 22581 22583 22585 22587 22589 22591 22593 22595 22597 22599 22601 22603 22605 22607 22609 22611 22613 22615 22617 22619 22621 22623 22625 22627 22629 22631 22633 22635 22637 22639 22641 22643 22645 22647 22649 22651 22653 22655 22657 22659 22661 22663 22665 22667 22669 22671 22673 22675 22677 22679 22681 22683 22685 22687 22689 22691 22693 22695 22697 22699 22701 22703 22705 22707 22709 22711 22713 22715 22717 22719 22721 22723 22725 22727 22729 22731 22733 22735 22737 22739 22741 22743 22745 22747 22749 22751 22753 22755 22757 22759 22761 22763 22765 22767 22769 22771 22773 22775 22777 22779 22781 22783 22785 22787 22789 22791 22793 22795 22797 22799 22801 22803 22805 22807 22809 22811 22813 22815 22817 22819 22821 22823 22825 22827 22829 22831 22833 22835 22837 22839 22841 22843 22845 22847 22849 22851 22853 22855 22857 22859 22861 22863 22865 22867 22869 22871 22873 22875 22877 22879 22881 22883 22885 22887 22889 22891 22893 22895 22897 22899 22901 22903 22905 22907 22909 22911 22913 22915 22917 22919 22921 22923 22925 22927 22929 22931 22933 22935 22937 22939 22941 22943 22945 22947 22949 22951 22953 22955 22957 22959 22961 22963 22965 22967 22969 22971 22973 22975 22977 22979 22981 22983 22985 22987 22989 22991 22993 22995 22997 22999 23001 23003 23005 23007 23009 23011 23013
        </DataArray>
        <DataArray type="Int32" Name="types" FORMAT="ascii">
 5 5 5 5 5 5 5 5 5 5 5 5 5 5 5 5 5 5 5 5 5 5 5 5 5 5 5 5 5 5 5 5 5 5 5 5 5 5 5 5 5 5 5 5 5 5 5 5 5 5 5 5 5 5 5 5 5 5 5 5 5 5 5 5 5 5 5 5 5 5 5 5 5 5 5 5 5 5 5 5 5 5 5 5 5 5 5 5 5 5 5 5 5 5 5 5 5 5 5 5 5 5 5 5 5 5 5 5 5 5 5 5 5 5 5 5 5 5 5 5 5 5 5 5 5 5 5 5 5 5 5 5 5 5 5 5 5 5 5 5 5 5 5 5 5 5 5 5 5 5 5 5 5 5 5 5 5 5 5 5 5 5 5 5 5 5 5 5 5 5 5 5 5 5 5 5 5 5 5 5 5 5 5 5 5 5 5 5 5 5 5 5 5 5 5 5 5 5 5 5 5 5 5 5 5 5 5 5 5 5 5 5 5 5 5 5 5 5 5 5 5 5 5 5 5 5 5 5 5 5 5 5 5 5 5 5 5 5 5 5 5 5 5 5 5 5 5 5 5 5 5 5 5 5 5 5 5 5 5 5 5 5 5 5 5 5 5 5 5 5 5 5 5 5 5 5 5 5 5 5 5 5 5 5 5 5 5 5 5 5 5 5 5 5 5 5 5 5 5 5 5 5 5 5 5 5 5 5 5 5 5 5 5 5 5 5 5 5 5 5 5 5 5 5 5 5 5 5 5 5 5 5 5 5 5 5 5 5 5 5 5 5 5 5 5 5 5 5 5 5 5 5 5 5 5 5 5 5 5 5 5 5 5 5 5 5 5 5 5 5 5 5 5 5 5 5 5 5 5 5 5 5 5 5 5 5 5 5 5 5 5 5 5 5 5 5 5 5 5 5 5 5 5 5 5 5 5 5 5 5 5 5 5 5 5 5 5 5 5 5 5 5 5 5 5 5 5 5 5 5 5 5 5 5 5 5 5 5 5 5 5 5 5 5 5 5 5 5 5 5 5 5 5 5 5 5 5 5 5 5 5 5 5 5 5 5 5 5 5 5 5 5 5 5 5 5 5 5 5 5 5 5 5 5 5 5 5 5 5 5 5 5 5 5 5 5 5 5 5 5 5 5 5 5 5 5 5 5 5 5 5 5 5 5 5 5 5 5 5 5 5 5 5 5 5 5 5 5 5 5 5 5 5 5 5 5 5 5 5 5 5 5 5 5 5 5 5 5 5 5 5 5 5 5 5 5 5 5 5 5 5 5 5 5 5 5 5 5 5 5 5 5 5 5 5 5 5 5 5 5 5 5 5 5 5 5 5 5 5 5 5 5 5 5 5 5 5 5 5 5 5 5 5 5 5 5 5 5 5 5 5 5 5 5 5 5 5 5 5 5 5 5 5 5 5 5 5 5 5 5 5 5 5 5 5 5 5 5 5 5 5 5 5 5 5 5 5 5 5 5 5 5 5 5 5 5 5 5 5 5 5 5 5 5 5 5 5 5 5 5 5 5 5 5 5 5 5 5 5 5 5 5 5 5 5 5 5 5 5 5 5 5 5 5 5 5 5 5 5 5 5 5 5 5 5 5 5 5 5 5 5 5 5 5 5 5 5 5 5 5 5 5 5 5 5 5 5 5 5 5 5 5 5 5 5 5 5 5 5 5 5 5 5 5 5 5 5 5 5 5 5 5 5 5 5 5 5 5 5 5 5 5 5 5 5 5 5 5 5 5 5 5 5 5 5 5 5 5 5 5 5 5 5 5 5 5 5 5 5 5 5 5 5 5 5 5 5 5 5 5 5 5 5 5 5 5 5 5 5 5 5 5 5 5 5 5 5 5 5 5 5 5 5 5 5 5 5 5 5 5 5 5 5 5 5 5 5 5 5 5 5 5 5 5 5 5 5 5 5 5 5 5 5 5 5 5 5 5 5 5 5 5 5 5 5 5 5 5 5 5 5 5 5 5 5 5 5 5 5 5 5 5 5 5 5 5 5 5 5 5 5 5 5 5 5 5 5 5 5 5 5 5 5 5 5 5 5 5 5 5 5 5 5 5 5 5 5 5 5 5 5 5 5 5 5 5 5 5 5 5 5 5 5 5 5 5 5 5 5 5 5 5 5 5 5 5 5 5 5 5 5 5 5 5 5 5 5 5 5 5 5 5 5 5 5 5 5 5 5 5 5 5 5 5 5 5 5 5 5 5 5 5 5 5 5 5 5 5 5 5 5 5 5 5 5 5 5 5 5 5 5 5 5 5 5 5 5 5 5 5 5 5 5 5 5 5 5 5 5 5 5 5 5 5 5 5 5 5 5 5 5 5 5 5 5 5 5 5 5 5 5 5 5 5 5 5 5 5 5 5 5 5 5 5 5 5 5 5 5 5 5 5 5 5 5 5 5 5 5 5 5 5 5 5 5 5 5 5 5 5 5 5 5 5 5 5 5 5 5 5 5 5 5 5 5 5 5 5 5 5 5 5 5 5 5 5 5 5 5 5 5 5 5 5 5 5 5 5 5 5 5 5 5 5 5 5 5 5 5 5 5 5 5 5 5 5 5 5 5 5 5 5 5 5 5 5 5 5 5 5 5 5 5 5 5 5 5 5 5 5 5 5 5 5 5 5 5 5 5 5 5 5 5 5 5 5 5 5 5 5 5 5 5 5 5 5 5 5 5 5 5 5 5 5 5 5 5 5 5 5 5 5 5 5 5 5 5 5 5 5 5 5 5 5 5 5 5 5 5 5 5 5 5 5 5 5 5 5 5 5 5 5 5 5 5 5 5 5 5 5 5 5 5 5 5 5 5 5 5 5 5 5 5 5 5 5 5 5 5 5 5 5 5 5 5 5 5 5 5 5 5 5 5 5 5 5 5 5 5 5 5 5 5 5 5 5 5 5 5 5 5 5 5 5 5 5 5 5 5 5 5 5 5 5 5 5 5 5 5 5 5 5 5 5 5 5 5 5 5 5 5 5 5 5 5 5 5 5 5 5 5 5 5 5 5 5 5 5 5 5 5 5 5 5 5 5 5 5 5 5 5 5 5 5 5 5 5 5 5 5 5 5 5 5 5 5 5 5 5 5 5 5 5 5 5 5 5 5 5 5 5 5 5 5 5 5 5 5 5 5 5 5 5 5 5 5 5 5 5 5 5 5 5 5 5 5 5 5 5 5 5 5 5 5 5 5 5 5 5 5 5 5 5 5 5 5 5 5 5 5 5 5 5 5 5 5 5 5 5 5 5 5 5 5 5 5 5 5 5 5 5 5 5 5 5 5 5 5 5 5 5 5 5 5 5 5 5 5 5 5 5 5 5 5 5 5 5 5 5 5 5 5 5 5 5 5 5 5 5 5 5 5 5 5 5 5 5 5 5 5 5 5 5 5 5 5 5 5 5 5 5 5 5 5 5 5 5 5 5 5 5 5 5 5 5 5 5 5 5 5 5 5 5 5 5 5 5 5 5 5 5 5 5 5 5 5 5 5 5 5 5 5 5 5 5 5 5 5 5 5 5 5 5 5 5 5 5 5 5 5 5 5 5 5 5 5 5 5 5 5 5 5 5 5 5 5 5 5 5 5 5 5 5 5 5 5 5 5 5 5 5 5 5 5 5 5 5 5 5 5 5 5 5 5 5 5 5 5 5 5 5 5 5 5 5 5 5 5 5 5 5 5 5 5 5 5 5 5 5 5 5 5 5 5 5 5 5 5 5 5 5 5 5 5 5 5 5 5 5 5 5 5 5 5 5 5 5 5 5 5 5 5 5 5 5 5 5 5 5 5 5 5 5 5 5 5 5 5 5 5 5 5 5 5 5 5 5 5 5 5 5 5 5 5 5 5 5 5 5 5 5 5 5 5 5 5 5 5 5 5 5 5 5 5 5 5 5 5 5 5 5 5 5 5 5 5 5 5 5 5 5 5 5 5 5 5 5 5 5 5 5 5 5 5 5 5 5 5 5 5 5 5 5 5 5 5 5 5 5 5 5 5 5 5 5 5 5 5 5 5 5 5 5 5 5 5 5 5 5 5 5 5 5 5 5 5 5 5 5 5 5 5 5 5 5 5 5 5 5 5 5 5 5 5 5 5 5 5 5 5 5 5 5 5 5 5 5 5 5 5 5 5 5 5 5 5 5 5 5 5 5 5 5 5 5 5 5 5 5 5 5 5 5 5 5 5 5 5 5 5 5 5 5 5 5 5 5 5 5 5 5 5 5 5 5 5 5 5 5 5 5 5 5 5 5 5 5 5 5 5 5 5 5 5 5 5 5 5 5 5 5 5 5 5 5 5 5 5 5 5 5 5 5 5 5 5 5 5 5 5 5 5 5 5 5 5 5 5 5 5 5 5 5 5 5 5 5 5 5 5 5 5 5 5 5 5 5 5 5 5 5 5 5 5 5 5 5 5 5 5 5 5 5 5 5 5 5 5 5 5 5 5 5 5 5 5 5 5 5 5 5 5 5 5 5 5 5 5 5 5 5 5 5 5 5 5 5 5 5 5 5 5 5 5 5 5 5 5 5 5 5 5 5 5 5 5 5 5 5 5 5 5 5 5 5 5 5 5 5 5 5 5 5 5 5 5 5 5 5 5 5 5 5 5 5 5 5 5 5 5 5 5 5 5 5 5 5 5 5 5 5 5 5 5 5 5 5 5 5 5 5 5 5 5 5 5 5 5 5 5 5 5 5 5 5 5 5 5 5 5 5 5 5 5 5 5 5 5 5 5 5 5 5 5 5 5 5 5 5 5 5 5 5 5 5 5 5 5 5 5 5 5 5 5 5 5 5 5 5 5 5 5 5 5 5 5 5 5 5 5 5 5 5 5 5 5 5 5 5 5 5 5 5 5 5 5 5 5 5 5 5 5 5 5 5 5 5 5 5 5 5 5 5 5 5 5 5 5 5 5 5 5 5 5 5 5 5 5 5 5 5 5 5 5 5 5 5 5 5 5 5 5 5 5 5 5 5 5 5 5 5 5 5 5 5 5 5 5 5 5 5 5 5 5 5 5 5 5 5 5 5 5 5 5 5 5 5 5 5 5 5 5 5 5 5 5 5 5 5 5 5 5 5 5 5 5 5 5 5 5 5 5 5 5 5 5 5 5 5 5 5 5 5 5 5 5 5 5 5 5 5 5 5 5 5 5 5 5 5 5 5 5 5 5 5 5 5 5 5 5 5 5 5 5 5 5 5 5 5 5 5 5 5 5 5 5 5 5 5 5 5 5 5 5 5 5 5 5 5 5 5 5 5 5 5 5 5 5 5 5 5 5 5 5 5 5 5 5 5 5 5 5 5 5 5 5 5 5 5 5 5 5 5 5 5 5 5 5 5 5 5 5 5 5 5 5 5 5 5 5 5 5 5 5 5 5 5 5 5 5 5 5 5 5 5 5 5 5 5 5 5 5 5 5 5 5 5 5 5 5 5 5 5 5 5 5 5 5 5 5 5 5 5 5 5 5 5 5 5 5 5 5 5 5 5 5 5 5 5 5 5 5 5 5 5 5 5 5 5 5 5 5 5 5 5 5 5 5 5 5 5 5 5 5 5 5 5 5 5 5 5 5 5 5 5 5 5 5 5 5 5 5 5 5 5 5 5 5 5 5 5 5 5 5 5 5 5 5 5 5 5 5 5 5 5 5 5 5 5 5 5 5 5 5 5 5 5 5 5 5 5 5 5 5 5 5 5 5 5 5 5 5 5 5 5 5 5 5 5 5 5 5 5 5 5 5 5 5 5 5 5 5 5 5 5 5 5 5 5 5 5 5 5 5 5 5 5 5 5 5 5 5 5 5 5 5 5 5 5 5 5 5 5 5 5 5 5 5 5 5 5 5 5 5 5 5 5 5 5 5 5 5 5 5 5 5 5 5 5 5 5 5 5 5 5 5 5 5 5 5 5 5 5 5 5 5 5 5 5 5 5 5 5 5 5 5 5 5 5 5 5 5 5 5 5 5 5 5 5 5 5 5 5 5 5 5 5 5 5 5 5 5 5 5 5 5 5 5 5 5 5 5 5 5 5 5 5 5 5 5 5 5 5 5 5 5 5 5 5 5 5 5 5 5 5 5 5 5 5 5 5 5 5 5 5 5 5 5 5 5 5 5 5 5 5 5 5 5 5 5 5 5 5 5 5 5 5 5 5 5 5 5 5 5 5 5 5 5 5 5 5 5 5 5 5 5 5 5 5 5 5 5 5 5 5 5 5 5 5 5 5 5 5 5 5 5 5 5 5 5 5 5 5 5 5 5 5 5 5 5 5 5 5 5 5 5 5 5 5 5 5 5 5 5 5 5 5 5 5 5 5 5 5 5 5 5 5 5 5 5 5 5 5 5 5 5 5 5 5 5 5 5 5 5 5 5 5 5 5 5 5 5 5 5 5 5 5 5 5 5 5 5 5 5 5 5 5 5 5 5 5 5 5 5 5 5 5 5 5 5 5 5 5 5 5 5 5 5 5 5 5 5 5 5 5 5 5 5 5 5 5 5 5 5 5 5 5 5 5 5 5 5 5 5 5 5 5 5 5 5 5 5 5 5 5 5 5 5 5 5 5 5 5 5 5 5 5 5 5 5 5 5 5 5 5 5 5 5 5 5 5 5 5 5 5 5 5 5 5 5 5 5 5 5 5 5 5 5 5 5 5 5 5 5 5 5 5 5 5 5 5 5 5 5 5 5 5 5 5 5 5 5 5 5 5 5 5 5 5 5 5 5 5 5 5 5 5 5 5 5 5 5 5 5 5 5 5 5 5 5 5 5 5 5 5 5 5 5 5 5 5 5 5 5 5 5 5 5 5 5 5 5 5 5 5 5 5 5 5 5 5 5 5 5 5 5 5 5 5 5 5 5 5 5 5 5 5 5 5 5 5 5 5 5 5 5 5 5 5 5 5 5 5 5 5 5 5 5 5 5 5 5 5 5 5 5 5 5 5 5 5 5 5 5 5 5 5 5 5 5 5 5 5 5 5 5 5 5 5 5 5 5 5 5 5 5 5 5 5 5 5 5 5 5 5 5 5 5 5 5 5 5 5 5 5 5 5 5 5 5 5 5 5 5 5 5 5 5 5 5 5 5 5 5 5 5 5 5 5 5 5 5 5 5 5 5 5 5 5 5 5 5 5 5 5 5 5 5 5 5 5 5 5 5 5 5 5 5 5 5 5 5 5 5 5 5 5 5 5 5 5 5 5 5 5 5 5 5 5 5 5 5 5 5 5 5 5 5 5 5 5 5 5 5 5 5 5 5 5 5 5 5 5 5 5 5 5 5 5 5 5 5 5 5 5 5 5 5 5 5 5 5 5 5 5 5 5 5 5 5 5 5 5 5 5 5 5 5 5 5 5 5 5 5 5 5 5 5 5 5 5 5 5 5 5 5 5 5 5 5 5 5 5 5 5 5 5 5 5 5 5 5 5 5 5 5 5 5 5 5 5 5 5 5 5 5 5 5 5 5 5 5 5 5 5 5 5 5 5 5 5 5 5 5 5 5 5 5 5 5 5 5 5 5 5 5 5 5 5 5 5 5 5 5 5 5 5 5 5 5 5 5 5 5 5 5 5 5 5 5 5 5 5 5 5 5 5 5 5 5 5 5 5 5 5 5 5 5 5 5 5 5 5 5 5 5 5 5 5 5 5 5 5 5 5 5 5 5 5 5 5 5 5 5 5 5 5 5 5 5 5 5 5 5 5 5 5 5 5 5 5 5 5 5 5 5 5 5 5 5 5 5 5 5 5 5 5 5 5 5 5 5 5 5 5 5 5 5 5 5 5 5 5 5 5 5 5 5 5 5 5 5 5 5 5 5 5 5 5 5 5 5 5 5 5 5 5 5 5 5 5 5 5 5 5 5 5 5 5 5 5 5 5 5 5 5 5 5 5 5 5 5 5 5 5 5 5 5 5 5 5 5 5 5 5 5 5 5 5 5 5 5 5 5 5 5 5 5 5 5 5 5 5 5 5 5 5 5 5 5 5 5 5 5 5 5 5 5 5 5 5 5 5 5 5 5 5 5 5 5 5 5 5 5 5 5 5 5 5 5 5 5 5 5 5 5 5 5 5 5 5 5 5 5 5 5 5 5 5 5 5 5 5 5 5 5 5 5 5 5 5 5 5 5 5 5 5 5 5 5 5 5 5 5 5 5 5 5 5 5 5 5 5 5 5 5 5 5 5 5 5 5 5 5 5 5 5 5 5 5 5 5 5 5 5 5 5 5 5 5 5 5 5 5 5 5 5 5 5 5 5 5 5 5 5 5 5 5 5 5 5 5 5 5 5 5 5 5 5 5 5 5 5 5 5 5 5 5 5 5 5 5 5 5 5 5 5 5 5 5 5 5 5 5 5 5 5 5 5 5 5 5 5 5 5 5 5 5 5 5 5 5 5 5 5 5 5 5 5 5 5 5 5 5 5 5 5 5 5 5 5 5 5 5 5 5 5 5 5 5 5 5 5 5 5 5 5 5 5 5 5 5 5 5 5 5 5 5 5 5 5 5 5 5 5 5 5 5 5 5 5 5 5 5 5 5 5 5 5 5 5 5 5 5 5 5 5 5 5 5 5 5 5 5 5 5 5 5 5 5 5 5 5 5 5 5 5 5 5 5 5 5 5 5 5 5 5 5 5 5 5 5 5 5 5 5 5 5 5 5 5 5 5 5 5 5 5 5 5 5 5 5 5 5 5 5 5 5 5 5 5 5 5 5 5 5 5 5 5 5 5 5 5 5 5 5 5 5 5 5 5 5 5 5 5 5 5 5 5 5 5 5 5 5 5 5 5 5 5 5 5 5 5 5 5 5 5 5 5 5 5 5 5 5 5 5 5 5 5 5 5 5 5 5 5 5 5 5 5 5 5 5 5 5 5 5 5 5 5 5 5 5 5 5 5 5 5 5 5 5 5 5 5 5 5 5 5 5 5 5 5 5 5 5 5 5 5 5 5 5 5 5 5 5 5 5 5 5 5 5 5 5 5 5 5 5 5 5 5 5 5 5 5 5 5 5 5 5 5 5 5 5 5 5 5 5 5 5 5 5 5 5 5 5 5 5 5 5 5 5 5 5 5 5 5 5 5 5 5 5 5 5 5 5 5 5 5 5 5 5 5 5 5 5 5 5 5 5 5 5 5 5 5 5 5 5 5 5 5 5 5 5 5 5 5 5 5 5 5 5 5 5 5 5 5 5 5 5 5 5 5 5 5 5 5 5 5 5 5 5 5 5 5 5 5 5 5 5 5 5 5 5 5 5 5 5 5 5 5 5 5 5 5 5 5 5 5 5 5 5 5 5 5 5 5 5 5 5 5 5 5 5 5 5 5 5 5 5 5 5 5 5 5 5 5 5 5 5 5 5 5 5 5 5 5 5 5 5 5 5 5 5 5 5 5 5 5 5 5 5 5 5 5 5 5 5 5 5 5 5 5 5 5 5 5 5 5 5 5 5 5 5 5 5 5 5 5 5 5 5 5 5 5 5 5 5 5 5 5 5 5 5 5 5 5 5 5 5 5 5 5 5 5 5 5 5 5 5 5 5 5 5 5 5 5 5 5 5 5 5 5 5 5 5 5 5 5 5 5 5 5 5 5 5 5 5 5 5 5 5 5 5 5 5 5 5 5 5 5 5 5 5 5 5 5 5 5 5 5 5 5 5 5 5 5 5 5 5 5 5 5 5 5 5 5 5 5 5 5 5 5 5 5 5 5 5 5 5 5 5 5 5 5 5 5 5 5 5 5 5 5 5 5 5 5 5 5 5 5 5 5 5 5 5 5 5 5 5 5 5 5 5 5 5 5 5 5 5 5 5 5 5 5 5 5 5 5 5 5 5 5 5 5 5 5 5 5 5 5 5 5 5 5 5 5 5 5 5 5 5 5 5 5 5 5 5 5 5 5 5 5 5 5 5 5 5 5 5 5 5 5 5 5 5 5 5 5 5 5 5 5 5 5 5 5 5 5 5 5 5 5 5 5 5 5 5 5 5 5 5 5 5 5 5 5 5 5 5 5 5 5 5 5 5 5 5 5 5 5 5 5 5 5 5 5 5 5 5 5 5 5 5 5 5 5 5 5 5 5 5 5 5 5 5 5 5 5 5 5 5 5 5 5 5 5 5 5 5 5 5 5 5 5 5 5 5 5 5 5 5 5 5 5 5 5 5 5 5 5 5 5 5 5 5 5 5 5 5 5 5 5 5 5 5 5 5 5 5 5 5 5 5 5 5 5 5 5 5 5 5 5 5 5 5 5 5 5 5 5 5 5 5 5 5 5 5 5 5 5 5 5 5 5 5 5 5 5 5 5 5 5 5 5 5 5 5 5 5 5 5 5 5 5 5 5 5 5 5 5 5 5 5 5 5 5 5 5 5 5 5 5 5 5 5 5 5 5 5 5 5 5 5 5 5 5 5 5 5 5 5 5 5 5 5 5 5 5 5 5 5 5 5 5 5 5 5 5 5 5 5 5 5 5 5 5 5 5 5 5 5 5 5 5 5 5 5 5 5 5 5 5 5 5 5 5 5 5 5 5 5 5 5 5 5 5 5 5 5 5 5 5 5 5 5 5 5 5 5 5 5 5 5 5 5 5 5 5 5 5 5 5 5 5 5 5 5 5 5 5 5 5 5 5 5 5 5 5 5 5 5 5 5 5 5 5 5 5 5 5 5 5 5 5 5 5 5 5 5 5 5 5 5 5 5 5 5 5 5 5 5 5 5 5 5 5 5 5 5 5 5 5 5 5 5 5 5 5 5 5 5 5 5 5 5 5 5 5 5 5 5 5 5 5 5 5 5 5 5 5 5 5 5 5 5 5 5 5 5 5 5 5 5 5 5 5 5 5 5 5 5 5 5 5 5 5 5 5 5 5 5 5 5 5 5 5 5 5 5 5 5 5 5 5 5 5 5 5 5 5 5 5 5 5 5 5 5 5 5 5 5 5 5 5 5 5 5 5 5 5 5 5 5 5 5 5 5 5 5 5 5 5 5 5 5 5 5 5 5 5 5 5 5 5 5 5 5 5 5 5 5 5 5 5 5 5 5 5 5 5 5 5 5 5 5 5 5 5 5 5 5 5 5 5 5 5 5 5 5 5 5 5 5 5 5 5 5 5 5 5 5 5 5 5 5 5 5 5 5 5 5 5 5 5 5 5 5 5 5 5 5 5 5 5 5 5 5 5 5 5 5 5 5 5 5 5 5 5 5 5 5 5 5 5 5 5 5 5 5 5 5 5 5 5 5 5 5 5 5 5 5 5 5 5 5 5 5 5 5 5 5 5 5 5 5 5 5 5 5 5 5 5 5 5 5 5 5 5 5 5 5 5 5 5 5 5 5 5 5 5 5 5 5 5 5 5 5 5 5 5 5 5 5 5 5 5 5 5 5 5 5 5 5 5 5 5 5 5 5 5 5 5 5 5 5 5 5 5 5 5 5 5 5 5 5 5 5 5 5 5 5 5 5 5 5 5 5 5 5 5 5 5 5 5 5 5 5 5 5 5 5 5 5 5 5 5 5 5 5 5 5 5 5 5 5 5 5 5 5 5 5 5 5 5 5 5 5 5 5 5 5 5 5 5 5 5 5 5 5 5 5 5 5 5 5 5 5 5 5 5 5 5 5 5 5 5 5 5 5 5 5 5 5 5 5 5 5 5 5 5 5 5 5 5 5 5 5 5 5 5 5 5 5 5 5 5 5 5 5 5 5 5 5 5 5 5 5 5 5 5 5 5 5 5 5 5 5 5 5 5 5 5 5 5 5 5 5 5 5 5 5 5 5 5 5 5 5 5 5 5 5 5 5 5 5 5 5 5 5 5 5 5 5 5 5 5 5 5 5 5 5 5 5 5 5 5 5 5 5 5 5 5 5 5 5 5 5 5 5 5 5 5 5 5 5 5 5 5 5 5 5 5 5 5 5 5 5 5 5 5 5 5 5 5 5 5 5 5 5 5 5 5 5 5 5 5 5 5 5 5 5 5 5 5 5 5 5 5 5 5 5 5 5 5 5 5 5 5 5 5 5 5 5 5 5 5 5 5 5 5 5 5 5 5 5 5 5 5 5 5 5 5 5 5 5 5 5 5 5 5 5 5 5 5 5 5 5 5 5 5 5 5 5 5 5 5 5 5 5 5 5 5 5 5 5 5 5 5 5 5 5 5 5 5 5 5 5 5 5 5 5 5 5 5 5 5 5 5 5 5 5 5 5 5 5 5 5 5 5 5 5 5 5 5 5 5 5 5 5 5 5 5 5 5 5 5 5 5 5 5 5 5 5 5 5 5 5 5 5 5 5 5 5 5 5 5 5 5 5 5 5 5 5 5 5 5 5 5 5 5 5 5 5 5 5 5 5 5 5 5 5 5 5 5 5 5 5 5 5 5 5 5 5 5 5 5 5 5 5 5 5 5 5 5 5 5 5 5 5 5 5 5 5 5 5 5 5 5 5 5 5 5 5 5 5 5 5 5 5 5 5 5 5 5 5 5 5 5 5 5 5 5 5 5 5 5 5 5 5 5 5 5 5 5 5 5 5 5 5 5 5 5 5 5 5 5 5 5 5 5 5 5 5 5 5 5 5 5 5 5 5 5 5 5 5 5 5 5 5 5 5 5 5 5 5 5 5 5 5 5 5 5 5 5 5 5 5 5 5 5 5 5 5 5 5 5 5 5 5 5 5 5 5 5 5 5 5 5 5 5 5 5 5 5 5 5 5 5 5 5 5 5 5 5 5 5 5 5 5 5 5 5 5 5 5 5 5 5 5 5 5 5 5 5 5 5 5 5 5 5 5 5 5 5 5 5 5 5 5 5 5 5 5 5 5 5 5 5 5 5 5 5 5 5 5 5 5 5 5 5 5 5 5 5 5 5 5 5 5 5 5 5 5 5 5 5 5 5 5 5 5 5 5 5 5 5 5 5 5 5 5 5 5 5 5 5 5 5 5 5 5 5 5 5 5 5 5 5 5 5 5 5 5 5 5 5 5 5 5 5 5 5 5 5 5 5 5 5 5 5 5 5 5 5 5 5 5 5 5 5 5 5 5 5 5 5 5 5 5 5 5 5 5 5 5 5 5 5 5 5 5 5 5 5 5 5 5 5 5 5 5 5 5 5 5 5 5 5 5 5 5 5 5 5 5 5 5 5 5 5 5 5 5 5 5 5 5 5 5 5 5 5 5 5 5 5 5 5 5 5 5 5 5 5 5 5 5 5 5 5 5 5 5 5 5 5 5 5 5 5 5 5 5 5 5 5 5 5 5 5 5 5 5 5 5 5 5 5 5 5 5 5 5 5 5 5 5 5 5 5 5 5 5 5 5 5 5 5 5 5 5 5 5 5 5 5 5 5 5 5 5 5 5 5 5 5 5 5 5 5 5 5 5 5 5 5 5 5 5 5 5 5 5 5 5 5 5 5 5 5 5 5 5 5 5 5 5 5 5 5 5 5 5 5 5 5 5 5 5 5 5 5 5 5 5 5 5 5 5 5 5 5 5 5 5 5 5 5 5 5 5 5 5 5 5 5 5 5 5 5 5 5 5 5 5 5 5 5 5 5 5 5 5 5 5 5 5 5 5 5 5 5 5 5 5 5 5 5 5 5 5 5 5 5 5 5 5 5 5 5 5 5 5 5 5 5 5 5 5 5 5 5 5 5 5 5 5 5 5 5 5 5 5 5 5 5 5 5 5 5 5 5 5 5 5 5 5 5 5 5 5 5 5 5 5 5 5 5 5 5 5 5 5 5 5 5 5 5 5 5 5 5 5 5 5 5 5 5 5 5 5 5 5 5 5 5 5 5 5 5 5 5 5 5 5 5 5 5 5 5 5 5 5 5 5 5 5 5 5 5 5 5 5 5 5 5 5 5 5 5 5 5 5 5 5 5 5 5 5 5 5 5 5 5 5 5 5 5 5 5 5 5 5 5 5 5 5 5 5 5 5 5 5 5 5 5 5 5 5 5 5 5 5 5 5 5 5 5 5 5 5 5 5 5 5 5 5 5 5 5 5 5 5 5 5 5 5 5 5 5 5 5 5 5 5 5 5 5 5 5 5 5 5 5 5 5 5 5 5 5 5 5 5 5 5 5 5 5 5 5 5 5 5 5 5 5 5 5 5 5 5 5 5 5 5 5 5 5 5 5 5 5 5 5 5 5 5 5 5 5 5 5 5 5 5 5 5 5 5 5 5 5 5 5 5 5 5 5 5 5 5 5 5 5 5 5 5 5 5 5 5 5 5 5 5 5 5 5 5 5 5 5 5 5 5 5 5 5 5 5 5 5 5 5 5 5 5 5 5 5 5 5 5 5 5 5 5 5 5 5 5 5 5 5 5 5 5 5 5 5 5 5 5 5 5 5 5 5 5 5 5 5 5 5 5 5 5 5 5 5 5 5 5 5 5 5 5 5 5 5 5 5 5 5 5 5 5 5 5 5 5 5 5 5 5 5 5 5 5 5 5 5 5 5 5 5 5 5 5 5 5 5 5 5 5 5 5 5 5 5 5 5 5 5 5 5 5 5 5 5 5 5 5 5 5 5 5 5 5 5 5 5 5 5 5 5 5 5 5 5 5 5 5 5 5 5 5 5 5 5 5 5 5 5 5 5 5 5 5 5 5 5 5 5 5 5 5 5 5 5 5 5 5 5 5 5 5 5 5 5 5 5 5 5 5 5 5 5 5 5 5 5 5 5 5 5 5 5 5 5 5 5 5 5 5 5 5 5 5 5 5 5 5 5 5 5 5 5 5 5 5 5 5 5 5 5 5 5 5 5 5 5 5 5 5 5 5 5 5 5 5 5 5 5 5 5 5 5 5 5 5 5 5 5 5 5 5 5 5 5 5 5 5 5 5 5 5 5 5 5 5 5 5 5 5 5 5 5 5 5 5 5 5 5 5 5 5 5 5 5 5 5 5 5 5 5 5 5 5 5 5 5 5 5 5 5 5 5 5 5 5 5 5 5 5 5 5 5 5 5 5 5 5 5 5 5 5 5 5 5 5 5 5 5 5 5 5 5 5 5 5 5 5 5 5 5 5 5 5 5 5 5 5 5 5 5 5 5 5 5 5 5 5 5 5 5 5 5 5 5 5 5 5 5 5 5 5 5 5 5 5 5 5 5 5 5 5 5 5 5 5 5 5 5 5 5 5 5 5 5 5 5 5 5 5 5 5 5 5 5 5 5 5 5 5 5 5 5 5 5 5 5 5 5 5 5 5 5 5 5 5 5 5 5 5 5 5 5 5 5 5 5 5 5 5 5 5 5 5 5 5 5 5 5 5 5 5 5 5 5 5 5 5 5 5 5 5 5 5 5 5 5 5 5 5 5 5 5 5 5 5 5 5 5 5 5 5 5 5 5 5 5 5 5 5 5 5 5 5 5 5 5 5 5 5 5 5 5 5 5 5 5 5 5 5 5 5 5 5 5 5 5 5 5 5 5 5 5 5 5 5 5 5 5 5 5 5 5 5 5 5 5 5 5 5 5 5 5 5 5 5 5 5 5 5 5 5 5 5 5 5 5 5 5 5 5 5 5 5 5 5 5 5 5 5 5 5 5 5 5 5 5 5 5 5 5 5 5 5 5 5 5 5 5 5 5 5 5 5 5 5 5 5 5 5 5 5 5 5 5 5 5 5 5 5 5 5 5 5 5 5 5 5 5 5 5 5 5 5 5 5 5 5 5 5 5 5 5 5 5 5 5 5 5 5 5 5 5 5 5 5 5 5 5 5 5 5 5 5 5 5 5 5 5 5 5 5 5 5 5 5 5 5 5 5 5 5 5 5 5 5 5 5 5 5 5 5 5 5 5 5 5 5 5 5 5 5 5 5 5 5 5 5 5 5 5 5 5 5 5 5 5 5 5 5 5 5 5 5 5 5 5 5 5 5 5 5 5 5 5 5 5 5 5 5 5 5 5 5 5 5 5 5 5 5 5 5 5 5 5 5 5 5 5 5 5 5 5 5 5 5 5 5 5 5 5 5 5 5 5 5 5 5 5 5 5 5 5 5 5 5 5 5 5 5 5 5 5 5 5 5 5 5 5 5 5 5 5 5 5 5 5 5 5 5 5 5 5 5 5 5 5 5 5 5 5 5 5 5 5 5 5 5 5 5 5 5 5 5 5 5 5 5 5 5 5 5 5 5 5 5 5 5 5 5 5 5 5 5 5 5 5 5 5 5 5 5 5 5 5 5 5 5 5 5 5 5 5 5 5 5 5 5 5 5 5 5 5 5 5 5 5 5 5 5 5 5 5 5 5 5 5 5 5 5 5 5 5 5 5 5 5 5 5 5 5 5 5 5 5 5 5 5 5 5 5 5 5 5 5 5 5 5 5 5 5 5 5 5 5 5 5 5 5 5 5 5 5 5 5 5 5 5 5 3 3 3 3 3 3 3 3 3 3 3 3 3 3 3 3 3 3 3 3 3 3 3 3 3 3 3 3 3 3 3 3 3 3 3 3 3 3 3 3 3 3 3 3 3 3 3 3 3 3 3 3 3 3 3 3 3 3 3 3 3 3 3 3 3 3 3 3 3 3 3 3 3 3 3 3 3 3 3 3 3 3 3 3 3 3 3 3 3 3 3 3 3 3 3 3 3 3 3 3 3 3 3 3 3 3 3 3 3 3 3 3 3 3 3 3 3 3 3 3 3 3 3 3 3 3 3 3 3 3 3 3 3 3 3 3 3 3 3 3 3 3 3 3 3 3 3 3 3 3 3 3 3 3 3 3 3 3 3 3 3 3 3 3 3 3 3 3 3 3 3 3 3 3 3 3 3 3 3 3 3 3 3 3 3 3 3 3 3 3 3 3 3 3 3 3 3 3 3 3 3 3 3 3 3 3 3 3 3 3 3 3 3 3 3 3 3 3 3 3 3 3 3 3 3 3 3 3 3 3 3 3 3 3 3 3 3 3 3 3 3 3 3 3 3 3 3 3 3 3 3 3 3 3 3 3 3 3 3 3 3 3 3 3 3 3 3 3 3 3 3 3 3 3 3 3 3 3 3 3 3 3 3 3 3 3 3 3 3 3 3 3 3 3 3 3 3 3 3 3 3 3 3 3 3 3 3 3 3 3 3 3 3 3 3 3 3 3 3 3 3 3 3 3 3 3 3 3 3 3 3 3 3 3 3 3 3 3 3 3 3 3 3 3 3 3 3 3 3 3 3 3 3 3 3 3 3 3 3 3 3 3 3 3 3 3 3 3 3 3 3 3 3 3 3 3 3 3 3 3 3 3 3 3 3 3 3 3 3 3 3 3 3 3 3 3 3 3 3 3 3 3 3 3 3 3 3 3 3 3 3 3 3 3 3 3 3 3 3 3 3 3 3 3 3 3 3 3 3 3 3 3 3 3 3 3 3 3 3 3 3 3 3 3 3 3 3 3 3 3 3 3 3 3 3 3 3 3 3 3 3 3 3 3 3 3 3 3 3 3 3 3 3 3 3 3 3 3 3 3 3 3 3 3 3 3 3 3 3 3 3 3 3 3 3 3 3 3 3 3 3 3 3 3 3 3 3 3 3 3 3 3 3 3 3 3 3 3 3 3 3 3 3 3 3 3 3 3 3 3 3 3 3 3 3 3 3 3 3 3 3 3 3 3 3 3 3 3 3 3 3 3 3 3 3 3 3 3 3 3 3 3 3 3 3 3 3 3 3 3 3 3 3 3 3 3 3 3 3 3 3 3 3 3 3 3 3 3 3 3 3 3 3 3 3 3 3 3 3 3 3 3 3 3 3 3 3 3 3 3 3 3
        </DataArray>
      </Cells>
    </Piece>
  </UnstructuredGrid>
</VTKFile>
